<?xml version="1.0"?>
<VTKFile type="UnstructuredGrid" version="0.1" byte_order="LittleEndian">
<UnstructuredGrid>
<Piece NumberOfPoints="30618" NumberOfCells="10744">
<Points>
<DataArray type="Float64" NumberOfComponents="3" format="ascii">
-0.49427958746526202 -0.49999999999999512 0 -0.4943900888896422 -0.47349089190363358 0 -0.49427958746526202 -0.49999999999999512 0 -0.5 -0.5 0 -0.4943900888896422 -0.47349089190363358 0 -0.5 -0.5 0 -0.4943900888896422 -0.47349089190363358 0 -0.5 -0.44150235328842258 0 -0.49427958746526202 -0.49999999999999512 0 -0.4943900888896422 -0.47349089190363358 0 -0.48436842240857858 -0.48714093788813112 0 -0.49427958746526202 -0.49999999999999512 0 -0.47650045540741742 -0.5 0 -0.48436842240857858 -0.48714093788813112 0 -0.4943900888896422 -0.47349089190363358 0 -0.47066899942757451 -0.47576530412887819 0 -0.48436842240857858 -0.48714093788813112 0 -0.47066899942757451 -0.47576530412887819 0 -0.47650045540741742 -0.5 0 -0.48436842240857858 -0.48714093788813112 0 -0.47066899942757451 -0.47576530412887819 0 -0.45872132334957288 -0.49999999999999928 0 -0.45242967983978871 -0.4846708604340636 0 -0.47066899942757451 -0.47576530412887819 0 -0.47650045540741742 -0.5 0 -0.45872132334957288 -0.49999999999999928 0 -0.47066899942757451 -0.47576530412887819 0 -0.45872132334957288 -0.49999999999999928 0 -0.47066899942757451 -0.47576530412887819 0 -0.45242967983978871 -0.4846708604340636 0 -0.45249717469141032 -0.46588444847215849 0 -0.43763952177061649 -0.47770500498713542 0 -0.45242967983978871 -0.4846708604340636 0 -0.45249717469141032 -0.46588444847215849 0 -0.43763952177061649 -0.47770500498713542 0 -0.44291044788006362 -0.49999999999999939 0 -0.45242967983978871 -0.4846708604340636 0 -0.43763952177061649 -0.47770500498713542 0 -0.44291044788006362 -0.49999999999999939 0 -0.45872132334957288 -0.49999999999999928 0 -0.44291044788006362 -0.49999999999999939 0 -0.45242967983978871 -0.4846708604340636 0 -0.44838221886832419 -0.4464230337388379 0 -0.4323685956611692 -0.45541000997427139 0 -0.435988539966085 -0.44148905847597392 0 -0.44838221886832419 -0.4464230337388379 0 -0.44213238819953832 -0.43491600865963681 0 -0.435988539966085 -0.44148905847597392 0 -0.44838221886832419 -0.4464230337388379 0 -0.45249717469141032 -0.46588444847215849 0 -0.45755175660874181 -0.45423607616472811 0 -0.44838221886832419 -0.4464230337388379 0 -0.45249717469141032 -0.46588444847215849 0 -0.4323685956611692 -0.45541000997427139 0 -0.43763952177061649 -0.47770500498713542 0 -0.45249717469141032 -0.46588444847215849 0 -0.4323685956611692 -0.45541000997427139 0 -0.47066899942757451 -0.47576530412887819 0 -0.45249717469141032 -0.46588444847215849 0 -0.4675747862741928 -0.45726336772241771 0 -0.45249717469141032 -0.46588444847215849 0 -0.45755175660874181 -0.45423607616472811 0 -0.4675747862741928 -0.45726336772241771 0 -0.44838221886832419 -0.4464230337388379 0 -0.46897642374787268 -0.44262015471777721 0 -0.45660235518767722 -0.42786105997071933 0 -0.44838221886832419 -0.4464230337388379 0 -0.45755175660874181 -0.45423607616472811 0 -0.46897642374787268 -0.44262015471777721 0 -0.45755175660874181 -0.45423607616472811 0 -0.4675747862741928 -0.45726336772241771 0 -0.46897642374787268 -0.44262015471777721 0 -0.4943900888896422 -0.47349089190363358 0 -0.5 -0.44150235328842258 0 -0.49450059031402238 -0.44698178380727199 0 -0.46897642374787268 -0.44262015471777721 0 -0.48473746643246862 -0.43972512984246093 0 -0.48043585850414389 -0.43127077967876992 0 -0.46897642374787268 -0.44262015471777721 0 -0.4826166755055763 -0.45153060825775743 0 -0.48473746643246862 -0.43972512984246093 0 -0.4675747862741928 -0.45726336772241771 0 -0.46897642374787268 -0.44262015471777721 0 -0.4826166755055763 -0.45153060825775743 0 -0.47066899942757451 -0.47576530412887819 0 -0.4826166755055763 -0.45153060825775743 0 -0.4943900888896422 -0.47349089190363358 0 -0.47066899942757451 -0.47576530412887819 0 -0.4826166755055763 -0.45153060825775743 0 -0.47066899942757451 -0.47576530412887819 0 -0.4675747862741928 -0.45726336772241771 0 -0.4826166755055763 -0.45153060825775743 0 -0.4943900888896422 -0.47349089190363358 0 -0.49450059031402238 -0.44698178380727199 0 -0.4943900888896422 -0.47349089190363358 0 -0.4826166755055763 -0.45153060825775743 0 -0.49450059031402238 -0.44698178380727199 0 -0.4826166755055763 -0.45153060825775743 0 -0.48473746643246862 -0.43972512984246093 0 -0.49450059031402238 -0.44698178380727199 0 -0.5 -0.44150235328842258 0 -0.49461109173840262 -0.42047267571091063 0 -0.5 -0.39656953661894012 0 -0.49450059031402238 -0.44698178380727199 0 -0.49461109173840262 -0.42047267571091063 0 -0.48473746643246862 -0.43972512984246093 0 -0.49461109173840262 -0.42047267571091063 0 -0.48043585850414389 -0.43127077967876992 0 -0.5 -0.44150235328842258 0 -0.49450059031402238 -0.44698178380727199 0 -0.49461109173840262 -0.42047267571091063 0 -0.48473746643246862 -0.43972512984246093 0 -0.49450059031402238 -0.44698178380727199 0 -0.49461109173840262 -0.42047267571091063 0 -0.49461109173840262 -0.42047267571091063 0 -0.4947215931627828 -0.39396356761454909 0 -0.49461109173840262 -0.42047267571091063 0 -0.48393842445605872 -0.40713040098299402 0 -0.4947215931627828 -0.39396356761454909 0 -0.49461109173840262 -0.42047267571091063 0 -0.48393842445605872 -0.40713040098299402 0 -0.47214510592166908 -0.41939033492402211 0 -0.48393842445605872 -0.40713040098299402 0 -0.47214510592166908 -0.41939033492402211 0 -0.47427590700138023 -0.39469502568249409 0 -0.46897642374787268 -0.44262015471777721 0 -0.47214510592166908 -0.41939033492402211 0 -0.48043585850414389 -0.43127077967876992 0 -0.49461109173840262 -0.42047267571091063 0 -0.47214510592166908 -0.41939033492402211 0 -0.48043585850414389 -0.43127077967876992 0 -0.5 -0.39656953661894012 0 -0.4947215931627828 -0.39396356761454909 0 -0.48030453056746109 -0.36861144308094029 0 -0.49461109173840262 -0.42047267571091063 0 -0.5 -0.39656953661894012 0 -0.4947215931627828 -0.39396356761454909 0 -0.48393842445605872 -0.40713040098299402 0 -0.4947215931627828 -0.39396356761454909 0 -0.47427590700138023 -0.39469502568249409 0 -0.47427590700138023 -0.39469502568249409 0 -0.48030453056746109 -0.36861144308094029 0 -0.4947215931627828 -0.39396356761454909 0 -0.47427590700138023 -0.39469502568249409 0 -0.48030453056746109 -0.36861144308094029 0 -0.47427590700138023 -0.39469502568249409 0 -0.46334377193483078 -0.37842983215876019 0 -0.48030453056746109 -0.36861144308094029 0 -0.46334377193483078 -0.37842983215876019 0 -0.45726543839001688 -0.40541672899881109 0 -0.44416021803808919 -0.38243724496113263 0 -0.47427590700138023 -0.39469502568249409 0 -0.46334377193483078 -0.37842983215876019 0 -0.45726543839001688 -0.40541672899881109 0 -0.45726543839001688 -0.40541672899881109 0 -0.43814282409564848 -0.40387353522152758 0 -0.44416021803808919 -0.38243724496113263 0 -0.43814282409564848 -0.40387353522152758 0 -0.44416021803808919 -0.38243724496113263 0 -0.4329908326547659 -0.40007252460533121 0 -0.43814282409564848 -0.40387353522152758 0 -0.44416021803808919 -0.38243724496113263 0 -0.46897642374787268 -0.44262015471777721 0 -0.47214510592166908 -0.41939033492402211 0 -0.45660235518767722 -0.42786105997071933 0 -0.47214510592166908 -0.41939033492402211 0 -0.47427590700138023 -0.39469502568249409 0 -0.45726543839001688 -0.40541672899881109 0 -0.47214510592166908 -0.41939033492402211 0 -0.45726543839001688 -0.40541672899881109 0 -0.45660235518767722 -0.42786105997071933 0 -0.45726543839001688 -0.40541672899881109 0 -0.45660235518767722 -0.42786105997071933 0 -0.44309263043645408 -0.41812298423377797 0 -0.45726543839001688 -0.40541672899881109 0 -0.43814282409564848 -0.40387353522152758 0 -0.44309263043645408 -0.41812298423377797 0 -0.43814282409564848 -0.40387353522152758 0 -0.44309263043645408 -0.41812298423377797 0 -0.43209373842114163 -0.42530092927673752 0 -0.44838221886832419 -0.4464230337388379 0 -0.45660235518767722 -0.42786105997071933 0 -0.44213238819953832 -0.43491600865963681 0 -0.45660235518767722 -0.42786105997071933 0 -0.44213238819953832 -0.43491600865963681 0 -0.43132710435572019 -0.42815377149591122 0 -0.45660235518767722 -0.42786105997071933 0 -0.44309263043645408 -0.41812298423377797 0 -0.43132710435572019 -0.42815377149591122 0 -0.45660235518767722 -0.42786105997071933 0 -0.43132710435572019 -0.42815377149591122 0 -0.44213238819953832 -0.43491600865963681 0 -0.42986244815509678 -0.43337144475258638 0 -0.435988539966085 -0.44148905847597392 0 -0.44213238819953832 -0.43491600865963681 0 -0.42986244815509678 -0.43337144475258638 0 -0.43132710435572019 -0.42815377149591122 0 -0.42986244815509678 -0.43337144475258638 0 -0.43132710435572019 -0.42815377149591122 0 -0.42986244815509678 -0.43337144475258638 0 -0.42494843276815808 -0.42822764260015772 0 -0.42026026496879931 -0.43681168621285732 0 -0.42986244815509678 -0.43337144475258638 0 -0.42494843276815808 -0.42822764260015772 0 -0.43132710435572019 -0.42815377149591122 0 -0.42494843276815808 -0.42822764260015772 0 -0.43209373842114163 -0.42530092927673752 0 -0.42214799869492048 -0.41876725226122891 0 -0.42494843276815808 -0.42822764260015772 0 -0.43209373842114163 -0.42530092927673752 0 -0.42494843276815808 -0.42822764260015772 0 -0.43209373842114163 -0.42530092927673752 0 -0.43132710435572019 -0.42815377149591122 0 -0.42494843276815808 -0.42822764260015772 0 -0.43132710435572019 -0.42815377149591122 0 -0.44309263043645408 -0.41812298423377797 0 -0.43209373842114163 -0.42530092927673752 0 -0.43132710435572019 -0.42815377149591122 0 -0.43209373842114163 -0.42530092927673752 0 -0.43132710435572019 -0.42815377149591122 0 -0.43814282409564848 -0.40387353522152758 0 -0.43209373842114163 -0.42530092927673752 0 -0.43814282409564848 -0.40387353522152758 0 -0.43209373842114163 -0.42530092927673752 0 -0.42736227186559528 -0.41250939947999687 0 -0.43814282409564848 -0.40387353522152758 0 -0.42736227186559528 -0.41250939947999687 0 -0.42798743510346321 -0.40461924019690898 0 -0.42736227186559528 -0.41250939947999687 0 -0.42214799869492048 -0.41876725226122891 0 -0.41643936301280282 -0.409986040443582 0 -0.42736227186559528 -0.41250939947999687 0 -0.41643936301280282 -0.409986040443582 0 -0.42798743510346321 -0.40461924019690898 0 -0.43209373842114163 -0.42530092927673752 0 -0.42736227186559528 -0.41250939947999687 0 -0.42214799869492048 -0.41876725226122891 0 -0.41643936301280282 -0.409986040443582 0 -0.41319678457753078 -0.41966526467231158 0 -0.40068754056194861 -0.4128492080837643 0 -0.41643936301280282 -0.409986040443582 0 -0.40443020735863072 -0.40194112054031811 0 -0.40068754056194861 -0.4128492080837643 0 -0.42214799869492048 -0.41876725226122891 0 -0.41643936301280282 -0.409986040443582 0 -0.41319678457753078 -0.41966526467231158 0 -0.42494843276815808 -0.42822764260015772 0 -0.42026026496879931 -0.43681168621285732 0 -0.40375973713816599 -0.43690652084804732 0 -0.42494843276815808 -0.42822764260015772 0 -0.40375973713816599 -0.43690652084804732 0 -0.42494843276815808 -0.42822764260015772 0 -0.40375973713816599 -0.43690652084804732 0 -0.40176058784982421 -0.42849617997282502 0 -0.42494843276815808 -0.42822764260015772 0 -0.40176058784982421 -0.42849617997282502 0 -0.42494843276815808 -0.42822764260015772 0 -0.41319678457753078 -0.41966526467231158 0 -0.40176058784982421 -0.42849617997282502 0 -0.42494843276815808 -0.42822764260015772 0 -0.42214799869492048 -0.41876725226122891 0 -0.41319678457753078 -0.41966526467231158 0 -0.4329908326547659 -0.40007252460533121 0 -0.41903857325144328 -0.37691094697715488 0 -0.4329908326547659 -0.40007252460533121 0 -0.4179168883199279 -0.39116430956604842 0 -0.41903857325144328 -0.37691094697715488 0 -0.4326994291400702 -0.38209416684564063 0 -0.4329908326547659 -0.40007252460533121 0 -0.41903857325144328 -0.37691094697715488 0 -0.44416021803808919 -0.38243724496113263 0 -0.4326994291400702 -0.38209416684564063 0 -0.4329908326547659 -0.40007252460533121 0 -0.4326994291400702 -0.38209416684564063 0 -0.41903857325144328 -0.37691094697715488 0 -0.43460809261598232 -0.36895595083894339 0 -0.44416021803808919 -0.38243724496113263 0 -0.4326994291400702 -0.38209416684564063 0 -0.43460809261598232 -0.36895595083894339 0 -0.4329908326547659 -0.40007252460533121 0 -0.42169055226689678 -0.40123550737599678 0 -0.4179168883199279 -0.39116430956604842 0 -0.43814282409564848 -0.40387353522152758 0 -0.4329908326547659 -0.40007252460533121 0 -0.42798743510346321 -0.40461924019690898 0 -0.4329908326547659 -0.40007252460533121 0 -0.42798743510346321 -0.40461924019690898 0 -0.42169055226689678 -0.40123550737599678 0 -0.41643936301280282 -0.409986040443582 0 -0.42798743510346321 -0.40461924019690898 0 -0.42169055226689678 -0.40123550737599678 0 -0.40637138740796802 -0.39517449182144659 0 -0.4179168883199279 -0.39116430956604842 0 -0.40139199175968793 -0.38592718468705428 0 -0.41643936301280282 -0.409986040443582 0 -0.42169055226689678 -0.40123550737599678 0 -0.41336967967324528 -0.3999002939494784 0 -0.41643936301280282 -0.409986040443582 0 -0.41336967967324528 -0.3999002939494784 0 -0.40443020735863072 -0.40194112054031811 0 -0.41336967967324528 -0.3999002939494784 0 -0.40637138740796802 -0.39517449182144659 0 -0.40443020735863072 -0.40194112054031811 0 -0.41336967967324528 -0.3999002939494784 0 -0.40637138740796802 -0.39517449182144659 0 -0.4179168883199279 -0.39116430956604842 0 -0.42169055226689678 -0.40123550737599678 0 -0.41336967967324528 -0.3999002939494784 0 -0.4179168883199279 -0.39116430956604842 0 -0.4179168883199279 -0.39116430956604842 0 -0.40139199175968793 -0.38592718468705428 0 -0.4179168883199279 -0.39116430956604842 0 -0.41012997258942652 -0.38146265356513281 0 -0.40139199175968793 -0.38592718468705428 0 -0.4179168883199279 -0.39116430956604842 0 -0.41596140559408717 -0.38148427669336471 0 -0.41903857325144328 -0.37691094697715488 0 -0.4179168883199279 -0.39116430956604842 0 -0.41264357953851821 -0.38144664688815172 0 -0.41596140559408717 -0.38148427669336471 0 -0.4179168883199279 -0.39116430956604842 0 -0.41264357953851821 -0.38144664688815172 0 -0.41012997258942652 -0.38146265356513281 0 -0.41404820471788178 -0.37946069571912022 0 -0.41012997258942652 -0.38146265356513281 0 -0.41264357953851821 -0.38144664688815172 0 -0.41404820471788178 -0.37946069571912022 0 -0.41012997258942652 -0.38146265356513281 0 -0.41404820471788178 -0.37946069571912022 0 -0.41012997258942652 -0.38146265356513281 0 -0.40173768300816198 -0.36643993149899518 0 -0.41264357953851821 -0.38144664688815172 0 -0.41012997258942652 -0.38146265356513281 0 -0.41404820471788178 -0.37946069571912022 0 -0.41903857325144328 -0.37691094697715488 0 -0.41404820471788178 -0.37946069571912022 0 -0.41596140559408717 -0.38148427669336471 0 -0.41903857325144328 -0.37691094697715488 0 -0.41264357953851821 -0.38144664688815172 0 -0.41404820471788178 -0.37946069571912022 0 -0.41596140559408717 -0.38148427669336471 0 -0.41404820471788178 -0.37946069571912022 0 -0.41596140559408717 -0.38148427669336471 0 -0.41012997258942652 -0.38146265356513281 0 -0.39138945824891558 -0.38158199336868193 0 -0.40139199175968793 -0.38592718468705428 0 -0.39138945824891558 -0.38158199336868193 0 -0.40139199175968793 -0.38592718468705428 0 -0.38146018706309692 -0.39611102053173108 0 -0.41012997258942652 -0.38146265356513281 0 -0.39138945824891558 -0.38158199336868193 0 -0.40173768300816198 -0.36643993149899518 0 -0.41012997258942652 -0.38146265356513281 0 -0.39138945824891558 -0.38158199336868193 0 -0.41012997258942652 -0.38146265356513281 0 -0.40139199175968793 -0.38592718468705428 0 -0.39138945824891558 -0.38158199336868193 0 -0.40139199175968793 -0.38592718468705428 0 -0.40139199175968793 -0.38592718468705428 0 -0.39499960735806972 -0.39650442224569948 0 -0.38146018706309692 -0.39611102053173108 0 -0.40139199175968793 -0.38592718468705428 0 -0.38146018706309692 -0.39611102053173108 0 -0.40637138740796802 -0.39517449182144659 0 -0.39499960735806972 -0.39650442224569948 0 -0.40443020735863072 -0.40194112054031811 0 -0.40637138740796802 -0.39517449182144659 0 -0.40139199175968793 -0.38592718468705428 0 -0.39499960735806972 -0.39650442224569948 0 -0.39499960735806972 -0.39650442224569948 0 -0.40443020735863072 -0.40194112054031811 0 -0.39652584119055362 -0.40342912424259242 0 -0.40443020735863072 -0.40194112054031811 0 -0.39652584119055362 -0.40342912424259242 0 -0.40068754056194861 -0.4128492080837643 0 -0.39652584119055362 -0.40342912424259242 0 -0.38735877636819388 -0.40059869056111858 0 -0.38983809416569087 -0.40758335385593009 0 -0.39499960735806972 -0.39650442224569948 0 -0.39652584119055362 -0.40342912424259242 0 -0.38735877636819388 -0.40059869056111858 0 -0.38156916822041892 -0.40603200008561519 0 -0.38178229459812563 -0.40298695858946171 0 -0.38983809416569087 -0.40758335385593009 0 -0.38178229459812563 -0.40298695858946171 0 -0.38012172885428602 -0.39806952235009457 0 -0.38983809416569087 -0.40758335385593009 0 -0.38735877636819388 -0.40059869056111858 0 -0.38012172885428602 -0.39806952235009457 0 -0.38983809416569087 -0.40758335385593009 0 -0.38012172885428602 -0.39806952235009457 0 -0.38983809416569087 -0.40758335385593009 0 -0.38012172885428602 -0.39806952235009457 0 -0.37209094330423159 -0.40089808531996213 0 -0.37629487057870992 -0.40149067916431569 0 -0.38012172885428602 -0.39806952235009457 0 -0.37209094330423159 -0.40089808531996213 0 -0.38156916822041892 -0.40603200008561519 0 -0.38178229459812563 -0.40298695858946171 0 -0.37856432677971441 -0.40327293704996398 0 -0.38156916822041892 -0.40603200008561519 0 -0.37602613074463359 -0.40570926791912437 0 -0.37856432677971441 -0.40327293704996398 0 -0.37602613074463359 -0.40570926791912437 0 -0.37856432677971441 -0.40327293704996398 0 -0.37629487057870992 -0.40149067916431569 0 -0.37856432677971441 -0.40327293704996398 0 -0.37629487057870992 -0.40149067916431569 0 -0.37881815497051818 -0.39997697960570461 0 -0.37629487057870992 -0.40149067916431569 0 -0.37881815497051818 -0.39997697960570461 0 -0.38012172885428602 -0.39806952235009457 0 -0.37881815497051818 -0.39997697960570461 0 -0.38012172885428602 -0.39806952235009457 0 -0.38178229459812563 -0.40298695858946171 0 -0.37881815497051818 -0.39997697960570461 0 -0.38012172885428602 -0.39806952235009457 0 -0.38178229459812563 -0.40298695858946171 0 -0.37856432677971441 -0.40327293704996398 0 -0.37881815497051818 -0.39997697960570461 0 -0.38012172885428602 -0.39806952235009457 0 -0.37610551335983561 -0.39413702328477918 0 -0.37209094330423159 -0.40089808531996213 0 -0.38146018706309692 -0.39611102053173108 0 -0.37610551335983561 -0.39413702328477918 0 -0.38353069879127127 -0.38163203803623119 0 -0.38146018706309692 -0.39611102053173108 0 -0.38012172885428602 -0.39806952235009457 0 -0.37610551335983561 -0.39413702328477918 0 -0.38146018706309692 -0.39611102053173108 0 -0.38012172885428602 -0.39806952235009457 0 -0.38012172885428602 -0.39806952235009457 0 -0.37610551335983561 -0.39413702328477918 0 -0.39499960735806972 -0.39650442224569948 0 -0.38735877636819388 -0.40059869056111858 0 -0.38146018706309692 -0.39611102053173108 0 -0.38735877636819388 -0.40059869056111858 0 -0.38146018706309692 -0.39611102053173108 0 -0.38012172885428602 -0.39806952235009457 0 -0.39138945824891558 -0.38158199336868193 0 -0.38146018706309692 -0.39611102053173108 0 -0.38146018706309692 -0.39611102053173108 0 -0.38353069879127127 -0.38163203803623119 0 -0.38775448495095949 -0.38160514091903242 0 -0.39138945824891558 -0.38158199336868193 0 -0.38146018706309692 -0.39611102053173108 0 -0.38775448495095949 -0.38160514091903242 0 -0.37610551335983561 -0.39413702328477918 0 -0.38353069879127127 -0.38163203803623119 0 -0.38353069879127127 -0.38163203803623119 0 -0.36791003929668897 -0.37531597356073781 0 -0.38353069879127127 -0.38163203803623119 0 -0.37576852049830373 -0.37424143402576782 0 -0.36791003929668897 -0.37531597356073781 0 -0.38353069879127127 -0.38163203803623119 0 -0.38775448495095949 -0.38160514091903242 0 -0.39138945824891558 -0.38158199336868193 0 -0.38775448495095949 -0.38160514091903242 0 -0.39082733033514372 -0.43553780059387093 0 -0.40375973713816599 -0.43690652084804732 0 -0.40176058784982421 -0.42849617997282502 0 -0.41319678457753078 -0.41966526467231158 0 -0.40176058784982421 -0.42849617997282502 0 -0.40068754056194861 -0.4128492080837643 0 -0.40176058784982421 -0.42849617997282502 0 -0.40068754056194861 -0.4128492080837643 0 -0.38796072571873202 -0.41787067674187572 0 -0.40068754056194861 -0.4128492080837643 0 -0.38796072571873202 -0.41787067674187572 0 -0.38983809416569087 -0.40758335385593009 0 -0.39652584119055362 -0.40342912424259242 0 -0.40068754056194861 -0.4128492080837643 0 -0.38983809416569087 -0.40758335385593009 0 -0.38156916822041892 -0.40603200008561519 0 -0.38983809416569087 -0.40758335385593009 0 -0.38249496913699632 -0.41100015469591239 0 -0.38796072571873202 -0.41787067674187572 0 -0.38983809416569087 -0.40758335385593009 0 -0.38249496913699632 -0.41100015469591239 0 -0.38156916822041892 -0.40603200008561519 0 -0.37602613074463359 -0.40570926791912437 0 -0.38249496913699632 -0.41100015469591239 0 -0.38796072571873202 -0.41787067674187572 0 -0.38249496913699632 -0.41100015469591239 0 -0.37441041966644201 -0.41853044649732968 0 -0.38796072571873202 -0.41787067674187572 0 -0.37857274293149029 -0.42876471734549271 0 -0.37441041966644201 -0.41853044649732968 0 -0.39082733033514372 -0.43553780059387093 0 -0.37857274293149029 -0.42876471734549271 0 -0.38257104150817378 -0.44558539909593659 0 -0.40176058784982421 -0.42849617997282502 0 -0.38796072571873202 -0.41787067674187572 0 -0.37857274293149029 -0.42876471734549271 0 -0.40176058784982421 -0.42849617997282502 0 -0.37857274293149029 -0.42876471734549271 0 -0.39082733033514372 -0.43553780059387093 0 -0.40176058784982421 -0.42849617997282502 0 -0.37857274293149029 -0.42876471734549271 0 -0.37857274293149029 -0.42876471734549271 0 -0.38257104150817378 -0.44558539909593659 0 -0.36466736862266619 -0.43929361107495862 0 -0.40375973713816599 -0.43690652084804732 0 -0.38257104150817378 -0.44558539909593659 0 -0.40375973713816599 -0.43690652084804732 0 -0.38257104150817378 -0.44558539909593659 0 -0.39873322217020901 -0.44879301705899238 0 -0.38257104150817378 -0.44558539909593659 0 -0.39873322217020901 -0.44879301705899238 0 -0.39185116602312342 -0.46040899195533008 0 -0.39082733033514372 -0.43553780059387093 0 -0.40375973713816599 -0.43690652084804732 0 -0.38257104150817378 -0.44558539909593659 0 -0.39873322217020901 -0.44879301705899238 0 -0.40884565752670138 -0.44739205870809717 0 -0.40642776429331862 -0.45699343118294727 0 -0.40375973713816599 -0.43690652084804732 0 -0.39873322217020901 -0.44879301705899238 0 -0.40884565752670138 -0.44739205870809717 0 -0.39185116602312342 -0.46040899195533008 0 -0.40182839360969391 -0.46973105278735439 0 -0.40642776429331862 -0.45699343118294727 0 -0.39873322217020901 -0.44879301705899238 0 -0.39185116602312342 -0.46040899195533008 0 -0.40642776429331862 -0.45699343118294727 0 -0.38257104150817378 -0.44558539909593659 0 -0.39185116602312342 -0.46040899195533008 0 -0.3749125057523493 -0.4641870694620962 0 -0.39185116602312342 -0.46040899195533008 0 -0.38739682711329992 -0.47637139398093842 0 -0.3749125057523493 -0.4641870694620962 0 -0.38739682711329992 -0.47637139398093842 0 -0.36650464836053492 -0.47758333459014829 0 -0.3749125057523493 -0.4641870694620962 0 -0.38739682711329992 -0.47637139398093842 0 -0.38649563617076049 -0.5 0 -0.36650464836053492 -0.47758333459014829 0 -0.38649563617076049 -0.5 0 -0.40221786754911548 -0.48468690862955621 0 -0.41470304202541208 -0.5 0 -0.38739682711329992 -0.47637139398093842 0 -0.38649563617076049 -0.5 0 -0.40221786754911548 -0.48468690862955621 0 -0.39185116602312342 -0.46040899195533008 0 -0.38739682711329992 -0.47637139398093842 0 -0.40182839360969391 -0.46973105278735439 0 -0.38739682711329992 -0.47637139398093842 0 -0.40221786754911548 -0.48468690862955621 0 -0.40182839360969391 -0.46973105278735439 0 -0.40221786754911548 -0.48468690862955621 0 -0.40182839360969391 -0.46973105278735439 0 -0.41640034518153801 -0.4710884416934209 0 -0.40221786754911548 -0.48468690862955621 0 -0.41640034518153801 -0.4710884416934209 0 -0.41470304202541208 -0.5 0 -0.43763952177061649 -0.47770500498713542 0 -0.44291044788006362 -0.49999999999999939 0 -0.41470304202541208 -0.5 0 -0.43763952177061649 -0.47770500498713542 0 -0.41640034518153801 -0.4710884416934209 0 -0.41470304202541208 -0.5 0 -0.43763952177061649 -0.47770500498713542 0 -0.41640034518153801 -0.4710884416934209 0 -0.4323685956611692 -0.45541000997427139 0 -0.43763952177061649 -0.47770500498713542 0 -0.4323685956611692 -0.45541000997427139 0 -0.41640034518153801 -0.4710884416934209 0 -0.4323685956611692 -0.45541000997427139 0 -0.41872867018542492 -0.45179192289975101 0 -0.4323685956611692 -0.45541000997427139 0 -0.435988539966085 -0.44148905847597392 0 -0.42615181293618792 -0.44307742131274741 0 -0.42986244815509678 -0.43337144475258638 0 -0.435988539966085 -0.44148905847597392 0 -0.42615181293618792 -0.44307742131274741 0 -0.42986244815509678 -0.43337144475258638 0 -0.42026026496879931 -0.43681168621285732 0 -0.42615181293618792 -0.44307742131274741 0 -0.4323685956611692 -0.45541000997427139 0 -0.42615181293618792 -0.44307742131274741 0 -0.41872867018542492 -0.45179192289975101 0 -0.41872867018542492 -0.45179192289975101 0 -0.41657889384638791 -0.4424754015507481 0 -0.40884565752670138 -0.44739205870809717 0 -0.42026026496879931 -0.43681168621285732 0 -0.40375973713816599 -0.43690652084804732 0 -0.41657889384638791 -0.4424754015507481 0 -0.42615181293618792 -0.44307742131274741 0 -0.41872867018542492 -0.45179192289975101 0 -0.41657889384638791 -0.4424754015507481 0 -0.42026026496879931 -0.43681168621285732 0 -0.42615181293618792 -0.44307742131274741 0 -0.41657889384638791 -0.4424754015507481 0 -0.40375973713816599 -0.43690652084804732 0 -0.41657889384638791 -0.4424754015507481 0 -0.40884565752670138 -0.44739205870809717 0 -0.41872867018542492 -0.45179192289975101 0 -0.40884565752670138 -0.44739205870809717 0 -0.40642776429331862 -0.45699343118294727 0 -0.41640034518153801 -0.4710884416934209 0 -0.41872867018542492 -0.45179192289975101 0 -0.40642776429331862 -0.45699343118294727 0 -0.40182839360969391 -0.46973105278735439 0 -0.41640034518153801 -0.4710884416934209 0 -0.40642776429331862 -0.45699343118294727 0 -0.45211818340539273 -0.26309076008929921 0 -0.44165736388207272 -0.25360003737878889 0 -0.46465652818918263 -0.24483730068029039 0 -0.45211818340539273 -0.26309076008929921 0 -0.44165736388207272 -0.25360003737878889 0 -0.43680511815892142 -0.2660007677910407 0 -0.45211818340539273 -0.26309076008929921 0 -0.43957983862160288 -0.2813442194983079 0 -0.45211818340539273 -0.26309076008929921 0 -0.45386615352933152 -0.26317791563468229 0 -0.44300193479902689 -0.28147468360283379 0 -0.45211818340539273 -0.26309076008929921 0 -0.43957983862160288 -0.2813442194983079 0 -0.44300193479902689 -0.28147468360283379 0 -0.45386615352933152 -0.26317791563468229 0 -0.44300193479902689 -0.28147468360283379 0 -0.45211818340539273 -0.26309076008929921 0 -0.43957983862160288 -0.2813442194983079 0 -0.43680511815892142 -0.2660007677910407 0 -0.46540099386590911 -0.27613459344745273 0 -0.45386615352933152 -0.26317791563468229 0 -0.47789920225856231 -0.2654141115859287 0 -0.46540099386590911 -0.27613459344745273 0 -0.45386615352933152 -0.26317791563468229 0 -0.44300193479902689 -0.28147468360283379 0 -0.45211818340539273 -0.26309076008929921 0 -0.45386615352933152 -0.26317791563468229 0 -0.46465652818918263 -0.24483730068029039 0 -0.45211818340539273 -0.26309076008929921 0 -0.46465652818918263 -0.24483730068029039 0 -0.45386615352933152 -0.26317791563468229 0 -0.46465652818918263 -0.24483730068029039 0 -0.45386615352933152 -0.26317791563468229 0 -0.47789920225856231 -0.2654141115859287 0 -0.46465652818918263 -0.24483730068029039 0 -0.47789920225856231 -0.2654141115859287 0 -0.48570939693172899 -0.24902992718248729 0 -0.46465652818918263 -0.24483730068029039 0 -0.47789920225856231 -0.2654141115859287 0 -0.4909021497975728 -0.26136593096020788 0 -0.48570939693172899 -0.24902992718248729 0 -0.4909021497975728 -0.26136593096020788 0 -0.5 -0.25150281007534703 0 -0.5 -0.27951687499706851 0 -0.4909021497975728 -0.26136593096020788 0 -0.5 -0.25150281007534703 0 -0.48570939693172899 -0.24902992718248729 0 -0.47789920225856231 -0.2654141115859287 0 -0.5 -0.27951687499706851 0 -0.48508449486424082 -0.28732415172015657 0 -0.47789920225856231 -0.2654141115859287 0 -0.4909021497975728 -0.26136593096020788 0 -0.5 -0.27951687499706851 0 -0.46540099386590911 -0.27613459344745273 0 -0.47789920225856231 -0.2654141115859287 0 -0.48508449486424082 -0.28732415172015657 0 -0.46540099386590911 -0.27613459344745273 0 -0.4692524708352519 -0.29304891184013099 0 -0.48508449486424082 -0.28732415172015657 0 -0.4692524708352519 -0.29304891184013099 0 -0.48508449486424082 -0.28732415172015657 0 -0.48342094646859679 -0.29729694551662461 0 -0.5 -0.27951687499706851 0 -0.5 -0.30753093991878988 0 -0.49616219239740023 -0.30000131546641939 0 -0.5 -0.27951687499706851 0 -0.48508449486424082 -0.28732415172015657 0 -0.49616219239740023 -0.30000131546641939 0 -0.48508449486424082 -0.28732415172015657 0 -0.49616219239740023 -0.30000131546641939 0 -0.48342094646859679 -0.29729694551662461 0 -0.49616219239740023 -0.30000131546641939 0 -0.47988752038114357 -0.30743937284698208 0 -0.49124767326547109 -0.32126458797290303 0 -0.49616219239740023 -0.30000131546641939 0 -0.47988752038114357 -0.30743937284698208 0 -0.48342094646859679 -0.29729694551662461 0 -0.49616219239740023 -0.30000131546641939 0 -0.49124767326547109 -0.32126458797290303 0 -0.5 -0.30753093991878988 0 -0.49616219239740023 -0.30000131546641939 0 -0.49124767326547109 -0.32126458797290303 0 -0.4692524708352519 -0.29304891184013099 0 -0.47988752038114357 -0.30743937284698208 0 -0.46289418455034459 -0.31569959279366661 0 -0.4692524708352519 -0.29304891184013099 0 -0.47988752038114357 -0.30743937284698208 0 -0.48342094646859679 -0.29729694551662461 0 -0.4692524708352519 -0.29304891184013099 0 -0.46289418455034459 -0.31569959279366661 0 -0.4692524708352519 -0.29304891184013099 0 -0.45610231338702439 -0.30058860430122147 0 -0.46289418455034459 -0.31569959279366661 0 -0.45610231338702439 -0.30058860430122147 0 -0.44586848524951039 -0.31314063422893113 0 -0.46289418455034459 -0.31569959279366661 0 -0.46540099386590911 -0.27613459344745273 0 -0.45701344915610581 -0.28694014007387803 0 -0.44300193479902689 -0.28147468360283379 0 -0.46540099386590911 -0.27613459344745273 0 -0.4692524708352519 -0.29304891184013099 0 -0.45701344915610581 -0.28694014007387803 0 -0.4692524708352519 -0.29304891184013099 0 -0.45610231338702439 -0.30058860430122147 0 -0.45701344915610581 -0.28694014007387803 0 -0.45610231338702439 -0.30058860430122147 0 -0.44300193479902689 -0.28147468360283379 0 -0.43213771606872631 -0.29977145157098772 0 -0.43957983862160288 -0.2813442194983079 0 -0.44300193479902689 -0.28147468360283379 0 -0.43213771606872631 -0.29977145157098772 0 -0.45610231338702439 -0.30058860430122147 0 -0.45701344915610581 -0.28694014007387803 0 -0.44300193479902689 -0.28147468360283379 0 -0.44300193479902689 -0.28147468360283379 0 -0.43213771606872631 -0.29977145157098772 0 -0.45610231338702439 -0.30058860430122147 0 -0.43213771606872631 -0.29977145157098772 0 -0.45610231338702439 -0.30058860430122147 0 -0.44586848524951039 -0.31314063422893113 0 -0.43213771606872631 -0.29977145157098772 0 -0.44586848524951039 -0.31314063422893113 0 -0.44476508916493912 -0.32800798766852468 0 -0.46289418455034459 -0.31569959279366661 0 -0.44586848524951039 -0.31314063422893113 0 -0.44476508916493912 -0.32800798766852468 0 -0.43268999707831379 -0.32114889215997511 0 -0.44476508916493912 -0.32800798766852468 0 -0.45653589826543722 -0.33835027374720222 0 -0.43854709093312078 -0.34551838447463762 0 -0.44476508916493912 -0.32800798766852468 0 -0.43854709093312078 -0.34551838447463762 0 -0.43403437847741988 -0.33354869747312299 0 -0.45653589826543722 -0.33835027374720222 0 -0.47228809685679413 -0.34052311598912072 0 -0.46825538305703029 -0.35176440759005828 0 -0.45653589826543722 -0.33835027374720222 0 -0.47506093156469842 -0.3287229684348516 0 -0.47228809685679413 -0.34052311598912072 0 -0.44476508916493912 -0.32800798766852468 0 -0.45653589826543722 -0.33835027374720222 0 -0.46289418455034459 -0.31569959279366661 0 -0.45653589826543722 -0.33835027374720222 0 -0.46289418455034459 -0.31569959279366661 0 -0.47506093156469842 -0.3287229684348516 0 -0.45653589826543722 -0.33835027374720222 0 -0.46289418455034459 -0.31569959279366661 0 -0.4772725774404144 -0.31828163051210079 0 -0.49124767326547109 -0.32126458797290303 0 -0.47506093156469842 -0.3287229684348516 0 -0.47988752038114357 -0.30743937284698208 0 -0.46289418455034459 -0.31569959279366661 0 -0.4772725774404144 -0.31828163051210079 0 -0.46289418455034459 -0.31569959279366661 0 -0.4772725774404144 -0.31828163051210079 0 -0.47506093156469842 -0.3287229684348516 0 -0.47988752038114357 -0.30743937284698208 0 -0.4772725774404144 -0.31828163051210079 0 -0.49124767326547109 -0.32126458797290303 0 -0.5 -0.30753093991878988 0 -0.49124767326547109 -0.32126458797290303 0 -0.49999999999999961 -0.33554500484051131 0 -0.49124767326547109 -0.32126458797290303 0 -0.48633315413354011 -0.3425278604793861 0 -0.49124767326547109 -0.32126458797290303 0 -0.49999999999999961 -0.33554500484051131 0 -0.48633315413354011 -0.3425278604793861 0 -0.49999999999999961 -0.33554500484051131 0 -0.48633315413354011 -0.3425278604793861 0 -0.48633315413354011 -0.3425278604793861 0 -0.47506093156469842 -0.3287229684348516 0 -0.47228809685679413 -0.34052311598912072 0 -0.49124767326547109 -0.32126458797290303 0 -0.48633315413354011 -0.3425278604793861 0 -0.47506093156469842 -0.3287229684348516 0 -0.48633315413354011 -0.3425278604793861 0 -0.47228809685679413 -0.34052311598912072 0 -0.46825538305703029 -0.35176440759005828 0 -0.49999999999999961 -0.33554500484051131 0 -0.48633315413354011 -0.3425278604793861 0 -0.48030453056746109 -0.36861144308094029 0 -0.48633315413354011 -0.3425278604793861 0 -0.48030453056746109 -0.36861144308094029 0 -0.46825538305703029 -0.35176440759005828 0 -0.48633315413354011 -0.3425278604793861 0 -0.46825538305703029 -0.35176440759005828 0 -0.48633315413354011 -0.3425278604793861 0 -0.48030453056746109 -0.36861144308094029 0 -0.5 -0.39656953661894012 0 -0.49999999999999961 -0.33554500484051131 0 -0.48030453056746109 -0.36861144308094029 0 -0.46334377193483078 -0.37842983215876019 0 -0.48030453056746109 -0.36861144308094029 0 -0.46825538305703029 -0.35176440759005828 0 -0.46334377193483078 -0.37842983215876019 0 -0.46825538305703029 -0.35176440759005828 0 -0.45017761198052331 -0.36100095470073579 0 -0.45653589826543722 -0.33835027374720222 0 -0.45017761198052331 -0.36100095470073579 0 -0.45653589826543722 -0.33835027374720222 0 -0.46825538305703029 -0.35176440759005828 0 -0.45017761198052331 -0.36100095470073579 0 -0.46825538305703029 -0.35176440759005828 0 -0.45017761198052331 -0.36100095470073579 0 -0.45653589826543722 -0.33835027374720222 0 -0.43854709093312078 -0.34551838447463762 0 -0.45017761198052331 -0.36100095470073579 0 -0.43854709093312078 -0.34551838447463762 0 -0.45017761198052331 -0.36100095470073579 0 -0.43688840964749209 -0.35781554759345557 0 -0.45017761198052331 -0.36100095470073579 0 -0.43460809261598232 -0.36895595083894339 0 -0.43688840964749209 -0.35781554759345557 0 -0.45017761198052331 -0.36100095470073579 0 -0.43460809261598232 -0.36895595083894339 0 -0.44416021803808919 -0.38243724496113263 0 -0.45017761198052331 -0.36100095470073579 0 -0.43460809261598232 -0.36895595083894339 0 -0.44416021803808919 -0.38243724496113263 0 -0.45017761198052331 -0.36100095470073579 0 -0.46334377193483078 -0.37842983215876019 0 -0.44416021803808919 -0.38243724496113263 0 -0.45017761198052331 -0.36100095470073579 0 -0.41903857325144328 -0.37691094697715488 0 -0.43460809261598232 -0.36895595083894339 0 -0.42422084306034402 -0.35578690035950972 0 -0.41903857325144328 -0.37691094697715488 0 -0.43460809261598232 -0.36895595083894339 0 -0.43460809261598232 -0.36895595083894339 0 -0.43688840964749209 -0.35781554759345557 0 -0.42422084306034402 -0.35578690035950972 0 -0.43854709093312078 -0.34551838447463762 0 -0.42422084306034402 -0.35578690035950972 0 -0.42013533673330578 -0.33951952558935461 0 -0.43854709093312078 -0.34551838447463762 0 -0.43688840964749209 -0.35781554759345557 0 -0.42422084306034402 -0.35578690035950972 0 -0.40758067638829881 -0.35789015901873489 0 -0.42013533673330578 -0.33951952558935461 0 -0.42422084306034402 -0.35578690035950972 0 -0.40758067638829881 -0.35789015901873489 0 -0.42013533673330578 -0.33951952558935461 0 -0.40758067638829881 -0.35789015901873489 0 -0.4025685708709531 -0.34956976676792401 0 -0.42013533673330578 -0.33951952558935461 0 -0.41903857325144328 -0.37691094697715488 0 -0.40758067638829881 -0.35789015901873489 0 -0.40173768300816198 -0.36643993149899518 0 -0.41404820471788178 -0.37946069571912022 0 -0.41903857325144328 -0.37691094697715488 0 -0.40173768300816198 -0.36643993149899518 0 -0.41903857325144328 -0.37691094697715488 0 -0.42422084306034402 -0.35578690035950972 0 -0.40758067638829881 -0.35789015901873489 0 -0.41903857325144328 -0.37691094697715488 0 -0.40758067638829881 -0.35789015901873489 0 -0.41404820471788178 -0.37946069571912022 0 -0.40173768300816198 -0.36643993149899518 0 -0.39138945824891558 -0.38158199336868193 0 -0.38775448495095949 -0.38160514091903242 0 -0.39609514899832238 -0.36047185746617882 0 -0.39138945824891558 -0.38158199336868193 0 -0.40173768300816198 -0.36643993149899518 0 -0.39609514899832238 -0.36047185746617882 0 -0.40758067638829881 -0.35789015901873489 0 -0.40173768300816198 -0.36643993149899518 0 -0.40758067638829881 -0.35789015901873489 0 -0.40173768300816198 -0.36643993149899518 0 -0.39609514899832238 -0.36047185746617882 0 -0.40173768300816198 -0.36643993149899518 0 -0.39609514899832238 -0.36047185746617882 0 -0.39138945824891558 -0.38158199336868193 0 -0.40173768300816198 -0.36643993149899518 0 -0.38353069879127127 -0.38163203803623119 0 -0.38775448495095949 -0.38160514091903242 0 -0.39609514899832238 -0.36047185746617882 0 -0.38353069879127127 -0.38163203803623119 0 -0.39609514899832238 -0.36047185746617882 0 -0.37576852049830373 -0.37424143402576782 0 -0.37576852049830373 -0.37424143402576782 0 -0.38980029292032681 -0.3538138263344407 0 -0.39609514899832238 -0.36047185746617882 0 -0.37576852049830373 -0.37424143402576782 0 -0.38980029292032681 -0.3538138263344407 0 -0.38353069879127127 -0.38163203803623119 0 -0.39609514899832238 -0.36047185746617882 0 -0.37576852049830373 -0.37424143402576782 0 -0.38980029292032681 -0.3538138263344407 0 -0.37245563567842283 -0.36342144099550278 0 -0.37501505732771462 -0.35270295609204683 0 -0.38980029292032681 -0.3538138263344407 0 -0.37245563567842283 -0.36342144099550278 0 -0.37501505732771462 -0.35270295609204683 0 -0.38980029292032681 -0.3538138263344407 0 -0.37630104444955431 -0.33953575302191552 0 -0.38980029292032681 -0.3538138263344407 0 -0.3874425906513701 -0.34245666632481359 0 -0.37630104444955431 -0.33953575302191552 0 -0.38980029292032681 -0.3538138263344407 0 -0.37630104444955431 -0.33953575302191552 0 -0.38980029292032681 -0.3538138263344407 0 -0.39796499687501963 -0.34192756105832428 0 -0.3874425906513701 -0.34245666632481359 0 -0.38980029292032681 -0.3538138263344407 0 -0.39796499687501963 -0.34192756105832428 0 -0.38980029292032681 -0.3538138263344407 0 -0.4025685708709531 -0.34956976676792401 0 -0.39796499687501963 -0.34192756105832428 0 -0.39609514899832238 -0.36047185746617882 0 -0.38980029292032681 -0.3538138263344407 0 -0.4025685708709531 -0.34956976676792401 0 -0.39609514899832238 -0.36047185746617882 0 -0.38980029292032681 -0.3538138263344407 0 -0.40758067638829881 -0.35789015901873489 0 -0.4025685708709531 -0.34956976676792401 0 -0.39609514899832238 -0.36047185746617882 0 -0.4025685708709531 -0.34956976676792401 0 -0.40758067638829881 -0.35789015901873489 0 -0.39609514899832238 -0.36047185746617882 0 -0.4025685708709531 -0.34956976676792401 0 -0.4025685708709531 -0.34956976676792401 0 -0.39796499687501963 -0.34192756105832428 0 -0.39796499687501963 -0.34192756105832428 0 -0.38707883306085727 -0.32310268074594539 0 -0.39302444192435521 -0.32665020523696531 0 -0.39796499687501963 -0.34192756105832428 0 -0.41250324535641603 -0.32076261998282041 0 -0.39796499687501963 -0.34192756105832428 0 -0.38707883306085727 -0.32310268074594539 0 -0.39796499687501963 -0.34192756105832428 0 -0.39861901303234393 -0.32526976222302811 0 -0.41250324535641603 -0.32076261998282041 0 -0.4025685708709531 -0.34956976676792401 0 -0.39796499687501963 -0.34192756105832428 0 -0.4173531434698371 -0.32467060916945428 0 -0.39796499687501963 -0.34192756105832428 0 -0.39302444192435521 -0.32665020523696531 0 -0.39861901303234393 -0.32526976222302811 0 -0.39796499687501963 -0.34192756105832428 0 -0.3874425906513701 -0.34245666632481359 0 -0.38570402836057949 -0.33454952488457412 0 -0.39796499687501963 -0.34192756105832428 0 -0.38570402836057949 -0.33454952488457412 0 -0.38707883306085727 -0.32310268074594539 0 -0.3874425906513701 -0.34245666632481359 0 -0.38570402836057949 -0.33454952488457412 0 -0.37630104444955431 -0.33953575302191552 0 -0.38570402836057949 -0.33454952488457412 0 -0.38257566477560778 -0.32750665689071978 0 -0.38707883306085727 -0.32310268074594539 0 -0.38570402836057949 -0.33454952488457412 0 -0.37746168828861648 -0.32880316406910598 0 -0.37630104444955431 -0.33953575302191552 0 -0.38570402836057949 -0.33454952488457412 0 -0.37746168828861648 -0.32880316406910598 0 -0.38257566477560778 -0.32750665689071978 0 -0.38707883306085727 -0.32310268074594539 0 -0.37576395745092178 -0.3050725196501074 0 -0.38707883306085727 -0.32310268074594539 0 -0.37576395745092178 -0.3050725196501074 0 -0.37719713711566749 -0.31197748083789167 0 -0.37972485618422192 -0.31952152903519548 0 -0.38707883306085727 -0.32310268074594539 0 -0.37719713711566749 -0.31197748083789167 0 -0.37972485618422192 -0.31952152903519548 0 -0.37719713711566749 -0.31197748083789167 0 -0.37456534516798468 -0.31943469669369101 0 -0.37972485618422192 -0.31952152903519548 0 -0.38027246529026432 -0.32317389825498388 0 -0.37456534516798468 -0.31943469669369101 0 -0.37746168828861648 -0.32880316406910598 0 -0.38027246529026432 -0.32317389825498388 0 -0.37456534516798468 -0.31943469669369101 0 -0.37746168828861648 -0.32880316406910598 0 -0.38257566477560778 -0.32750665689071978 0 -0.38027246529026432 -0.32317389825498388 0 -0.37972485618422192 -0.31952152903519548 0 -0.38027246529026432 -0.32317389825498388 0 -0.38707883306085727 -0.32310268074594539 0 -0.38257566477560778 -0.32750665689071978 0 -0.38027246529026432 -0.32317389825498388 0 -0.38707883306085727 -0.32310268074594539 0 -0.3895493280880703 -0.32181092315052368 0 -0.38707883306085727 -0.32310268074594539 0 -0.39302444192435521 -0.32665020523696531 0 -0.3895493280880703 -0.32181092315052368 0 -0.38817922209955419 -0.31487003622919818 0 -0.39292420471281692 -0.32089260507692741 0 -0.3895493280880703 -0.32181092315052368 0 -0.3854068594836183 -0.31441721296606712 0 -0.38817922209955419 -0.31487003622919818 0 -0.3895493280880703 -0.32181092315052368 0 -0.38707883306085727 -0.32310268074594539 0 -0.3854068594836183 -0.31441721296606712 0 -0.38817922209955419 -0.31487003622919818 0 -0.39233623022453079 -0.31589900304218349 0 -0.38828454910218052 -0.30906118598004451 0 -0.39233623022453079 -0.31589900304218349 0 -0.39756756003884308 -0.31679974746756201 0 -0.39292420471281692 -0.32089260507692741 0 -0.38817922209955419 -0.31487003622919818 0 -0.39233623022453079 -0.31589900304218349 0 -0.39292420471281692 -0.32089260507692741 0 -0.39233623022453079 -0.31589900304218349 0 -0.39756756003884308 -0.31679974746756201 0 -0.39384318992161488 -0.31092517799495939 0 -0.39756756003884308 -0.31679974746756201 0 -0.39292420471281692 -0.32089260507692741 0 -0.39861901303234393 -0.32526976222302811 0 -0.3895493280880703 -0.32181092315052368 0 -0.39302444192435521 -0.32665020523696531 0 -0.39292420471281692 -0.32089260507692741 0 -0.39302444192435521 -0.32665020523696531 0 -0.39292420471281692 -0.32089260507692741 0 -0.39861901303234393 -0.32526976222302811 0 -0.39756756003884308 -0.31679974746756201 0 -0.39861901303234393 -0.32526976222302811 0 -0.41250324535641603 -0.32076261998282041 0 -0.39756756003884308 -0.31679974746756201 0 -0.41250324535641603 -0.32076261998282041 0 -0.39943253357619768 -0.3092473730742562 0 -0.4173531434698371 -0.32467060916945428 0 -0.41250324535641603 -0.32076261998282041 0 -0.42704149383781292 -0.2995976789073167 0 -0.39796499687501963 -0.34192756105832428 0 -0.4173531434698371 -0.32467060916945428 0 -0.41250324535641603 -0.32076261998282041 0 -0.4025685708709531 -0.34956976676792401 0 -0.4173531434698371 -0.32467060916945428 0 -0.42013533673330578 -0.33951952558935461 0 -0.4025685708709531 -0.34956976676792401 0 -0.4173531434698371 -0.32467060916945428 0 -0.4173531434698371 -0.32467060916945428 0 -0.42013533673330578 -0.33951952558935461 0 -0.43268999707831379 -0.32114889215997511 0 -0.42013533673330578 -0.33951952558935461 0 -0.43268999707831379 -0.32114889215997511 0 -0.42013533673330578 -0.33951952558935461 0 -0.43403437847741988 -0.33354869747312299 0 -0.43268999707831379 -0.32114889215997511 0 -0.43854709093312078 -0.34551838447463762 0 -0.42013533673330578 -0.33951952558935461 0 -0.43403437847741988 -0.33354869747312299 0 -0.44476508916493912 -0.32800798766852468 0 -0.43403437847741988 -0.33354869747312299 0 -0.43268999707831379 -0.32114889215997511 0 -0.4173531434698371 -0.32467060916945428 0 -0.43268999707831379 -0.32114889215997511 0 -0.43213771606872631 -0.29977145157098772 0 -0.44586848524951039 -0.31314063422893113 0 -0.43268999707831379 -0.32114889215997511 0 -0.43213771606872631 -0.29977145157098772 0 -0.4173531434698371 -0.32467060916945428 0 -0.43213771606872631 -0.29977145157098772 0 -0.4173531434698371 -0.32467060916945428 0 -0.42704149383781292 -0.2995976789073167 0 -0.43213771606872631 -0.29977145157098772 0 -0.42704149383781292 -0.2995976789073167 0 -0.43213771606872631 -0.29977145157098772 0 -0.43957983862160288 -0.2813442194983079 0 -0.42704149383781292 -0.2995976789073167 0 -0.41620122749958632 -0.28481054703811581 0 -0.43957983862160288 -0.2813442194983079 0 -0.42704149383781292 -0.2995976789073167 0 -0.43213771606872631 -0.29977145157098772 0 -0.43957983862160288 -0.2813442194983079 0 -0.42704149383781292 -0.2995976789073167 0 -0.42704149383781292 -0.2995976789073167 0 -0.40925521843592683 -0.29219363385722402 0 -0.40193077426190232 -0.29874144532295899 0 -0.42704149383781292 -0.2995976789073167 0 -0.41620122749958632 -0.28481054703811581 0 -0.40925521843592683 -0.29219363385722402 0 -0.41620122749958632 -0.28481054703811581 0 -0.4064106314034665 -0.28786033749410611 0 -0.40925521843592683 -0.29219363385722402 0 -0.41620122749958632 -0.28481054703811581 0 -0.4064106314034665 -0.28786033749410611 0 -0.40459857025975621 -0.28097081354976228 0 -0.42704149383781292 -0.2995976789073167 0 -0.40193077426190232 -0.29874144532295899 0 -0.41250324535641603 -0.32076261998282041 0 -0.42704149383781292 -0.2995976789073167 0 -0.40193077426190232 -0.29874144532295899 0 -0.41250324535641603 -0.32076261998282041 0 -0.42704149383781292 -0.2995976789073167 0 -0.41250324535641603 -0.32076261998282041 0 -0.39943253357619768 -0.3092473730742562 0 -0.40193077426190232 -0.29874144532295899 0 -0.40193077426190232 -0.29874144532295899 0 -0.39397115466413868 -0.30315074537586811 0 -0.37682005468599161 -0.29788521173860111 0 -0.39943253357619768 -0.3092473730742562 0 -0.40193077426190232 -0.29874144532295899 0 -0.39397115466413868 -0.30315074537586811 0 -0.39756756003884308 -0.31679974746756201 0 -0.39943253357619768 -0.3092473730742562 0 -0.39384318992161488 -0.31092517799495939 0 -0.39943253357619768 -0.3092473730742562 0 -0.39515669063330172 -0.30691697672544133 0 -0.39384318992161488 -0.31092517799495939 0 -0.39943253357619768 -0.3092473730742562 0 -0.39397115466413868 -0.30315074537586811 0 -0.39515669063330172 -0.30691697672544133 0 -0.39515669063330172 -0.30691697672544133 0 -0.39384318992161488 -0.31092517799495939 0 -0.39024404857921102 -0.30572650089527997 0 -0.39397115466413868 -0.30315074537586811 0 -0.39515669063330172 -0.30691697672544133 0 -0.39024404857921102 -0.30572650089527997 0 -0.39384318992161488 -0.31092517799495939 0 -0.38828454910218052 -0.30906118598004451 0 -0.39024404857921102 -0.30572650089527997 0 -0.39233623022453079 -0.31589900304218349 0 -0.39384318992161488 -0.31092517799495939 0 -0.38828454910218052 -0.30906118598004451 0 -0.38817922209955419 -0.31487003622919818 0 -0.38828454910218052 -0.30906118598004451 0 -0.37682005468599161 -0.29788521173860111 0 -0.3854068594836183 -0.31441721296606712 0 -0.38817922209955419 -0.31487003622919818 0 -0.37682005468599161 -0.29788521173860111 0 -0.39397115466413868 -0.30315074537586811 0 -0.39024404857921102 -0.30572650089527997 0 -0.37682005468599161 -0.29788521173860111 0 -0.40193077426190232 -0.29874144532295899 0 -0.37682005468599161 -0.29788521173860111 0 -0.38707883306085727 -0.32310268074594539 0 -0.3854068594836183 -0.31441721296606712 0 -0.37682005468599161 -0.29788521173860111 0 -0.38707883306085727 -0.32310268074594539 0 -0.37682005468599161 -0.29788521173860111 0 -0.37576395745092178 -0.3050725196501074 0 -0.38707883306085727 -0.32310268074594539 0 -0.37682005468599161 -0.29788521173860111 0 -0.38828454910218052 -0.30906118598004451 0 -0.39024404857921102 -0.30572650089527997 0 -0.37682005468599161 -0.29788521173860111 0 -0.40193077426190232 -0.29874144532295899 0 -0.37682005468599161 -0.29788521173860111 0 -0.38727793942999461 -0.29143138054805301 0 -0.37682005468599161 -0.29788521173860111 0 -0.37992505739110077 -0.285327891268156 0 -0.37089355010314762 -0.28331705945197572 0 -0.37682005468599161 -0.29788521173860111 0 -0.37992505739110077 -0.285327891268156 0 -0.38727793942999461 -0.29143138054805301 0 -0.38727793942999461 -0.29143138054805301 0 -0.3924898948206727 -0.28599182426682918 0 -0.38684870024465262 -0.28019709009285709 0 -0.37992505739110077 -0.285327891268156 0 -0.38727793942999461 -0.29143138054805301 0 -0.38684870024465262 -0.28019709009285709 0 -0.3924898948206727 -0.28599182426682918 0 -0.39318539860325191 -0.27833553320660309 0 -0.38684870024465262 -0.28019709009285709 0 -0.3924898948206727 -0.28599182426682918 0 -0.39946484360203771 -0.29301209464503369 0 -0.39318539860325191 -0.27833553320660309 0 -0.38727793942999461 -0.29143138054805301 0 -0.3924898948206727 -0.28599182426682918 0 -0.39529086302865168 -0.29229418619571867 0 -0.40193077426190232 -0.29874144532295899 0 -0.38727793942999461 -0.29143138054805301 0 -0.39529086302865168 -0.29229418619571867 0 -0.3924898948206727 -0.28599182426682918 0 -0.39529086302865168 -0.29229418619571867 0 -0.39946484360203771 -0.29301209464503369 0 -0.4064106314034665 -0.28786033749410611 0 -0.40925521843592683 -0.29219363385722402 0 -0.39946484360203771 -0.29301209464503369 0 -0.40925521843592683 -0.29219363385722402 0 -0.40193077426190232 -0.29874144532295899 0 -0.39946484360203771 -0.29301209464503369 0 -0.40193077426190232 -0.29874144532295899 0 -0.39529086302865168 -0.29229418619571867 0 -0.39946484360203771 -0.29301209464503369 0 -0.4064106314034665 -0.28786033749410611 0 -0.39946484360203771 -0.29301209464503369 0 -0.40459857025975621 -0.28097081354976228 0 -0.40459857025975621 -0.28097081354976228 0 -0.39871653422275 -0.26477063034798642 0 -0.40644367116261759 -0.26933550009943341 0 -0.39946484360203771 -0.29301209464503369 0 -0.40459857025975621 -0.28097081354976228 0 -0.39871653422275 -0.26477063034798642 0 -0.39946484360203771 -0.29301209464503369 0 -0.39871653422275 -0.26477063034798642 0 -0.39946484360203771 -0.29301209464503369 0 -0.39318539860325191 -0.27833553320660309 0 -0.39871653422275 -0.26477063034798642 0 -0.39318539860325191 -0.27833553320660309 0 -0.38840702012614647 -0.26770602668030929 0 -0.39871653422275 -0.26477063034798642 0 -0.39318539860325191 -0.27833553320660309 0 -0.38684870024465262 -0.28019709009285709 0 -0.38840702012614647 -0.26770602668030929 0 -0.38684870024465262 -0.28019709009285709 0 -0.38840702012614647 -0.26770602668030929 0 -0.37812768531643998 -0.2740521224023964 0 -0.38840702012614647 -0.26770602668030929 0 -0.37812768531643998 -0.2740521224023964 0 -0.37969836118369482 -0.26041778922000308 0 -0.37992505739110077 -0.285327891268156 0 -0.37812768531643998 -0.2740521224023964 0 -0.37089355010314762 -0.28331705945197572 0 -0.37992505739110077 -0.285327891268156 0 -0.38684870024465262 -0.28019709009285709 0 -0.37812768531643998 -0.2740521224023964 0 -0.37969836118369482 -0.26041778922000308 0 -0.39442967684708991 -0.25208667127465478 0 -0.37872015884544641 -0.2435614714605657 0 -0.37969836118369482 -0.26041778922000308 0 -0.36999160380854529 -0.25160890498862648 0 -0.37872015884544641 -0.2435614714605657 0 -0.38840702012614647 -0.26770602668030929 0 -0.37969836118369482 -0.26041778922000308 0 -0.39442967684708991 -0.25208667127465478 0 -0.37969836118369482 -0.26041778922000308 0 -0.39442967684708991 -0.25208667127465478 0 -0.39442967684708991 -0.25208667127465478 0 -0.39871653422275 -0.26477063034798642 0 -0.39796822484346261 -0.23652916605093899 0 -0.40220594800304021 -0.25293233307518609 0 -0.39871653422275 -0.26477063034798642 0 -0.40644367116261759 -0.26933550009943341 0 -0.40220594800304021 -0.25293233307518609 0 -0.39871653422275 -0.26477063034798642 0 -0.39796822484346261 -0.23652916605093899 0 -0.40220594800304021 -0.25293233307518609 0 -0.40644367116261759 -0.26933550009943341 0 -0.39871653422275 -0.26477063034798642 0 -0.39796822484346261 -0.23652916605093899 0 -0.38840702012614647 -0.26770602668030929 0 -0.39442967684708991 -0.25208667127465478 0 -0.39871653422275 -0.26477063034798642 0 -0.40220594800304021 -0.25293233307518609 0 -0.41459928595597673 -0.25790967448939001 0 -0.40644367116261759 -0.26933550009943341 0 -0.40220594800304021 -0.25293233307518609 0 -0.41459928595597673 -0.25790967448939001 0 -0.41466813127082142 -0.24184035413310251 0 -0.41459928595597673 -0.25790967448939001 0 -0.42775875008346192 -0.25507980811954323 0 -0.41466813127082142 -0.24184035413310251 0 -0.41459928595597673 -0.25790967448939001 0 -0.42191992925994232 -0.27036037701968468 0 -0.42775875008346192 -0.25507980811954323 0 -0.40644367116261759 -0.26933550009943341 0 -0.41206191028808969 -0.27659566112432887 0 -0.42191992925994232 -0.27036037701968468 0 -0.40459857025975621 -0.28097081354976228 0 -0.40644367116261759 -0.26933550009943341 0 -0.41206191028808969 -0.27659566112432887 0 -0.41620122749958632 -0.28481054703811581 0 -0.40459857025975621 -0.28097081354976228 0 -0.41206191028808969 -0.27659566112432887 0 -0.41620122749958632 -0.28481054703811581 0 -0.41206191028808969 -0.27659566112432887 0 -0.42191992925994232 -0.27036037701968468 0 -0.41459928595597673 -0.25790967448939001 0 -0.40644367116261759 -0.26933550009943341 0 -0.42191992925994232 -0.27036037701968468 0 -0.43957983862160288 -0.2813442194983079 0 -0.42191992925994232 -0.27036037701968468 0 -0.43680511815892142 -0.2660007677910407 0 -0.43957983862160288 -0.2813442194983079 0 -0.41620122749958632 -0.28481054703811581 0 -0.42191992925994232 -0.27036037701968468 0 -0.44165736388207272 -0.25360003737878889 0 -0.43680511815892142 -0.2660007677910407 0 -0.42775875008346192 -0.25507980811954323 0 -0.42191992925994232 -0.27036037701968468 0 -0.43680511815892142 -0.2660007677910407 0 -0.42775875008346192 -0.25507980811954323 0 -0.32577683519746242 -0.25897579210934468 0 -0.30798481169360081 -0.26465381523239789 0 -0.31421725341188372 -0.24977587129631751 0 -0.32577683519746242 -0.25897579210934468 0 -0.31511343508082401 -0.27781322935613839 0 -0.33065211668571071 -0.27437360408278932 0 -0.32577683519746242 -0.25897579210934468 0 -0.31511343508082401 -0.27781322935613839 0 -0.30798481169360081 -0.26465381523239789 0 -0.31511343508082401 -0.27781322935613839 0 -0.33065211668571071 -0.27437360408278932 0 -0.32673865940135971 -0.29036850998253821 0 -0.33065211668571071 -0.27437360408278932 0 -0.3425640544848888 -0.26114950363554529 0 -0.3458528524608297 -0.27955870857394483 0 -0.32577683519746242 -0.25897579210934468 0 -0.33065211668571071 -0.27437360408278932 0 -0.3425640544848888 -0.26114950363554529 0 -0.32577683519746242 -0.25897579210934468 0 -0.3425640544848888 -0.26114950363554529 0 -0.34161545739809862 -0.2441761224370865 0 -0.3425640544848888 -0.26114950363554529 0 -0.35707845064694121 -0.24935767075674509 0 -0.34161545739809862 -0.2441761224370865 0 -0.3425640544848888 -0.26114950363554529 0 -0.3649670455202999 -0.26874890716535171 0 -0.35707845064694121 -0.24935767075674509 0 -0.3649670455202999 -0.26874890716535171 0 -0.35707845064694121 -0.24935767075674509 0 -0.37969836118369482 -0.26041778922000308 0 -0.36999160380854529 -0.25160890498862648 0 -0.3649670455202999 -0.26874890716535171 0 -0.36999160380854529 -0.25160890498862648 0 -0.3649670455202999 -0.26874890716535171 0 -0.35707845064694121 -0.24935767075674509 0 -0.37969836118369482 -0.26041778922000308 0 -0.3649670455202999 -0.26874890716535171 0 -0.3649670455202999 -0.26874890716535171 0 -0.3458528524608297 -0.27955870857394483 0 -0.37089355010314762 -0.28331705945197572 0 -0.37812768531643998 -0.2740521224023964 0 -0.3649670455202999 -0.26874890716535171 0 -0.37089355010314762 -0.28331705945197572 0 -0.3649670455202999 -0.26874890716535171 0 -0.37089355010314762 -0.28331705945197572 0 -0.37812768531643998 -0.2740521224023964 0 -0.37969836118369482 -0.26041778922000308 0 -0.3649670455202999 -0.26874890716535171 0 -0.3649670455202999 -0.26874890716535171 0 -0.3458528524608297 -0.27955870857394483 0 -0.3425640544848888 -0.26114950363554529 0 -0.3649670455202999 -0.26874890716535171 0 -0.3458528524608297 -0.27955870857394483 0 -0.3458528524608297 -0.27955870857394483 0 -0.35490209917173382 -0.29713784607450577 0 -0.33298414365747597 -0.29639048041041038 0 -0.3458528524608297 -0.27955870857394483 0 -0.37089355010314762 -0.28331705945197572 0 -0.35490209917173382 -0.29713784607450577 0 -0.35490209917173382 -0.29713784607450577 0 -0.33298414365747597 -0.29639048041041038 0 -0.37682005468599161 -0.29788521173860111 0 -0.37089355010314762 -0.28331705945197572 0 -0.35490209917173382 -0.29713784607450577 0 -0.37682005468599161 -0.29788521173860111 0 -0.37089355010314762 -0.28331705945197572 0 -0.37682005468599161 -0.29788521173860111 0 -0.35490209917173382 -0.29713784607450577 0 -0.37682005468599161 -0.29788521173860111 0 -0.36188894867209143 -0.31041699320339777 0 -0.35490209917173382 -0.29713784607450577 0 -0.37576395745092178 -0.3050725196501074 0 -0.36188894867209143 -0.31041699320339777 0 -0.37031507652163809 -0.31287943285871039 0 -0.37576395745092178 -0.3050725196501074 0 -0.37719713711566749 -0.31197748083789167 0 -0.37031507652163809 -0.31287943285871039 0 -0.37682005468599161 -0.29788521173860111 0 -0.37576395745092178 -0.3050725196501074 0 -0.36188894867209143 -0.31041699320339777 0 -0.36188894867209143 -0.31041699320339777 0 -0.35490209917173382 -0.29713784607450577 0 -0.34709214139205768 -0.31270838654372951 0 -0.35490209917173382 -0.29713784607450577 0 -0.34179204247812539 -0.30372858581904438 0 -0.34709214139205768 -0.31270838654372951 0 -0.35490209917173382 -0.29713784607450577 0 -0.34179204247812539 -0.30372858581904438 0 -0.33298414365747597 -0.29639048041041038 0 -0.33218978569123447 -0.30867763024753198 0 -0.34179204247812539 -0.30372858581904438 0 -0.34709214139205768 -0.31270838654372951 0 -0.33218978569123447 -0.30867763024753198 0 -0.34179204247812539 -0.30372858581904438 0 -0.33298414365747597 -0.29639048041041038 0 -0.33218978569123447 -0.30867763024753198 0 -0.33298414365747597 -0.29639048041041038 0 -0.32551389594434832 -0.29891105756718273 0 -0.3458528524608297 -0.27955870857394483 0 -0.32673865940135971 -0.29036850998253821 0 -0.3458528524608297 -0.27955870857394483 0 -0.33298414365747597 -0.29639048041041038 0 -0.32673865940135971 -0.29036850998253821 0 -0.33065211668571071 -0.27437360408278932 0 -0.3458528524608297 -0.27955870857394483 0 -0.32673865940135971 -0.29036850998253821 0 -0.33298414365747597 -0.29639048041041038 0 -0.32673865940135971 -0.29036850998253821 0 -0.32551389594434832 -0.29891105756718273 0 -0.32673865940135971 -0.29036850998253821 0 -0.31615320843671613 -0.29356321322440693 0 -0.32551389594434832 -0.29891105756718273 0 -0.31511343508082401 -0.27781322935613839 0 -0.32673865940135971 -0.29036850998253821 0 -0.31615320843671613 -0.29356321322440693 0 -0.31615320843671613 -0.29356321322440693 0 -0.31950368253495531 -0.30555545397102613 0 -0.30878428388507118 -0.30170417431472779 0 -0.31950368253495531 -0.30555545397102613 0 -0.3116392313269683 -0.31227800665128408 0 -0.30878428388507118 -0.30170417431472779 0 -0.31950368253495531 -0.30555545397102613 0 -0.32244955285570731 -0.31946983399639112 0 -0.3116392313269683 -0.31227800665128408 0 -0.33218978569123447 -0.30867763024753198 0 -0.31950368253495531 -0.30555545397102613 0 -0.32244955285570731 -0.31946983399639112 0 -0.33218978569123447 -0.30867763024753198 0 -0.31950368253495531 -0.30555545397102613 0 -0.32551389594434832 -0.29891105756718273 0 -0.31615320843671613 -0.29356321322440693 0 -0.31950368253495531 -0.30555545397102613 0 -0.32551389594434832 -0.29891105756718273 0 -0.32244955285570731 -0.31946983399639112 0 -0.30629799224095122 -0.32640742927921629 0 -0.3116392313269683 -0.31227800665128408 0 -0.32244955285570731 -0.31946983399639112 0 -0.32074380139974629 -0.33343701228721029 0 -0.30629799224095122 -0.32640742927921629 0 -0.32244955285570731 -0.31946983399639112 0 -0.32074380139974629 -0.33343701228721029 0 -0.33561670872011118 -0.32538867032004731 0 -0.32074380139974629 -0.33343701228721029 0 -0.33040605641151349 -0.34939015350577979 0 -0.304947043925899 -0.34335287533409059 0 -0.32074380139974629 -0.33343701228721029 0 -0.33267344648675012 -0.33694306544023261 0 -0.33040605641151349 -0.34939015350577979 0 -0.32074380139974629 -0.33343701228721029 0 -0.33267344648675012 -0.33694306544023261 0 -0.33561670872011118 -0.32538867032004731 0 -0.33267344648675012 -0.33694306544023261 0 -0.34392721941562959 -0.33955642564789279 0 -0.33040605641151349 -0.34939015350577979 0 -0.33561670872011118 -0.32538867032004731 0 -0.349287455364583 -0.32600753078393868 0 -0.34392721941562959 -0.33955642564789279 0 -0.33267344648675012 -0.33694306544023261 0 -0.33561670872011118 -0.32538867032004731 0 -0.34392721941562959 -0.33955642564789279 0 -0.33218978569123447 -0.30867763024753198 0 -0.33561670872011118 -0.32538867032004731 0 -0.34709214139205768 -0.31270838654372951 0 -0.33218978569123447 -0.30867763024753198 0 -0.32244955285570731 -0.31946983399639112 0 -0.33561670872011118 -0.32538867032004731 0 -0.33561670872011118 -0.32538867032004731 0 -0.34709214139205768 -0.31270838654372951 0 -0.349287455364583 -0.32600753078393868 0 -0.36188894867209143 -0.31041699320339777 0 -0.349287455364583 -0.32600753078393868 0 -0.36280179597878331 -0.32525767970938912 0 -0.36188894867209143 -0.31041699320339777 0 -0.34709214139205768 -0.31270838654372951 0 -0.349287455364583 -0.32600753078393868 0 -0.36188894867209143 -0.31041699320339777 0 -0.36280179597878331 -0.32525767970938912 0 -0.37031507652163809 -0.31287943285871039 0 -0.37746168828861648 -0.32880316406910598 0 -0.36280179597878331 -0.32525767970938912 0 -0.37456534516798468 -0.31943469669369101 0 -0.36280179597878331 -0.32525767970938912 0 -0.37456534516798468 -0.31943469669369101 0 -0.37031507652163809 -0.31287943285871039 0 -0.37719713711566749 -0.31197748083789167 0 -0.37456534516798468 -0.31943469669369101 0 -0.37031507652163809 -0.31287943285871039 0 -0.37630104444955431 -0.33953575302191552 0 -0.36280179597878331 -0.32525767970938912 0 -0.35900277781907919 -0.33873387737807908 0 -0.37630104444955431 -0.33953575302191552 0 -0.35900277781907919 -0.33873387737807908 0 -0.3662355090989915 -0.348226851570058 0 -0.37746168828861648 -0.32880316406910598 0 -0.37630104444955431 -0.33953575302191552 0 -0.36280179597878331 -0.32525767970938912 0 -0.37630104444955431 -0.33953575302191552 0 -0.36280179597878331 -0.32525767970938912 0 -0.349287455364583 -0.32600753078393868 0 -0.36280179597878331 -0.32525767970938912 0 -0.35900277781907919 -0.33873387737807908 0 -0.349287455364583 -0.32600753078393868 0 -0.35900277781907919 -0.33873387737807908 0 -0.34392721941562959 -0.33955642564789279 0 -0.34392721941562959 -0.33955642564789279 0 -0.34378478126742867 -0.35168705731137051 0 -0.35474622765707731 -0.3530842238088211 0 -0.34378478126742867 -0.35168705731137051 0 -0.35474622765707731 -0.3530842238088211 0 -0.34605962158549469 -0.3647174262829882 0 -0.35474622765707731 -0.3530842238088211 0 -0.34605962158549469 -0.3647174262829882 0 -0.35474622765707731 -0.3530842238088211 0 -0.3645004591251928 -0.35797240650737622 0 -0.3557305472228397 -0.36248105220686111 0 -0.35900277781907919 -0.33873387737807908 0 -0.34392721941562959 -0.33955642564789279 0 -0.35474622765707731 -0.3530842238088211 0 -0.35900277781907919 -0.33873387737807908 0 -0.35474622765707731 -0.3530842238088211 0 -0.3662355090989915 -0.348226851570058 0 -0.35474622765707731 -0.3530842238088211 0 -0.3662355090989915 -0.348226851570058 0 -0.3645004591251928 -0.35797240650737622 0 -0.37501505732771462 -0.35270295609204683 0 -0.3662355090989915 -0.348226851570058 0 -0.3645004591251928 -0.35797240650737622 0 -0.37501505732771462 -0.35270295609204683 0 -0.3645004591251928 -0.35797240650737622 0 -0.37245563567842283 -0.36342144099550278 0 -0.37501505732771462 -0.35270295609204683 0 -0.37630104444955431 -0.33953575302191552 0 -0.3662355090989915 -0.348226851570058 0 -0.35160698284412462 -0.37014915498247181 0 -0.36791003929668897 -0.37531597356073781 0 -0.3617394449023093 -0.36648204945264778 0 -0.35160698284412462 -0.37014915498247181 0 -0.36791003929668897 -0.37531597356073781 0 -0.37245563567842283 -0.36342144099550278 0 -0.3617394449023093 -0.36648204945264778 0 -0.36791003929668897 -0.37531597356073781 0 -0.37576852049830373 -0.37424143402576782 0 -0.37245563567842283 -0.36342144099550278 0 -0.36791003929668897 -0.37531597356073781 0 -0.3645004591251928 -0.35797240650737622 0 -0.3617394449023093 -0.36648204945264778 0 -0.3557305472228397 -0.36248105220686111 0 -0.3645004591251928 -0.35797240650737622 0 -0.37245563567842283 -0.36342144099550278 0 -0.3617394449023093 -0.36648204945264778 0 -0.35474622765707731 -0.3530842238088211 0 -0.3557305472228397 -0.36248105220686111 0 -0.34605962158549469 -0.3647174262829882 0 -0.3617394449023093 -0.36648204945264778 0 -0.35160698284412462 -0.37014915498247181 0 -0.3557305472228397 -0.36248105220686111 0 -0.35160698284412462 -0.37014915498247181 0 -0.3557305472228397 -0.36248105220686111 0 -0.34605962158549469 -0.3647174262829882 0 -0.34605962158549469 -0.3647174262829882 0 -0.34384142010082153 -0.36768806715090302 0 -0.34148886242004811 -0.36564807466747679 0 -0.34605962158549469 -0.3647174262829882 0 -0.34384142010082153 -0.36768806715090302 0 -0.35160698284412462 -0.37014915498247181 0 -0.34384142010082153 -0.36768806715090302 0 -0.3473193197300139 -0.3757558619871843 0 -0.35160698284412462 -0.37014915498247181 0 -0.34384142010082153 -0.36768806715090302 0 -0.35160698284412462 -0.37014915498247181 0 -0.34605962158549469 -0.3647174262829882 0 -0.35160698284412462 -0.37014915498247181 0 -0.34605962158549469 -0.3647174262829882 0 -0.34384142010082153 -0.36768806715090302 0 -0.34384142010082153 -0.36768806715090302 0 -0.3394050004453173 -0.36792428240374231 0 -0.33667947897576161 -0.37727942084292682 0 -0.34384142010082153 -0.36768806715090302 0 -0.33667947897576161 -0.37727942084292682 0 -0.34384142010082153 -0.36768806715090302 0 -0.3473193197300139 -0.3757558619871843 0 -0.33667947897576161 -0.37727942084292682 0 -0.32081326145083022 -0.36031614808850881 0 -0.33667947897576161 -0.37727942084292682 0 -0.3394050004453173 -0.36792428240374231 0 -0.33336643958396978 -0.36601612799497002 0 -0.33667947897576161 -0.37727942084292682 0 -0.33336643958396978 -0.36601612799497002 0 -0.32081326145083022 -0.36031614808850881 0 -0.33667947897576161 -0.37727942084292682 0 -0.33132451367914112 -0.3606866026678322 0 -0.33336643958396978 -0.36601612799497002 0 -0.32081326145083022 -0.36031614808850881 0 -0.33132451367914112 -0.3606866026678322 0 -0.33336643958396978 -0.36601612799497002 0 -0.33697234037925838 -0.36236486777317728 0 -0.34605962158549469 -0.3647174262829882 0 -0.33697234037925838 -0.36236486777317728 0 -0.34148886242004811 -0.36564807466747679 0 -0.3394050004453173 -0.36792428240374231 0 -0.33697234037925838 -0.36236486777317728 0 -0.34148886242004811 -0.36564807466747679 0 -0.3394050004453173 -0.36792428240374231 0 -0.33336643958396978 -0.36601612799497002 0 -0.33697234037925838 -0.36236486777317728 0 -0.34384142010082153 -0.36768806715090302 0 -0.3394050004453173 -0.36792428240374231 0 -0.34148886242004811 -0.36564807466747679 0 -0.34605962158549469 -0.3647174262829882 0 -0.33040605641151349 -0.34939015350577979 0 -0.34378478126742867 -0.35168705731137051 0 -0.34605962158549469 -0.3647174262829882 0 -0.33040605641151349 -0.34939015350577979 0 -0.34605962158549469 -0.3647174262829882 0 -0.33697234037925838 -0.36236486777317728 0 -0.33040605641151349 -0.34939015350577979 0 -0.34392721941562959 -0.33955642564789279 0 -0.34378478126742867 -0.35168705731137051 0 -0.33040605641151349 -0.34939015350577979 0 -0.33132451367914112 -0.3606866026678322 0 -0.33697234037925838 -0.36236486777317728 0 -0.33040605641151349 -0.34939015350577979 0 -0.33040605641151349 -0.34939015350577979 0 -0.32081326145083022 -0.36031614808850881 0 -0.304947043925899 -0.34335287533409059 0 -0.32081326145083022 -0.36031614808850881 0 -0.304947043925899 -0.34335287533409059 0 -0.33132451367914112 -0.3606866026678322 0 -0.33040605641151349 -0.34939015350577979 0 -0.32081326145083022 -0.36031614808850881 0 -0.32440986188565729 -0.37270080156259489 0 -0.32081326145083022 -0.36031614808850881 0 -0.31106328263090982 -0.36800475596674848 0 -0.32440986188565729 -0.37270080156259489 0 -0.32081326145083022 -0.36031614808850881 0 -0.33667947897576161 -0.37727942084292682 0 -0.32440986188565729 -0.37270080156259489 0 -0.31106328263090982 -0.36800475596674848 0 -0.31317375432424149 -0.38208007184035081 0 -0.31106328263090982 -0.36800475596674848 0 -0.30477466129399572 -0.35837215094430408 0 -0.2945929359319488 -0.36760614731534108 0 -0.32081326145083022 -0.36031614808850881 0 -0.31106328263090982 -0.36800475596674848 0 -0.30477466129399572 -0.35837215094430408 0 -0.2945929359319488 -0.36760614731534108 0 -0.31317375432424149 -0.38208007184035081 0 -0.31106328263090982 -0.36800475596674848 0 -0.2945929359319488 -0.36760614731534108 0 -0.31317375432424149 -0.38208007184035081 0 -0.30477466129399572 -0.35837215094430408 0 -0.29245678253039098 -0.35258082801683138 0 -0.2945929359319488 -0.36760614731534108 0 -0.32081326145083022 -0.36031614808850881 0 -0.30477466129399572 -0.35837215094430408 0 -0.304947043925899 -0.34335287533409059 0 -0.30477466129399572 -0.35837215094430408 0 -0.29245678253039098 -0.35258082801683138 0 -0.304947043925899 -0.34335287533409059 0 -0.29245678253039098 -0.35258082801683138 0 -0.27601211753965582 -0.35313222279033191 0 -0.28440521569258082 -0.34149228361744682 0 -0.29245678253039098 -0.35258082801683138 0 -0.2945929359319488 -0.36760614731534108 0 -0.27601211753965582 -0.35313222279033191 0 -0.29245678253039098 -0.35258082801683138 0 -0.28440521569258082 -0.34149228361744682 0 -0.304947043925899 -0.34335287533409059 0 -0.2945929359319488 -0.36760614731534108 0 -0.27987861861344199 -0.36674592141788198 0 -0.27601211753965582 -0.35313222279033191 0 -0.2945929359319488 -0.36760614731534108 0 -0.27601211753965582 -0.35313222279033191 0 -0.2945929359319488 -0.36760614731534108 0 -0.27987861861344199 -0.36674592141788198 0 -0.2808665902171914 -0.38228580422035652 0 -0.26678221966742222 -0.3646399338773868 0 -0.2808665902171914 -0.38228580422035652 0 -0.27987861861344199 -0.36674592141788198 0 -0.26678221966742222 -0.3646399338773868 0 -0.2808665902171914 -0.38228580422035652 0 -0.27987861861344199 -0.36674592141788198 0 -0.26678221966742222 -0.3646399338773868 0 -0.27601211753965582 -0.35313222279033191 0 -0.26678221966742222 -0.3646399338773868 0 -0.25938421221386299 -0.38242260424217978 0 -0.2452998416640946 -0.36477673389921211 0 -0.25269784911765092 -0.34699406353441858 0 -0.27601211753965582 -0.35313222279033191 0 -0.25743129914736268 -0.33865829826532268 0 -0.26678221966742222 -0.3646399338773868 0 -0.25269784911765092 -0.34699406353441858 0 -0.27601211753965582 -0.35313222279033191 0 -0.26678221966742222 -0.3646399338773868 0 -0.25269784911765092 -0.34699406353441858 0 -0.26678221966742222 -0.3646399338773868 0 -0.25269784911765092 -0.34699406353441858 0 -0.2452998416640946 -0.36477673389921211 0 -0.27601211753965582 -0.35313222279033191 0 -0.25743129914736268 -0.33865829826532268 0 -0.27601211753965582 -0.35313222279033191 0 -0.27044436538280059 -0.34111632069956299 0 -0.25743129914736268 -0.33865829826532268 0 -0.27601211753965582 -0.35313222279033191 0 -0.27044436538280059 -0.34111632069956299 0 -0.28440521569258082 -0.34149228361744682 0 -0.27621603835147168 -0.33027839755104138 0 -0.27044436538280059 -0.34111632069956299 0 -0.28440521569258082 -0.34149228361744682 0 -0.27621603835147168 -0.33027839755104138 0 -0.26858322842119509 -0.33433735121453573 0 -0.26421331744216298 -0.32943061110636401 0 -0.27621603835147168 -0.33027839755104138 0 -0.26858322842119509 -0.33433735121453573 0 -0.27044436538280059 -0.34111632069956299 0 -0.26858322842119509 -0.33433735121453573 0 -0.27044436538280059 -0.34111632069956299 0 -0.26348614366539269 -0.33464536090729041 0 -0.25269784911765092 -0.34699406353441858 0 -0.2601150759189611 -0.3291651954159735 0 -0.25269784911765092 -0.34699406353441858 0 -0.2601150759189611 -0.3291651954159735 0 -0.25743129914736268 -0.33865829826532268 0 -0.27044436538280059 -0.34111632069956299 0 -0.26348614366539269 -0.33464536090729041 0 -0.25743129914736268 -0.33865829826532268 0 -0.26348614366539269 -0.33464536090729041 0 -0.2601150759189611 -0.3291651954159735 0 -0.25743129914736268 -0.33865829826532268 0 -0.26858322842119509 -0.33433735121453573 0 -0.26348614366539269 -0.33464536090729041 0 -0.26421331744216298 -0.32943061110636401 0 -0.26348614366539269 -0.33464536090729041 0 -0.26421331744216298 -0.32943061110636401 0 -0.2601150759189611 -0.3291651954159735 0 -0.25993101682886932 -0.31889206187407287 0 -0.25469452373499762 -0.30722313484128749 0 -0.2494260049788683 -0.31746489113439402 0 -0.2601150759189611 -0.3291651954159735 0 -0.25993101682886932 -0.31889206187407287 0 -0.2494260049788683 -0.31746489113439402 0 -0.26421331744216298 -0.32943061110636401 0 -0.2601150759189611 -0.3291651954159735 0 -0.25993101682886932 -0.31889206187407287 0 -0.26421331744216298 -0.32943061110636401 0 -0.25993101682886932 -0.31889206187407287 0 -0.27321460887603632 -0.30942632982525498 0 -0.27621603835147168 -0.33027839755104138 0 -0.28908082640096788 -0.32638960257967248 0 -0.27321460887603632 -0.30942632982525498 0 -0.26421331744216298 -0.32943061110636401 0 -0.27321460887603632 -0.30942632982525498 0 -0.28908082640096788 -0.32638960257967248 0 -0.27321460887603632 -0.30942632982525498 0 -0.27621603835147168 -0.33027839755104138 0 -0.26421331744216298 -0.32943061110636401 0 -0.27321460887603632 -0.30942632982525498 0 -0.28908082640096788 -0.32638960257967248 0 -0.29608772242085762 -0.30837888524759871 0 -0.27321460887603632 -0.30942632982525498 0 -0.28908082640096788 -0.32638960257967248 0 -0.28440521569258082 -0.34149228361744682 0 -0.304947043925899 -0.34335287533409059 0 -0.27621603835147168 -0.33027839755104138 0 -0.28908082640096788 -0.32638960257967248 0 -0.28440521569258082 -0.34149228361744682 0 -0.28908082640096788 -0.32638960257967248 0 -0.304947043925899 -0.34335287533409059 0 -0.32074380139974629 -0.33343701228721029 0 -0.304947043925899 -0.34335287533409059 0 -0.30629799224095122 -0.32640742927921629 0 -0.28908082640096788 -0.32638960257967248 0 -0.304947043925899 -0.34335287533409059 0 -0.30629799224095122 -0.32640742927921629 0 -0.30629799224095122 -0.32640742927921629 0 -0.3116392313269683 -0.31227800665128408 0 -0.29608772242085762 -0.30837888524759871 0 -0.28908082640096788 -0.32638960257967248 0 -0.30629799224095122 -0.32640742927921629 0 -0.29608772242085762 -0.30837888524759871 0 -0.30878428388507118 -0.30170417431472779 0 -0.30257535950331932 -0.29121923704559499 0 -0.29608772242085762 -0.30837888524759871 0 -0.3116392313269683 -0.31227800665128408 0 -0.30878428388507118 -0.30170417431472779 0 -0.29608772242085762 -0.30837888524759871 0 -0.31511343508082401 -0.27781322935613839 0 -0.31615320843671613 -0.29356321322440693 0 -0.30257535950331932 -0.29121923704559499 0 -0.31615320843671613 -0.29356321322440693 0 -0.30878428388507118 -0.30170417431472779 0 -0.30257535950331932 -0.29121923704559499 0 -0.31511343508082401 -0.27781322935613839 0 -0.30257535950331932 -0.29121923704559499 0 -0.30186967514470631 -0.27796386812733742 0 -0.30257535950331932 -0.29121923704559499 0 -0.28167541002104313 -0.29062322282537112 0 -0.29608772242085762 -0.30837888524759871 0 -0.30257535950331932 -0.29121923704559499 0 -0.28167541002104313 -0.29062322282537112 0 -0.30186967514470631 -0.27796386812733742 0 -0.28167541002104313 -0.29062322282537112 0 -0.29608772242085762 -0.30837888524759871 0 -0.27321460887603632 -0.30942632982525498 0 -0.28167541002104313 -0.29062322282537112 0 -0.27321460887603632 -0.30942632982525498 0 -0.28167541002104313 -0.29062322282537112 0 -0.27321460887603632 -0.30942632982525498 0 -0.25754389589834492 -0.29267207960278718 0 -0.27321460887603632 -0.30942632982525498 0 -0.25469452373499762 -0.30722313484128749 0 -0.25754389589834492 -0.29267207960278718 0 -0.27321460887603632 -0.30942632982525498 0 -0.25754389589834492 -0.29267207960278718 0 -0.25469452373499762 -0.30722313484128749 0 -0.25754389589834492 -0.29267207960278718 0 -0.24072416822125611 -0.30184362229434508 0 -0.25993101682886932 -0.31889206187407287 0 -0.27321460887603632 -0.30942632982525498 0 -0.25469452373499762 -0.30722313484128749 0 -0.28167541002104313 -0.29062322282537112 0 -0.25754389589834492 -0.29267207960278718 0 -0.26609549321717318 -0.27038600033383992 0 -0.28167541002104313 -0.29062322282537112 0 -0.26609549321717318 -0.27038600033383992 0 -0.29013621116605032 -0.27182011582548737 0 -0.25754389589834492 -0.29267207960278718 0 -0.26609549321717318 -0.27038600033383992 0 -0.24718685023563691 -0.27875123027958087 0 -0.26609549321717318 -0.27038600033383992 0 -0.2483490975252734 -0.26098873334868322 0 -0.24718685023563691 -0.27875123027958087 0 -0.26609549321717318 -0.27038600033383992 0 -0.2483490975252734 -0.26098873334868322 0 -0.2582168116042447 -0.2439014490639565 0 -0.26609549321717318 -0.27038600033383992 0 -0.28073519909821221 -0.25162370631188929 0 -0.2582168116042447 -0.2439014490639565 0 -0.26609549321717318 -0.27038600033383992 0 -0.28073519909821221 -0.25162370631188929 0 -0.29013621116605032 -0.27182011582548737 0 -0.28073519909821221 -0.25162370631188929 0 -0.29013621116605032 -0.27182011582548737 0 -0.29859701231105729 -0.25301700882560368 0 -0.29013621116605032 -0.27182011582548737 0 -0.29859701231105729 -0.25301700882560368 0 -0.28167541002104313 -0.29062322282537112 0 -0.29013621116605032 -0.27182011582548737 0 -0.28167541002104313 -0.29062322282537112 0 -0.29013621116605032 -0.27182011582548737 0 -0.30186967514470631 -0.27796386812733742 0 -0.29013621116605032 -0.27182011582548737 0 -0.30186967514470631 -0.27796386812733742 0 -0.30798481169360081 -0.26465381523239789 0 -0.31511343508082401 -0.27781322935613839 0 -0.30186967514470631 -0.27796386812733742 0 -0.30798481169360081 -0.26465381523239789 0 -0.29013621116605032 -0.27182011582548737 0 -0.30798481169360081 -0.26465381523239789 0 -0.29859701231105729 -0.25301700882560368 0 -0.30798481169360081 -0.26465381523239789 0 -0.29859701231105729 -0.25301700882560368 0 -0.31421725341188372 -0.24977587129631751 0 -0.33796228302189513 -0.4595255727132167 0 -0.33234589271538922 -0.44480996408757179 0 -0.32640026466812011 -0.46081896178250181 0 -0.33796228302189513 -0.4595255727132167 0 -0.33234589271538922 -0.44480996408757179 0 -0.35319602351827412 -0.45776170704885039 0 -0.33796228302189513 -0.4595255727132167 0 -0.32640026466812011 -0.46081896178250181 0 -0.33318196746883988 -0.47121638454265508 0 -0.33796228302189513 -0.4595255727132167 0 -0.33318196746883988 -0.47121638454265508 0 -0.34642386304625039 -0.46572223054776302 0 -0.33234589271538922 -0.44480996408757179 0 -0.35319602351827412 -0.45776170704885039 0 -0.34417399017822298 -0.44321594322297297 0 -0.33234589271538922 -0.44480996408757179 0 -0.35319602351827412 -0.45776170704885039 0 -0.33234589271538922 -0.44480996408757179 0 -0.34417399017822298 -0.44321594322297297 0 -0.3357600199570368 -0.42926052953436999 0 -0.33234589271538922 -0.44480996408757179 0 -0.3114957619125025 -0.43185822112629579 0 -0.33234589271538922 -0.44480996408757179 0 -0.31256905993156642 -0.45599936109409522 0 -0.3094409967240645 -0.4445248742670016 0 -0.33234589271538922 -0.44480996408757179 0 -0.3114957619125025 -0.43185822112629579 0 -0.3094409967240645 -0.4445248742670016 0 -0.31256905993156642 -0.45599936109409522 0 -0.32640026466812011 -0.46081896178250181 0 -0.31594212020290968 -0.47254352647497072 0 -0.32640026466812011 -0.46081896178250181 0 -0.31594212020290968 -0.47254352647497072 0 -0.33318196746883988 -0.47121638454265508 0 -0.33234589271538922 -0.44480996408757179 0 -0.31256905993156642 -0.45599936109409522 0 -0.32640026466812011 -0.46081896178250181 0 -0.31594212020290968 -0.47254352647497072 0 -0.32571643119753041 -0.48341426386358383 0 -0.33318196746883988 -0.47121638454265508 0 -0.31594212020290968 -0.47254352647497072 0 -0.32571643119753041 -0.48341426386358383 0 -0.3142379471820072 -0.49087834217350051 0 -0.32571643119753041 -0.48341426386358383 0 -0.3142379471820072 -0.49087834217350051 0 -0.33008082446145748 -0.5 0 -0.3142379471820072 -0.49087834217350051 0 -0.33008082446145748 -0.5 0 -0.30187341860680589 -0.5 0 -0.33008082446145748 -0.5 0 -0.33835912005968188 -0.48593346247900621 0 -0.35828823031610901 -0.5 0 -0.32571643119753041 -0.48341426386358383 0 -0.33008082446145748 -0.5 0 -0.33835912005968188 -0.48593346247900621 0 -0.33835912005968188 -0.48593346247900621 0 -0.33318196746883988 -0.47121638454265508 0 -0.35033712925844102 -0.47766396546025452 0 -0.33318196746883988 -0.47121638454265508 0 -0.35033712925844102 -0.47766396546025452 0 -0.34642386304625039 -0.46572223054776302 0 -0.32571643119753041 -0.48341426386358383 0 -0.33835912005968188 -0.48593346247900621 0 -0.33318196746883988 -0.47121638454265508 0 -0.35033712925844102 -0.47766396546025452 0 -0.36650464836053492 -0.47758333459014829 0 -0.36063794808603339 -0.46630538924086617 0 -0.35033712925844102 -0.47766396546025452 0 -0.36063794808603339 -0.46630538924086617 0 -0.34642386304625039 -0.46572223054776302 0 -0.33835912005968188 -0.48593346247900621 0 -0.35033712925844102 -0.47766396546025452 0 -0.35828823031610901 -0.5 0 -0.35033712925844102 -0.47766396546025452 0 -0.35828823031610901 -0.5 0 -0.36650464836053492 -0.47758333459014829 0 -0.38649563617076049 -0.5 0 -0.35828823031610901 -0.5 0 -0.36650464836053492 -0.47758333459014829 0 -0.36650464836053492 -0.47758333459014829 0 -0.3749125057523493 -0.4641870694620962 0 -0.36063794808603339 -0.46630538924086617 0 -0.38257104150817378 -0.44558539909593659 0 -0.3749125057523493 -0.4641870694620962 0 -0.36138234587818158 -0.45426427734382602 0 -0.3749125057523493 -0.4641870694620962 0 -0.36138234587818158 -0.45426427734382602 0 -0.36063794808603339 -0.46630538924086617 0 -0.36063794808603339 -0.46630538924086617 0 -0.35319602351827412 -0.45776170704885039 0 -0.34642386304625039 -0.46572223054776302 0 -0.36138234587818158 -0.45426427734382602 0 -0.35319602351827412 -0.45776170704885039 0 -0.35413130606104948 -0.44909707738868448 0 -0.36138234587818158 -0.45426427734382602 0 -0.36063794808603339 -0.46630538924086617 0 -0.35319602351827412 -0.45776170704885039 0 -0.33796228302189513 -0.4595255727132167 0 -0.35319602351827412 -0.45776170704885039 0 -0.34642386304625039 -0.46572223054776302 0 -0.34917789899954887 -0.43960621791601218 0 -0.34417399017822298 -0.44321594322297297 0 -0.3478317041277888 -0.43428891422125909 0 -0.34417399017822298 -0.44321594322297297 0 -0.35413130606104948 -0.44909707738868448 0 -0.35160182111049931 -0.44318126090920129 0 -0.34917789899954887 -0.43960621791601218 0 -0.34417399017822298 -0.44321594322297297 0 -0.35160182111049931 -0.44318126090920129 0 -0.34917789899954887 -0.43960621791601218 0 -0.35160182111049931 -0.44318126090920129 0 -0.35310408058168441 -0.43773875331061518 0 -0.35319602351827412 -0.45776170704885039 0 -0.34417399017822298 -0.44321594322297297 0 -0.35413130606104948 -0.44909707738868448 0 -0.36138234587818158 -0.45426427734382602 0 -0.35413130606104948 -0.44909707738868448 0 -0.3593008871480341 -0.44528990622411457 0 -0.35413130606104948 -0.44909707738868448 0 -0.35597289875446148 -0.442541016596669 0 -0.3593008871480341 -0.44528990622411457 0 -0.35597289875446148 -0.442541016596669 0 -0.3593008871480341 -0.44528990622411457 0 -0.35811375488379049 -0.43887755417772267 0 -0.35413130606104948 -0.44909707738868448 0 -0.35597289875446148 -0.442541016596669 0 -0.35160182111049931 -0.44318126090920129 0 -0.35597289875446148 -0.442541016596669 0 -0.35160182111049931 -0.44318126090920129 0 -0.35310408058168441 -0.43773875331061518 0 -0.35597289875446148 -0.442541016596669 0 -0.35310408058168441 -0.43773875331061518 0 -0.35811375488379049 -0.43887755417772267 0 -0.3593008871480341 -0.44528990622411457 0 -0.35811375488379049 -0.43887755417772267 0 -0.36466736862266619 -0.43929361107495862 0 -0.38257104150817378 -0.44558539909593659 0 -0.36138234587818158 -0.45426427734382602 0 -0.36466736862266619 -0.43929361107495862 0 -0.38257104150817378 -0.44558539909593659 0 -0.36138234587818158 -0.45426427734382602 0 -0.36138234587818158 -0.45426427734382602 0 -0.3593008871480341 -0.44528990622411457 0 -0.36466736862266619 -0.43929361107495862 0 -0.37857274293149029 -0.42876471734549271 0 -0.37441041966644201 -0.41853044649732968 0 -0.35538489801315631 -0.42903325471815951 0 -0.37857274293149029 -0.42876471734549271 0 -0.36466736862266619 -0.43929361107495862 0 -0.35538489801315631 -0.42903325471815951 0 -0.37857274293149029 -0.42876471734549271 0 -0.35538489801315631 -0.42903325471815951 0 -0.35811375488379049 -0.43887755417772267 0 -0.36466736862266619 -0.43929361107495862 0 -0.35620302754573391 -0.43383251126704991 0 -0.34839752669874718 -0.41300385642212029 0 -0.37209094330423159 -0.40089808531996213 0 -0.37441041966644201 -0.41853044649732968 0 -0.36549953895739912 -0.41199887396496521 0 -0.35538489801315631 -0.42903325471815951 0 -0.38249496913699632 -0.41100015469591239 0 -0.36549953895739912 -0.41199887396496521 0 -0.37602613074463359 -0.40570926791912437 0 -0.38249496913699632 -0.41100015469591239 0 -0.36549953895739912 -0.41199887396496521 0 -0.38249496913699632 -0.41100015469591239 0 -0.37441041966644201 -0.41853044649732968 0 -0.36549953895739912 -0.41199887396496521 0 -0.36549953895739912 -0.41199887396496521 0 -0.35538489801315631 -0.42903325471815951 0 -0.36549953895739912 -0.41199887396496521 0 -0.34839752669874718 -0.41300385642212029 0 -0.37209094330423159 -0.40089808531996213 0 -0.36549953895739912 -0.41199887396496521 0 -0.37209094330423159 -0.40089808531996213 0 -0.36549953895739912 -0.41199887396496521 0 -0.34839752669874718 -0.41300385642212029 0 -0.35538489801315631 -0.42903325471815951 0 -0.36549953895739912 -0.41199887396496521 0 -0.34839752669874718 -0.41300385642212029 0 -0.34839752669874718 -0.41300385642212029 0 -0.35538489801315631 -0.42903325471815951 0 -0.3357600199570368 -0.42926052953436999 0 -0.3478317041277888 -0.43428891422125909 0 -0.35538489801315631 -0.42903325471815951 0 -0.3357600199570368 -0.42926052953436999 0 -0.35538489801315631 -0.42903325471815951 0 -0.3357600199570368 -0.42926052953436999 0 -0.34917789899954887 -0.43960621791601218 0 -0.35310408058168441 -0.43773875331061518 0 -0.3478317041277888 -0.43428891422125909 0 -0.35310408058168441 -0.43773875331061518 0 -0.3478317041277888 -0.43428891422125909 0 -0.35306161513742162 -0.43384008959340059 0 -0.3478317041277888 -0.43428891422125909 0 -0.35306161513742162 -0.43384008959340059 0 -0.35538489801315631 -0.42903325471815951 0 -0.36466736862266619 -0.43929361107495862 0 -0.35620302754573391 -0.43383251126704991 0 -0.35538489801315631 -0.42903325471815951 0 -0.35306161513742162 -0.43384008959340059 0 -0.35620302754573391 -0.43383251126704991 0 -0.35538489801315631 -0.42903325471815951 0 -0.35310408058168441 -0.43773875331061518 0 -0.35306161513742162 -0.43384008959340059 0 -0.35620302754573391 -0.43383251126704991 0 -0.35310408058168441 -0.43773875331061518 0 -0.35811375488379049 -0.43887755417772267 0 -0.35620302754573391 -0.43383251126704991 0 -0.38353069879127127 -0.38163203803623119 0 -0.36346481754360999 -0.38175981779097429 0 -0.36791003929668897 -0.37531597356073781 0 -0.38353069879127127 -0.38163203803623119 0 -0.36346481754360999 -0.38175981779097429 0 -0.35160698284412462 -0.37014915498247181 0 -0.36346481754360999 -0.38175981779097429 0 -0.36791003929668897 -0.37531597356073781 0 -0.37610551335983561 -0.39413702328477918 0 -0.38353069879127127 -0.38163203803623119 0 -0.36346481754360999 -0.38175981779097429 0 -0.37610551335983561 -0.39413702328477918 0 -0.36346481754360999 -0.38175981779097429 0 -0.37610551335983561 -0.39413702328477918 0 -0.36346481754360999 -0.38175981779097429 0 -0.36560529781313122 -0.39247463880062672 0 -0.36346481754360999 -0.38175981779097429 0 -0.36560529781313122 -0.39247463880062672 0 -0.35703052239811178 -0.39769881565512172 0 -0.36560529781313122 -0.39247463880062672 0 -0.37209094330423159 -0.40089808531996213 0 -0.35703052239811178 -0.39769881565512172 0 -0.37610551335983561 -0.39413702328477918 0 -0.36560529781313122 -0.39247463880062672 0 -0.37209094330423159 -0.40089808531996213 0 -0.37610551335983561 -0.39413702328477918 0 -0.37209094330423159 -0.40089808531996213 0 -0.37602613074463359 -0.40570926791912437 0 -0.36549953895739912 -0.41199887396496521 0 -0.37209094330423159 -0.40089808531996213 0 -0.37602613074463359 -0.40570926791912437 0 -0.37629487057870992 -0.40149067916431569 0 -0.37209094330423159 -0.40089808531996213 0 -0.34839752669874718 -0.41300385642212029 0 -0.37209094330423159 -0.40089808531996213 0 -0.35703052239811178 -0.39769881565512172 0 -0.34839752669874718 -0.41300385642212029 0 -0.3475034212371978 -0.3977809036938752 0 -0.34022546423947331 -0.40183860272453797 0 -0.34839752669874718 -0.41300385642212029 0 -0.3475034212371978 -0.3977809036938752 0 -0.35703052239811178 -0.39769881565512172 0 -0.3475034212371978 -0.3977809036938752 0 -0.35703052239811178 -0.39769881565512172 0 -0.34623045780510991 -0.38749079344634257 0 -0.3475034212371978 -0.3977809036938752 0 -0.34623045780510991 -0.38749079344634257 0 -0.34159335278245839 -0.39476168625962771 0 -0.36346481754360999 -0.38175981779097429 0 -0.35703052239811178 -0.39769881565512172 0 -0.34623045780510991 -0.38749079344634257 0 -0.36346481754360999 -0.38175981779097429 0 -0.3473193197300139 -0.3757558619871843 0 -0.34100389918575219 -0.38190284916864559 0 -0.35160698284412462 -0.37014915498247181 0 -0.36346481754360999 -0.38175981779097429 0 -0.3473193197300139 -0.3757558619871843 0 -0.36346481754360999 -0.38175981779097429 0 -0.34100389918575219 -0.38190284916864559 0 -0.36346481754360999 -0.38175981779097429 0 -0.34623045780510991 -0.38749079344634257 0 -0.34100389918575219 -0.38190284916864559 0 -0.35160698284412462 -0.37014915498247181 0 -0.36346481754360999 -0.38175981779097429 0 -0.32440986188565729 -0.37270080156259489 0 -0.33318997219566882 -0.38195260834254191 0 -0.33667947897576161 -0.37727942084292682 0 -0.33318997219566882 -0.38195260834254191 0 -0.33667947897576161 -0.37727942084292682 0 -0.33318997219566882 -0.38195260834254191 0 -0.33667947897576161 -0.37727942084292682 0 -0.34100389918575219 -0.38190284916864559 0 -0.33318997219566882 -0.38195260834254191 0 -0.34100389918575219 -0.38190284916864559 0 -0.3473193197300139 -0.3757558619871843 0 -0.33667947897576161 -0.37727942084292682 0 -0.34100389918575219 -0.38190284916864559 0 -0.33667947897576161 -0.37727942084292682 0 -0.34100389918575219 -0.38190284916864559 0 -0.34623045780510991 -0.38749079344634257 0 -0.34100389918575219 -0.38190284916864559 0 -0.33841102596855821 -0.38947760426078792 0 -0.34623045780510991 -0.38749079344634257 0 -0.33841102596855821 -0.38947760426078792 0 -0.34159335278245839 -0.39476168625962771 0 -0.33318997219566882 -0.38195260834254191 0 -0.34100389918575219 -0.38190284916864559 0 -0.33841102596855821 -0.38947760426078792 0 -0.34623045780510991 -0.38749079344634257 0 -0.34100389918575219 -0.38190284916864559 0 -0.33318997219566882 -0.38195260834254191 0 -0.33841102596855821 -0.38947760426078792 0 -0.33274337939295218 -0.39158473010557698 0 -0.33318997219566882 -0.38195260834254191 0 -0.32576874152179608 -0.39189120557203078 0 -0.33318997219566882 -0.38195260834254191 0 -0.33274337939295218 -0.39158473010557698 0 -0.32576874152179608 -0.39189120557203078 0 -0.32912841244855839 -0.39450829284968242 0 -0.33559639466195301 -0.39722052717259471 0 -0.32788006366677641 -0.40250098545199881 0 -0.32912841244855839 -0.39450829284968242 0 -0.33274337939295218 -0.39158473010557698 0 -0.32576874152179608 -0.39189120557203078 0 -0.32912841244855839 -0.39450829284968242 0 -0.33559639466195301 -0.39722052717259471 0 -0.33274337939295218 -0.39158473010557698 0 -0.33841102596855821 -0.38947760426078792 0 -0.33559639466195301 -0.39722052717259471 0 -0.33274337939295218 -0.39158473010557698 0 -0.33841102596855821 -0.38947760426078792 0 -0.33559639466195301 -0.39722052717259471 0 -0.34159335278245839 -0.39476168625962771 0 -0.3475034212371978 -0.3977809036938752 0 -0.34159335278245839 -0.39476168625962771 0 -0.34022546423947331 -0.40183860272453797 0 -0.33559639466195301 -0.39722052717259471 0 -0.34159335278245839 -0.39476168625962771 0 -0.34022546423947331 -0.40183860272453797 0 -0.33559639466195301 -0.39722052717259471 0 -0.34022546423947331 -0.40183860272453797 0 -0.32788006366677641 -0.40250098545199881 0 -0.34022546423947331 -0.40183860272453797 0 -0.32788006366677641 -0.40250098545199881 0 -0.32831963194254171 -0.41418371360508938 0 -0.32788006366677641 -0.40250098545199881 0 -0.32576874152179608 -0.39189120557203078 0 -0.3082417371863363 -0.41536357078805991 0 -0.32576874152179608 -0.39189120557203078 0 -0.3082417371863363 -0.41536357078805991 0 -0.31067345205079122 -0.40297304657430971 0 -0.32576874152179608 -0.39189120557203078 0 -0.3082417371863363 -0.41536357078805991 0 -0.32576874152179608 -0.39189120557203078 0 -0.31035600328023122 -0.39454309529492188 0 -0.31067345205079122 -0.40297304657430971 0 -0.32912841244855839 -0.39450829284968242 0 -0.32788006366677641 -0.40250098545199881 0 -0.32576874152179608 -0.39189120557203078 0 -0.32912841244855839 -0.39450829284968242 0 -0.32576874152179608 -0.39189120557203078 0 -0.33318997219566882 -0.38195260834254191 0 -0.31317375432424149 -0.38208007184035081 0 -0.32440986188565729 -0.37270080156259489 0 -0.33318997219566882 -0.38195260834254191 0 -0.31317375432424149 -0.38208007184035081 0 -0.33318997219566882 -0.38195260834254191 0 -0.32576874152179608 -0.39189120557203078 0 -0.31317375432424149 -0.38208007184035081 0 -0.32576874152179608 -0.39189120557203078 0 -0.31317375432424149 -0.38208007184035081 0 -0.31035600328023122 -0.39454309529492188 0 -0.32576874152179608 -0.39189120557203078 0 -0.31317375432424149 -0.38208007184035081 0 -0.34417399017822298 -0.44321594322297297 0 -0.3478317041277888 -0.43428891422125909 0 -0.3357600199570368 -0.42926052953436999 0 -0.34839752669874718 -0.41300385642212029 0 -0.34022546423947331 -0.40183860272453797 0 -0.32831963194254171 -0.41418371360508938 0 -0.34839752669874718 -0.41300385642212029 0 -0.33226633429983238 -0.42124583038635088 0 -0.34839752669874718 -0.41300385642212029 0 -0.3357600199570368 -0.42926052953436999 0 -0.33226633429983238 -0.42124583038635088 0 -0.34839752669874718 -0.41300385642212029 0 -0.32831963194254171 -0.41418371360508938 0 -0.33226633429983238 -0.42124583038635088 0 -0.34839752669874718 -0.41300385642212029 0 -0.32831963194254171 -0.41418371360508938 0 -0.32831963194254171 -0.41418371360508938 0 -0.33226633429983238 -0.42124583038635088 0 -0.32271744639311822 -0.42156188657798022 0 -0.32788006366677641 -0.40250098545199881 0 -0.32831963194254171 -0.41418371360508938 0 -0.3082417371863363 -0.41536357078805991 0 -0.32831963194254171 -0.41418371360508938 0 -0.3142906732686378 -0.42168422233663161 0 -0.3082417371863363 -0.41536357078805991 0 -0.32831963194254171 -0.41418371360508938 0 -0.3082417371863363 -0.41536357078805991 0 -0.32831963194254171 -0.41418371360508938 0 -0.32271744639311822 -0.42156188657798022 0 -0.3142906732686378 -0.42168422233663161 0 -0.33234589271538922 -0.44480996408757179 0 -0.31613514190091718 -0.42948780435058093 0 -0.3114957619125025 -0.43185822112629579 0 -0.33234589271538922 -0.44480996408757179 0 -0.3357600199570368 -0.42926052953436999 0 -0.31613514190091718 -0.42948780435058093 0 -0.3142906732686378 -0.42168422233663161 0 -0.31613514190091718 -0.42948780435058093 0 -0.30783454039896002 -0.42958393323736038 0 -0.32271744639311822 -0.42156188657798022 0 -0.3142906732686378 -0.42168422233663161 0 -0.31613514190091718 -0.42948780435058093 0 -0.3357600199570368 -0.42926052953436999 0 -0.31613514190091718 -0.42948780435058093 0 -0.33226633429983238 -0.42124583038635088 0 -0.32271744639311822 -0.42156188657798022 0 -0.31613514190091718 -0.42948780435058093 0 -0.3357600199570368 -0.42926052953436999 0 -0.33226633429983238 -0.42124583038635088 0 -0.31613514190091718 -0.42948780435058093 0 -0.33226633429983238 -0.42124583038635088 0 -0.31613514190091718 -0.42948780435058093 0 -0.31613514190091718 -0.42948780435058093 0 -0.3114957619125025 -0.43185822112629579 0 -0.3114957619125025 -0.43185822112629579 0 -0.30783454039896002 -0.42958393323736038 0 -0.29634270858520939 -0.43960043062412468 0 -0.31613514190091718 -0.42948780435058093 0 -0.3114957619125025 -0.43185822112629579 0 -0.30783454039896002 -0.42958393323736038 0 -0.30331343782522491 -0.42196360581309772 0 -0.30783454039896002 -0.42958393323736038 0 -0.29157272882734891 -0.41634310820889481 0 -0.3114957619125025 -0.43185822112629579 0 -0.30783454039896002 -0.42958393323736038 0 -0.3114957619125025 -0.43185822112629579 0 -0.29634270858520939 -0.43960043062412468 0 -0.31613514190091718 -0.42948780435058093 0 -0.30783454039896002 -0.42958393323736038 0 -0.3142906732686378 -0.42168422233663161 0 -0.30331343782522491 -0.42196360581309772 0 -0.30783454039896002 -0.42958393323736038 0 -0.3142906732686378 -0.42168422233663161 0 -0.30331343782522491 -0.42196360581309772 0 -0.3082417371863363 -0.41536357078805991 0 -0.3082417371863363 -0.41536357078805991 0 -0.29157272882734891 -0.41634310820889481 0 -0.30331343782522491 -0.42196360581309772 0 -0.3082417371863363 -0.41536357078805991 0 -0.29157272882734891 -0.41634310820889481 0 -0.3082417371863363 -0.41536357078805991 0 -0.30512179815010648 -0.41267440077236472 0 -0.29157272882734891 -0.41634310820889481 0 -0.30331343782522491 -0.42196360581309772 0 -0.3082417371863363 -0.41536357078805991 0 -0.3082417371863363 -0.41536357078805991 0 -0.30512179815010648 -0.41267440077236472 0 -0.31067345205079122 -0.40297304657430971 0 -0.30512179815010648 -0.41267440077236472 0 -0.29157272882734891 -0.41634310820889481 0 -0.29482814950023328 -0.40830219942147938 0 -0.30783454039896002 -0.42958393323736038 0 -0.29157272882734891 -0.41634310820889481 0 -0.28412874470879912 -0.41485830032050902 0 -0.28962387683982849 -0.40671118620829788 0 -0.28412874470879912 -0.41485830032050902 0 -0.27887794756246431 -0.39894882893499961 0 -0.29157272882734891 -0.41634310820889481 0 -0.28962387683982849 -0.40671118620829788 0 -0.29482814950023328 -0.40830219942147938 0 -0.29157272882734891 -0.41634310820889481 0 -0.28962387683982849 -0.40671118620829788 0 -0.28412874470879912 -0.41485830032050902 0 -0.30783454039896002 -0.42958393323736038 0 -0.28525385456372598 -0.42984543912842699 0 -0.30783454039896002 -0.42958393323736038 0 -0.28412874470879912 -0.41485830032050902 0 -0.28525385456372598 -0.42984543912842699 0 -0.30783454039896002 -0.42958393323736038 0 -0.28525385456372598 -0.42984543912842699 0 -0.29634270858520939 -0.43960043062412468 0 -0.30783454039896002 -0.42958393323736038 0 -0.28412874470879912 -0.41485830032050902 0 -0.2945929359319488 -0.36760614731534108 0 -0.31317375432424149 -0.38208007184035081 0 -0.29702017227071648 -0.3821829380303548 0 -0.31317375432424149 -0.38208007184035081 0 -0.29702017227071648 -0.3821829380303548 0 -0.30212301116225498 -0.3917042965809297 0 -0.31317375432424149 -0.38208007184035081 0 -0.29702017227071648 -0.3821829380303548 0 -0.31317375432424149 -0.38208007184035081 0 -0.30212301116225498 -0.3917042965809297 0 -0.31035600328023122 -0.39454309529492188 0 -0.29702017227071648 -0.3821829380303548 0 -0.30212301116225498 -0.3917042965809297 0 -0.29299419418364941 -0.39748010249636018 0 -0.30212301116225498 -0.3917042965809297 0 -0.3038789801154857 -0.40039296044417289 0 -0.29299419418364941 -0.39748010249636018 0 -0.30212301116225498 -0.3917042965809297 0 -0.31035600328023122 -0.39454309529492188 0 -0.3038789801154857 -0.40039296044417289 0 -0.31035600328023122 -0.39454309529492188 0 -0.31067345205079122 -0.40297304657430971 0 -0.3038789801154857 -0.40039296044417289 0 -0.30512179815010648 -0.41267440077236472 0 -0.31067345205079122 -0.40297304657430971 0 -0.3038789801154857 -0.40039296044417289 0 -0.30512179815010648 -0.41267440077236472 0 -0.29482814950023328 -0.40830219942147938 0 -0.29299419418364941 -0.39748010249636018 0 -0.30512179815010648 -0.41267440077236472 0 -0.3038789801154857 -0.40039296044417289 0 -0.29299419418364941 -0.39748010249636018 0 -0.30512179815010648 -0.41267440077236472 0 -0.29299419418364941 -0.39748010249636018 0 -0.29299419418364941 -0.39748010249636018 0 -0.2808665902171914 -0.38228580422035652 0 -0.27887794756246431 -0.39894882893499961 0 -0.28962387683982849 -0.40671118620829788 0 -0.29482814950023328 -0.40830219942147938 0 -0.29299419418364941 -0.39748010249636018 0 -0.28962387683982849 -0.40671118620829788 0 -0.29299419418364941 -0.39748010249636018 0 -0.27887794756246431 -0.39894882893499961 0 -0.2945929359319488 -0.36760614731534108 0 -0.29702017227071648 -0.3821829380303548 0 -0.2808665902171914 -0.38228580422035652 0 -0.29702017227071648 -0.3821829380303548 0 -0.29299419418364941 -0.39748010249636018 0 -0.2808665902171914 -0.38228580422035652 0 -0.29702017227071648 -0.3821829380303548 0 -0.2808665902171914 -0.38228580422035652 0 -0.29299419418364941 -0.39748010249636018 0 -0.2808665902171914 -0.38228580422035652 0 -0.2808665902171914 -0.38228580422035652 0 -0.25938421221386299 -0.38242260424217978 0 -0.2808665902171914 -0.38228580422035652 0 -0.26988792475303891 -0.39094747620029929 0 -0.25938421221386299 -0.38242260424217978 0 -0.26678221966742222 -0.3646399338773868 0 -0.2808665902171914 -0.38228580422035652 0 -0.25938421221386299 -0.38242260424217978 0 -0.2808665902171914 -0.38228580422035652 0 -0.26988792475303891 -0.39094747620029929 0 -0.27887794756246431 -0.39894882893499961 0 -0.26988792475303891 -0.39094747620029929 0 -0.27887794756246431 -0.39894882893499961 0 -0.26042294901863672 -0.40013266740365983 0 -0.28412874470879912 -0.41485830032050902 0 -0.27887794756246431 -0.39894882893499961 0 -0.26042294901863672 -0.40013266740365983 0 -0.26988792475303891 -0.39094747620029929 0 -0.26042294901863672 -0.40013266740365983 0 -0.25938421221386299 -0.38242260424217978 0 -0.26042294901863672 -0.40013266740365983 0 -0.25613810139819221 -0.41434132836670989 0 -0.2431093376423632 -0.40266188506415568 0 -0.26042294901863672 -0.40013266740365983 0 -0.25938421221386299 -0.38242260424217978 0 -0.23671715332847421 -0.38540703448681102 0 -0.28525385456372598 -0.42984543912842699 0 -0.26866387832805422 -0.43084198424433162 0 -0.28118965525791628 -0.44734264012195318 0 -0.28525385456372598 -0.42984543912842699 0 -0.26866387832805422 -0.43084198424433162 0 -0.27009367185483962 -0.41675208124042978 0 -0.28412874470879912 -0.41485830032050902 0 -0.28525385456372598 -0.42984543912842699 0 -0.27009367185483962 -0.41675208124042978 0 -0.28412874470879912 -0.41485830032050902 0 -0.26042294901863672 -0.40013266740365983 0 -0.28412874470879912 -0.41485830032050902 0 -0.26042294901863672 -0.40013266740365983 0 -0.27009367185483962 -0.41675208124042978 0 -0.26866387832805422 -0.43084198424433162 0 -0.27009367185483962 -0.41675208124042978 0 -0.25613810139819221 -0.41434132836670989 0 -0.25613810139819221 -0.41434132836670989 0 -0.25359928648481211 -0.43037401697981981 0 -0.24230037244337599 -0.4175018590364884 0 -0.26042294901863672 -0.40013266740365983 0 -0.27009367185483962 -0.41675208124042978 0 -0.25613810139819221 -0.41434132836670989 0 -0.26866387832805422 -0.43084198424433162 0 -0.25613810139819221 -0.41434132836670989 0 -0.26866387832805422 -0.43084198424433162 0 -0.25613810139819221 -0.41434132836670989 0 -0.25359928648481211 -0.43037401697981981 0 -0.26866387832805422 -0.43084198424433162 0 -0.25359928648481211 -0.43037401697981981 0 -0.2656706707878026 -0.4425776952979022 0 -0.25359928648481211 -0.43037401697981981 0 -0.25354060653463212 -0.44613406553729051 0 -0.2656706707878026 -0.4425776952979022 0 -0.25359928648481211 -0.43037401697981981 0 -0.25354060653463212 -0.44613406553729051 0 -0.2438451496940687 -0.43907002470141299 0 -0.25354060653463212 -0.44613406553729051 0 -0.26694214283005818 -0.45462217802476412 0 -0.2656706707878026 -0.4425776952979022 0 -0.25354060653463212 -0.44613406553729051 0 -0.25269463040220203 -0.46190171592757828 0 -0.26694214283005818 -0.45462217802476412 0 -0.25269463040220203 -0.46190171592757828 0 -0.26694214283005818 -0.45462217802476412 0 -0.27127733714919139 -0.47586075624730118 0 -0.25269463040220203 -0.46190171592757828 0 -0.26694214283005818 -0.45462217802476412 0 -0.26694214283005818 -0.45462217802476412 0 -0.28051910777735523 -0.46464962051151848 0 -0.27127733714919139 -0.47586075624730118 0 -0.26694214283005818 -0.45462217802476412 0 -0.28051910777735523 -0.46464962051151848 0 -0.28118965525791628 -0.44734264012195318 0 -0.26866387832805422 -0.43084198424433162 0 -0.2656706707878026 -0.4425776952979022 0 -0.28118965525791628 -0.44734264012195318 0 -0.26866387832805422 -0.43084198424433162 0 -0.28118965525791628 -0.44734264012195318 0 -0.26694214283005818 -0.45462217802476412 0 -0.2656706707878026 -0.4425776952979022 0 -0.28118965525791628 -0.44734264012195318 0 -0.26694214283005818 -0.45462217802476412 0 -0.28118965525791628 -0.44734264012195318 0 -0.28525385456372598 -0.42984543912842699 0 -0.28118965525791628 -0.44734264012195318 0 -0.29634270858520939 -0.43960043062412468 0 -0.28118965525791628 -0.44734264012195318 0 -0.29634270858520939 -0.43960043062412468 0 -0.28118965525791628 -0.44734264012195318 0 -0.29634270858520939 -0.43960043062412468 0 -0.29945124434374348 -0.45131555945098001 0 -0.28118965525791628 -0.44734264012195318 0 -0.2977138012199616 -0.4691104911477269 0 -0.28118965525791628 -0.44734264012195318 0 -0.29945124434374348 -0.45131555945098001 0 -0.2977138012199616 -0.4691104911477269 0 -0.28051910777735523 -0.46464962051151848 0 -0.28118965525791628 -0.44734264012195318 0 -0.2977138012199616 -0.4691104911477269 0 -0.31256905993156642 -0.45599936109409522 0 -0.29945124434374348 -0.45131555945098001 0 -0.2977138012199616 -0.4691104911477269 0 -0.31256905993156642 -0.45599936109409522 0 -0.31594212020290968 -0.47254352647497072 0 -0.2977138012199616 -0.4691104911477269 0 -0.31256905993156642 -0.45599936109409522 0 -0.3094409967240645 -0.4445248742670016 0 -0.29945124434374348 -0.45131555945098001 0 -0.3114957619125025 -0.43185822112629579 0 -0.29634270858520939 -0.43960043062412468 0 -0.3094409967240645 -0.4445248742670016 0 -0.29634270858520939 -0.43960043062412468 0 -0.3094409967240645 -0.4445248742670016 0 -0.29945124434374348 -0.45131555945098001 0 -0.3142379471820072 -0.49087834217350051 0 -0.29783156266692112 -0.48522413338081982 0 -0.30187341860680589 -0.5 0 -0.3142379471820072 -0.49087834217350051 0 -0.29783156266692112 -0.48522413338081982 0 -0.2977138012199616 -0.4691104911477269 0 -0.31594212020290968 -0.47254352647497072 0 -0.3142379471820072 -0.49087834217350051 0 -0.2977138012199616 -0.4691104911477269 0 -0.3142379471820072 -0.49087834217350051 0 -0.2977138012199616 -0.4691104911477269 0 -0.28051910777735523 -0.46464962051151848 0 -0.2977138012199616 -0.4691104911477269 0 -0.28547260242964922 -0.47631203701584812 0 -0.29783156266692112 -0.48522413338081982 0 -0.2977138012199616 -0.4691104911477269 0 -0.28547260242964922 -0.47631203701584812 0 -0.28547260242964922 -0.47631203701584812 0 -0.28986004389618147 -0.48981979656702318 0 -0.27127733714919139 -0.47586075624730118 0 -0.29783156266692112 -0.48522413338081982 0 -0.28547260242964922 -0.47631203701584812 0 -0.28986004389618147 -0.48981979656702318 0 -0.30187341860680589 -0.5 0 -0.28986004389618147 -0.48981979656702318 0 -0.2736660127521543 -0.5 0 -0.29783156266692112 -0.48522413338081982 0 -0.30187341860680589 -0.5 0 -0.28986004389618147 -0.48981979656702318 0 -0.28986004389618147 -0.48981979656702318 0 -0.2736660127521543 -0.5 0 -0.27127733714919139 -0.47586075624730118 0 -0.2736660127521543 -0.5 0 -0.27127733714919139 -0.47586075624730118 0 -0.25894985238314572 -0.48237709588318323 0 -0.28986004389618147 -0.48981979656702318 0 -0.27127733714919139 -0.47586075624730118 0 -0.28051910777735523 -0.46464962051151848 0 -0.28547260242964922 -0.47631203701584812 0 -0.27127733714919139 -0.47586075624730118 0 -0.25269463040220203 -0.46190171592757828 0 -0.25894985238314572 -0.48237709588318323 0 -0.2452663440960669 -0.48013845744446582 0 -0.25269463040220203 -0.46190171592757828 0 -0.27127733714919139 -0.47586075624730118 0 -0.25269463040220203 -0.46190171592757828 0 -0.27127733714919139 -0.47586075624730118 0 -0.25894985238314572 -0.48237709588318323 0 -0.2736660127521543 -0.5 0 -0.25894985238314572 -0.48237709588318323 0 -0.2518449375161152 -0.49398454979657291 0 -0.2736660127521543 -0.5 0 -0.2518449375161152 -0.49398454979657291 0 -0.24545860689750271 -0.5 0 -0.25894985238314572 -0.48237709588318323 0 -0.2518449375161152 -0.49398454979657291 0 -0.2452663440960669 -0.48013845744446582 0 -0.2518449375161152 -0.49398454979657291 0 -0.2307928657777267 -0.48891641965364391 0 -0.2518449375161152 -0.49398454979657291 0 -0.2452663440960669 -0.48013845744446582 0 -0.2307928657777267 -0.48891641965364391 0 -0.2518449375161152 -0.49398454979657291 0 -0.24545860689750271 -0.5 0 -0.2307928657777267 -0.48891641965364391 0 -0.2452663440960669 -0.48013845744446582 0 -0.23121771222076951 -0.4728750027191454 0 -0.2307928657777267 -0.48891641965364391 0 -0.25269463040220203 -0.46190171592757828 0 -0.2452663440960669 -0.48013845744446582 0 -0.23121771222076951 -0.4728750027191454 0 -0.23121771222076951 -0.4728750027191454 0 -0.2307928657777267 -0.48891641965364391 0 -0.20974079403933829 -0.48384828951071468 0 -0.23121771222076951 -0.4728750027191454 0 -0.2159840481136181 -0.46956363033528908 0 -0.20974079403933829 -0.48384828951071468 0 -0.23121771222076951 -0.4728750027191454 0 -0.20974079403933829 -0.48384828951071468 0 -0.24545860689750271 -0.5 0 -0.2307928657777267 -0.48891641965364391 0 -0.21725120104285109 -0.5 0 -0.2307928657777267 -0.48891641965364391 0 -0.20974079403933829 -0.48384828951071468 0 -0.2307928657777267 -0.48891641965364391 0 -0.21725120104285109 -0.5 0 -0.20974079403933829 -0.48384828951071468 0 -0.25354060653463212 -0.44613406553729051 0 -0.25269463040220203 -0.46190171592757828 0 -0.23721599773282709 -0.450274407782012 0 -0.25354060653463212 -0.44613406553729051 0 -0.2438451496940687 -0.43907002470141299 0 -0.23721599773282709 -0.450274407782012 0 -0.2438451496940687 -0.43907002470141299 0 -0.23721599773282709 -0.450274407782012 0 -0.2347235744381061 -0.43699032632131868 0 -0.25269463040220203 -0.46190171592757828 0 -0.23721599773282709 -0.450274407782012 0 -0.23097902662785419 -0.46071537305467791 0 -0.25269463040220203 -0.46190171592757828 0 -0.23121771222076951 -0.4728750027191454 0 -0.23097902662785419 -0.46071537305467791 0 -0.25269463040220203 -0.46190171592757828 0 -0.23121771222076951 -0.4728750027191454 0 -0.25269463040220203 -0.46190171592757828 0 -0.23721599773282709 -0.450274407782012 0 -0.23097902662785419 -0.46071537305467791 0 -0.22320557245757189 -0.45136192584780271 0 -0.2159840481136181 -0.46956363033528908 0 -0.23121771222076951 -0.4728750027191454 0 -0.23097902662785419 -0.46071537305467791 0 -0.2159840481136181 -0.46956363033528908 0 -0.23721599773282709 -0.450274407782012 0 -0.23097902662785419 -0.46071537305467791 0 -0.22320557245757189 -0.45136192584780271 0 -0.22320557245757189 -0.45136192584780271 0 -0.22173736506345271 -0.43864709963644488 0 -0.21698213822720461 -0.43284430329106749 0 -0.22320557245757189 -0.45136192584780271 0 -0.21698213822720461 -0.43284430329106749 0 -0.23721599773282709 -0.450274407782012 0 -0.22320557245757189 -0.45136192584780271 0 -0.22173736506345271 -0.43864709963644488 0 -0.23721599773282709 -0.450274407782012 0 -0.22173736506345271 -0.43864709963644488 0 -0.23721599773282709 -0.450274407782012 0 -0.22173736506345271 -0.43864709963644488 0 -0.2347235744381061 -0.43699032632131868 0 -0.22320557245757189 -0.45136192584780271 0 -0.20700894554624619 -0.45681697418164519 0 -0.21698213822720461 -0.43284430329106749 0 -0.20700894554624619 -0.45681697418164519 0 -0.19303707249135671 -0.43059430015364047 0 -0.21698213822720461 -0.43284430329106749 0 -0.20700894554624619 -0.45681697418164519 0 -0.21698213822720461 -0.43284430329106749 0 -0.22320557245757189 -0.45136192584780271 0 -0.20700894554624619 -0.45681697418164519 0 -0.2159840481136181 -0.46956363033528908 0 -0.20700894554624619 -0.45681697418164519 0 -0.19703575286528649 -0.48078964507222238 0 -0.18502875603026461 -0.46494473610867582 0 -0.20700894554624619 -0.45681697418164519 0 -0.18502875603026461 -0.46494473610867582 0 -0.18271469687031749 -0.44845454828740711 0 -0.20700894554624619 -0.45681697418164519 0 -0.18271469687031749 -0.44845454828740711 0 -0.19303707249135671 -0.43059430015364047 0 -0.21725120104285109 -0.5 0 -0.20974079403933829 -0.48384828951071468 0 -0.19199021277984149 -0.49291766423347888 0 -0.20700894554624619 -0.45681697418164519 0 -0.2159840481136181 -0.46956363033528908 0 -0.19703575286528649 -0.48078964507222238 0 -0.2159840481136181 -0.46956363033528908 0 -0.20974079403933829 -0.48384828951071468 0 -0.19703575286528649 -0.48078964507222238 0 -0.20974079403933829 -0.48384828951071468 0 -0.19703575286528649 -0.48078964507222238 0 -0.20700894554624619 -0.45681697418164519 0 -0.19703575286528649 -0.48078964507222238 0 -0.21725120104285109 -0.5 0 -0.19199021277984149 -0.49291766423347888 0 -0.18904379518819939 -0.49999999999999578 0 -0.20974079403933829 -0.48384828951071468 0 -0.19703575286528649 -0.48078964507222238 0 -0.19199021277984149 -0.49291766423347888 0 -0.20974079403933829 -0.48384828951071468 0 -0.19199021277984149 -0.49291766423347888 0 -0.19703575286528649 -0.48078964507222238 0 -0.19199021277984149 -0.49291766423347888 0 -0.1806501400470899 -0.48733198327772198 0 -0.19703575286528649 -0.48078964507222238 0 -0.19199021277984149 -0.49291766423347888 0 -0.19199021277984149 -0.49291766423347888 0 -0.18904379518819939 -0.49999999999999578 0 -0.19199021277984149 -0.49291766423347888 0 -0.17812866439603481 -0.49999999999999267 0 -0.19199021277984149 -0.49291766423347888 0 -0.18904379518819939 -0.49999999999999578 0 -0.17812866439603481 -0.49999999999999267 0 -0.19199021277984149 -0.49291766423347888 0 -0.1806501400470899 -0.48733198327772198 0 -0.17812866439603481 -0.49999999999999267 0 -0.1806501400470899 -0.48733198327772198 0 -0.17812866439603481 -0.49999999999999267 0 -0.16526627315450881 -0.48681942287300078 0 -0.17812866439603481 -0.49999999999999267 0 -0.16526627315450881 -0.48681942287300078 0 -0.15384562597277671 -0.5 0 -0.16526627315450881 -0.48681942287300078 0 -0.15867829181438209 -0.47351517086903511 0 -0.14808882950896779 -0.48760950596642599 0 -0.16526627315450881 -0.48681942287300078 0 -0.15867829181438209 -0.47351517086903511 0 -0.17205258504960549 -0.47477513270279981 0 -0.15867829181438209 -0.47351517086903511 0 -0.17205258504960549 -0.47477513270279981 0 -0.1689107827671488 -0.46150338438528649 0 -0.19703575286528649 -0.48078964507222238 0 -0.17205258504960549 -0.47477513270279981 0 -0.19703575286528649 -0.48078964507222238 0 -0.17205258504960549 -0.47477513270279981 0 -0.18502875603026461 -0.46494473610867582 0 -0.19703575286528649 -0.48078964507222238 0 -0.1806501400470899 -0.48733198327772198 0 -0.17205258504960549 -0.47477513270279981 0 -0.1806501400470899 -0.48733198327772198 0 -0.16526627315450881 -0.48681942287300078 0 -0.17205258504960549 -0.47477513270279981 0 -0.17205258504960549 -0.47477513270279981 0 -0.18502875603026461 -0.46494473610867582 0 -0.1689107827671488 -0.46150338438528649 0 -0.18502875603026461 -0.46494473610867582 0 -0.18271469687031749 -0.44845454828740711 0 -0.1689107827671488 -0.46150338438528649 0 -0.18271469687031749 -0.44845454828740711 0 -0.16138963394859521 -0.44868252298987232 0 -0.1689107827671488 -0.46150338438528649 0 -0.18271469687031749 -0.44845454828740711 0 -0.16138963394859521 -0.44868252298987232 0 -0.16224644553901921 -0.42839564420087312 0 -0.16138963394859521 -0.44868252298987232 0 -0.1689107827671488 -0.46150338438528649 0 -0.15360073288972831 -0.45864819535392959 0 -0.15867829181438209 -0.47351517086903511 0 -0.1689107827671488 -0.46150338438528649 0 -0.15360073288972831 -0.45864819535392959 0 -0.15867829181438209 -0.47351517086903511 0 -0.14088984691242101 -0.46372891927135518 0 -0.15360073288972831 -0.45864819535392959 0 -0.14088984691242101 -0.46372891927135518 0 -0.15360073288972831 -0.45864819535392959 0 -0.14071409195337639 -0.4434269833400809 0 -0.16138963394859521 -0.44868252298987232 0 -0.15360073288972831 -0.45864819535392959 0 -0.14071409195337639 -0.4434269833400809 0 -0.16138963394859521 -0.44868252298987232 0 -0.14071409195337639 -0.4434269833400809 0 -0.16224644553901921 -0.42839564420087312 0 -0.14071409195337639 -0.4434269833400809 0 -0.11918173836773351 -0.45845832247928869 0 -0.14071409195337639 -0.4434269833400809 0 -0.11918173836773351 -0.45845832247928869 0 -0.1184149235461696 -0.43970471758753887 0 -0.14088984691242101 -0.46372891927135518 0 -0.14071409195337639 -0.4434269833400809 0 -0.11918173836773351 -0.45845832247928869 0 -0.14088984691242101 -0.46372891927135518 0 -0.1272556728232932 -0.47013049556587211 0 -0.11918173836773351 -0.45845832247928869 0 -0.13278436477725561 -0.4823434472460234 0 -0.1272556728232932 -0.47013049556587211 0 -0.1161667412357628 -0.47599129326682099 0 -0.14088984691242101 -0.46372891927135518 0 -0.13278436477725561 -0.4823434472460234 0 -0.1272556728232932 -0.47013049556587211 0 -0.13278436477725561 -0.4823434472460234 0 -0.12956258754951869 -0.5 0 -0.14808882950896779 -0.48760950596642599 0 -0.12956258754951869 -0.5 0 -0.15384562597277671 -0.5 0 -0.14808882950896779 -0.48760950596642599 0 -0.16526627315450881 -0.48681942287300078 0 -0.15384562597277671 -0.5 0 -0.14808882950896779 -0.48760950596642599 0 -0.15867829181438209 -0.47351517086903511 0 -0.14088984691242101 -0.46372891927135518 0 -0.13278436477725561 -0.4823434472460234 0 -0.15867829181438209 -0.47351517086903511 0 -0.13278436477725561 -0.4823434472460234 0 -0.14808882950896779 -0.48760950596642599 0 -0.15867829181438209 -0.47351517086903511 0 -0.13278436477725561 -0.4823434472460234 0 -0.15300746566076209 -0.38310001254620968 0 -0.12942966304821441 -0.38325015625522552 0 -0.14208280055258729 -0.40634727148710198 0 -0.15300746566076209 -0.38310001254620968 0 -0.14208280055258729 -0.40634727148710198 0 -0.1624749046322673 -0.40200193298372783 0 -0.15300746566076209 -0.38310001254620968 0 -0.12942966304821441 -0.38325015625522552 0 -0.15300746566076209 -0.38310001254620968 0 -0.12942966304821441 -0.38325015625522552 0 -0.13644034466196819 -0.36544341997203661 0 -0.12942966304821441 -0.38325015625522552 0 -0.14208280055258729 -0.40634727148710198 0 -0.1246151037146196 -0.40215144471962733 0 -0.13370262722300191 -0.42485153358840111 0 -0.14208280055258729 -0.40634727148710198 0 -0.1246151037146196 -0.40215144471962733 0 -0.14071409195337639 -0.4434269833400809 0 -0.13370262722300191 -0.42485153358840111 0 -0.1184149235461696 -0.43970471758753887 0 -0.14071409195337639 -0.4434269833400809 0 -0.13370262722300191 -0.42485153358840111 0 -0.16224644553901921 -0.42839564420087312 0 -0.14071409195337639 -0.4434269833400809 0 -0.16224644553901921 -0.42839564420087312 0 -0.14208280055258729 -0.40634727148710198 0 -0.16224644553901921 -0.42839564420087312 0 -0.1624749046322673 -0.40200193298372783 0 -0.13370262722300191 -0.42485153358840111 0 -0.14208280055258729 -0.40634727148710198 0 -0.16224644553901921 -0.42839564420087312 0 -0.16224644553901921 -0.42839564420087312 0 -0.180697604208819 -0.40923231675122879 0 -0.1624749046322673 -0.40200193298372783 0 -0.18271469687031749 -0.44845454828740711 0 -0.16224644553901921 -0.42839564420087312 0 -0.19303707249135671 -0.43059430015364047 0 -0.16224644553901921 -0.42839564420087312 0 -0.180697604208819 -0.40923231675122879 0 -0.19303707249135671 -0.43059430015364047 0 -0.180697604208819 -0.40923231675122879 0 -0.1624749046322673 -0.40200193298372783 0 -0.17658526827330981 -0.3829498688371939 0 -0.180697604208819 -0.40923231675122879 0 -0.17658526827330981 -0.3829498688371939 0 -0.19000778267581911 -0.39514046875386671 0 -0.15300746566076209 -0.38310001254620968 0 -0.1624749046322673 -0.40200193298372783 0 -0.17658526827330981 -0.3829498688371939 0 -0.15300746566076209 -0.38310001254620968 0 -0.17658526827330981 -0.3829498688371939 0 -0.17658526827330981 -0.3829498688371939 0 -0.20016307088585741 -0.38279972512817662 0 -0.19000778267581911 -0.39514046875386671 0 -0.17658526827330981 -0.3829498688371939 0 -0.20016307088585741 -0.38279972512817662 0 -0.20016307088585741 -0.38279972512817662 0 -0.19000778267581911 -0.39514046875386671 0 -0.2085726045565329 -0.4078220142096215 0 -0.180697604208819 -0.40923231675122879 0 -0.19000778267581911 -0.39514046875386671 0 -0.2085726045565329 -0.4078220142096215 0 -0.20016307088585741 -0.38279972512817662 0 -0.2085726045565329 -0.4078220142096215 0 -0.20016307088585741 -0.38279972512817662 0 -0.2161772785324636 -0.38269774647594651 0 -0.2085726045565329 -0.4078220142096215 0 -0.2161772785324636 -0.38269774647594651 0 -0.2085726045565329 -0.4078220142096215 0 -0.22410163367487609 -0.3935296463770066 0 -0.20016307088585741 -0.38279972512817662 0 -0.2161772785324636 -0.38269774647594651 0 -0.20016307088585741 -0.38279972512817662 0 -0.2161772785324636 -0.38269774647594651 0 -0.2146411550785581 -0.37365584976636601 0 -0.2161772785324636 -0.38269774647594651 0 -0.22424182443051541 -0.37765757455433779 0 -0.2146411550785581 -0.37365584976636601 0 -0.180697604208819 -0.40923231675122879 0 -0.19303707249135671 -0.43059430015364047 0 -0.2085726045565329 -0.4078220142096215 0 -0.2085726045565329 -0.4078220142096215 0 -0.21698213822720461 -0.43284430329106749 0 -0.2268496457778397 -0.40912566888893942 0 -0.2085726045565329 -0.4078220142096215 0 -0.21698213822720461 -0.43284430329106749 0 -0.19303707249135671 -0.43059430015364047 0 -0.2085726045565329 -0.4078220142096215 0 -0.21698213822720461 -0.43284430329106749 0 -0.21698213822720461 -0.43284430329106749 0 -0.22992583861702739 -0.42769779631454868 0 -0.2268496457778397 -0.40912566888893942 0 -0.22173736506345271 -0.43864709963644488 0 -0.22992583861702739 -0.42769779631454868 0 -0.2347235744381061 -0.43699032632131868 0 -0.22173736506345271 -0.43864709963644488 0 -0.21698213822720461 -0.43284430329106749 0 -0.22992583861702739 -0.42769779631454868 0 -0.22992583861702739 -0.42769779631454868 0 -0.2268496457778397 -0.40912566888893942 0 -0.24230037244337599 -0.4175018590364884 0 -0.21698213822720461 -0.43284430329106749 0 -0.2268496457778397 -0.40912566888893942 0 -0.2268496457778397 -0.40912566888893942 0 -0.24230037244337599 -0.4175018590364884 0 -0.2431093376423632 -0.40266188506415568 0 -0.25613810139819221 -0.41434132836670989 0 -0.24230037244337599 -0.4175018590364884 0 -0.2431093376423632 -0.40266188506415568 0 -0.22992583861702739 -0.42769779631454868 0 -0.24230037244337599 -0.4175018590364884 0 -0.24089352108315501 -0.42926230317217479 0 -0.25359928648481211 -0.43037401697981981 0 -0.24230037244337599 -0.4175018590364884 0 -0.24089352108315501 -0.42926230317217479 0 -0.25359928648481211 -0.43037401697981981 0 -0.2438451496940687 -0.43907002470141299 0 -0.24089352108315501 -0.42926230317217479 0 -0.22992583861702739 -0.42769779631454868 0 -0.24089352108315501 -0.42926230317217479 0 -0.2347235744381061 -0.43699032632131868 0 -0.2438451496940687 -0.43907002470141299 0 -0.24089352108315501 -0.42926230317217479 0 -0.2347235744381061 -0.43699032632131868 0 -0.2161772785324636 -0.38269774647594651 0 -0.23219148617906979 -0.38259576782371391 0 -0.22424182443051541 -0.37765757455433779 0 -0.2161772785324636 -0.38269774647594651 0 -0.23219148617906979 -0.38259576782371391 0 -0.22410163367487609 -0.3935296463770066 0 -0.2161772785324636 -0.38269774647594651 0 -0.23219148617906979 -0.38259576782371391 0 -0.23219148617906979 -0.38259576782371391 0 -0.22410163367487609 -0.3935296463770066 0 -0.23671715332847421 -0.38540703448681102 0 -0.23219148617906979 -0.38259576782371391 0 -0.22424182443051541 -0.37765757455433779 0 -0.23334431644894679 -0.37067442711117121 0 -0.23219148617906979 -0.38259576782371391 0 -0.22424182443051541 -0.37765757455433779 0 -0.2268496457778397 -0.40912566888893942 0 -0.23671715332847421 -0.38540703448681102 0 -0.2268496457778397 -0.40912566888893942 0 -0.22410163367487609 -0.3935296463770066 0 -0.23671715332847421 -0.38540703448681102 0 -0.2085726045565329 -0.4078220142096215 0 -0.2268496457778397 -0.40912566888893942 0 -0.22410163367487609 -0.3935296463770066 0 -0.2268496457778397 -0.40912566888893942 0 -0.2431093376423632 -0.40266188506415568 0 -0.23671715332847421 -0.38540703448681102 0 -0.26042294901863672 -0.40013266740365983 0 -0.2431093376423632 -0.40266188506415568 0 -0.23671715332847421 -0.38540703448681102 0 -0.26042294901863672 -0.40013266740365983 0 -0.23671715332847421 -0.38540703448681102 0 -0.25938421221386299 -0.38242260424217978 0 -0.23671715332847421 -0.38540703448681102 0 -0.23790183421053479 -0.38255940426400398 0 -0.25938421221386299 -0.38242260424217978 0 -0.23790183421053479 -0.38255940426400398 0 -0.25938421221386299 -0.38242260424217978 0 -0.23790183421053479 -0.38255940426400398 0 -0.2452998416640946 -0.36477673389921211 0 -0.23219148617906979 -0.38259576782371391 0 -0.23671715332847421 -0.38540703448681102 0 -0.23790183421053479 -0.38255940426400398 0 -0.23219148617906979 -0.38259576782371391 0 -0.23671715332847421 -0.38540703448681102 0 -0.23671715332847421 -0.38540703448681102 0 -0.23790183421053479 -0.38255940426400398 0 -0.23219148617906979 -0.38259576782371391 0 -0.23790183421053479 -0.38255940426400398 0 -0.23334431644894679 -0.37067442711117121 0 -0.23219148617906979 -0.38259576782371391 0 -0.23790183421053479 -0.38255940426400398 0 -0.2452998416640946 -0.36477673389921211 0 -0.23334431644894679 -0.37067442711117121 0 -0.236612272716479 -0.35196393625907768 0 -0.23790183421053479 -0.38255940426400398 0 -0.2452998416640946 -0.36477673389921211 0 -0.23790183421053479 -0.38255940426400398 0 -0.2452998416640946 -0.36477673389921211 0 -0.23334431644894679 -0.37067442711117121 0 -0.22424182443051541 -0.37765757455433779 0 -0.23334431644894679 -0.37067442711117121 0 -0.2233560944082246 -0.363712965125564 0 -0.23334431644894679 -0.37067442711117121 0 -0.2233560944082246 -0.363712965125564 0 -0.236612272716479 -0.35196393625907768 0 -0.22424182443051541 -0.37765757455433779 0 -0.2233560944082246 -0.363712965125564 0 -0.2146411550785581 -0.37365584976636601 0 -0.2233560944082246 -0.363712965125564 0 -0.22090871978274521 -0.34750939462453567 0 -0.236612272716479 -0.35196393625907768 0 -0.25269784911765092 -0.34699406353441858 0 -0.2452998416640946 -0.36477673389921211 0 -0.25269784911765092 -0.34699406353441858 0 -0.2452998416640946 -0.36477673389921211 0 -0.236612272716479 -0.35196393625907768 0 -0.25269784911765092 -0.34699406353441858 0 -0.2601150759189611 -0.3291651954159735 0 -0.2357068878863986 -0.32570661601735368 0 -0.25269784911765092 -0.34699406353441858 0 -0.236612272716479 -0.35196393625907768 0 -0.2357068878863986 -0.32570661601735368 0 -0.25269784911765092 -0.34699406353441858 0 -0.2357068878863986 -0.32570661601735368 0 -0.2601150759189611 -0.3291651954159735 0 -0.2357068878863986 -0.32570661601735368 0 -0.2494260049788683 -0.31746489113439402 0 -0.2357068878863986 -0.32570661601735368 0 -0.2494260049788683 -0.31746489113439402 0 -0.24072416822125611 -0.30184362229434508 0 -0.2357068878863986 -0.32570661601735368 0 -0.2119173650848751 -0.32804843985645959 0 -0.21871592665514519 -0.30441916850028972 0 -0.2357068878863986 -0.32570661601735368 0 -0.21871592665514519 -0.30441916850028972 0 -0.22090871978274521 -0.34750939462453567 0 -0.236612272716479 -0.35196393625907768 0 -0.2357068878863986 -0.32570661601735368 0 -0.22090871978274521 -0.34750939462453567 0 -0.2357068878863986 -0.32570661601735368 0 -0.2119173650848751 -0.32804843985645959 0 -0.22090871978274521 -0.34750939462453567 0 -0.2119173650848751 -0.32804843985645959 0 -0.20038300345158319 -0.34252625431289602 0 -0.2119173650848751 -0.32804843985645959 0 -0.19064882261902269 -0.32209845877770238 0 -0.21871592665514519 -0.30441916850028972 0 -0.2119173650848751 -0.32804843985645959 0 -0.19064882261902269 -0.32209845877770238 0 -0.20038300345158319 -0.34252625431289602 0 -0.19064882261902269 -0.32209845877770238 0 -0.20038300345158319 -0.34252625431289602 0 -0.1786038551756757 -0.34069824763179102 0 -0.20038300345158319 -0.34252625431289602 0 -0.19095175091145111 -0.35539174743908392 0 -0.20926750713572939 -0.36141123754780358 0 -0.20038300345158319 -0.34252625431289602 0 -0.19095175091145111 -0.35539174743908392 0 -0.1786038551756757 -0.34069824763179102 0 -0.20016307088585741 -0.38279972512817662 0 -0.19095175091145111 -0.35539174743908392 0 -0.20926750713572939 -0.36141123754780358 0 -0.17658526827330981 -0.3829498688371939 0 -0.20016307088585741 -0.38279972512817662 0 -0.19095175091145111 -0.35539174743908392 0 -0.20016307088585741 -0.38279972512817662 0 -0.19095175091145111 -0.35539174743908392 0 -0.20016307088585741 -0.38279972512817662 0 -0.20926750713572939 -0.36141123754780358 0 -0.2146411550785581 -0.37365584976636601 0 -0.2233560944082246 -0.363712965125564 0 -0.20926750713572939 -0.36141123754780358 0 -0.2146411550785581 -0.37365584976636601 0 -0.2233560944082246 -0.363712965125564 0 -0.22090871978274521 -0.34750939462453567 0 -0.20926750713572939 -0.36141123754780358 0 -0.22090871978274521 -0.34750939462453567 0 -0.20038300345158319 -0.34252625431289602 0 -0.20926750713572939 -0.36141123754780358 0 -0.23269942211958819 -0.26632599736311829 0 -0.2113475615474098 -0.26183595308539898 0 -0.22937054978906041 -0.24331512362502869 0 -0.2483490975252734 -0.26098873334868322 0 -0.23269942211958819 -0.26632599736311829 0 -0.22937054978906041 -0.24331512362502869 0 -0.2483490975252734 -0.26098873334868322 0 -0.24718685023563691 -0.27875123027958087 0 -0.23269942211958819 -0.26632599736311829 0 -0.24718685023563691 -0.27875123027958087 0 -0.23269942211958819 -0.26632599736311829 0 -0.22621925119092889 -0.28512311723799683 0 -0.23269942211958819 -0.26632599736311829 0 -0.22621925119092889 -0.28512311723799683 0 -0.2113475615474098 -0.26183595308539898 0 -0.24718685023563691 -0.27875123027958087 0 -0.22621925119092889 -0.28512311723799683 0 -0.24072416822125611 -0.30184362229434508 0 -0.25754389589834492 -0.29267207960278718 0 -0.24718685023563691 -0.27875123027958087 0 -0.24072416822125611 -0.30184362229434508 0 -0.25469452373499762 -0.30722313484128749 0 -0.2494260049788683 -0.31746489113439402 0 -0.24072416822125611 -0.30184362229434508 0 -0.22621925119092889 -0.28512311723799683 0 -0.24072416822125611 -0.30184362229434508 0 -0.21871592665514519 -0.30441916850028972 0 -0.2357068878863986 -0.32570661601735368 0 -0.24072416822125611 -0.30184362229434508 0 -0.21871592665514519 -0.30441916850028972 0 -0.21871592665514519 -0.30441916850028972 0 -0.20172496542389179 -0.28313172098322592 0 -0.18547182867621881 -0.29890397395307688 0 -0.19064882261902269 -0.32209845877770238 0 -0.21871592665514519 -0.30441916850028972 0 -0.18547182867621881 -0.29890397395307688 0 -0.20172496542389179 -0.28313172098322592 0 -0.17865973542483601 -0.28159672660659713 0 -0.18547182867621881 -0.29890397395307688 0 -0.22621925119092889 -0.28512311723799683 0 -0.21871592665514519 -0.30441916850028972 0 -0.20172496542389179 -0.28313172098322592 0 -0.21871592665514519 -0.30441916850028972 0 -0.20172496542389179 -0.28313172098322592 0 -0.22621925119092889 -0.28512311723799683 0 -0.20172496542389179 -0.28313172098322592 0 -0.2113475615474098 -0.26183595308539898 0 -0.20172496542389179 -0.28313172098322592 0 -0.2113475615474098 -0.26183595308539898 0 -0.18473400419263841 -0.26184427346616201 0 -0.20172496542389179 -0.28313172098322592 0 -0.18473400419263841 -0.26184427346616201 0 -0.20172496542389179 -0.28313172098322592 0 -0.18473400419263841 -0.26184427346616201 0 -0.17865973542483601 -0.28159672660659713 0 -0.2113475615474098 -0.26183595308539898 0 -0.18473400419263841 -0.26184427346616201 0 -0.1994177047143332 -0.2432145052078287 0 -0.18473400419263841 -0.26184427346616201 0 -0.15229660666407671 -0.25401824511238591 0 -0.16774304296138501 -0.24055682594909811 0 -0.18473400419263841 -0.26184427346616201 0 -0.1593348892574955 -0.27433293932196051 0 -0.15229660666407671 -0.25401824511238591 0 -0.18473400419263841 -0.26184427346616201 0 -0.16774304296138501 -0.24055682594909811 0 -0.18473400419263841 -0.26184427346616201 0 -0.1593348892574955 -0.27433293932196051 0 -0.17865973542483601 -0.28159672660659713 0 -0.1593348892574955 -0.27433293932196051 0 -0.17865973542483601 -0.28159672660659713 0 -0.1628273235241636 -0.29929742573166879 0 -0.17865973542483601 -0.28159672660659713 0 -0.18547182867621881 -0.29890397395307688 0 -0.1628273235241636 -0.29929742573166879 0 -0.18547182867621881 -0.29890397395307688 0 -0.1628273235241636 -0.29929742573166879 0 -0.16388410446163609 -0.32460269768425593 0 -0.1628273235241636 -0.29929742573166879 0 -0.13242221189995379 -0.30543756500551722 0 -0.16388410446163609 -0.32460269768425593 0 -0.13242221189995379 -0.30543756500551722 0 -0.14127367617284931 -0.28459822767558379 0 -0.1188334035936548 -0.28113848219864679 0 -0.1628273235241636 -0.29929742573166879 0 -0.13242221189995379 -0.30543756500551722 0 -0.14127367617284931 -0.28459822767558379 0 -0.1593348892574955 -0.27433293932196051 0 -0.1628273235241636 -0.29929742573166879 0 -0.14127367617284931 -0.28459822767558379 0 -0.1593348892574955 -0.27433293932196051 0 -0.14127367617284931 -0.28459822767558379 0 -0.132950552588979 -0.26278472612012599 0 -0.14127367617284931 -0.28459822767558379 0 -0.132950552588979 -0.26278472612012599 0 -0.1188334035936548 -0.28113848219864679 0 -0.132950552588979 -0.26278472612012599 0 -0.1192340303868117 -0.24478318800158869 0 -0.13450504990001219 -0.2438564190910647 0 -0.132950552588979 -0.26278472612012599 0 -0.15229660666407671 -0.25401824511238591 0 -0.13450504990001219 -0.2438564190910647 0 -0.1593348892574955 -0.27433293932196051 0 -0.132950552588979 -0.26278472612012599 0 -0.15229660666407671 -0.25401824511238591 0 -0.15300746566076209 -0.38310001254620968 0 -0.17658526827330981 -0.3829498688371939 0 -0.16187875486605491 -0.35541355732776547 0 -0.17658526827330981 -0.3829498688371939 0 -0.19095175091145111 -0.35539174743908392 0 -0.16187875486605491 -0.35541355732776547 0 -0.19095175091145111 -0.35539174743908392 0 -0.16187875486605491 -0.35541355732776547 0 -0.1786038551756757 -0.34069824763179102 0 -0.19064882261902269 -0.32209845877770238 0 -0.1786038551756757 -0.34069824763179102 0 -0.16388410446163609 -0.32460269768425593 0 -0.19064882261902269 -0.32209845877770238 0 -0.18547182867621881 -0.29890397395307688 0 -0.16388410446163609 -0.32460269768425593 0 -0.16187875486605491 -0.35541355732776547 0 -0.1786038551756757 -0.34069824763179102 0 -0.16388410446163609 -0.32460269768425593 0 -0.13242221189995379 -0.30543756500551722 0 -0.16388410446163609 -0.32460269768425593 0 -0.13821757510299509 -0.3384513750534191 0 -0.13242221189995379 -0.30543756500551722 0 -0.13821757510299509 -0.3384513750534191 0 -0.1101747460075988 -0.32953608121607292 0 -0.16187875486605491 -0.35541355732776547 0 -0.16388410446163609 -0.32460269768425593 0 -0.13821757510299509 -0.3384513750534191 0 -0.13821757510299509 -0.3384513750534191 0 -0.13644034466196819 -0.36544341997203661 0 -0.1196241940514999 -0.3542658853942362 0 -0.16187875486605491 -0.35541355732776547 0 -0.13821757510299509 -0.3384513750534191 0 -0.13644034466196819 -0.36544341997203661 0 -0.15300746566076209 -0.38310001254620968 0 -0.16187875486605491 -0.35541355732776547 0 -0.13644034466196819 -0.36544341997203661 0 -0.12942966304821441 -0.38325015625522552 0 -0.13644034466196819 -0.36544341997203661 0 -0.1177797586078463 -0.37381446098417098 0 -0.13644034466196819 -0.36544341997203661 0 -0.1177797586078463 -0.37381446098417098 0 -0.1196241940514999 -0.3542658853942362 0 -0.1177797586078463 -0.37381446098417098 0 -0.10407214500130089 -0.36661499140206938 0 -0.1196241940514999 -0.3542658853942362 0 -0.1177797586078463 -0.37381446098417098 0 -0.10407214500130089 -0.36661499140206938 0 -0.1034929330021967 -0.38313049756236911 0 -0.10407214500130089 -0.36661499140206938 0 -0.092143069441117886 -0.37288061806212591 0 -0.1034929330021967 -0.38313049756236911 0 -0.10407214500130089 -0.36661499140206938 0 -0.092143069441117886 -0.37288061806212591 0 -0.090292011953311629 -0.3597231114641114 0 -0.10407214500130089 -0.36661499140206938 0 -0.10297576120334009 -0.35054559799579871 0 -0.1196241940514999 -0.3542658853942362 0 -0.10297576120334009 -0.35054559799579871 0 -0.091874738774876785 -0.34065851114568052 0 -0.090292011953311629 -0.3597231114641114 0 -0.10407214500130089 -0.36661499140206938 0 -0.10297576120334009 -0.35054559799579871 0 -0.090292011953311629 -0.3597231114641114 0 -0.10297576120334009 -0.35054559799579871 0 -0.1196241940514999 -0.3542658853942362 0 -0.1101747460075988 -0.32953608121607292 0 -0.13821757510299509 -0.3384513750534191 0 -0.1196241940514999 -0.3542658853942362 0 -0.1101747460075988 -0.32953608121607292 0 -0.1101747460075988 -0.32953608121607292 0 -0.085227450549862166 -0.32028838060126541 0 -0.10233633129899709 -0.29788694174330338 0 -0.1101747460075988 -0.32953608121607292 0 -0.091874738774876785 -0.34065851114568052 0 -0.085227450549862166 -0.32028838060126541 0 -0.10297576120334009 -0.35054559799579871 0 -0.1101747460075988 -0.32953608121607292 0 -0.091874738774876785 -0.34065851114568052 0 -0.091874738774876785 -0.34065851114568052 0 -0.085227450549862166 -0.32028838060126541 0 -0.076063335717399538 -0.33750887212749098 0 -0.085227450549862166 -0.32028838060126541 0 -0.063011241542060503 -0.32804507108198161 0 -0.072947339386401744 -0.29815403057856332 0 -0.063011241542060503 -0.32804507108198161 0 -0.076063335717399538 -0.33750887212749098 0 -0.056103847272524453 -0.34401699257208418 0 -0.085227450549862166 -0.32028838060126541 0 -0.063011241542060503 -0.32804507108198161 0 -0.076063335717399538 -0.33750887212749098 0 -0.076063335717399538 -0.33750887212749098 0 -0.071250752086046532 -0.35335887697158019 0 -0.056103847272524453 -0.34401699257208418 0 -0.071250752086046532 -0.35335887697158019 0 -0.076899216694667677 -0.36865863427987439 0 -0.059008804616476777 -0.3736816009534113 0 -0.071250752086046532 -0.35335887697158019 0 -0.076899216694667677 -0.36865863427987439 0 -0.090292011953311629 -0.3597231114641114 0 -0.076899216694667677 -0.36865863427987439 0 -0.092143069441117886 -0.37288061806212591 0 -0.090292011953311629 -0.3597231114641114 0 -0.091874738774876785 -0.34065851114568052 0 -0.071250752086046532 -0.35335887697158019 0 -0.090292011953311629 -0.3597231114641114 0 -0.091874738774876785 -0.34065851114568052 0 -0.076063335717399538 -0.33750887212749098 0 -0.071250752086046532 -0.35335887697158019 0 -0.10928029933534041 -0.25911330461652088 0 -0.093765691765433312 -0.25258281812082478 0 -0.1064059993424292 -0.23999004584722569 0 -0.10928029933534041 -0.25911330461652088 0 -0.093765691765433312 -0.25258281812082478 0 -0.091378819945462819 -0.27405960529517892 0 -0.132950552588979 -0.26278472612012599 0 -0.10928029933534041 -0.25911330461652088 0 -0.1192340303868117 -0.24478318800158869 0 -0.132950552588979 -0.26278472612012599 0 -0.10928029933534041 -0.25911330461652088 0 -0.1188334035936548 -0.28113848219864679 0 -0.10928029933534041 -0.25911330461652088 0 -0.1188334035936548 -0.28113848219864679 0 -0.091378819945462819 -0.27405960529517892 0 -0.13242221189995379 -0.30543756500551722 0 -0.1101747460075988 -0.32953608121607292 0 -0.10233633129899709 -0.29788694174330338 0 -0.1188334035936548 -0.28113848219864679 0 -0.10233633129899709 -0.29788694174330338 0 -0.091378819945462819 -0.27405960529517892 0 -0.13242221189995379 -0.30543756500551722 0 -0.1188334035936548 -0.28113848219864679 0 -0.10233633129899709 -0.29788694174330338 0 -0.085227450549862166 -0.32028838060126541 0 -0.10233633129899709 -0.29788694174330338 0 -0.072947339386401744 -0.29815403057856332 0 -0.10233633129899709 -0.29788694174330338 0 -0.072947339386401744 -0.29815403057856332 0 -0.072947339386401744 -0.29815403057856332 0 -0.068721828444096633 -0.2698787542887045 0 -0.051386271478722378 -0.27925540101153468 0 -0.10233633129899709 -0.29788694174330338 0 -0.072947339386401744 -0.29815403057856332 0 -0.091378819945462819 -0.27405960529517892 0 -0.091378819945462819 -0.27405960529517892 0 -0.068721828444096633 -0.2698787542887045 0 -0.079465288233698042 -0.25846821731041458 0 -0.072947339386401744 -0.29815403057856332 0 -0.091378819945462819 -0.27405960529517892 0 -0.068721828444096633 -0.2698787542887045 0 -0.068721828444096633 -0.2698787542887045 0 -0.065421878849430556 -0.25167039592025259 0 -0.079465288233698042 -0.25846821731041458 0 -0.093765691765433312 -0.25258281812082478 0 -0.091378819945462819 -0.27405960529517892 0 -0.079465288233698042 -0.25846821731041458 0 -0.093765691765433312 -0.25258281812082478 0 -0.079465288233698042 -0.25846821731041458 0 -0.078278243085297239 -0.23951664672932549 0 -0.036856198389287782 -0.25899730250271491 0 -0.027326811110253871 -0.25121816526868662 0 -0.040785035177160277 -0.24958968680164759 0 -0.036856198389287782 -0.25899730250271491 0 -0.03708476385319625 -0.2699613192856723 0 -0.027769846617742091 -0.26444130564156609 0 -0.036856198389287782 -0.25899730250271491 0 -0.051314535188086402 -0.25977603551600209 0 -0.03708476385319625 -0.2699613192856723 0 -0.036856198389287782 -0.25899730250271491 0 -0.051314535188086402 -0.25977603551600209 0 -0.040785035177160277 -0.24958968680164759 0 -0.051314535188086402 -0.25977603551600209 0 -0.052406799216804557 -0.24459198769464191 0 -0.040785035177160277 -0.24958968680164759 0 -0.068721828444096633 -0.2698787542887045 0 -0.065421878849430556 -0.25167039592025259 0 -0.051314535188086402 -0.25977603551600209 0 -0.065421878849430556 -0.25167039592025259 0 -0.051314535188086402 -0.25977603551600209 0 -0.052406799216804557 -0.24459198769464191 0 -0.068721828444096633 -0.2698787542887045 0 -0.051314535188086402 -0.25977603551600209 0 -0.051386271478722378 -0.27925540101153468 0 -0.051386271478722378 -0.27925540101153468 0 -0.03708476385319625 -0.2699613192856723 0 -0.030508603843899348 -0.2838920637904252 0 -0.051314535188086402 -0.25977603551600209 0 -0.051386271478722378 -0.27925540101153468 0 -0.03708476385319625 -0.2699613192856723 0 -0.051386271478722378 -0.27925540101153468 0 -0.043558347473806387 -0.2984211194138231 0 -0.030508603843899348 -0.2838920637904252 0 -0.072947339386401744 -0.29815403057856332 0 -0.051386271478722378 -0.27925540101153468 0 -0.043558347473806387 -0.2984211194138231 0 -0.072947339386401744 -0.29815403057856332 0 -0.043558347473806387 -0.2984211194138231 0 -0.072947339386401744 -0.29815403057856332 0 -0.043558347473806387 -0.2984211194138231 0 -0.051420852876661483 -0.31380047181538612 0 -0.043558347473806387 -0.2984211194138231 0 -0.051420852876661483 -0.31380047181538612 0 -0.030582351458593698 -0.31403506648659951 0 -0.014169355561211039 -0.29868820824908299 0 -0.030582351458593698 -0.31403506648659951 0 -0.0093546214437348063 -0.3154421594820554 0 -0.043558347473806387 -0.2984211194138231 0 -0.014169355561211039 -0.29868820824908299 0 -0.030582351458593698 -0.31403506648659951 0 -0.043558347473806387 -0.2984211194138231 0 -0.014169355561211039 -0.29868820824908299 0 -0.014169355561211039 -0.29868820824908299 0 -0.0093546214437348063 -0.3154421594820554 0 0.0025702240157044749 -0.30194718224499639 0 -0.014169355561211039 -0.29868820824908299 0 0.0025702240157044749 -0.30194718224499639 0 0.001953977901653102 -0.28749824366549498 0 -0.014169355561211039 -0.29868820824908299 0 -0.01355692824822796 -0.28271954505438091 0 0.001953977901653102 -0.28749824366549498 0 -0.01355692824822796 -0.28271954505438091 0 -0.002131649244152236 -0.27375645946249172 0 0.001953977901653102 -0.28749824366549498 0 -0.014169355561211039 -0.29868820824908299 0 -0.01355692824822796 -0.28271954505438091 0 -0.030508603843899348 -0.2838920637904252 0 -0.043558347473806387 -0.2984211194138231 0 -0.014169355561211039 -0.29868820824908299 0 -0.030508603843899348 -0.2838920637904252 0 -0.01355692824822796 -0.28271954505438091 0 -0.030508603843899348 -0.2838920637904252 0 -0.0232959564482321 -0.27430678972805739 0 -0.03708476385319625 -0.2699613192856723 0 -0.030508603843899348 -0.2838920637904252 0 -0.0232959564482321 -0.27430678972805739 0 -0.03708476385319625 -0.2699613192856723 0 -0.0232959564482321 -0.27430678972805739 0 -0.027769846617742091 -0.26444130564156609 0 -0.0232959564482321 -0.27430678972805739 0 -0.01453475649827142 -0.26699160201657218 0 -0.027769846617742091 -0.26444130564156609 0 -0.0232959564482321 -0.27430678972805739 0 -0.01264771782334753 -0.27382178896806042 0 -0.01453475649827142 -0.26699160201657218 0 -0.01355692824822796 -0.28271954505438091 0 -0.0232959564482321 -0.27430678972805739 0 -0.01264771782334753 -0.27382178896806042 0 -0.01355692824822796 -0.28271954505438091 0 -0.01264771782334753 -0.27382178896806042 0 -0.002131649244152236 -0.27375645946249172 0 -0.002131649244152236 -0.27375645946249172 0 -0.0028944004114581372 -0.26277522582270341 0 0.0049597396345670026 -0.26452376434945218 0 -0.002131649244152236 -0.27375645946249172 0 -0.0081433199175628083 -0.26887389345264789 0 -0.0028944004114581372 -0.26277522582270341 0 -0.01264771782334753 -0.27382178896806042 0 -0.002131649244152236 -0.27375645946249172 0 -0.0081433199175628083 -0.26887389345264789 0 -0.01264771782334753 -0.27382178896806042 0 -0.0081433199175628083 -0.26887389345264789 0 -0.01453475649827142 -0.26699160201657218 0 -0.0081433199175628083 -0.26887389345264789 0 -0.01453475649827142 -0.26699160201657218 0 -0.012379740604400009 -0.25371681360357518 0 -0.0081433199175628083 -0.26887389345264789 0 -0.012379740604400009 -0.25371681360357518 0 -0.0081433199175628083 -0.26887389345264789 0 -0.0050603712554523096 -0.25502580822232418 0 -0.012379740604400009 -0.25371681360357518 0 -0.0081433199175628083 -0.26887389345264789 0 -0.0028944004114581372 -0.26277522582270341 0 -0.0050603712554523096 -0.25502580822232418 0 -0.0028944004114581372 -0.26277522582270341 0 -0.0050603712554523096 -0.25502580822232418 0 0.0049597396345670026 -0.26452376434945218 0 -0.0050603712554523096 -0.25502580822232418 0 -0.012379740604400009 -0.25371681360357518 0 -0.01487672558591642 -0.24478309253466149 0 -0.01453475649827142 -0.26699160201657218 0 -0.027326811110253871 -0.25121816526868662 0 -0.01453475649827142 -0.26699160201657218 0 -0.027769846617742091 -0.26444130564156609 0 -0.027326811110253871 -0.25121816526868662 0 -0.01453475649827142 -0.26699160201657218 0 -0.012379740604400009 -0.25371681360357518 0 -0.027326811110253871 -0.25121816526868662 0 -0.036856198389287782 -0.25899730250271491 0 -0.027769846617742091 -0.26444130564156609 0 -0.027326811110253871 -0.25121816526868662 0 -0.039399855887372083 -0.348894598899534 0 -0.034096369460313788 -0.36339656310703322 0 -0.051971925864546728 -0.35666972650072859 0 -0.039399855887372083 -0.348894598899534 0 -0.034096369460313788 -0.36339656310703322 0 -0.026210886027733249 -0.34369915139989571 0 -0.039399855887372083 -0.348894598899534 0 -0.034096369460313788 -0.36339656310703322 0 -0.034096369460313788 -0.36339656310703322 0 -0.059008804616476777 -0.3736816009534113 0 -0.034096369460313788 -0.36339656310703322 0 -0.059008804616476777 -0.3736816009534113 0 -0.054792379857709787 -0.38521108099946061 0 -0.071250752086046532 -0.35335887697158019 0 -0.059008804616476777 -0.3736816009534113 0 -0.051971925864546728 -0.35666972650072859 0 -0.034096369460313788 -0.36339656310703322 0 -0.059008804616476777 -0.3736816009534113 0 -0.051971925864546728 -0.35666972650072859 0 -0.039399855887372083 -0.348894598899534 0 -0.056103847272524453 -0.34401699257208418 0 -0.051971925864546728 -0.35666972650072859 0 -0.071250752086046532 -0.35335887697158019 0 -0.056103847272524453 -0.34401699257208418 0 -0.051971925864546728 -0.35666972650072859 0 -0.063011241542060503 -0.32804507108198161 0 -0.056103847272524453 -0.34401699257208418 0 -0.04119870814000013 -0.33100814093665459 0 -0.063011241542060503 -0.32804507108198161 0 -0.072947339386401744 -0.29815403057856332 0 -0.051420852876661483 -0.31380047181538612 0 -0.063011241542060503 -0.32804507108198161 0 -0.051420852876661483 -0.31380047181538612 0 -0.04119870814000013 -0.33100814093665459 0 -0.04119870814000013 -0.33100814093665459 0 -0.030582351458593698 -0.31403506648659951 0 -0.022582582343139011 -0.32698802181857289 0 -0.051420852876661483 -0.31380047181538612 0 -0.04119870814000013 -0.33100814093665459 0 -0.030582351458593698 -0.31403506648659951 0 -0.039399855887372083 -0.348894598899534 0 -0.04119870814000013 -0.33100814093665459 0 -0.026210886027733249 -0.34369915139989571 0 -0.039399855887372083 -0.348894598899534 0 -0.056103847272524453 -0.34401699257208418 0 -0.04119870814000013 -0.33100814093665459 0 -0.04119870814000013 -0.33100814093665459 0 -0.026210886027733249 -0.34369915139989571 0 -0.022582582343139011 -0.32698802181857289 0 -0.026210886027733249 -0.34369915139989571 0 -0.022582582343139011 -0.32698802181857289 0 -0.008605873932596356 -0.33624452634938418 0 -0.030582351458593698 -0.31403506648659951 0 -0.022582582343139011 -0.32698802181857289 0 -0.0093546214437348063 -0.3154421594820554 0 -0.022582582343139011 -0.32698802181857289 0 -0.0093546214437348063 -0.3154421594820554 0 -0.008605873932596356 -0.33624452634938418 0 -0.0093546214437348063 -0.3154421594820554 0 -0.008605873932596356 -0.33624452634938418 0 0.0035141492887302548 -0.32519051246028208 0 -0.0019921573348008 -0.35014241775074068 0 -0.018044263397557131 -0.35676949042888739 0 -0.0042332821090469977 -0.36931681778231101 0 -0.0019921573348008 -0.35014241775074068 0 -0.018044263397557131 -0.35676949042888739 0 -0.008605873932596356 -0.33624452634938418 0 -0.0019921573348008 -0.35014241775074068 0 -0.018044263397557131 -0.35676949042888739 0 -0.026210886027733249 -0.34369915139989571 0 -0.008605873932596356 -0.33624452634938418 0 -0.018044263397557131 -0.35676949042888739 0 -0.034096369460313788 -0.36339656310703322 0 -0.026210886027733249 -0.34369915139989571 0 -0.018044263397557131 -0.35676949042888739 0 -0.034096369460313788 -0.36339656310703322 0 -0.018044263397557131 -0.35676949042888739 0 -0.034096369460313788 -0.36339656310703322 0 -0.018686911073243041 -0.37245057318461761 0 -0.025663519942779139 -0.38645552319913151 0 -0.034096369460313788 -0.36339656310703322 0 -0.025663519942779139 -0.38645552319913151 0 -0.034096369460313788 -0.36339656310703322 0 -0.018044263397557131 -0.35676949042888739 0 -0.018686911073243041 -0.37245057318461761 0 -0.018044263397557131 -0.35676949042888739 0 -0.018686911073243041 -0.37245057318461761 0 -0.0042332821090469977 -0.36931681778231101 0 -0.0042332821090469977 -0.36931681778231101 0 -0.0014384839491562609 -0.38294108750953337 0 -0.01293018069981793 -0.38699951650140929 0 -0.018686911073243041 -0.37245057318461761 0 -0.0042332821090469977 -0.36931681778231101 0 -0.01293018069981793 -0.38699951650140929 0 -0.0014384839491562609 -0.38294108750953337 0 -0.01063129593948554 -0.39508981091663592 0 0.011472045166716269 -0.38952867199447438 0 -0.0014384839491562609 -0.38294108750953337 0 -0.01293018069981793 -0.38699951650140929 0 -0.01063129593948554 -0.39508981091663592 0 -0.01063129593948554 -0.39508981091663592 0 -0.0091670491733258502 -0.407137417147723 0 0.011472045166716269 -0.38952867199447438 0 -0.01063129593948554 -0.39508981091663592 0 -0.018873559194732051 -0.4050221338792524 0 -0.0091670491733258502 -0.407137417147723 0 -0.018873559194732051 -0.4050221338792524 0 -0.02836285586948685 -0.40056267234101323 0 -0.025663519942779139 -0.38645552319913151 0 -0.018873559194732051 -0.4050221338792524 0 -0.025663519942779139 -0.38645552319913151 0 -0.01063129593948554 -0.39508981091663592 0 -0.018873559194732051 -0.4050221338792524 0 -0.025663519942779139 -0.38645552319913151 0 -0.018873559194732051 -0.4050221338792524 0 -0.02836285586948685 -0.40056267234101323 0 -0.030977517198131951 -0.41001184184548872 0 -0.018686911073243041 -0.37245057318461761 0 -0.01293018069981793 -0.38699951650140929 0 -0.025663519942779139 -0.38645552319913151 0 -0.01293018069981793 -0.38699951650140929 0 -0.01063129593948554 -0.39508981091663592 0 -0.025663519942779139 -0.38645552319913151 0 -0.01293018069981793 -0.38699951650140929 0 -0.025663519942779139 -0.38645552319913151 0 -0.025663519942779139 -0.38645552319913151 0 -0.054792379857709787 -0.38521108099946061 0 -0.034096369460313788 -0.36339656310703322 0 -0.025663519942779139 -0.38645552319913151 0 -0.054792379857709787 -0.38521108099946061 0 -0.025663519942779139 -0.38645552319913151 0 -0.040378871001035203 -0.4023619242499753 0 -0.054792379857709787 -0.38521108099946061 0 -0.02836285586948685 -0.40056267234101323 0 -0.025663519942779139 -0.38645552319913151 0 -0.040378871001035203 -0.4023619242499753 0 -0.02836285586948685 -0.40056267234101323 0 -0.040378871001035203 -0.4023619242499753 0 -0.030977517198131951 -0.41001184184548872 0 -0.054792379857709787 -0.38521108099946061 0 -0.059825167014939118 -0.40722915412089022 0 -0.072775681732521871 -0.39584784537067902 0 -0.040378871001035203 -0.4023619242499753 0 -0.054792379857709787 -0.38521108099946061 0 -0.059825167014939118 -0.40722915412089022 0 -0.042229656958243142 -0.42347410177567479 0 -0.050515785400197619 -0.44529677996352279 0 -0.072027503688391378 -0.4304363902392051 0 -0.040378871001035203 -0.4023619242499753 0 -0.059825167014939118 -0.40722915412089022 0 -0.042229656958243142 -0.42347410177567479 0 -0.059825167014939118 -0.40722915412089022 0 -0.042229656958243142 -0.42347410177567479 0 -0.072027503688391378 -0.4304363902392051 0 -0.040378871001035203 -0.4023619242499753 0 -0.042229656958243142 -0.42347410177567479 0 -0.030977517198131951 -0.41001184184548872 0 -0.042229656958243142 -0.42347410177567479 0 -0.030977517198131951 -0.41001184184548872 0 -0.025042642967162548 -0.41863837698152778 0 -0.042229656958243142 -0.42347410177567479 0 -0.02466563579619491 -0.43258924065094212 0 -0.036391946892689743 -0.43794750258320281 0 -0.042229656958243142 -0.42347410177567479 0 -0.036391946892689743 -0.43794750258320281 0 -0.050515785400197619 -0.44529677996352279 0 -0.042229656958243142 -0.42347410177567479 0 -0.02466563579619491 -0.43258924065094212 0 -0.025042642967162548 -0.41863837698152778 0 -0.02466563579619491 -0.43258924065094212 0 -0.01208359844668536 -0.42358874455937362 0 -0.01135633175650611 -0.44080857306714882 0 -0.02466563579619491 -0.43258924065094212 0 -0.025042642967162548 -0.41863837698152778 0 -0.01208359844668536 -0.42358874455937362 0 -0.018873559194732051 -0.4050221338792524 0 -0.025042642967162548 -0.41863837698152778 0 -0.01208359844668536 -0.42358874455937362 0 -0.018873559194732051 -0.4050221338792524 0 -0.030977517198131951 -0.41001184184548872 0 -0.025042642967162548 -0.41863837698152778 0 -0.0091670491733258502 -0.407137417147723 0 -0.01208359844668536 -0.42358874455937362 0 0.0037810136158822729 -0.41791708709875131 0 -0.018873559194732051 -0.4050221338792524 0 -0.01208359844668536 -0.42358874455937362 0 -0.018873559194732051 -0.4050221338792524 0 -0.0091670491733258502 -0.407137417147723 0 -0.01208359844668536 -0.42358874455937362 0 -0.0091670491733258502 -0.407137417147723 0 0.005108664055598287 -0.40528738143041459 0 0.0037810136158822729 -0.41791708709875131 0 -0.01208359844668536 -0.42358874455937362 0 -0.01135633175650611 -0.44080857306714882 0 0.00079488181500260609 -0.42987501851034571 0 -0.01208359844668536 -0.42358874455937362 0 0.0037810136158822729 -0.41791708709875131 0 0.00079488181500260609 -0.42987501851034571 0 -0.01135633175650611 -0.44080857306714882 0 -0.0057475739345891896 -0.4549207533069245 0 -0.026821380350943221 -0.45052187300253432 0 -0.01135633175650611 -0.44080857306714882 0 -0.0057475739345891896 -0.4549207533069245 0 0.0068165806591294316 -0.44348526320397952 0 -0.01135633175650611 -0.44080857306714882 0 0.00079488181500260609 -0.42987501851034571 0 0.0068165806591294316 -0.44348526320397952 0 -0.0057475739345891896 -0.4549207533069245 0 -0.01053281578453142 -0.47284051234843588 0 0.013156077559905371 -0.46694754491252372 0 -0.0057475739345891896 -0.4549207533069245 0 -0.026821380350943221 -0.45052187300253432 0 -0.01053281578453142 -0.47284051234843588 0 -0.026821380350943221 -0.45052187300253432 0 -0.01053281578453142 -0.47284051234843588 0 -0.034221709128968207 -0.47873347978434821 0 -0.02466563579619491 -0.43258924065094212 0 -0.026821380350943221 -0.45052187300253432 0 -0.036391946892689743 -0.43794750258320281 0 -0.02466563579619491 -0.43258924065094212 0 -0.01135633175650611 -0.44080857306714882 0 -0.026821380350943221 -0.45052187300253432 0 -0.01053281578453142 -0.47284051234843588 0 -0.021528721160628209 -0.5 0 0.0082051736105589468 -0.5 0 -0.01053281578453142 -0.47284051234843588 0 -0.034221709128968207 -0.47873347978434821 0 -0.01053281578453142 -0.47284051234843588 0 -0.021528721160628209 -0.5 0 -0.034221709128968207 -0.47873347978434821 0 -0.021528721160628209 -0.5 0 -0.034221709128968207 -0.47873347978434821 0 -0.051262615931815303 -0.5 0 -0.059523740010860512 -0.4805696461841214 0 -0.046928985533113317 -0.46386793679958732 0 -0.064864185923778739 -0.46315270411222448 0 -0.034221709128968207 -0.47873347978434821 0 -0.059523740010860512 -0.4805696461841214 0 -0.046928985533113317 -0.46386793679958732 0 -0.034221709128968207 -0.47873347978434821 0 -0.059523740010860512 -0.4805696461841214 0 -0.051262615931815303 -0.5 0 -0.026821380350943221 -0.45052187300253432 0 -0.036391946892689743 -0.43794750258320281 0 -0.050515785400197619 -0.44529677996352279 0 -0.026821380350943221 -0.45052187300253432 0 -0.034221709128968207 -0.47873347978434821 0 -0.046928985533113317 -0.46386793679958732 0 -0.026821380350943221 -0.45052187300253432 0 -0.046928985533113317 -0.46386793679958732 0 -0.050515785400197619 -0.44529677996352279 0 -0.046928985533113317 -0.46386793679958732 0 -0.050515785400197619 -0.44529677996352279 0 -0.064864185923778739 -0.46315270411222448 0 -0.050515785400197619 -0.44529677996352279 0 -0.067207280617084753 -0.44732106669938188 0 -0.064864185923778739 -0.46315270411222448 0 -0.050515785400197619 -0.44529677996352279 0 -0.067207280617084753 -0.44732106669938188 0 -0.072027503688391378 -0.4304363902392051 0 -0.067207280617084753 -0.44732106669938188 0 -0.082815891533118816 -0.45534181676778152 0 -0.072027503688391378 -0.4304363902392051 0 -0.067207280617084753 -0.44732106669938188 0 -0.064864185923778739 -0.46315270411222448 0 -0.082815891533118816 -0.45534181676778152 0 -0.064864185923778739 -0.46315270411222448 0 -0.082815891533118816 -0.45534181676778152 0 -0.078868432844485067 -0.47766375640856817 0 -0.082815891533118816 -0.45534181676778152 0 -0.098405376953540707 -0.43777035074814158 0 -0.072027503688391378 -0.4304363902392051 0 -0.059523740010860512 -0.4805696461841214 0 -0.078868432844485067 -0.47766375640856817 0 -0.080996510703002414 -0.50000000000000011 0 -0.059523740010860512 -0.4805696461841214 0 -0.051262615931815303 -0.5 0 -0.080996510703002414 -0.50000000000000011 0 -0.059523740010860512 -0.4805696461841214 0 -0.064864185923778739 -0.46315270411222448 0 -0.078868432844485067 -0.47766375640856817 0 -0.082815891533118816 -0.45534181676778152 0 -0.078868432844485067 -0.47766375640856817 0 -0.097649384782090676 -0.47348966161849648 0 -0.078868432844485067 -0.47766375640856817 0 -0.091101191517426794 -0.4855812854125191 0 -0.097649384782090676 -0.47348966161849648 0 -0.080996510703002414 -0.50000000000000011 0 -0.091101191517426794 -0.4855812854125191 0 -0.106890437740129 -0.49117172362301192 0 -0.078868432844485067 -0.47766375640856817 0 -0.080996510703002414 -0.50000000000000011 0 -0.091101191517426794 -0.4855812854125191 0 -0.080996510703002414 -0.50000000000000011 0 -0.106890437740129 -0.49117172362301192 0 -0.080996510703002414 -0.50000000000000011 0 -0.1052795491262605 -0.5 0 -0.106890437740129 -0.49117172362301192 0 -0.091101191517426794 -0.4855812854125191 0 -0.106890437740129 -0.49117172362301192 0 -0.097649384782090676 -0.47348966161849648 0 -0.106890437740129 -0.49117172362301192 0 -0.097649384782090676 -0.47348966161849648 0 -0.1161667412357628 -0.47599129326682099 0 -0.097649384782090676 -0.47348966161849648 0 -0.1161667412357628 -0.47599129326682099 0 -0.11918173836773351 -0.45845832247928869 0 -0.13278436477725561 -0.4823434472460234 0 -0.106890437740129 -0.49117172362301192 0 -0.1161667412357628 -0.47599129326682099 0 -0.13278436477725561 -0.4823434472460234 0 -0.12956258754951869 -0.5 0 -0.106890437740129 -0.49117172362301192 0 -0.12956258754951869 -0.5 0 -0.1052795491262605 -0.5 0 -0.106890437740129 -0.49117172362301192 0 -0.13278436477725561 -0.4823434472460234 0 -0.106890437740129 -0.49117172362301192 0 -0.098405376953540707 -0.43777035074814158 0 -0.1032934630365307 -0.45295297384024952 0 -0.1184149235461696 -0.43970471758753887 0 -0.082815891533118816 -0.45534181676778152 0 -0.098405376953540707 -0.43777035074814158 0 -0.1032934630365307 -0.45295297384024952 0 -0.082815891533118816 -0.45534181676778152 0 -0.097649384782090676 -0.47348966161849648 0 -0.1032934630365307 -0.45295297384024952 0 -0.097649384782090676 -0.47348966161849648 0 -0.11918173836773351 -0.45845832247928869 0 -0.097649384782090676 -0.47348966161849648 0 -0.1032934630365307 -0.45295297384024952 0 -0.11918173836773351 -0.45845832247928869 0 -0.1272556728232932 -0.47013049556587211 0 -0.1161667412357628 -0.47599129326682099 0 -0.11918173836773351 -0.45845832247928869 0 -0.1032934630365307 -0.45295297384024952 0 -0.11918173836773351 -0.45845832247928869 0 -0.1184149235461696 -0.43970471758753887 0 -0.13370262722300191 -0.42485153358840111 0 -0.1184149235461696 -0.43970471758753887 0 -0.116306788879599 -0.41668109890019722 0 -0.098405376953540707 -0.43777035074814158 0 -0.1184149235461696 -0.43970471758753887 0 -0.116306788879599 -0.41668109890019722 0 -0.098405376953540707 -0.43777035074814158 0 -0.097023176649951706 -0.41709708103231641 0 -0.116306788879599 -0.41668109890019722 0 -0.097023176649951706 -0.41709708103231641 0 -0.116306788879599 -0.41668109890019722 0 -0.1080069522975812 -0.4033851446609884 0 -0.097023176649951706 -0.41709708103231641 0 -0.1080069522975812 -0.4033851446609884 0 -0.093849536080233595 -0.40171885712620059 0 -0.116306788879599 -0.41668109890019722 0 -0.1246151037146196 -0.40215144471962733 0 -0.1080069522975812 -0.4033851446609884 0 -0.13370262722300191 -0.42485153358840111 0 -0.116306788879599 -0.41668109890019722 0 -0.1246151037146196 -0.40215144471962733 0 -0.12942966304821441 -0.38325015625522552 0 -0.1246151037146196 -0.40215144471962733 0 -0.11435095473318441 -0.38971939249289739 0 -0.1246151037146196 -0.40215144471962733 0 -0.11435095473318441 -0.38971939249289739 0 -0.1080069522975812 -0.4033851446609884 0 -0.12942966304821441 -0.38325015625522552 0 -0.1177797586078463 -0.37381446098417098 0 -0.11435095473318441 -0.38971939249289739 0 -0.1177797586078463 -0.37381446098417098 0 -0.11435095473318441 -0.38971939249289739 0 -0.1034929330021967 -0.38313049756236911 0 -0.1034929330021967 -0.38313049756236911 0 -0.09434009405236482 -0.38826803727453157 0 -0.083921239772640238 -0.38396663879978871 0 -0.11435095473318441 -0.38971939249289739 0 -0.1034929330021967 -0.38313049756236911 0 -0.1028080940331122 -0.39324438582339738 0 -0.1034929330021967 -0.38313049756236911 0 -0.09434009405236482 -0.38826803727453157 0 -0.1028080940331122 -0.39324438582339738 0 -0.11435095473318441 -0.38971939249289739 0 -0.1080069522975812 -0.4033851446609884 0 -0.1028080940331122 -0.39324438582339738 0 -0.09434009405236482 -0.38826803727453157 0 -0.1028080940331122 -0.39324438582339738 0 -0.093849536080233595 -0.40171885712620059 0 -0.1080069522975812 -0.4033851446609884 0 -0.1028080940331122 -0.39324438582339738 0 -0.093849536080233595 -0.40171885712620059 0 -0.093849536080233595 -0.40171885712620059 0 -0.084931705096709012 -0.39557720875243713 0 -0.079771973845784508 -0.40808466519098552 0 -0.09434009405236482 -0.38826803727453157 0 -0.093849536080233595 -0.40171885712620059 0 -0.084931705096709012 -0.39557720875243713 0 -0.084931705096709012 -0.39557720875243713 0 -0.083921239772640238 -0.38396663879978871 0 -0.072775681732521871 -0.39584784537067902 0 -0.084931705096709012 -0.39557720875243713 0 -0.072775681732521871 -0.39584784537067902 0 -0.079771973845784508 -0.40808466519098552 0 -0.1034929330021967 -0.38313049756236911 0 -0.083921239772640238 -0.38396663879978871 0 -0.092143069441117886 -0.37288061806212591 0 -0.1034929330021967 -0.38313049756236911 0 -0.083921239772640238 -0.38396663879978871 0 -0.09434009405236482 -0.38826803727453157 0 -0.083921239772640238 -0.38396663879978871 0 -0.09434009405236482 -0.38826803727453157 0 -0.084931705096709012 -0.39557720875243713 0 -0.083921239772640238 -0.38396663879978871 0 -0.076899216694667677 -0.36865863427987439 0 -0.092143069441117886 -0.37288061806212591 0 -0.083921239772640238 -0.38396663879978871 0 -0.076899216694667677 -0.36865863427987439 0 -0.059008804616476777 -0.3736816009534113 0 -0.083921239772640238 -0.38396663879978871 0 -0.059008804616476777 -0.3736816009534113 0 -0.054792379857709787 -0.38521108099946061 0 -0.083921239772640238 -0.38396663879978871 0 -0.054792379857709787 -0.38521108099946061 0 -0.083921239772640238 -0.38396663879978871 0 -0.054792379857709787 -0.38521108099946061 0 -0.083921239772640238 -0.38396663879978871 0 -0.072775681732521871 -0.39584784537067902 0 -0.059008804616476777 -0.3736816009534113 0 -0.083921239772640238 -0.38396663879978871 0 -0.059825167014939118 -0.40722915412089022 0 -0.072775681732521871 -0.39584784537067902 0 -0.079771973845784508 -0.40808466519098552 0 -0.059825167014939118 -0.40722915412089022 0 -0.072027503688391378 -0.4304363902392051 0 -0.079771973845784508 -0.40808466519098552 0 -0.098405376953540707 -0.43777035074814158 0 -0.097023176649951706 -0.41709708103231641 0 -0.072027503688391378 -0.4304363902392051 0 -0.097023176649951706 -0.41709708103231641 0 -0.072027503688391378 -0.4304363902392051 0 -0.079771973845784508 -0.40808466519098552 0 -0.097023176649951706 -0.41709708103231641 0 -0.093849536080233595 -0.40171885712620059 0 -0.079771973845784508 -0.40808466519098552 0 -0.080332479827855185 -0.089132189148723034 0 -0.087659787804267197 -0.1053579589647711 0 -0.098653139325870498 -0.078072759780639212 0 -0.080332479827855185 -0.089132189148723034 0 -0.08392236851191634 -0.073343044769479643 0 -0.098653139325870498 -0.078072759780639212 0 -0.087659787804267197 -0.1053579589647711 0 -0.098653139325870498 -0.078072759780639212 0 -0.093078549589984544 -0.062615985124124363 0 -0.08392236851191634 -0.073343044769479643 0 -0.074194079442307964 -0.055813170303027348 0 -0.093078549589984544 -0.062615985124124363 0 -0.08392236851191634 -0.073343044769479643 0 -0.098653139325870498 -0.078072759780639212 0 -0.069502852475768331 -0.077808897141633637 0 -0.074194079442307964 -0.055813170303027348 0 -0.056896828677456698 -0.064957726782933892 0 -0.08392236851191634 -0.073343044769479643 0 -0.069502852475768331 -0.077808897141633637 0 -0.074194079442307964 -0.055813170303027348 0 -0.069502852475768331 -0.077808897141633637 0 -0.074194079442307964 -0.055813170303027348 0 -0.080332479827855185 -0.089132189148723034 0 -0.08392236851191634 -0.073343044769479643 0 -0.069502852475768331 -0.077808897141633637 0 -0.080332479827855185 -0.089132189148723034 0 -0.069502852475768331 -0.077808897141633637 0 -0.064978262980951509 -0.095744309556548293 0 -0.069502852475768331 -0.077808897141633637 0 -0.064978262980951509 -0.095744309556548293 0 -0.053466751150831528 -0.085728027791416223 0 -0.064978262980951509 -0.095744309556548293 0 -0.069413139924847295 -0.1120169614824971 0 -0.055973796613101583 -0.11154457769597879 0 -0.064978262980951509 -0.095744309556548293 0 -0.075595917634480286 -0.1005628547881349 0 -0.069413139924847295 -0.1120169614824971 0 -0.075595917634480286 -0.1005628547881349 0 -0.069413139924847295 -0.1120169614824971 0 -0.087659787804267197 -0.1053579589647711 0 -0.080332479827855185 -0.089132189148723034 0 -0.064978262980951509 -0.095744309556548293 0 -0.075595917634480286 -0.1005628547881349 0 -0.069413139924847295 -0.1120169614824971 0 -0.072499038737136423 -0.12336773177227039 0 -0.087659787804267197 -0.1053579589647711 0 -0.063965210873385206 -0.121372291062271 0 -0.069413139924847295 -0.1120169614824971 0 -0.072499038737136423 -0.12336773177227039 0 -0.063965210873385206 -0.121372291062271 0 -0.069413139924847295 -0.1120169614824971 0 -0.055973796613101583 -0.11154457769597879 0 -0.093729858762440374 -0.11631984424608149 0 -0.087659787804267197 -0.1053579589647711 0 -0.076666436282660663 -0.13264315814890179 0 -0.087659787804267197 -0.1053579589647711 0 -0.076666436282660663 -0.13264315814890179 0 -0.072499038737136423 -0.12336773177227039 0 -0.087659787804267197 -0.1053579589647711 0 -0.076666436282660663 -0.13264315814890179 0 -0.093729858762440374 -0.11631984424608149 0 -0.076666436282660663 -0.13264315814890179 0 -0.096101065320712109 -0.1258911452360538 0 -0.080332479827855185 -0.089132189148723034 0 -0.075595917634480286 -0.1005628547881349 0 -0.087659787804267197 -0.1053579589647711 0 -0.087659787804267197 -0.1053579589647711 0 -0.1004265812101162 -0.1089643198262948 0 -0.1006655882856296 -0.09175432640411825 0 -0.1004265812101162 -0.1089643198262948 0 -0.11487650466180439 -0.1160490357388697 0 -0.1006655882856296 -0.09175432640411825 0 -0.11487650466180439 -0.1160490357388697 0 -0.1117238545323833 -0.101270295352793 0 -0.1006655882856296 -0.09175432640411825 0 -0.11487650466180439 -0.1160490357388697 0 -0.1006655882856296 -0.09175432640411825 0 -0.10451846741591179 -0.1170766955469076 0 -0.11649007265168369 -0.1188075605425003 0 -0.096101065320712109 -0.1258911452360538 0 -0.11649007265168369 -0.1188075605425003 0 -0.096101065320712109 -0.1258911452360538 0 -0.093729858762440374 -0.11631984424608149 0 -0.10451846741591179 -0.1170766955469076 0 -0.096101065320712109 -0.1258911452360538 0 -0.093729858762440374 -0.11631984424608149 0 -0.087659787804267197 -0.1053579589647711 0 -0.1004265812101162 -0.1089643198262948 0 -0.093729858762440374 -0.11631984424608149 0 -0.1004265812101162 -0.1089643198262948 0 -0.10451846741591179 -0.1170766955469076 0 -0.1004265812101162 -0.1089643198262948 0 -0.10451846741591179 -0.1170766955469076 0 -0.11487650466180439 -0.1160490357388697 0 -0.10451846741591179 -0.1170766955469076 0 -0.11649007265168369 -0.1188075605425003 0 -0.11487650466180439 -0.1160490357388697 0 -0.11649007265168369 -0.1188075605425003 0 -0.11487650466180439 -0.1160490357388697 0 -0.11649007265168369 -0.1188075605425003 0 -0.11487650466180439 -0.1160490357388697 0 -0.12599987765418549 -0.11550364740632391 0 -0.11487650466180439 -0.1160490357388697 0 -0.12182531397588869 -0.1044134543712442 0 -0.12599987765418549 -0.11550364740632391 0 -0.11649007265168369 -0.1188075605425003 0 -0.12599987765418549 -0.11550364740632391 0 -0.11649007265168369 -0.1188075605425003 0 -0.12599987765418549 -0.11550364740632391 0 -0.1252704192176744 -0.1172440966648565 0 -0.11487650466180439 -0.1160490357388697 0 -0.1117238545323833 -0.101270295352793 0 -0.12182531397588869 -0.1044134543712442 0 -0.11487650466180439 -0.1160490357388697 0 -0.1117238545323833 -0.101270295352793 0 -0.1117238545323833 -0.101270295352793 0 -0.12182531397588869 -0.1044134543712442 0 -0.12067370026095731 -0.092005587950159118 0 -0.1117238545323833 -0.101270295352793 0 -0.12067370026095731 -0.092005587950159118 0 -0.1096737611153919 -0.085603154438093937 0 -0.12067370026095731 -0.092005587950159118 0 -0.1179915177927765 -0.081714148456293267 0 -0.12737817104852411 -0.080741270387750683 0 -0.1179915177927765 -0.081714148456293267 0 -0.1096737611153919 -0.085603154438093937 0 -0.1121838893690176 -0.075324773267663084 0 -0.12067370026095731 -0.092005587950159118 0 -0.1179915177927765 -0.081714148456293267 0 -0.1096737611153919 -0.085603154438093937 0 -0.087659787804267197 -0.1053579589647711 0 -0.1006655882856296 -0.09175432640411825 0 -0.098653139325870498 -0.078072759780639212 0 -0.1117238545323833 -0.101270295352793 0 -0.1096737611153919 -0.085603154438093937 0 -0.1006655882856296 -0.09175432640411825 0 -0.1096737611153919 -0.085603154438093937 0 -0.098653139325870498 -0.078072759780639212 0 -0.1121838893690176 -0.075324773267663084 0 -0.1096737611153919 -0.085603154438093937 0 -0.1006655882856296 -0.09175432640411825 0 -0.098653139325870498 -0.078072759780639212 0 -0.093078549589984544 -0.062615985124124363 0 -0.098653139325870498 -0.078072759780639212 0 -0.10811729135418539 -0.065091756711675844 0 -0.098653139325870498 -0.078072759780639212 0 -0.10811729135418539 -0.065091756711675844 0 -0.1121838893690176 -0.075324773267663084 0 -0.10811729135418539 -0.065091756711675844 0 -0.1121838893690176 -0.075324773267663084 0 -0.1232756904161693 -0.070411489051666373 0 -0.1179915177927765 -0.081714148456293267 0 -0.1121838893690176 -0.075324773267663084 0 -0.1232756904161693 -0.070411489051666373 0 -0.1179915177927765 -0.081714148456293267 0 -0.1232756904161693 -0.070411489051666373 0 -0.12737817104852411 -0.080741270387750683 0 -0.10811729135418539 -0.065091756711675844 0 -0.1232756904161693 -0.070411489051666373 0 -0.12131955324210091 -0.059181462630683621 0 -0.12131955324210091 -0.059181462630683621 0 -0.1197314047957487 -0.044466417495601512 0 -0.1050545945384474 -0.053665832172193451 0 -0.10811729135418539 -0.065091756711675844 0 -0.12131955324210091 -0.059181462630683621 0 -0.1050545945384474 -0.053665832172193451 0 -0.12131955324210091 -0.059181462630683621 0 -0.1197314047957487 -0.044466417495601512 0 -0.1315211872564446 -0.050314657740016588 0 -0.1197314047957487 -0.044466417495601512 0 -0.1068389650378473 -0.041887213400145028 0 -0.1185057960264221 -0.028529017004706999 0 -0.1197314047957487 -0.044466417495601512 0 -0.1185057960264221 -0.028529017004706999 0 -0.13361245343545181 -0.030305793086055629 0 -0.1197314047957487 -0.044466417495601512 0 -0.1068389650378473 -0.041887213400145028 0 -0.1050545945384474 -0.053665832172193451 0 -0.1068389650378473 -0.041887213400145028 0 -0.093783258566811134 -0.025165556691727101 0 -0.092485611966423034 -0.037114626304880938 0 -0.1068389650378473 -0.041887213400145028 0 -0.090434917852185284 -0.047588291663230448 0 -0.092485611966423034 -0.037114626304880938 0 -0.093078549589984544 -0.062615985124124363 0 -0.1050545945384474 -0.053665832172193451 0 -0.090434917852185284 -0.047588291663230448 0 -0.1068389650378473 -0.041887213400145028 0 -0.1050545945384474 -0.053665832172193451 0 -0.090434917852185284 -0.047588291663230448 0 -0.093078549589984544 -0.062615985124124363 0 -0.10811729135418539 -0.065091756711675844 0 -0.1050545945384474 -0.053665832172193451 0 -0.1236122261121546 -0.0078425818954372464 0 -0.10868121072477301 -0.016513669919031759 0 -0.1099986790197032 0.001632030897992919 0 -0.1236122261121546 -0.0078425818954372464 0 -0.10868121072477301 -0.016513669919031759 0 -0.1068389650378473 -0.041887213400145028 0 -0.1185057960264221 -0.028529017004706999 0 -0.10868121072477301 -0.016513669919031759 0 -0.1236122261121546 -0.0078425818954372464 0 -0.1185057960264221 -0.028529017004706999 0 -0.10868121072477301 -0.016513669919031759 0 -0.1068389650378473 -0.041887213400145028 0 -0.104837062895502 -0.02019526763349536 0 -0.10868121072477301 -0.016513669919031759 0 -0.1068389650378473 -0.041887213400145028 0 -0.10868121072477301 -0.016513669919031759 0 -0.1068389650378473 -0.041887213400145028 0 -0.093783258566811134 -0.025165556691727101 0 -0.104837062895502 -0.02019526763349536 0 -0.093783258566811134 -0.025165556691727101 0 -0.10868121072477301 -0.016513669919031759 0 -0.093783258566811134 -0.025165556691727101 0 -0.10868121072477301 -0.016513669919031759 0 -0.095747033840698895 -0.01524308727968717 0 -0.093783258566811134 -0.025165556691727101 0 -0.104837062895502 -0.02019526763349536 0 -0.10868121072477301 -0.016513669919031759 0 -0.104837062895502 -0.02019526763349536 0 -0.10868121072477301 -0.016513669919031759 0 -0.10868121072477301 -0.016513669919031759 0 -0.1099986790197032 0.001632030897992919 0 -0.10868121072477301 -0.016513669919031759 0 -0.097318817554363779 -0.0057286893867275063 0 -0.1099986790197032 0.001632030897992919 0 -0.10868121072477301 -0.016513669919031759 0 -0.095747033840698895 -0.01524308727968717 0 -0.097318817554363779 -0.0057286893867275063 0 -0.097318817554363779 -0.0057286893867275063 0 -0.083204848516847923 -0.01356443312126232 0 -0.087524390624848222 0.006688577221896419 0 -0.083204848516847923 -0.01356443312126232 0 -0.087524390624848222 0.006688577221896419 0 -0.083204848516847923 -0.01356443312126232 0 -0.065966226425225663 -0.0060274066981548767 0 -0.087524390624848222 0.006688577221896419 0 -0.095747033840698895 -0.01524308727968717 0 -0.097318817554363779 -0.0057286893867275063 0 -0.083204848516847923 -0.01356443312126232 0 -0.083204848516847923 -0.01356443312126232 0 -0.07434952191593272 -0.025061702399879319 0 -0.078885306408848499 -0.033817443464421199 0 -0.093783258566811134 -0.025165556691727101 0 -0.083204848516847923 -0.01356443312126232 0 -0.078885306408848499 -0.033817443464421199 0 -0.083204848516847923 -0.01356443312126232 0 -0.078885306408848499 -0.033817443464421199 0 -0.093783258566811134 -0.025165556691727101 0 -0.095747033840698895 -0.01524308727968717 0 -0.083204848516847923 -0.01356443312126232 0 -0.093783258566811134 -0.025165556691727101 0 -0.078885306408848499 -0.033817443464421199 0 -0.07434952191593272 -0.025061702399879319 0 -0.065966226425225663 -0.0060274066981548767 0 -0.069170669720302794 -0.035546986895945307 0 -0.065966226425225663 -0.0060274066981548767 0 -0.069170669720302794 -0.035546986895945307 0 -0.060499849025326763 -0.027113091598361162 0 -0.065966226425225663 -0.0060274066981548767 0 -0.069170669720302794 -0.035546986895945307 0 -0.083204848516847923 -0.01356443312126232 0 -0.07434952191593272 -0.025061702399879319 0 -0.065966226425225663 -0.0060274066981548767 0 -0.093078549589984544 -0.062615985124124363 0 -0.090434917852185284 -0.047588291663230448 0 -0.074194079442307964 -0.055813170303027348 0 -0.090434917852185284 -0.047588291663230448 0 -0.078885306408848499 -0.033817443464421199 0 -0.074194079442307964 -0.055813170303027348 0 -0.090434917852185284 -0.047588291663230448 0 -0.092485611966423034 -0.037114626304880938 0 -0.078885306408848499 -0.033817443464421199 0 -0.093783258566811134 -0.025165556691727101 0 -0.092485611966423034 -0.037114626304880938 0 -0.078885306408848499 -0.033817443464421199 0 -0.078885306408848499 -0.033817443464421199 0 -0.074194079442307964 -0.055813170303027348 0 -0.070330568719734213 -0.04601515277555971 0 -0.074520558508438778 -0.036352241819612927 0 -0.069170669720302794 -0.035546986895945307 0 -0.078885306408848499 -0.033817443464421199 0 -0.070330568719734213 -0.04601515277555971 0 -0.074194079442307964 -0.055813170303027348 0 -0.078885306408848499 -0.033817443464421199 0 -0.070330568719734213 -0.04601515277555971 0 -0.074520558508438778 -0.036352241819612927 0 -0.07434952191593272 -0.025061702399879319 0 -0.074520558508438778 -0.036352241819612927 0 -0.069170669720302794 -0.035546986895945307 0 -0.07434952191593272 -0.025061702399879319 0 -0.078885306408848499 -0.033817443464421199 0 -0.074520558508438778 -0.036352241819612927 0 -0.078885306408848499 -0.033817443464421199 0 -0.074520558508438778 -0.036352241819612927 0 -0.069170669720302794 -0.035546986895945307 0 -0.063362765034716981 -0.039125320738808887 0 -0.060499849025326763 -0.027113091598361162 0 -0.070330568719734213 -0.04601515277555971 0 -0.069170669720302794 -0.035546986895945307 0 -0.063362765034716981 -0.039125320738808887 0 -0.070330568719734213 -0.04601515277555971 0 -0.063362765034716981 -0.039125320738808887 0 -0.059858302453952031 -0.048952151576379901 0 -0.070330568719734213 -0.04601515277555971 0 -0.074194079442307964 -0.055813170303027348 0 -0.059858302453952031 -0.048952151576379901 0 -0.074194079442307964 -0.055813170303027348 0 -0.059858302453952031 -0.048952151576379901 0 -0.056896828677456698 -0.064957726782933892 0 -0.059858302453952031 -0.048952151576379901 0 -0.044923942794737923 -0.054691691027005551 0 -0.056896828677456698 -0.064957726782933892 0 -0.059858302453952031 -0.048952151576379901 0 -0.049734296148808359 -0.042485020192698987 0 -0.044923942794737923 -0.054691691027005551 0 -0.059858302453952031 -0.048952151576379901 0 -0.056954435254269083 -0.037999220847798339 0 -0.049734296148808359 -0.042485020192698987 0 -0.063362765034716981 -0.039125320738808887 0 -0.059858302453952031 -0.048952151576379901 0 -0.056954435254269083 -0.037999220847798339 0 -0.063362765034716981 -0.039125320738808887 0 -0.056954435254269083 -0.037999220847798339 0 -0.060499849025326763 -0.027113091598361162 0 -0.056954435254269083 -0.037999220847798339 0 -0.047200384798774982 -0.033276672805742737 0 -0.049734296148808359 -0.042485020192698987 0 -0.056954435254269083 -0.037999220847798339 0 -0.047200384798774982 -0.033276672805742737 0 -0.052646608023139009 -0.028133593701314161 0 -0.049734296148808359 -0.042485020192698987 0 -0.038309454021287423 -0.037485304465473157 0 -0.044923942794737923 -0.054691691027005551 0 -0.047200384798774982 -0.033276672805742737 0 -0.038309454021287423 -0.037485304465473157 0 -0.041340635405623813 -0.023634308371219701 0 -0.047200384798774982 -0.033276672805742737 0 -0.049734296148808359 -0.042485020192698987 0 -0.038309454021287423 -0.037485304465473157 0 -0.038309454021287423 -0.037485304465473157 0 -0.03208775864781041 -0.029071100487059381 0 -0.02346135141751398 -0.035355058972579741 0 -0.038309454021287423 -0.037485304465473157 0 -0.044923942794737923 -0.054691691027005551 0 -0.02964595896144296 -0.052602220053598318 0 -0.044923942794737923 -0.054691691027005551 0 -0.02964595896144296 -0.052602220053598318 0 -0.02933827121860667 -0.069671405985324328 0 -0.065966226425225663 -0.0060274066981548767 0 -0.052851520708108592 -0.013709279578128279 0 -0.060499849025326763 -0.027113091598361162 0 -0.065966226425225663 -0.0060274066981548767 0 -0.052851520708108592 -0.013709279578128279 0 -0.041285176168578859 0.002941795093874656 0 -0.052851520708108592 -0.013709279578128279 0 -0.052646608023139009 -0.028133593701314161 0 -0.041340635405623813 -0.023634308371219701 0 -0.052851520708108592 -0.013709279578128279 0 -0.060499849025326763 -0.027113091598361162 0 -0.052646608023139009 -0.028133593701314161 0 -0.056954435254269083 -0.037999220847798339 0 -0.060499849025326763 -0.027113091598361162 0 -0.052646608023139009 -0.028133593701314161 0 -0.047200384798774982 -0.033276672805742737 0 -0.052646608023139009 -0.028133593701314161 0 -0.041340635405623813 -0.023634308371219701 0 -0.041340635405623813 -0.023634308371219701 0 -0.03208775864781041 -0.029071100487059381 0 -0.025239593746816429 -0.019809730138964948 0 -0.041340635405623813 -0.023634308371219701 0 -0.035761471768298317 -0.01187809368403442 0 -0.025239593746816429 -0.019809730138964948 0 -0.052851520708108592 -0.013709279578128279 0 -0.041340635405623813 -0.023634308371219701 0 -0.035761471768298317 -0.01187809368403442 0 -0.038309454021287423 -0.037485304465473157 0 -0.041340635405623813 -0.023634308371219701 0 -0.03208775864781041 -0.029071100487059381 0 -0.052851520708108592 -0.013709279578128279 0 -0.035761471768298317 -0.01187809368403442 0 -0.041285176168578859 0.002941795093874656 0 -0.035761471768298317 -0.01187809368403442 0 -0.018090432812363919 -0.0051789454257338127 0 -0.041285176168578859 0.002941795093874656 0 -0.035761471768298317 -0.01187809368403442 0 -0.018090432812363919 -0.0051789454257338127 0 -0.025239593746816429 -0.019809730138964948 0 -0.018090432812363919 -0.0051789454257338127 0 -0.025239593746816429 -0.019809730138964948 0 -0.013061188317162169 -0.01291647294893521 0 -0.025239593746816429 -0.019809730138964948 0 -0.011210459174411659 -0.020702551241823321 0 -0.013061188317162169 -0.01291647294893521 0 -0.03208775864781041 -0.029071100487059381 0 -0.025239593746816429 -0.019809730138964948 0 -0.02346135141751398 -0.035355058972579741 0 -0.025239593746816429 -0.019809730138964948 0 -0.011210459174411659 -0.020702551241823321 0 -0.02346135141751398 -0.035355058972579741 0 -0.011210459174411659 -0.020702551241823321 0 -0.02346135141751398 -0.035355058972579741 0 -0.003476286599935095 -0.036271506326322138 0 -0.011210459174411659 -0.020702551241823321 0 -0.003476286599935095 -0.036271506326322138 0 0.0014199230119024339 -0.021574900853890581 0 -0.011210459174411659 -0.020702551241823321 0 0.0006213327713558641 -0.0089396406014967747 0 0.0014199230119024339 -0.021574900853890581 0 -0.001488115343110989 -0.0087397640735148233 0 -0.01693898921702304 0.0117618500821222 0 0.002394805847480138 -0.0071764921779012506 0 -0.018090432812363919 -0.0051789454257338127 0 -0.001488115343110989 -0.0087397640735148233 0 -0.01693898921702304 0.0117618500821222 0 -0.018090432812363919 -0.0051789454257338127 0 -0.013061188317162169 -0.01291647294893521 0 -0.001488115343110989 -0.0087397640735148233 0 -0.011210459174411659 -0.020702551241823321 0 -0.013061188317162169 -0.01291647294893521 0 -0.001488115343110989 -0.0087397640735148233 0 -0.011210459174411659 -0.020702551241823321 0 -0.001488115343110989 -0.0087397640735148233 0 0.0006213327713558641 -0.0089396406014967747 0 -0.011210459174411659 -0.020702551241823321 0 0.0006213327713558641 -0.0089396406014967747 0 -0.001488115343110989 -0.0087397640735148233 0 0.0006213327713558641 -0.0089396406014967747 0 -0.02964595896144296 -0.052602220053598318 0 -0.01526094355706222 -0.064007872731860899 0 -0.02933827121860667 -0.069671405985324328 0 -0.02964595896144296 -0.052602220053598318 0 -0.01441383554066036 -0.048546622235137428 0 -0.01526094355706222 -0.064007872731860899 0 -0.02964595896144296 -0.052602220053598318 0 -0.02346135141751398 -0.035355058972579741 0 -0.01441383554066036 -0.048546622235137428 0 -0.038309454021287423 -0.037485304465473157 0 -0.02964595896144296 -0.052602220053598318 0 -0.02346135141751398 -0.035355058972579741 0 -0.003476286599935095 -0.036271506326322138 0 -0.00022463716734756899 -0.054496453091326037 0 -0.01441383554066036 -0.048546622235137428 0 -0.02346135141751398 -0.035355058972579741 0 -0.003476286599935095 -0.036271506326322138 0 -0.01441383554066036 -0.048546622235137428 0 -0.00022463716734756899 -0.054496453091326037 0 -0.01441383554066036 -0.048546622235137428 0 -0.01526094355706222 -0.064007872731860899 0 -0.00022463716734756899 -0.054496453091326037 0 -0.01526094355706222 -0.064007872731860899 0 0.003886405537072308 -0.074985287574065307 0 -0.01526094355706222 -0.064007872731860899 0 -0.020242120847587721 -0.083511357097035596 0 0.003886405537072308 -0.074985287574065307 0 -0.0041979068999104599 -0.092692987180200151 0 -0.020242120847587721 -0.083511357097035596 0 0.003886405537072308 -0.074985287574065307 0 -0.020242120847587721 -0.083511357097035596 0 -0.037149979327061843 -0.086545702414286968 0 -0.027814197350204149 -0.1002222595639333 0 -0.020242120847587721 -0.083511357097035596 0 -0.02933827121860667 -0.069671405985324328 0 -0.037149979327061843 -0.086545702414286968 0 -0.0041979068999104599 -0.092692987180200151 0 -0.020242120847587721 -0.083511357097035596 0 -0.027814197350204149 -0.1002222595639333 0 -0.01526094355706222 -0.064007872731860899 0 -0.020242120847587721 -0.083511357097035596 0 -0.02933827121860667 -0.069671405985324328 0 -0.044923942794737923 -0.054691691027005551 0 -0.02933827121860667 -0.069671405985324328 0 -0.043795121567553899 -0.073512069705660321 0 -0.02933827121860667 -0.069671405985324328 0 -0.043795121567553899 -0.073512069705660321 0 -0.037149979327061843 -0.086545702414286968 0 -0.043795121567553899 -0.073512069705660321 0 -0.037149979327061843 -0.086545702414286968 0 -0.053466751150831528 -0.085728027791416223 0 -0.037149979327061843 -0.086545702414286968 0 -0.053466751150831528 -0.085728027791416223 0 -0.046895924631556341 -0.099640457450003272 0 -0.064978262980951509 -0.095744309556548293 0 -0.053466751150831528 -0.085728027791416223 0 -0.046895924631556341 -0.099640457450003272 0 -0.069502852475768331 -0.077808897141633637 0 -0.053466751150831528 -0.085728027791416223 0 -0.056896828677456698 -0.064957726782933892 0 -0.043795121567553899 -0.073512069705660321 0 -0.053466751150831528 -0.085728027791416223 0 -0.056896828677456698 -0.064957726782933892 0 -0.044923942794737923 -0.054691691027005551 0 -0.043795121567553899 -0.073512069705660321 0 -0.056896828677456698 -0.064957726782933892 0 -0.055973796613101583 -0.11154457769597879 0 -0.041972484009239593 -0.11125691353498 0 -0.051469099840166933 -0.12560748285855791 0 -0.063965210873385206 -0.121372291062271 0 -0.055973796613101583 -0.11154457769597879 0 -0.051469099840166933 -0.12560748285855791 0 -0.064978262980951509 -0.095744309556548293 0 -0.055973796613101583 -0.11154457769597879 0 -0.046895924631556341 -0.099640457450003272 0 -0.055973796613101583 -0.11154457769597879 0 -0.046895924631556341 -0.099640457450003272 0 -0.041972484009239593 -0.11125691353498 0 -0.046895924631556341 -0.099640457450003272 0 -0.041972484009239593 -0.11125691353498 0 -0.027814197350204149 -0.1002222595639333 0 -0.037149979327061843 -0.086545702414286968 0 -0.046895924631556341 -0.099640457450003272 0 -0.027814197350204149 -0.1002222595639333 0 -0.027958050649480481 -0.11798595469309241 0 -0.051469099840166933 -0.12560748285855791 0 -0.041972484009239593 -0.11125691353498 0 -0.027958050649480481 -0.11798595469309241 0 -0.051469099840166933 -0.12560748285855791 0 -0.041972484009239593 -0.11125691353498 0 -0.027958050649480481 -0.11798595469309241 0 -0.027814197350204149 -0.1002222595639333 0 -0.027958050649480481 -0.11798595469309241 0 -0.051469099840166933 -0.12560748285855791 0 -0.035009396245865847 -0.13138946507283039 0 -0.027958050649480481 -0.11798595469309241 0 -0.027814197350204149 -0.1002222595639333 0 -0.004447001458793981 -0.1103644265276268 0 -0.027958050649480481 -0.11798595469309241 0 -0.004447001458793981 -0.1103644265276268 0 -0.0041979068999104599 -0.092692987180200151 0 -0.027814197350204149 -0.1002222595639333 0 -0.004447001458793981 -0.1103644265276268 0 -0.027958050649480481 -0.11798595469309241 0 -0.004447001458793981 -0.1103644265276268 0 -0.0095835093286126792 -0.13067357323387099 0 -0.0095835093286126792 -0.13067357323387099 0 -0.02380622872257708 -0.13863305153198521 0 -0.011420010772425999 -0.14358906931216731 0 -0.0095835093286126792 -0.13067357323387099 0 -0.02380622872257708 -0.13863305153198521 0 -0.035009396245865847 -0.13138946507283039 0 -0.0095835093286126792 -0.13067357323387099 0 -0.035009396245865847 -0.13138946507283039 0 -0.027958050649480481 -0.11798595469309241 0 -0.0095835093286126792 -0.13067357323387099 0 -0.035009396245865847 -0.13138946507283039 0 -0.02380622872257708 -0.13863305153198521 0 -0.02156928320199206 -0.15178510772423359 0 -0.048274716116422638 -0.14250705937413011 0 -0.02380622872257708 -0.13863305153198521 0 -0.02156928320199206 -0.15178510772423359 0 -0.011420010772425999 -0.14358906931216731 0 -0.02156928320199206 -0.15178510772423359 0 0.0051361497124387812 -0.16106315607433669 0 0.00014451492137988051 -0.1496259991592768 0 -0.0095835093286126792 -0.13067357323387099 0 -0.011420010772425999 -0.14358906931216731 0 0.00014451492137988051 -0.1496259991592768 0 -0.02156928320199206 -0.15178510772423359 0 -0.011420010772425999 -0.14358906931216731 0 0.00014451492137988051 -0.1496259991592768 0 -0.011473423231508561 -0.16625464439919799 0 -0.001198061652550745 -0.17280609881212911 0 0.0051361497124387812 -0.16106315607433669 0 -0.011473423231508561 -0.16625464439919799 0 0.0051361497124387812 -0.16106315607433669 0 -0.02156928320199206 -0.15178510772423359 0 -0.011473423231508561 -0.16625464439919799 0 0.0051361497124387812 -0.16106315607433669 0 -0.02156928320199206 -0.15178510772423359 0 0.0051361497124387812 -0.16106315607433669 0 -0.011473423231508561 -0.16625464439919799 0 -0.011684220618858611 -0.1828185141711022 0 -0.001198061652550745 -0.17280609881212911 0 -0.011684220618858611 -0.1828185141711022 0 -0.001198061652550745 -0.17280609881212911 0 0.0039750345954989988 -0.18651425943902311 0 -0.011684220618858611 -0.1828185141711022 0 -0.028082996175455729 -0.1714461327240597 0 -0.02834353692262364 -0.19660149069868879 0 -0.011473423231508561 -0.16625464439919799 0 -0.011684220618858611 -0.1828185141711022 0 -0.028082996175455729 -0.1714461327240597 0 -0.028082996175455729 -0.1714461327240597 0 -0.035076942590977253 -0.17251068978070239 0 -0.02834353692262364 -0.19660149069868879 0 -0.011473423231508561 -0.16625464439919799 0 -0.028082996175455729 -0.1714461327240597 0 -0.011473423231508561 -0.16625464439919799 0 -0.022251169661310358 -0.16246870980996381 0 -0.028082996175455729 -0.1714461327240597 0 -0.02156928320199206 -0.15178510772423359 0 -0.011473423231508561 -0.16625464439919799 0 -0.022251169661310358 -0.16246870980996381 0 -0.022251169661310358 -0.16246870980996381 0 -0.028082996175455729 -0.1714461327240597 0 -0.031809345178707003 -0.1640816166355436 0 -0.02156928320199206 -0.15178510772423359 0 -0.022251169661310358 -0.16246870980996381 0 -0.031809345178707003 -0.1640816166355436 0 -0.02156928320199206 -0.15178510772423359 0 -0.031809345178707003 -0.1640816166355436 0 -0.040578875443760723 -0.15702635465982459 0 -0.031809345178707003 -0.1640816166355436 0 -0.043296803998745907 -0.16925270511447771 0 -0.040578875443760723 -0.15702635465982459 0 -0.031809345178707003 -0.1640816166355436 0 -0.043296803998745907 -0.16925270511447771 0 -0.035076942590977253 -0.17251068978070239 0 -0.028082996175455729 -0.1714461327240597 0 -0.031809345178707003 -0.1640816166355436 0 -0.035076942590977253 -0.17251068978070239 0 -0.043296803998745907 -0.16925270511447771 0 -0.040578875443760723 -0.15702635465982459 0 -0.04778301199147586 -0.16221110159835439 0 -0.035076942590977253 -0.17251068978070239 0 -0.045101912546314182 -0.17781348514508699 0 -0.045384173352602211 -0.1896086705553881 0 -0.035076942590977253 -0.17251068978070239 0 -0.02834353692262364 -0.19660149069868879 0 -0.035076942590977253 -0.17251068978070239 0 -0.02834353692262364 -0.19660149069868879 0 -0.045384173352602211 -0.1896086705553881 0 -0.043296803998745907 -0.16925270511447771 0 -0.035076942590977253 -0.17251068978070239 0 -0.045101912546314182 -0.17781348514508699 0 -0.043296803998745907 -0.16925270511447771 0 -0.045101912546314182 -0.17781348514508699 0 -0.050116399936897628 -0.17439367801967379 0 -0.053826302631423108 -0.18719098183538219 0 -0.0513777658433901 -0.18144884671813011 0 -0.045384173352602211 -0.1896086705553881 0 -0.045101912546314182 -0.17781348514508699 0 -0.0513777658433901 -0.18144884671813011 0 -0.045384173352602211 -0.1896086705553881 0 -0.053826302631423108 -0.18719098183538219 0 -0.0513777658433901 -0.18144884671813011 0 -0.05724186851000123 -0.18306086139846869 0 -0.050116399936897628 -0.17439367801967379 0 -0.056462731779267583 -0.17707926816758701 0 -0.053733136905861317 -0.1679726515631198 0 -0.0513777658433901 -0.18144884671813011 0 -0.050116399936897628 -0.17439367801967379 0 -0.056462731779267583 -0.17707926816758701 0 -0.045101912546314182 -0.17781348514508699 0 -0.0513777658433901 -0.18144884671813011 0 -0.050116399936897628 -0.17439367801967379 0 -0.061772453938110018 -0.1722676601875073 0 -0.056462731779267583 -0.17707926816758701 0 -0.064464826801710964 -0.18158017590305259 0 -0.061772453938110018 -0.1722676601875073 0 -0.056462731779267583 -0.17707926816758701 0 -0.053733136905861317 -0.1679726515631198 0 -0.056462731779267583 -0.17707926816758701 0 -0.05724186851000123 -0.18306086139846869 0 -0.064464826801710964 -0.18158017590305259 0 -0.0513777658433901 -0.18144884671813011 0 -0.056462731779267583 -0.17707926816758701 0 -0.05724186851000123 -0.18306086139846869 0 -0.05724186851000123 -0.18306086139846869 0 -0.060077715494214402 -0.1880050343681916 0 -0.064464826801710964 -0.18158017590305259 0 -0.053826302631423108 -0.18719098183538219 0 -0.05724186851000123 -0.18306086139846869 0 -0.060077715494214402 -0.1880050343681916 0 -0.04778301199147586 -0.16221110159835439 0 -0.053733136905861317 -0.1679726515631198 0 -0.054318116428342743 -0.1550095253668563 0 -0.040578875443760723 -0.15702635465982459 0 -0.04778301199147586 -0.16221110159835439 0 -0.054318116428342743 -0.1550095253668563 0 -0.043296803998745907 -0.16925270511447771 0 -0.04778301199147586 -0.16221110159835439 0 -0.053733136905861317 -0.1679726515631198 0 -0.043296803998745907 -0.16925270511447771 0 -0.050116399936897628 -0.17439367801967379 0 -0.053733136905861317 -0.1679726515631198 0 -0.061772453938110018 -0.1722676601875073 0 -0.053733136905861317 -0.1679726515631198 0 -0.064150653413557149 -0.1630994165534029 0 -0.053733136905861317 -0.1679726515631198 0 -0.054318116428342743 -0.1550095253668563 0 -0.064150653413557149 -0.1630994165534029 0 -0.054318116428342743 -0.1550095253668563 0 -0.06193597557114254 -0.14487761168208729 0 -0.07017092070895159 -0.14876485096333639 0 -0.040578875443760723 -0.15702635465982459 0 -0.054318116428342743 -0.1550095253668563 0 -0.048274716116422638 -0.14250705937413011 0 -0.054318116428342743 -0.1550095253668563 0 -0.048274716116422638 -0.14250705937413011 0 -0.06193597557114254 -0.14487761168208729 0 -0.048274716116422638 -0.14250705937413011 0 -0.06193597557114254 -0.14487761168208729 0 -0.074980149030852788 -0.13322901102402521 0 -0.048274716116422638 -0.14250705937413011 0 -0.074980149030852788 -0.13322901102402521 0 -0.048274716116422638 -0.14250705937413011 0 -0.060435283163119087 -0.13210535691178979 0 -0.035009396245865847 -0.13138946507283039 0 -0.060435283163119087 -0.13210535691178979 0 -0.051469099840166933 -0.12560748285855791 0 -0.035009396245865847 -0.13138946507283039 0 -0.060435283163119087 -0.13210535691178979 0 -0.051469099840166933 -0.12560748285855791 0 -0.074980149030852788 -0.13322901102402521 0 -0.048274716116422638 -0.14250705937413011 0 -0.060435283163119087 -0.13210535691178979 0 -0.074980149030852788 -0.13322901102402521 0 -0.060435283163119087 -0.13210535691178979 0 -0.035009396245865847 -0.13138946507283039 0 -0.02380622872257708 -0.13863305153198521 0 -0.048274716116422638 -0.14250705937413011 0 -0.035009396245865847 -0.13138946507283039 0 -0.02156928320199206 -0.15178510772423359 0 -0.048274716116422638 -0.14250705937413011 0 -0.02156928320199206 -0.15178510772423359 0 -0.040578875443760723 -0.15702635465982459 0 -0.048274716116422638 -0.14250705937413011 0 -0.012379740604400009 -0.25371681360357518 0 -0.01487672558591642 -0.24478309253466149 0 -0.032983601381048028 -0.2367885997845538 0 -0.012379740604400009 -0.25371681360357518 0 -0.032983601381048028 -0.2367885997845538 0 -0.012379740604400009 -0.25371681360357518 0 -0.027326811110253871 -0.25121816526868662 0 -0.032983601381048028 -0.2367885997845538 0 -0.012379740604400009 -0.25371681360357518 0 -0.01487672558591642 -0.24478309253466149 0 -0.0050603712554523096 -0.25502580822232418 0 -0.01487672558591642 -0.24478309253466149 0 -0.0012779613340340411 -0.24176494305706761 0 -0.01487672558591642 -0.24478309253466149 0 -0.0012779613340340411 -0.24176494305706761 0 -0.0098443816872556354 -0.23359128343904409 0 -0.01487672558591642 -0.24478309253466149 0 -0.0098443816872556354 -0.23359128343904409 0 -0.02161013125427003 -0.22069229161667511 0 -0.0098443816872556354 -0.23359128343904409 0 -0.0016127085748020571 -0.22712480654777251 0 -0.02161013125427003 -0.22069229161667511 0 -0.0012779613340340411 -0.24176494305706761 0 -0.0098443816872556354 -0.23359128343904409 0 -0.0016127085748020571 -0.22712480654777251 0 -0.02161013125427003 -0.22069229161667511 0 -0.037749047324124332 -0.2222456785719269 0 -0.032983601381048028 -0.2367885997845538 0 -0.01487672558591642 -0.24478309253466149 0 -0.02161013125427003 -0.22069229161667511 0 -0.01487672558591642 -0.24478309253466149 0 -0.02161013125427003 -0.22069229161667511 0 -0.032983601381048028 -0.2367885997845538 0 -0.02161013125427003 -0.22069229161667511 0 -0.0048422933519348798 -0.20657909219758999 0 -0.02834353692262364 -0.19660149069868879 0 -0.02161013125427003 -0.22069229161667511 0 -0.02834353692262364 -0.19660149069868879 0 -0.04042466355054887 -0.21142906939722611 0 -0.02161013125427003 -0.22069229161667511 0 -0.02834353692262364 -0.19660149069868879 0 -0.0016127085748020571 -0.22712480654777251 0 -0.02161013125427003 -0.22069229161667511 0 -0.0048422933519348798 -0.20657909219758999 0 -0.011684220618858611 -0.1828185141711022 0 -0.0048422933519348798 -0.20657909219758999 0 -0.02834353692262364 -0.19660149069868879 0 -0.011684220618858611 -0.1828185141711022 0 -0.0048422933519348798 -0.20657909219758999 0 0.0039750345954989988 -0.18651425943902311 0 -0.02834353692262364 -0.19660149069868879 0 -0.045384173352602211 -0.1896086705553881 0 -0.048680880466514129 -0.20143667782743011 0 -0.045384173352602211 -0.1896086705553881 0 -0.054600152190027743 -0.1938329285883432 0 -0.048680880466514129 -0.20143667782743011 0 -0.053826302631423108 -0.18719098183538219 0 -0.045384173352602211 -0.1896086705553881 0 -0.054600152190027743 -0.1938329285883432 0 -0.053826302631423108 -0.18719098183538219 0 -0.054600152190027743 -0.1938329285883432 0 -0.060077715494214402 -0.1880050343681916 0 -0.054600152190027743 -0.1938329285883432 0 -0.062207823669324508 -0.19415899925277841 0 -0.060077715494214402 -0.1880050343681916 0 -0.05727161150443684 -0.20059064904333551 0 -0.063912376375580449 -0.2061057797213553 0 -0.063099371948942468 -0.19895763039768499 0 -0.062207823669324508 -0.19415899925277841 0 -0.05727161150443684 -0.20059064904333551 0 -0.063099371948942468 -0.19895763039768499 0 -0.054600152190027743 -0.1938329285883432 0 -0.062207823669324508 -0.19415899925277841 0 -0.05727161150443684 -0.20059064904333551 0 -0.054600152190027743 -0.1938329285883432 0 -0.05727161150443684 -0.20059064904333551 0 -0.048680880466514129 -0.20143667782743011 0 -0.05727161150443684 -0.20059064904333551 0 -0.048680880466514129 -0.20143667782743011 0 -0.053253465001542127 -0.20792698589572001 0 -0.052910920334218993 -0.21967129177291539 0 -0.069612749235620427 -0.2166114240769427 0 -0.064663204576268285 -0.2095762323379651 0 -0.048680880466514129 -0.20143667782743011 0 -0.053253465001542127 -0.20792698589572001 0 -0.04042466355054887 -0.21142906939722611 0 -0.05727161150443684 -0.20059064904333551 0 -0.053253465001542127 -0.20792698589572001 0 -0.063912376375580449 -0.2061057797213553 0 -0.053253465001542127 -0.20792698589572001 0 -0.052910920334218993 -0.21967129177291539 0 -0.063912376375580449 -0.2061057797213553 0 -0.052910920334218993 -0.21967129177291539 0 -0.064663204576268285 -0.2095762323379651 0 -0.052910920334218993 -0.21967129177291539 0 -0.063912376375580449 -0.2061057797213553 0 -0.064663204576268285 -0.2095762323379651 0 -0.052910920334218993 -0.21967129177291539 0 -0.063912376375580449 -0.2061057797213553 0 -0.053253465001542127 -0.20792698589572001 0 -0.04042466355054887 -0.21142906939722611 0 -0.052910920334218993 -0.21967129177291539 0 -0.02834353692262364 -0.19660149069868879 0 -0.048680880466514129 -0.20143667782743011 0 -0.04042466355054887 -0.21142906939722611 0 -0.02161013125427003 -0.22069229161667511 0 -0.04042466355054887 -0.21142906939722611 0 -0.037749047324124332 -0.2222456785719269 0 -0.04042466355054887 -0.21142906939722611 0 -0.037749047324124332 -0.2222456785719269 0 -0.052910920334218993 -0.21967129177291539 0 -0.037749047324124332 -0.2222456785719269 0 -0.052910920334218993 -0.21967129177291539 0 -0.032983601381048028 -0.2367885997845538 0 -0.052910920334218993 -0.21967129177291539 0 -0.032983601381048028 -0.2367885997845538 0 -0.052910920334218993 -0.21967129177291539 0 -0.032983601381048028 -0.2367885997845538 0 -0.040118865722236351 -0.23544472852080089 0 -0.052910920334218993 -0.21967129177291539 0 -0.040118865722236351 -0.23544472852080089 0 -0.052910920334218993 -0.21967129177291539 0 -0.054603171266369793 -0.23243375726732241 0 -0.069083472660325121 -0.22748117926656231 0 -0.052910920334218993 -0.21967129177291539 0 -0.054603171266369793 -0.23243375726732241 0 -0.040118865722236351 -0.23544472852080089 0 -0.054603171266369793 -0.23243375726732241 0 -0.062344578928600528 -0.23779073398242739 0 -0.069083472660325121 -0.22748117926656231 0 -0.054603171266369793 -0.23243375726732241 0 -0.052406799216804557 -0.24459198769464191 0 -0.040118865722236351 -0.23544472852080089 0 -0.054603171266369793 -0.23243375726732241 0 -0.062344578928600528 -0.23779073398242739 0 -0.052406799216804557 -0.24459198769464191 0 -0.065421878849430556 -0.25167039592025259 0 -0.062344578928600528 -0.23779073398242739 0 -0.052406799216804557 -0.24459198769464191 0 -0.027326811110253871 -0.25121816526868662 0 -0.040785035177160277 -0.24958968680164759 0 -0.040118865722236351 -0.23544472852080089 0 -0.027326811110253871 -0.25121816526868662 0 -0.032983601381048028 -0.2367885997845538 0 -0.040118865722236351 -0.23544472852080089 0 -0.027326811110253871 -0.25121816526868662 0 -0.040118865722236351 -0.23544472852080089 0 -0.052406799216804557 -0.24459198769464191 0 -0.040785035177160277 -0.24958968680164759 0 -0.040118865722236351 -0.23544472852080089 0 -0.078278243085297239 -0.23951664672932549 0 -0.086153706899138552 -0.22983104630755541 0 -0.09423246880553815 -0.23787512664900909 0 -0.093765691765433312 -0.25258281812082478 0 -0.078278243085297239 -0.23951664672932549 0 -0.09423246880553815 -0.23787512664900909 0 -0.062344578928600528 -0.23779073398242739 0 -0.078278243085297239 -0.23951664672932549 0 -0.069083472660325121 -0.22748117926656231 0 -0.065421878849430556 -0.25167039592025259 0 -0.062344578928600528 -0.23779073398242739 0 -0.078278243085297239 -0.23951664672932549 0 -0.065421878849430556 -0.25167039592025259 0 -0.079465288233698042 -0.25846821731041458 0 -0.078278243085297239 -0.23951664672932549 0 -0.052910920334218993 -0.21967129177291539 0 -0.069083472660325121 -0.22748117926656231 0 -0.069612749235620427 -0.2166114240769427 0 -0.078278243085297239 -0.23951664672932549 0 -0.069083472660325121 -0.22748117926656231 0 -0.086153706899138552 -0.22983104630755541 0 -0.069083472660325121 -0.22748117926656231 0 -0.082890498454507591 -0.21890744373665691 0 -0.069612749235620427 -0.2166114240769427 0 -0.082890498454507591 -0.21890744373665691 0 -0.086153706899138552 -0.22983104630755541 0 -0.098908818798469189 -0.22405916704643611 0 -0.082890498454507591 -0.21890744373665691 0 -0.092414465742116453 -0.21356058677725129 0 -0.098908818798469189 -0.22405916704643611 0 -0.069083472660325121 -0.22748117926656231 0 -0.082890498454507591 -0.21890744373665691 0 -0.086153706899138552 -0.22983104630755541 0 -0.086153706899138552 -0.22983104630755541 0 -0.098908818798469189 -0.22405916704643611 0 -0.09423246880553815 -0.23787512664900909 0 -0.082890498454507591 -0.21890744373665691 0 -0.092414465742116453 -0.21356058677725129 0 -0.085039292724931326 -0.20636870672523311 0 -0.092414465742116453 -0.21356058677725129 0 -0.085039292724931326 -0.20636870672523311 0 -0.094924882140715844 -0.2023400251814354 0 -0.085039292724931326 -0.20636870672523311 0 -0.076791362556699633 -0.2103212049296195 0 -0.076415488818317417 -0.19948117290301459 0 -0.082890498454507591 -0.21890744373665691 0 -0.085039292724931326 -0.20636870672523311 0 -0.076791362556699633 -0.2103212049296195 0 -0.082890498454507591 -0.21890744373665691 0 -0.069612749235620427 -0.2166114240769427 0 -0.076791362556699633 -0.2103212049296195 0 -0.069612749235620427 -0.2166114240769427 0 -0.07187070129672643 -0.20899750856188551 0 -0.076791362556699633 -0.2103212049296195 0 -0.069612749235620427 -0.2166114240769427 0 -0.064663204576268285 -0.2095762323379651 0 -0.07187070129672643 -0.20899750856188551 0 -0.063912376375580449 -0.2061057797213553 0 -0.064663204576268285 -0.2095762323379651 0 -0.076415488818317417 -0.19948117290301459 0 -0.064663204576268285 -0.2095762323379651 0 -0.07187070129672643 -0.20899750856188551 0 -0.076415488818317417 -0.19948117290301459 0 -0.07187070129672643 -0.20899750856188551 0 -0.076791362556699633 -0.2103212049296195 0 -0.076415488818317417 -0.19948117290301459 0 -0.064663204576268285 -0.2095762323379651 0 -0.076415488818317417 -0.19948117290301459 0 -0.063912376375580449 -0.2061057797213553 0 -0.076415488818317417 -0.19948117290301459 0 -0.074913832416942036 -0.19254026766979529 0 -0.063912376375580449 -0.2061057797213553 0 -0.074913832416942036 -0.19254026766979529 0 -0.063912376375580449 -0.2061057797213553 0 -0.067162409966087119 -0.19576756974744089 0 -0.074913832416942036 -0.19254026766979529 0 -0.063912376375580449 -0.2061057797213553 0 -0.067162409966087119 -0.19576756974744089 0 -0.063099371948942468 -0.19895763039768499 0 -0.062207823669324508 -0.19415899925277841 0 -0.067162409966087119 -0.19576756974744089 0 -0.063099371948942468 -0.19895763039768499 0 -0.062207823669324508 -0.19415899925277841 0 -0.060077715494214402 -0.1880050343681916 0 -0.067992112858964282 -0.18866012404393079 0 -0.062207823669324508 -0.19415899925277841 0 -0.067162409966087119 -0.19576756974744089 0 -0.067992112858964282 -0.18866012404393079 0 -0.067162409966087119 -0.19576756974744089 0 -0.067992112858964282 -0.18866012404393079 0 -0.074913832416942036 -0.19254026766979529 0 -0.067992112858964282 -0.18866012404393079 0 -0.074913832416942036 -0.19254026766979529 0 -0.075495957942860306 -0.18151306003065079 0 -0.076415488818317417 -0.19948117290301459 0 -0.074913832416942036 -0.19254026766979529 0 -0.086799058637230975 -0.19360180682342101 0 -0.074913832416942036 -0.19254026766979529 0 -0.086799058637230975 -0.19360180682342101 0 -0.081197999186964104 -0.18678207382066461 0 -0.085039292724931326 -0.20636870672523311 0 -0.076415488818317417 -0.19948117290301459 0 -0.086799058637230975 -0.19360180682342101 0 -0.085039292724931326 -0.20636870672523311 0 -0.086799058637230975 -0.19360180682342101 0 -0.094924882140715844 -0.2023400251814354 0 -0.086799058637230975 -0.19360180682342101 0 -0.095726771505572558 -0.1875603531079979 0 -0.094924882140715844 -0.2023400251814354 0 -0.094924882140715844 -0.2023400251814354 0 -0.111160472432858 -0.1885386204747187 0 -0.094924882140715844 -0.2023400251814354 0 -0.111160472432858 -0.1885386204747187 0 -0.1114495577303883 -0.20340811176391119 0 -0.095726771505572558 -0.1875603531079979 0 -0.094924882140715844 -0.2023400251814354 0 -0.111160472432858 -0.1885386204747187 0 -0.111160472432858 -0.1885386204747187 0 -0.1221143178041114 -0.19234248283227301 0 -0.1210277983726237 -0.20080419496638871 0 -0.1221143178041114 -0.19234248283227301 0 -0.1210277983726237 -0.20080419496638871 0 -0.1287375196768317 -0.1989974444917289 0 -0.111160472432858 -0.1885386204747187 0 -0.1210277983726237 -0.20080419496638871 0 -0.1114495577303883 -0.20340811176391119 0 -0.1210277983726237 -0.20080419496638871 0 -0.1114495577303883 -0.20340811176391119 0 -0.1178360582138414 -0.2087755546500478 0 -0.1114495577303883 -0.20340811176391119 0 -0.1178360582138414 -0.2087755546500478 0 -0.1085815399970629 -0.214445376318082 0 -0.1210277983726237 -0.20080419496638871 0 -0.1178360582138414 -0.2087755546500478 0 -0.1261734044947341 -0.20832382066201691 0 -0.1178360582138414 -0.2087755546500478 0 -0.121947990474398 -0.21689626953984009 0 -0.1261734044947341 -0.20832382066201691 0 -0.1178360582138414 -0.2087755546500478 0 -0.121947990474398 -0.21689626953984009 0 -0.1085815399970629 -0.214445376318082 0 -0.092414465742116453 -0.21356058677725129 0 -0.094924882140715844 -0.2023400251814354 0 -0.1085815399970629 -0.214445376318082 0 -0.092414465742116453 -0.21356058677725129 0 -0.1085815399970629 -0.214445376318082 0 -0.098908818798469189 -0.22405916704643611 0 -0.094924882140715844 -0.2023400251814354 0 -0.1114495577303883 -0.20340811176391119 0 -0.1085815399970629 -0.214445376318082 0 -0.098908818798469189 -0.22405916704643611 0 -0.1146679177639674 -0.22763479024990699 0 -0.1064059993424292 -0.23999004584722569 0 -0.098908818798469189 -0.22405916704643611 0 -0.1064059993424292 -0.23999004584722569 0 -0.09423246880553815 -0.23787512664900909 0 -0.1085815399970629 -0.214445376318082 0 -0.098908818798469189 -0.22405916704643611 0 -0.1146679177639674 -0.22763479024990699 0 -0.1146679177639674 -0.22763479024990699 0 -0.1192340303868117 -0.24478318800158869 0 -0.13163987617815839 -0.22779776194380719 0 -0.121947990474398 -0.21689626953984009 0 -0.1085815399970629 -0.214445376318082 0 -0.1146679177639674 -0.22763479024990699 0 -0.121947990474398 -0.21689626953984009 0 -0.1146679177639674 -0.22763479024990699 0 -0.13163987617815839 -0.22779776194380719 0 -0.10928029933534041 -0.25911330461652088 0 -0.1192340303868117 -0.24478318800158869 0 -0.1064059993424292 -0.23999004584722569 0 -0.1146679177639674 -0.22763479024990699 0 -0.1192340303868117 -0.24478318800158869 0 -0.1064059993424292 -0.23999004584722569 0 -0.093765691765433312 -0.25258281812082478 0 -0.1064059993424292 -0.23999004584722569 0 -0.09423246880553815 -0.23787512664900909 0 -0.087025139202339175 -0.14924119698846519 0 -0.093760481790990557 -0.16258763704399551 0 -0.10010201785652401 -0.1437821866573995 0 -0.087025139202339175 -0.14924119698846519 0 -0.083645274202728603 -0.1360379667205176 0 -0.10010201785652401 -0.1437821866573995 0 -0.078981128367974607 -0.14447571604620801 0 -0.087025139202339175 -0.14924119698846519 0 -0.083645274202728603 -0.1360379667205176 0 -0.078981128367974607 -0.14447571604620801 0 -0.087025139202339175 -0.14924119698846519 0 -0.078636793793478016 -0.15932247847420561 0 -0.083645274202728603 -0.1360379667205176 0 -0.10010201785652401 -0.1437821866573995 0 -0.096101065320712109 -0.1258911452360538 0 -0.076666436282660663 -0.13264315814890179 0 -0.096101065320712109 -0.1258911452360538 0 -0.083645274202728603 -0.1360379667205176 0 -0.076666436282660663 -0.13264315814890179 0 -0.096101065320712109 -0.1258911452360538 0 -0.078981128367974607 -0.14447571604620801 0 -0.083645274202728603 -0.1360379667205176 0 -0.074980149030852788 -0.13322901102402521 0 -0.083645274202728603 -0.1360379667205176 0 -0.074980149030852788 -0.13322901102402521 0 -0.076666436282660663 -0.13264315814890179 0 -0.083645274202728603 -0.1360379667205176 0 -0.074980149030852788 -0.13322901102402521 0 -0.063965210873385206 -0.121372291062271 0 -0.051469099840166933 -0.12560748285855791 0 -0.074980149030852788 -0.13322901102402521 0 -0.051469099840166933 -0.12560748285855791 0 -0.074980149030852788 -0.13322901102402521 0 -0.074980149030852788 -0.13322901102402521 0 -0.076666436282660663 -0.13264315814890179 0 -0.072499038737136423 -0.12336773177227039 0 -0.074980149030852788 -0.13322901102402521 0 -0.076666436282660663 -0.13264315814890179 0 -0.063965210873385206 -0.121372291062271 0 -0.072499038737136423 -0.12336773177227039 0 -0.074980149030852788 -0.13322901102402521 0 -0.054318116428342743 -0.1550095253668563 0 -0.07017092070895159 -0.14876485096333639 0 -0.064150653413557149 -0.1630994165534029 0 -0.06193597557114254 -0.14487761168208729 0 -0.074980149030852788 -0.13322901102402521 0 -0.07017092070895159 -0.14876485096333639 0 -0.078981128367974607 -0.14447571604620801 0 -0.074980149030852788 -0.13322901102402521 0 -0.07017092070895159 -0.14876485096333639 0 -0.074980149030852788 -0.13322901102402521 0 -0.07017092070895159 -0.14876485096333639 0 -0.078981128367974607 -0.14447571604620801 0 -0.07017092070895159 -0.14876485096333639 0 -0.078636793793478016 -0.15932247847420561 0 -0.061772453938110018 -0.1722676601875073 0 -0.064150653413557149 -0.1630994165534029 0 -0.070050920790153071 -0.171606788750374 0 -0.064150653413557149 -0.1630994165534029 0 -0.070050920790153071 -0.171606788750374 0 -0.078636793793478016 -0.15932247847420561 0 -0.070050920790153071 -0.171606788750374 0 -0.079209040401629252 -0.1719092953843511 0 -0.078636793793478016 -0.15932247847420561 0 -0.07017092070895159 -0.14876485096333639 0 -0.064150653413557149 -0.1630994165534029 0 -0.078636793793478016 -0.15932247847420561 0 -0.060077715494214402 -0.1880050343681916 0 -0.067992112858964282 -0.18866012404393079 0 -0.064464826801710964 -0.18158017590305259 0 -0.067992112858964282 -0.18866012404393079 0 -0.064464826801710964 -0.18158017590305259 0 -0.075495957942860306 -0.18151306003065079 0 -0.061772453938110018 -0.1722676601875073 0 -0.070050920790153071 -0.171606788750374 0 -0.064464826801710964 -0.18158017590305259 0 -0.070050920790153071 -0.171606788750374 0 -0.064464826801710964 -0.18158017590305259 0 -0.075495957942860306 -0.18151306003065079 0 -0.070050920790153071 -0.171606788750374 0 -0.075495957942860306 -0.18151306003065079 0 -0.079209040401629252 -0.1719092953843511 0 -0.074913832416942036 -0.19254026766979529 0 -0.075495957942860306 -0.18151306003065079 0 -0.081197999186964104 -0.18678207382066461 0 -0.08758314775082314 -0.17947316075879149 0 -0.093760481790990557 -0.16258763704399551 0 -0.099296370832405903 -0.1778108956523228 0 -0.075495957942860306 -0.18151306003065079 0 -0.081197999186964104 -0.18678207382066461 0 -0.08758314775082314 -0.17947316075879149 0 -0.086799058637230975 -0.19360180682342101 0 -0.081197999186964104 -0.18678207382066461 0 -0.08758314775082314 -0.17947316075879149 0 -0.075495957942860306 -0.18151306003065079 0 -0.079209040401629252 -0.1719092953843511 0 -0.08758314775082314 -0.17947316075879149 0 -0.086799058637230975 -0.19360180682342101 0 -0.095726771505572558 -0.1875603531079979 0 -0.08758314775082314 -0.17947316075879149 0 -0.079209040401629252 -0.1719092953843511 0 -0.08758314775082314 -0.17947316075879149 0 -0.093760481790990557 -0.16258763704399551 0 -0.079209040401629252 -0.1719092953843511 0 -0.078636793793478016 -0.15932247847420561 0 -0.093760481790990557 -0.16258763704399551 0 -0.087025139202339175 -0.14924119698846519 0 -0.078636793793478016 -0.15932247847420561 0 -0.093760481790990557 -0.16258763704399551 0 -0.093760481790990557 -0.16258763704399551 0 -0.10825098068178519 -0.1708947068761103 0 -0.099296370832405903 -0.1778108956523228 0 -0.093760481790990557 -0.16258763704399551 0 -0.10825098068178519 -0.1708947068761103 0 -0.1079275826681496 -0.15587426481125419 0 -0.111160472432858 -0.1885386204747187 0 -0.10825098068178519 -0.1708947068761103 0 -0.099296370832405903 -0.1778108956523228 0 -0.095726771505572558 -0.1875603531079979 0 -0.08758314775082314 -0.17947316075879149 0 -0.099296370832405903 -0.1778108956523228 0 -0.095726771505572558 -0.1875603531079979 0 -0.111160472432858 -0.1885386204747187 0 -0.099296370832405903 -0.1778108956523228 0 -0.111160472432858 -0.1885386204747187 0 -0.12739606272500029 -0.17473721576800191 0 -0.111160472432858 -0.1885386204747187 0 -0.1221143178041114 -0.19234248283227301 0 -0.12739606272500029 -0.17473721576800191 0 -0.111160472432858 -0.1885386204747187 0 -0.10825098068178519 -0.1708947068761103 0 -0.12739606272500029 -0.17473721576800191 0 -0.1214658785418825 -0.14693817404560541 0 -0.12739606272500029 -0.17473721576800191 0 -0.1214658785418825 -0.14693817404560541 0 -0.1079275826681496 -0.15587426481125419 0 -0.12739606272500029 -0.17473721576800191 0 -0.10825098068178519 -0.1708947068761103 0 -0.1079275826681496 -0.15587426481125419 0 -0.12739606272500029 -0.17473721576800191 0 -0.1214658785418825 -0.14693817404560541 0 -0.10010201785652401 -0.1437821866573995 0 -0.10830116401947081 -0.1339376595655668 0 -0.1214658785418825 -0.14693817404560541 0 -0.10010201785652401 -0.1437821866573995 0 -0.1079275826681496 -0.15587426481125419 0 -0.093760481790990557 -0.16258763704399551 0 -0.10010201785652401 -0.1437821866573995 0 -0.1079275826681496 -0.15587426481125419 0 -0.10010201785652401 -0.1437821866573995 0 -0.10830116401947081 -0.1339376595655668 0 -0.096101065320712109 -0.1258911452360538 0 -0.11649007265168369 -0.1188075605425003 0 -0.10830116401947081 -0.1339376595655668 0 -0.096101065320712109 -0.1258911452360538 0 -0.11649007265168369 -0.1188075605425003 0 -0.12922628187284879 -0.14058113888636839 0 -0.1252704192176744 -0.1172440966648565 0 -0.11649007265168369 -0.1188075605425003 0 -0.12922628187284879 -0.14058113888636839 0 -0.11649007265168369 -0.1188075605425003 0 -0.1214658785418825 -0.14693817404560541 0 -0.11649007265168369 -0.1188075605425003 0 -0.1214658785418825 -0.14693817404560541 0 -0.10830116401947081 -0.1339376595655668 0 -0.11649007265168369 -0.1188075605425003 0 -0.1214658785418825 -0.14693817404560541 0 -0.12922628187284879 -0.14058113888636839 0 -0.12922628187284879 -0.14058113888636839 0 -0.1355018371655794 -0.1265678790332187 0 -0.1252704192176744 -0.1172440966648565 0 -0.12922628187284879 -0.14058113888636839 0 -0.1355018371655794 -0.1265678790332187 0 -0.14553009116939669 -0.13537661130197329 0 -0.1355018371655794 -0.1265678790332187 0 -0.14553009116939669 -0.13537661130197329 0 -0.14420813470266419 -0.11805716313719079 0 -0.14553009116939669 -0.13537661130197329 0 -0.15056350488257919 -0.15504324471534639 0 -0.1628079644011253 -0.13038477387159439 0 -0.14553009116939669 -0.13537661130197329 0 -0.1628079644011253 -0.13038477387159439 0 -0.14420813470266419 -0.11805716313719079 0 -0.12922628187284879 -0.14058113888636839 0 -0.14553009116939669 -0.13537661130197329 0 -0.15056350488257919 -0.15504324471534639 0 -0.12922628187284879 -0.14058113888636839 0 -0.15056350488257919 -0.15504324471534639 0 -0.14196249109401421 -0.16235471723023651 0 -0.1214658785418825 -0.14693817404560541 0 -0.12922628187284879 -0.14058113888636839 0 -0.14196249109401421 -0.16235471723023651 0 -0.12922628187284879 -0.14058113888636839 0 -0.14196249109401421 -0.16235471723023651 0 -0.1214658785418825 -0.14693817404560541 0 -0.12739606272500029 -0.17473721576800191 0 -0.14196249109401421 -0.16235471723023651 0 -0.12739606272500029 -0.17473721576800191 0 -0.14196249109401421 -0.16235471723023651 0 -0.14465078136409831 -0.16695056657522339 0 -0.12739606272500029 -0.17473721576800191 0 -0.14196249109401421 -0.16235471723023651 0 -0.14465078136409831 -0.16695056657522339 0 -0.1314192587983791 -0.19359683159909061 0 -0.12739606272500029 -0.17473721576800191 0 -0.14465078136409831 -0.16695056657522339 0 -0.1314192587983791 -0.19359683159909061 0 -0.12739606272500029 -0.17473721576800191 0 -0.1314192587983791 -0.19359683159909061 0 -0.1221143178041114 -0.19234248283227301 0 -0.12739606272500029 -0.17473721576800191 0 -0.1314192587983791 -0.19359683159909061 0 -0.1506253399441001 -0.18191391990730801 0 -0.14704446987800041 -0.17104277042357799 0 -0.1314192587983791 -0.19359683159909061 0 -0.14704446987800041 -0.17104277042357799 0 -0.14465078136409831 -0.16695056657522339 0 -0.1314192587983791 -0.19359683159909061 0 -0.1506253399441001 -0.18191391990730801 0 -0.14704446987800041 -0.17104277042357799 0 -0.15648019532635571 -0.17138255085024329 0 -0.1506253399441001 -0.18191391990730801 0 -0.16533888001856381 -0.18602690419207779 0 -0.1512090652639769 -0.1911736867042346 0 -0.15056350488257919 -0.15504324471534639 0 -0.14196249109401421 -0.16235471723023651 0 -0.15056350488257919 -0.15504324471534639 0 -0.14196249109401421 -0.16235471723023651 0 -0.14465078136409831 -0.16695056657522339 0 -0.15056350488257919 -0.15504324471534639 0 -0.14465078136409831 -0.16695056657522339 0 -0.14196249109401421 -0.16235471723023651 0 -0.14465078136409831 -0.16695056657522339 0 -0.14704446987800041 -0.17104277042357799 0 -0.14465078136409831 -0.16695056657522339 0 -0.14704446987800041 -0.17104277042357799 0 -0.14465078136409831 -0.16695056657522339 0 -0.15229814259742869 -0.1644326064251338 0 -0.14704446987800041 -0.17104277042357799 0 -0.15229814259742869 -0.1644326064251338 0 -0.15648019532635571 -0.17138255085024329 0 -0.15056350488257919 -0.15504324471534639 0 -0.14465078136409831 -0.16695056657522339 0 -0.15229814259742869 -0.1644326064251338 0 -0.15056350488257919 -0.15504324471534639 0 -0.15229814259742869 -0.1644326064251338 0 -0.16275176153611051 -0.15774389956127821 0 -0.16275176153611051 -0.15774389956127821 0 -0.15648019532635571 -0.17138255085024329 0 -0.17757024440875549 -0.16111115580157981 0 -0.15229814259742869 -0.1644326064251338 0 -0.16275176153611051 -0.15774389956127821 0 -0.15648019532635571 -0.17138255085024329 0 -0.15648019532635571 -0.17138255085024329 0 -0.18421608521209271 -0.17558962027652111 0 -0.15648019532635571 -0.17138255085024329 0 -0.16533888001856381 -0.18602690419207779 0 -0.18421608521209271 -0.17558962027652111 0 -0.1506253399441001 -0.18191391990730801 0 -0.15648019532635571 -0.17138255085024329 0 -0.16533888001856381 -0.18602690419207779 0 -0.16533888001856381 -0.18602690419207779 0 -0.18421608521209271 -0.17558962027652111 0 -0.1786295148813212 -0.19556646452315241 0 -0.15648019532635571 -0.17138255085024329 0 -0.18421608521209271 -0.17558962027652111 0 -0.17757024440875549 -0.16111115580157981 0 -0.18421608521209271 -0.17558962027652111 0 -0.17757024440875549 -0.16111115580157981 0 -0.1979143625406167 -0.1642252661741595 0 -0.17521357040146851 -0.14833135074901779 0 -0.18000311622314791 -0.13001748444371289 0 -0.188845491435889 -0.14939424719825839 0 -0.17757024440875549 -0.16111115580157981 0 -0.17521357040146851 -0.14833135074901779 0 -0.188845491435889 -0.14939424719825839 0 -0.18000311622314791 -0.13001748444371289 0 -0.1628079644011253 -0.13038477387159439 0 -0.18027610093587751 -0.1196181089702751 0 -0.17521357040146851 -0.14833135074901779 0 -0.18000311622314791 -0.13001748444371289 0 -0.16528331055286391 -0.14253036457953011 0 -0.18000311622314791 -0.13001748444371289 0 -0.16528331055286391 -0.14253036457953011 0 -0.18000311622314791 -0.13001748444371289 0 -0.1628079644011253 -0.13038477387159439 0 -0.16528331055286391 -0.14253036457953011 0 -0.15056350488257919 -0.15504324471534639 0 -0.1628079644011253 -0.13038477387159439 0 -0.15056350488257919 -0.15504324471534639 0 -0.1628079644011253 -0.13038477387159439 0 -0.16528331055286391 -0.14253036457953011 0 -0.15056350488257919 -0.15504324471534639 0 -0.16275176153611051 -0.15774389956127821 0 -0.16528331055286391 -0.14253036457953011 0 -0.15056350488257919 -0.15504324471534639 0 -0.16528331055286391 -0.14253036457953011 0 -0.16275176153611051 -0.15774389956127821 0 -0.17521357040146851 -0.14833135074901779 0 -0.16528331055286391 -0.14253036457953011 0 -0.16275176153611051 -0.15774389956127821 0 -0.17757024440875549 -0.16111115580157981 0 -0.17521357040146851 -0.14833135074901779 0 -0.15229660666407671 -0.25401824511238591 0 -0.14920126421366381 -0.23878179657915319 0 -0.13450504990001219 -0.2438564190910647 0 -0.1192340303868117 -0.24478318800158869 0 -0.13450504990001219 -0.2438564190910647 0 -0.13163987617815839 -0.22779776194380719 0 -0.14920126421366381 -0.23878179657915319 0 -0.13450504990001219 -0.2438564190910647 0 -0.13163987617815839 -0.22779776194380719 0 -0.121947990474398 -0.21689626953984009 0 -0.13163987617815839 -0.22779776194380719 0 -0.12955498125585521 -0.21362166548107719 0 -0.13163987617815839 -0.22779776194380719 0 -0.14668655776667011 -0.2223990925877565 0 -0.13817373448855541 -0.2139466733801943 0 -0.14920126421366381 -0.23878179657915319 0 -0.13163987617815839 -0.22779776194380719 0 -0.14668655776667011 -0.2223990925877565 0 -0.14920126421366381 -0.23878179657915319 0 -0.14668655776667011 -0.2223990925877565 0 -0.1666111544691056 -0.22171119925505031 0 -0.14668655776667011 -0.2223990925877565 0 -0.14920765704353961 -0.2069242839694774 0 -0.1666111544691056 -0.22171119925505031 0 -0.14920765704353961 -0.2069242839694774 0 -0.13817373448855541 -0.2139466733801943 0 -0.13929463799343569 -0.2052160077695602 0 -0.14920765704353961 -0.2069242839694774 0 -0.13929463799343569 -0.2052160077695602 0 -0.1420465959208794 -0.1984943042809322 0 -0.14668655776667011 -0.2223990925877565 0 -0.14920765704353961 -0.2069242839694774 0 -0.13817373448855541 -0.2139466733801943 0 -0.13163987617815839 -0.22779776194380719 0 -0.13817373448855541 -0.2139466733801943 0 -0.12955498125585521 -0.21362166548107719 0 -0.13817373448855541 -0.2139466733801943 0 -0.12955498125585521 -0.21362166548107719 0 -0.1326745573724277 -0.20747677911892251 0 -0.121947990474398 -0.21689626953984009 0 -0.12955498125585521 -0.21362166548107719 0 -0.1261734044947341 -0.20832382066201691 0 -0.1210277983726237 -0.20080419496638871 0 -0.12833971984693959 -0.20340181913978941 0 -0.1261734044947341 -0.20832382066201691 0 -0.12955498125585521 -0.21362166548107719 0 -0.1261734044947341 -0.20832382066201691 0 -0.1326745573724277 -0.20747677911892251 0 -0.12833971984693959 -0.20340181913978941 0 -0.1261734044947341 -0.20832382066201691 0 -0.1326745573724277 -0.20747677911892251 0 -0.12833971984693959 -0.20340181913978941 0 -0.1326745573724277 -0.20747677911892251 0 -0.13308531931808101 -0.2014068564598902 0 -0.13817373448855541 -0.2139466733801943 0 -0.1326745573724277 -0.20747677911892251 0 -0.13929463799343569 -0.2052160077695602 0 -0.1326745573724277 -0.20747677911892251 0 -0.13929463799343569 -0.2052160077695602 0 -0.13308531931808101 -0.2014068564598902 0 -0.13929463799343569 -0.2052160077695602 0 -0.13308531931808101 -0.2014068564598902 0 -0.1420465959208794 -0.1984943042809322 0 -0.13308531931808101 -0.2014068564598902 0 -0.1314192587983791 -0.19359683159909061 0 -0.1420465959208794 -0.1984943042809322 0 -0.12833971984693959 -0.20340181913978941 0 -0.13308531931808101 -0.2014068564598902 0 -0.1287375196768317 -0.1989974444917289 0 -0.13308531931808101 -0.2014068564598902 0 -0.1287375196768317 -0.1989974444917289 0 -0.1314192587983791 -0.19359683159909061 0 -0.13308531931808101 -0.2014068564598902 0 -0.1314192587983791 -0.19359683159909061 0 -0.1287375196768317 -0.1989974444917289 0 -0.1314192587983791 -0.19359683159909061 0 -0.1210277983726237 -0.20080419496638871 0 -0.12833971984693959 -0.20340181913978941 0 -0.1287375196768317 -0.1989974444917289 0 -0.1221143178041114 -0.19234248283227301 0 -0.1287375196768317 -0.1989974444917289 0 -0.1314192587983791 -0.19359683159909061 0 -0.1314192587983791 -0.19359683159909061 0 -0.1420465959208794 -0.1984943042809322 0 -0.1512090652639769 -0.1911736867042346 0 -0.14920765704353961 -0.2069242839694774 0 -0.1512090652639769 -0.1911736867042346 0 -0.16613147043060339 -0.2018841564818957 0 -0.14920765704353961 -0.2069242839694774 0 -0.1420465959208794 -0.1984943042809322 0 -0.1512090652639769 -0.1911736867042346 0 -0.1506253399441001 -0.18191391990730801 0 -0.1314192587983791 -0.19359683159909061 0 -0.1512090652639769 -0.1911736867042346 0 -0.16533888001856381 -0.18602690419207779 0 -0.1512090652639769 -0.1911736867042346 0 -0.16613147043060339 -0.2018841564818957 0 -0.16533888001856381 -0.18602690419207779 0 -0.16613147043060339 -0.2018841564818957 0 -0.1786295148813212 -0.19556646452315241 0 -0.1786295148813212 -0.19556646452315241 0 -0.17958500981378461 -0.2107334264309661 0 -0.1981990761364697 -0.20254736480388241 0 -0.18421608521209271 -0.17558962027652111 0 -0.1786295148813212 -0.19556646452315241 0 -0.1981990761364697 -0.20254736480388241 0 -0.16613147043060339 -0.2018841564818957 0 -0.1786295148813212 -0.19556646452315241 0 -0.17958500981378461 -0.2107334264309661 0 -0.17958500981378461 -0.2107334264309661 0 -0.1666111544691056 -0.22171119925505031 0 -0.19116993277822331 -0.22279453133759641 0 -0.16613147043060339 -0.2018841564818957 0 -0.17958500981378461 -0.2107334264309661 0 -0.1666111544691056 -0.22171119925505031 0 -0.14920765704353961 -0.2069242839694774 0 -0.16613147043060339 -0.2018841564818957 0 -0.1666111544691056 -0.22171119925505031 0 -0.16774304296138501 -0.24055682594909811 0 -0.1994177047143332 -0.2432145052078287 0 -0.19116993277822331 -0.22279453133759641 0 -0.18473400419263841 -0.26184427346616201 0 -0.16774304296138501 -0.24055682594909811 0 -0.1994177047143332 -0.2432145052078287 0 -0.14920126421366381 -0.23878179657915319 0 -0.1666111544691056 -0.22171119925505031 0 -0.16774304296138501 -0.24055682594909811 0 -0.1666111544691056 -0.22171119925505031 0 -0.16774304296138501 -0.24055682594909811 0 -0.19116993277822331 -0.22279453133759641 0 -0.15229660666407671 -0.25401824511238591 0 -0.14920126421366381 -0.23878179657915319 0 -0.16774304296138501 -0.24055682594909811 0 -0.1994177047143332 -0.2432145052078287 0 -0.21214113701728249 -0.228940323783688 0 -0.22937054978906041 -0.24331512362502869 0 -0.2113475615474098 -0.26183595308539898 0 -0.1994177047143332 -0.2432145052078287 0 -0.22937054978906041 -0.24331512362502869 0 -0.1994177047143332 -0.2432145052078287 0 -0.19116993277822331 -0.22279453133759641 0 -0.21214113701728249 -0.228940323783688 0 -0.19116993277822331 -0.22279453133759641 0 -0.21214113701728249 -0.228940323783688 0 -0.21151629669390881 -0.21291663877559669 0 -0.21214113701728249 -0.228940323783688 0 -0.21151629669390881 -0.21291663877559669 0 -0.2275824975951227 -0.2207461827585098 0 -0.21151629669390881 -0.21291663877559669 0 -0.1981990761364697 -0.20254736480388241 0 -0.21430725265311781 -0.19815896184605211 0 -0.21151629669390881 -0.21291663877559669 0 -0.21430725265311781 -0.19815896184605211 0 -0.22569788398323701 -0.20431246812385209 0 -0.19116993277822331 -0.22279453133759641 0 -0.21151629669390881 -0.21291663877559669 0 -0.1981990761364697 -0.20254736480388241 0 -0.17958500981378461 -0.2107334264309661 0 -0.19116993277822331 -0.22279453133759641 0 -0.1981990761364697 -0.20254736480388241 0 -0.21430725265311781 -0.19815896184605211 0 -0.2251169230399053 -0.19244957551320049 0 -0.21195197509782959 -0.17979668970279891 0 -0.1981990761364697 -0.20254736480388241 0 -0.21430725265311781 -0.19815896184605211 0 -0.21195197509782959 -0.17979668970279891 0 -0.21430725265311781 -0.19815896184605211 0 -0.2251169230399053 -0.19244957551320049 0 -0.22569788398323701 -0.20431246812385209 0 -0.2251169230399053 -0.19244957551320049 0 -0.23600322778131949 -0.19814692121484651 0 -0.22569788398323701 -0.20431246812385209 0 -0.2251169230399053 -0.19244957551320049 0 -0.23600322778131949 -0.19814692121484651 0 -0.23968786498356659 -0.18400375912907671 0 -0.23600322778131949 -0.19814692121484651 0 -0.23968786498356659 -0.18400375912907671 0 -0.25047429362874257 -0.200219847641955 0 -0.23600322778131949 -0.19814692121484651 0 -0.23949462900920199 -0.21027573078813011 0 -0.25047429362874257 -0.200219847641955 0 -0.23949462900920199 -0.21027573078813011 0 -0.25247744799357308 -0.21261594090752481 0 -0.25047429362874257 -0.200219847641955 0 -0.23949462900920199 -0.21027573078813011 0 -0.24510877540263959 -0.22548599802342939 0 -0.25247744799357308 -0.21261594090752481 0 -0.23949462900920199 -0.21027573078813011 0 -0.22569788398323701 -0.20431246812385209 0 -0.2275824975951227 -0.2207461827585098 0 -0.21151629669390881 -0.21291663877559669 0 -0.22569788398323701 -0.20431246812385209 0 -0.2275824975951227 -0.2207461827585098 0 -0.23600322778131949 -0.19814692121484651 0 -0.23949462900920199 -0.21027573078813011 0 -0.22569788398323701 -0.20431246812385209 0 -0.21214113701728249 -0.228940323783688 0 -0.2275824975951227 -0.2207461827585098 0 -0.22937054978906041 -0.24331512362502869 0 -0.2275824975951227 -0.2207461827585098 0 -0.24510877540263959 -0.22548599802342939 0 -0.22937054978906041 -0.24331512362502869 0 -0.23949462900920199 -0.21027573078813011 0 -0.2275824975951227 -0.2207461827585098 0 -0.24510877540263959 -0.22548599802342939 0 -0.24510877540263959 -0.22548599802342939 0 -0.22937054978906041 -0.24331512362502869 0 -0.2582168116042447 -0.2439014490639565 0 -0.2483490975252734 -0.26098873334868322 0 -0.22937054978906041 -0.24331512362502869 0 -0.2582168116042447 -0.2439014490639565 0 -0.2067502249108786 -0.1536135545564879 0 -0.21547877813771771 -0.14332314171572449 0 -0.20152593766547949 -0.13633519349348669 0 -0.2067502249108786 -0.1536135545564879 0 -0.21547877813771771 -0.14332314171572449 0 -0.22184111984059729 -0.15282479907953789 0 -0.21547877813771771 -0.14332314171572449 0 -0.21860961385214961 -0.13100792014620721 0 -0.20152593766547949 -0.13633519349348669 0 -0.21860961385214961 -0.13100792014620721 0 -0.20152593766547949 -0.13633519349348669 0 -0.2099810947540583 -0.12129541974841899 0 -0.18000311622314791 -0.13001748444371289 0 -0.20152593766547949 -0.13633519349348669 0 -0.19534617212360411 -0.121013351703841 0 -0.18000311622314791 -0.13001748444371289 0 -0.20152593766547949 -0.13633519349348669 0 -0.188845491435889 -0.14939424719825839 0 -0.20152593766547949 -0.13633519349348669 0 -0.2099810947540583 -0.12129541974841899 0 -0.19534617212360411 -0.121013351703841 0 -0.2067502249108786 -0.1536135545564879 0 -0.188845491435889 -0.14939424719825839 0 -0.1979143625406167 -0.1642252661741595 0 -0.2067502249108786 -0.1536135545564879 0 -0.20152593766547949 -0.13633519349348669 0 -0.188845491435889 -0.14939424719825839 0 -0.17757024440875549 -0.16111115580157981 0 -0.188845491435889 -0.14939424719825839 0 -0.1979143625406167 -0.1642252661741595 0 -0.18421608521209271 -0.17558962027652111 0 -0.1981990761364697 -0.20254736480388241 0 -0.21195197509782959 -0.17979668970279891 0 -0.18421608521209271 -0.17558962027652111 0 -0.21195197509782959 -0.17979668970279891 0 -0.18421608521209271 -0.17558962027652111 0 -0.1979143625406167 -0.1642252661741595 0 -0.21195197509782959 -0.17979668970279891 0 -0.1979143625406167 -0.1642252661741595 0 -0.21195197509782959 -0.17979668970279891 0 -0.2165382263276793 -0.1649867273485818 0 -0.2067502249108786 -0.1536135545564879 0 -0.1979143625406167 -0.1642252661741595 0 -0.2165382263276793 -0.1649867273485818 0 -0.2067502249108786 -0.1536135545564879 0 -0.2165382263276793 -0.1649867273485818 0 -0.22184111984059729 -0.15282479907953789 0 -0.2165382263276793 -0.1649867273485818 0 -0.2313091397970973 -0.16435086132264101 0 -0.233842168872713 -0.17694121357944129 0 -0.2165382263276793 -0.1649867273485818 0 -0.2313091397970973 -0.16435086132264101 0 -0.22184111984059729 -0.15282479907953789 0 -0.21195197509782959 -0.17979668970279891 0 -0.233842168872713 -0.17694121357944129 0 -0.23968786498356659 -0.18400375912907671 0 -0.2251169230399053 -0.19244957551320049 0 -0.21195197509782959 -0.17979668970279891 0 -0.23968786498356659 -0.18400375912907671 0 -0.21195197509782959 -0.17979668970279891 0 -0.2165382263276793 -0.1649867273485818 0 -0.233842168872713 -0.17694121357944129 0 -0.21195197509782959 -0.17979668970279891 0 -0.23968786498356659 -0.18400375912907671 0 -0.233842168872713 -0.17694121357944129 0 -0.25982868842644607 -0.17021686968691641 0 -0.233842168872713 -0.17694121357944129 0 -0.23968786498356659 -0.18400375912907671 0 -0.25982868842644607 -0.17021686968691641 0 -0.2313091397970973 -0.16435086132264101 0 -0.24566481473353391 -0.1652464025747532 0 -0.25343568279415951 -0.15224923159364789 0 -0.233842168872713 -0.17694121357944129 0 -0.24566481473353391 -0.1652464025747532 0 -0.25982868842644607 -0.17021686968691641 0 -0.2313091397970973 -0.16435086132264101 0 -0.25343568279415951 -0.15224923159364789 0 -0.2313091397970973 -0.16435086132264101 0 -0.233842168872713 -0.17694121357944129 0 -0.24566481473353391 -0.1652464025747532 0 -0.2313091397970973 -0.16435086132264101 0 -0.23261035815430561 -0.14322336329666011 0 -0.25343568279415951 -0.15224923159364789 0 -0.23261035815430561 -0.14322336329666011 0 -0.2478381125959237 -0.13014188093155071 0 -0.25343568279415951 -0.15224923159364789 0 -0.21547877813771771 -0.14332314171572449 0 -0.23261035815430561 -0.14322336329666011 0 -0.22184111984059729 -0.15282479907953789 0 -0.2313091397970973 -0.16435086132264101 0 -0.23261035815430561 -0.14322336329666011 0 -0.22184111984059729 -0.15282479907953789 0 -0.21547877813771771 -0.14332314171572449 0 -0.21860961385214961 -0.13100792014620721 0 -0.23261035815430561 -0.14322336329666011 0 -0.21860961385214961 -0.13100792014620721 0 -0.23261035815430561 -0.14322336329666011 0 -0.23267318929165751 -0.1266142136656879 0 -0.23261035815430561 -0.14322336329666011 0 -0.23267318929165751 -0.1266142136656879 0 -0.2478381125959237 -0.13014188093155071 0 -0.2478381125959237 -0.13014188093155071 0 -0.2401350799320488 -0.1157431384930437 0 -0.25439292330372432 -0.11161035632906929 0 -0.23267318929165751 -0.1266142136656879 0 -0.2478381125959237 -0.13014188093155071 0 -0.2401350799320488 -0.1157431384930437 0 -0.2401350799320488 -0.1157431384930437 0 -0.2438502060585381 -0.1028583717612334 0 -0.25439292330372432 -0.11161035632906929 0 -0.2438502060585381 -0.1028583717612334 0 -0.2453315870002564 -0.095437246693633959 0 -0.2525882024947626 -0.098821099717938107 0 -0.2453315870002564 -0.095437246693633959 0 -0.25144169010332901 -0.091633326375329338 0 -0.2525882024947626 -0.098821099717938107 0 -0.2438502060585381 -0.1028583717612334 0 -0.2453315870002564 -0.095437246693633959 0 -0.23922762562760841 -0.098169318759804947 0 -0.23922762562760841 -0.098169318759804947 0 -0.23518849288928181 -0.10695649013526939 0 -0.23134854976794339 -0.097632931289006297 0 -0.2453315870002564 -0.095437246693633959 0 -0.23922762562760841 -0.098169318759804947 0 -0.2404192924220224 -0.087961553919881613 0 -0.23922762562760841 -0.098169318759804947 0 -0.23134854976794339 -0.097632931289006297 0 -0.2404192924220224 -0.087961553919881613 0 -0.2438502060585381 -0.1028583717612334 0 -0.23922762562760841 -0.098169318759804947 0 -0.23518849288928181 -0.10695649013526939 0 -0.2401350799320488 -0.1157431384930437 0 -0.2438502060585381 -0.1028583717612334 0 -0.23518849288928181 -0.10695649013526939 0 -0.23518849288928181 -0.10695649013526939 0 -0.23134854976794339 -0.097632931289006297 0 -0.22417278192385959 -0.11295476546097789 0 -0.23134854976794339 -0.097632931289006297 0 -0.22417278192385959 -0.11295476546097789 0 -0.2186303362545719 -0.093883136955868224 0 -0.2401350799320488 -0.1157431384930437 0 -0.23518849288928181 -0.10695649013526939 0 -0.22417278192385959 -0.11295476546097789 0 -0.21860961385214961 -0.13100792014620721 0 -0.23267318929165751 -0.1266142136656879 0 -0.22417278192385959 -0.11295476546097789 0 -0.23267318929165751 -0.1266142136656879 0 -0.2401350799320488 -0.1157431384930437 0 -0.22417278192385959 -0.11295476546097789 0 -0.24388885687392389 -0.071688150345257468 0 -0.2338744138803254 -0.062312468216533988 0 -0.2476323682116322 -0.061520987214930753 0 -0.24388885687392389 -0.071688150345257468 0 -0.2476323682116322 -0.061520987214930753 0 -0.2529882333064245 -0.070973901803662365 0 -0.24388885687392389 -0.071688150345257468 0 -0.24682403554985069 -0.077092069586417622 0 -0.2529882333064245 -0.070973901803662365 0 -0.24388885687392389 -0.071688150345257468 0 -0.24682403554985069 -0.077092069586417622 0 -0.23610695818539329 -0.077097104601848404 0 -0.24388885687392389 -0.071688150345257468 0 -0.23610695818539329 -0.077097104601848404 0 -0.2338744138803254 -0.062312468216533988 0 -0.2404192924220224 -0.087961553919881613 0 -0.23434786935979859 -0.086445608359767251 0 -0.25855249999409979 -0.079349971077516485 0 -0.23434786935979859 -0.086445608359767251 0 -0.25855249999409979 -0.079349971077516485 0 -0.24682403554985069 -0.077092069586417622 0 -0.23434786935979859 -0.086445608359767251 0 -0.25855249999409979 -0.079349971077516485 0 -0.24682403554985069 -0.077092069586417622 0 -0.23610695818539329 -0.077097104601848404 0 -0.23434786935979859 -0.086445608359767251 0 -0.2404192924220224 -0.087961553919881613 0 -0.25356789490128989 -0.088072195653340249 0 -0.25144169010332901 -0.091633326375329338 0 -0.2453315870002564 -0.095437246693633959 0 -0.2404192924220224 -0.087961553919881613 0 -0.25144169010332901 -0.091633326375329338 0 -0.23134854976794339 -0.097632931289006297 0 -0.2404192924220224 -0.087961553919881613 0 -0.2186303362545719 -0.093883136955868224 0 -0.23434786935979859 -0.086445608359767251 0 -0.21819510633345421 -0.084818126690887299 0 -0.2186303362545719 -0.093883136955868224 0 -0.23434786935979859 -0.086445608359767251 0 -0.22784347827361409 -0.07844521728239337 0 -0.21819510633345421 -0.084818126690887299 0 -0.2404192924220224 -0.087961553919881613 0 -0.2186303362545719 -0.093883136955868224 0 -0.2404192924220224 -0.087961553919881613 0 -0.23434786935979859 -0.086445608359767251 0 -0.2186303362545719 -0.093883136955868224 0 -0.23610695818539329 -0.077097104601848404 0 -0.23434786935979859 -0.086445608359767251 0 -0.22784347827361409 -0.07844521728239337 0 -0.22561928727888081 -0.069226289525945936 0 -0.21465014164525181 -0.057056120614390499 0 -0.2338744138803254 -0.062312468216533988 0 -0.23610695818539329 -0.077097104601848404 0 -0.22784347827361409 -0.07844521728239337 0 -0.22561928727888081 -0.069226289525945936 0 -0.22784347827361409 -0.07844521728239337 0 -0.22561928727888081 -0.069226289525945936 0 -0.21562144440981909 -0.071220536914563426 0 -0.23610695818539329 -0.077097104601848404 0 -0.22561928727888081 -0.069226289525945936 0 -0.2338744138803254 -0.062312468216533988 0 -0.20283299924243431 -0.077387366601351398 0 -0.20047874574939811 -0.054521575326106748 0 -0.21465014164525181 -0.057056120614390499 0 -0.22784347827361409 -0.07844521728239337 0 -0.20283299924243431 -0.077387366601351398 0 -0.21562144440981909 -0.071220536914563426 0 -0.20283299924243431 -0.077387366601351398 0 -0.21465014164525181 -0.057056120614390499 0 -0.22784347827361409 -0.07844521728239337 0 -0.21562144440981909 -0.071220536914563426 0 -0.20283299924243431 -0.077387366601351398 0 -0.20283299924243431 -0.077387366601351398 0 -0.21465014164525181 -0.057056120614390499 0 -0.22561928727888081 -0.069226289525945936 0 -0.21562144440981909 -0.071220536914563426 0 -0.21465014164525181 -0.057056120614390499 0 -0.22784347827361409 -0.07844521728239337 0 -0.21819510633345421 -0.084818126690887299 0 -0.20283299924243431 -0.077387366601351398 0 -0.21819510633345421 -0.084818126690887299 0 -0.20732084853685229 -0.087929304255056254 0 -0.20283299924243431 -0.077387366601351398 0 -0.21819510633345421 -0.084818126690887299 0 -0.20732084853685229 -0.087929304255056254 0 -0.2186303362545719 -0.093883136955868224 0 -0.19866559760639321 -0.08455732909318063 0 -0.19684138008712149 -0.099804719991854848 0 -0.1822294403993594 -0.091272888294312293 0 -0.19866559760639321 -0.08455732909318063 0 -0.18940645687904581 -0.076819473560781115 0 -0.1822294403993594 -0.091272888294312293 0 -0.20732084853685229 -0.087929304255056254 0 -0.19866559760639321 -0.08455732909318063 0 -0.19684138008712149 -0.099804719991854848 0 -0.20732084853685229 -0.087929304255056254 0 -0.19866559760639321 -0.08455732909318063 0 -0.20283299924243431 -0.077387366601351398 0 -0.19866559760639321 -0.08455732909318063 0 -0.20283299924243431 -0.077387366601351398 0 -0.18940645687904581 -0.076819473560781115 0 -0.19866559760639321 -0.08455732909318063 0 -0.20283299924243431 -0.077387366601351398 0 -0.20283299924243431 -0.077387366601351398 0 -0.18940645687904581 -0.076819473560781115 0 -0.20047874574939811 -0.054521575326106748 0 -0.18940645687904581 -0.076819473560781115 0 -0.18709502764393729 -0.061773717592220383 0 -0.20047874574939811 -0.054521575326106748 0 -0.18940645687904581 -0.076819473560781115 0 -0.20047874574939811 -0.054521575326106748 0 -0.20283299924243431 -0.077387366601351398 0 -0.18940645687904581 -0.076819473560781115 0 -0.22417278192385959 -0.11295476546097789 0 -0.2099810947540583 -0.12129541974841899 0 -0.20756026250284701 -0.1093706759350784 0 -0.21860961385214961 -0.13100792014620721 0 -0.22417278192385959 -0.11295476546097789 0 -0.2099810947540583 -0.12129541974841899 0 -0.2099810947540583 -0.12129541974841899 0 -0.20756026250284701 -0.1093706759350784 0 -0.19534617212360411 -0.121013351703841 0 -0.2186303362545719 -0.093883136955868224 0 -0.19684138008712149 -0.099804719991854848 0 -0.20732084853685229 -0.087929304255056254 0 -0.2186303362545719 -0.093883136955868224 0 -0.19684138008712149 -0.099804719991854848 0 -0.2186303362545719 -0.093883136955868224 0 -0.20756026250284701 -0.1093706759350784 0 -0.19684138008712149 -0.099804719991854848 0 -0.22417278192385959 -0.11295476546097789 0 -0.2186303362545719 -0.093883136955868224 0 -0.20756026250284701 -0.1093706759350784 0 -0.20756026250284701 -0.1093706759350784 0 -0.19684138008712149 -0.099804719991854848 0 -0.18817082801183779 -0.1109486318043842 0 -0.20756026250284701 -0.1093706759350784 0 -0.18817082801183779 -0.1109486318043842 0 -0.19534617212360411 -0.121013351703841 0 -0.18817082801183779 -0.1109486318043842 0 -0.19534617212360411 -0.121013351703841 0 -0.18027610093587751 -0.1196181089702751 0 -0.18000311622314791 -0.13001748444371289 0 -0.19534617212360411 -0.121013351703841 0 -0.18027610093587751 -0.1196181089702751 0 -0.1628079644011253 -0.13038477387159439 0 -0.18027610093587751 -0.1196181089702751 0 -0.17505242391967141 -0.10572630302784269 0 -0.18817082801183779 -0.1109486318043842 0 -0.18027610093587751 -0.1196181089702751 0 -0.17505242391967141 -0.10572630302784269 0 -0.1628079644011253 -0.13038477387159439 0 -0.16568054242800659 -0.1082732985805344 0 -0.17505242391967141 -0.10572630302784269 0 -0.1628079644011253 -0.13038477387159439 0 -0.16568054242800659 -0.1082732985805344 0 -0.1559183975343586 -0.1153029742025357 0 -0.1628079644011253 -0.13038477387159439 0 -0.17505242391967141 -0.10572630302784269 0 -0.15766897324155929 -0.10201766098942321 0 -0.16769957127680751 -0.09718714727553697 0 -0.15631644193457139 -0.088857398989056272 0 -0.15766897324155929 -0.10201766098942321 0 -0.16568054242800659 -0.1082732985805344 0 -0.16769957127680751 -0.09718714727553697 0 -0.15766897324155929 -0.10201766098942321 0 -0.16568054242800659 -0.1082732985805344 0 -0.1559183975343586 -0.1153029742025357 0 -0.16568054242800659 -0.1082732985805344 0 -0.16769957127680751 -0.09718714727553697 0 -0.17505242391967141 -0.10572630302784269 0 -0.16568054242800659 -0.1082732985805344 0 -0.17505242391967141 -0.10572630302784269 0 -0.19684138008712149 -0.099804719991854848 0 -0.18817082801183779 -0.1109486318043842 0 -0.17505242391967141 -0.10572630302784269 0 -0.19684138008712149 -0.099804719991854848 0 -0.17505242391967141 -0.10572630302784269 0 -0.16769957127680751 -0.09718714727553697 0 -0.17505242391967141 -0.10572630302784269 0 -0.1822294403993594 -0.091272888294312293 0 -0.19684138008712149 -0.099804719991854848 0 -0.17505242391967141 -0.10572630302784269 0 -0.1822294403993594 -0.091272888294312293 0 -0.17505242391967141 -0.10572630302784269 0 -0.1822294403993594 -0.091272888294312293 0 -0.16769957127680751 -0.09718714727553697 0 -0.1822294403993594 -0.091272888294312293 0 -0.16622085479676199 -0.075838808419480111 0 -0.18940645687904581 -0.076819473560781115 0 -0.1822294403993594 -0.091272888294312293 0 -0.16622085479676199 -0.075838808419480111 0 -0.18940645687904581 -0.076819473560781115 0 -0.1822294403993594 -0.091272888294312293 0 -0.18940645687904581 -0.076819473560781115 0 -0.16622085479676199 -0.075838808419480111 0 -0.18940645687904581 -0.076819473560781115 0 -0.17672291357829811 -0.064990721505459842 0 -0.16622085479676199 -0.075838808419480111 0 -0.18940645687904581 -0.076819473560781115 0 -0.17672291357829811 -0.064990721505459842 0 -0.18709502764393729 -0.061773717592220383 0 -0.17672291357829811 -0.064990721505459842 0 -0.16622085479676199 -0.075838808419480111 0 -0.16458020880549121 -0.059492387506912943 0 -0.16622085479676199 -0.075838808419480111 0 -0.15646239569026699 -0.065906604111614212 0 -0.16458020880549121 -0.059492387506912943 0 -0.16769957127680751 -0.09718714727553697 0 -0.16622085479676199 -0.075838808419480111 0 -0.15631644193457139 -0.088857398989056272 0 -0.15631644193457139 -0.088857398989056272 0 -0.14677991412428701 -0.093732051016317916 0 -0.1430352527144782 -0.074858143278179051 0 -0.16622085479676199 -0.075838808419480111 0 -0.15631644193457139 -0.088857398989056272 0 -0.1430352527144782 -0.074858143278179051 0 -0.14677991412428701 -0.093732051016317916 0 -0.1430352527144782 -0.074858143278179051 0 -0.13451756518433111 -0.095180895342251215 0 -0.1430352527144782 -0.074858143278179051 0 -0.1411001381629465 -0.060647222888288201 0 -0.15201326644433669 -0.053437077241884359 0 -0.16622085479676199 -0.075838808419480111 0 -0.15646239569026699 -0.065906604111614212 0 -0.1430352527144782 -0.074858143278179051 0 -0.16622085479676199 -0.075838808419480111 0 -0.1430352527144782 -0.074858143278179051 0 -0.1430352527144782 -0.074858143278179051 0 -0.15201326644433669 -0.053437077241884359 0 -0.15646239569026699 -0.065906604111614212 0 -0.1430352527144782 -0.074858143278179051 0 -0.15201326644433669 -0.053437077241884359 0 -0.13708859775349791 -0.067653843581906681 0 -0.130794656111274 -0.068530613083725267 0 -0.13379805028672059 -0.060142641530726633 0 -0.1430352527144782 -0.074858143278179051 0 -0.13708859775349791 -0.067653843581906681 0 -0.1411001381629465 -0.060647222888288201 0 -0.13708859775349791 -0.067653843581906681 0 -0.13379805028672059 -0.060142641530726633 0 -0.1411001381629465 -0.060647222888288201 0 -0.13708859775349791 -0.067653843581906681 0 -0.13568082893985359 -0.07454707837658528 0 -0.130794656111274 -0.068530613083725267 0 -0.1430352527144782 -0.074858143278179051 0 -0.13708859775349791 -0.067653843581906681 0 -0.13568082893985359 -0.07454707837658528 0 -0.1430352527144782 -0.074858143278179051 0 -0.13568082893985359 -0.07454707837658528 0 -0.1232756904161693 -0.070411489051666373 0 -0.130794656111274 -0.068530613083725267 0 -0.12737817104852411 -0.080741270387750683 0 -0.13568082893985359 -0.07454707837658528 0 -0.130794656111274 -0.068530613083725267 0 -0.12737817104852411 -0.080741270387750683 0 -0.12131955324210091 -0.059181462630683621 0 -0.130794656111274 -0.068530613083725267 0 -0.13379805028672059 -0.060142641530726633 0 -0.1232756904161693 -0.070411489051666373 0 -0.12131955324210091 -0.059181462630683621 0 -0.130794656111274 -0.068530613083725267 0 -0.13568082893985359 -0.07454707837658528 0 -0.12737817104852411 -0.080741270387750683 0 -0.13451756518433111 -0.095180895342251215 0 -0.1430352527144782 -0.074858143278179051 0 -0.13568082893985359 -0.07454707837658528 0 -0.13451756518433111 -0.095180895342251215 0 -0.1430352527144782 -0.074858143278179051 0 -0.13451756518433111 -0.095180895342251215 0 -0.12067370026095731 -0.092005587950159118 0 -0.12737817104852411 -0.080741270387750683 0 -0.13451756518433111 -0.095180895342251215 0 -0.13451756518433111 -0.095180895342251215 0 -0.12599987765418549 -0.11550364740632391 0 -0.13451756518433111 -0.095180895342251215 0 -0.139855014945965 -0.1081270544919556 0 -0.13238394533585049 -0.1132856834133564 0 -0.13451756518433111 -0.095180895342251215 0 -0.12599987765418549 -0.11550364740632391 0 -0.13238394533585049 -0.1132856834133564 0 -0.12182531397588869 -0.1044134543712442 0 -0.13451756518433111 -0.095180895342251215 0 -0.12599987765418549 -0.11550364740632391 0 -0.12182531397588869 -0.1044134543712442 0 -0.12067370026095731 -0.092005587950159118 0 -0.13451756518433111 -0.095180895342251215 0 -0.12599987765418549 -0.11550364740632391 0 -0.1252704192176744 -0.1172440966648565 0 -0.13114171751694609 -0.1183715484722116 0 -0.12599987765418549 -0.11550364740632391 0 -0.1252704192176744 -0.1172440966648565 0 -0.12599987765418549 -0.11550364740632391 0 -0.13238394533585049 -0.1132856834133564 0 -0.12599987765418549 -0.11550364740632391 0 -0.13238394533585049 -0.1132856834133564 0 -0.13114171751694609 -0.1183715484722116 0 -0.1355018371655794 -0.1265678790332187 0 -0.1252704192176744 -0.1172440966648565 0 -0.13114171751694609 -0.1183715484722116 0 -0.1355018371655794 -0.1265678790332187 0 -0.13114171751694609 -0.1183715484722116 0 -0.14420813470266419 -0.11805716313719079 0 -0.139855014945965 -0.1081270544919556 0 -0.13238394533585049 -0.1132856834133564 0 -0.14420813470266419 -0.11805716313719079 0 -0.13238394533585049 -0.1132856834133564 0 -0.13114171751694609 -0.1183715484722116 0 -0.14420813470266419 -0.11805716313719079 0 -0.139855014945965 -0.1081270544919556 0 -0.14420813470266419 -0.11805716313719079 0 -0.1483104145610141 -0.1059844760750239 0 -0.1628079644011253 -0.13038477387159439 0 -0.14420813470266419 -0.11805716313719079 0 -0.1559183975343586 -0.1153029742025357 0 -0.14420813470266419 -0.11805716313719079 0 -0.1559183975343586 -0.1153029742025357 0 -0.1483104145610141 -0.1059844760750239 0 -0.15766897324155929 -0.10201766098942321 0 -0.1559183975343586 -0.1153029742025357 0 -0.1483104145610141 -0.1059844760750239 0 -0.15766897324155929 -0.10201766098942321 0 -0.15631644193457139 -0.088857398989056272 0 -0.14677991412428701 -0.093732051016317916 0 -0.15766897324155929 -0.10201766098942321 0 -0.14677991412428701 -0.093732051016317916 0 -0.1483104145610141 -0.1059844760750239 0 -0.14677991412428701 -0.093732051016317916 0 -0.13451756518433111 -0.095180895342251215 0 -0.1483104145610141 -0.1059844760750239 0 -0.13451756518433111 -0.095180895342251215 0 -0.139855014945965 -0.1081270544919556 0 -0.1483104145610141 -0.1059844760750239 0 -0.1452248522035206 -0.0135074852317284 0 -0.13361245343545181 -0.030305793086055629 0 -0.1484749629479134 -0.038477035386196637 0 -0.1452248522035206 -0.0135074852317284 0 -0.1484749629479134 -0.038477035386196637 0 -0.16099128017419639 -0.03201601120559007 0 -0.1452248522035206 -0.0135074852317284 0 -0.1660829110182864 -0.0110115892886907 0 -0.1564869492866878 -0.00059129627401754796 0 -0.1452248522035206 -0.0135074852317284 0 -0.1564869492866878 -0.00059129627401754796 0 -0.1433170204333889 0.0042533116210359059 0 -0.1452248522035206 -0.0135074852317284 0 -0.13137048688310951 -0.003337023478303953 0 -0.1433170204333889 0.0042533116210359059 0 -0.1236122261121546 -0.0078425818954372464 0 -0.1452248522035206 -0.0135074852317284 0 -0.13137048688310951 -0.003337023478303953 0 -0.1236122261121546 -0.0078425818954372464 0 -0.13137048688310951 -0.003337023478303953 0 -0.1236122261121546 -0.0078425818954372464 0 -0.13361245343545181 -0.030305793086055629 0 -0.1236122261121546 -0.0078425818954372464 0 -0.1185057960264221 -0.028529017004706999 0 -0.13361245343545181 -0.030305793086055629 0 -0.1236122261121546 -0.0078425818954372464 0 -0.1452248522035206 -0.0135074852317284 0 -0.13361245343545181 -0.030305793086055629 0 -0.13361245343545181 -0.030305793086055629 0 -0.14346563865851419 -0.05243870800993642 0 -0.1197314047957487 -0.044466417495601512 0 -0.13361245343545181 -0.030305793086055629 0 -0.1315211872564446 -0.050314657740016588 0 -0.13361245343545181 -0.030305793086055629 0 -0.1315211872564446 -0.050314657740016588 0 -0.14346563865851419 -0.05243870800993642 0 -0.12131955324210091 -0.059181462630683621 0 -0.1315211872564446 -0.050314657740016588 0 -0.13379805028672059 -0.060142641530726633 0 -0.1315211872564446 -0.050314657740016588 0 -0.1374712535911565 -0.055885807542241962 0 -0.14346563865851419 -0.05243870800993642 0 -0.1315211872564446 -0.050314657740016588 0 -0.1374712535911565 -0.055885807542241962 0 -0.13379805028672059 -0.060142641530726633 0 -0.1374712535911565 -0.055885807542241962 0 -0.13379805028672059 -0.060142641530726633 0 -0.1411001381629465 -0.060647222888288201 0 -0.1411001381629465 -0.060647222888288201 0 -0.14346563865851419 -0.05243870800993642 0 -0.15201326644433669 -0.053437077241884359 0 -0.1374712535911565 -0.055885807542241962 0 -0.1411001381629465 -0.060647222888288201 0 -0.14346563865851419 -0.05243870800993642 0 -0.14346563865851419 -0.05243870800993642 0 -0.15201326644433669 -0.053437077241884359 0 -0.1484749629479134 -0.038477035386196637 0 -0.15201326644433669 -0.053437077241884359 0 -0.1484749629479134 -0.038477035386196637 0 -0.16099128017419639 -0.03201601120559007 0 -0.13361245343545181 -0.030305793086055629 0 -0.14346563865851419 -0.05243870800993642 0 -0.1484749629479134 -0.038477035386196637 0 -0.15201326644433669 -0.053437077241884359 0 -0.16099128017419639 -0.03201601120559007 0 -0.15201326644433669 -0.053437077241884359 0 -0.16099128017419639 -0.03201601120559007 0 -0.16622336588392531 -0.046665464390732471 0 -0.16099128017419639 -0.03201601120559007 0 -0.17705927752236811 -0.038294319471390781 0 -0.1772337338696203 -0.023645926918309929 0 -0.16099128017419639 -0.03201601120559007 0 -0.16622336588392531 -0.046665464390732471 0 -0.17705927752236811 -0.038294319471390781 0 -0.15646239569026699 -0.065906604111614212 0 -0.15201326644433669 -0.053437077241884359 0 -0.16458020880549121 -0.059492387506912943 0 -0.15201326644433669 -0.053437077241884359 0 -0.16622336588392531 -0.046665464390732471 0 -0.16458020880549121 -0.059492387506912943 0 -0.16622336588392531 -0.046665464390732471 0 -0.16458020880549121 -0.059492387506912943 0 -0.17631201976625371 -0.05102922044790497 0 -0.17672291357829811 -0.064990721505459842 0 -0.16458020880549121 -0.059492387506912943 0 -0.17631201976625371 -0.05102922044790497 0 -0.17631201976625371 -0.05102922044790497 0 -0.18709502764393729 -0.061773717592220383 0 -0.18868425509965489 -0.047684834797198213 0 -0.17672291357829811 -0.064990721505459842 0 -0.17631201976625371 -0.05102922044790497 0 -0.18709502764393729 -0.061773717592220383 0 -0.16622336588392531 -0.046665464390732471 0 -0.17631201976625371 -0.05102922044790497 0 -0.17705927752236811 -0.038294319471390781 0 -0.17631201976625371 -0.05102922044790497 0 -0.17705927752236811 -0.038294319471390781 0 -0.18868425509965489 -0.047684834797198213 0 -0.17705927752236811 -0.038294319471390781 0 -0.18868425509965489 -0.047684834797198213 0 -0.19198493650835269 -0.034148616047928453 0 -0.17705927752236811 -0.038294319471390781 0 -0.1772337338696203 -0.023645926918309929 0 -0.19198493650835269 -0.034148616047928453 0 -0.1772337338696203 -0.023645926918309929 0 -0.18418091461086311 -0.0067458590849352237 0 -0.19781487964127609 -0.018046172764705552 0 -0.16099128017419639 -0.03201601120559007 0 -0.1772337338696203 -0.023645926918309929 0 -0.1660829110182864 -0.0110115892886907 0 -0.1452248522035206 -0.0135074852317284 0 -0.16099128017419639 -0.03201601120559007 0 -0.1660829110182864 -0.0110115892886907 0 -0.1660829110182864 -0.0110115892886907 0 -0.1564869492866878 -0.00059129627401754796 0 -0.17208342559322409 0.0058404778805985873 0 -0.1660829110182864 -0.0110115892886907 0 -0.18418091461086311 -0.0067458590849352237 0 -0.17208342559322409 0.0058404778805985873 0 -0.1772337338696203 -0.023645926918309929 0 -0.1660829110182864 -0.0110115892886907 0 -0.18418091461086311 -0.0067458590849352237 0 -0.18418091461086311 -0.0067458590849352237 0 -0.2008908429601583 -0.001101000049535744 0 -0.19781487964127609 -0.018046172764705552 0 -0.19781487964127609 -0.018046172764705552 0 -0.19198493650835269 -0.034148616047928453 0 -0.21155103461974961 -0.032223677091432062 0 -0.1772337338696203 -0.023645926918309929 0 -0.19781487964127609 -0.018046172764705552 0 -0.19198493650835269 -0.034148616047928453 0 -0.19781487964127609 -0.018046172764705552 0 -0.21155103461974961 -0.032223677091432062 0 -0.21882158577424271 -0.0103131571922281 0 -0.2008908429601583 -0.001101000049535744 0 -0.19781487964127609 -0.018046172764705552 0 -0.21882158577424271 -0.0103131571922281 0 -0.18709502764393729 -0.061773717592220383 0 -0.18868425509965489 -0.047684834797198213 0 -0.20047874574939811 -0.054521575326106748 0 -0.18868425509965489 -0.047684834797198213 0 -0.20047874574939811 -0.054521575326106748 0 -0.19817474299428881 -0.04214467581566636 0 -0.19817474299428881 -0.04214467581566636 0 -0.19198493650835269 -0.034148616047928453 0 -0.21155103461974961 -0.032223677091432062 0 -0.18868425509965489 -0.047684834797198213 0 -0.19817474299428881 -0.04214467581566636 0 -0.19198493650835269 -0.034148616047928453 0 -0.20047874574939811 -0.054521575326106748 0 -0.21155103461974961 -0.032223677091432062 0 -0.20047874574939811 -0.054521575326106748 0 -0.19817474299428881 -0.04214467581566636 0 -0.21155103461974961 -0.032223677091432062 0 -0.21155103461974961 -0.032223677091432062 0 -0.21465014164525181 -0.057056120614390499 0 -0.22646728404806721 -0.036724874627428489 0 -0.20047874574939811 -0.054521575326106748 0 -0.21155103461974961 -0.032223677091432062 0 -0.21465014164525181 -0.057056120614390499 0 -0.21465014164525181 -0.057056120614390499 0 -0.2338744138803254 -0.062312468216533988 0 -0.22646728404806721 -0.036724874627428489 0 -0.2338744138803254 -0.062312468216533988 0 -0.22646728404806721 -0.036724874627428489 0 -0.21465014164525181 -0.057056120614390499 0 -0.22646728404806721 -0.036724874627428489 0 -0.22646728404806721 -0.036724874627428489 0 -0.2401414722927224 -0.032241302373577058 0 -0.24278742868549399 -0.046838078323859687 0 -0.2401414722927224 -0.032241302373577058 0 -0.25378175816230958 -0.02436733484642779 0 -0.25219715932032732 -0.038265850071314 0 -0.2401414722927224 -0.032241302373577058 0 -0.24278742868549399 -0.046838078323859687 0 -0.25219715932032732 -0.038265850071314 0 -0.2338744138803254 -0.062312468216533988 0 -0.22646728404806721 -0.036724874627428489 0 -0.24278742868549399 -0.046838078323859687 0 -0.24278742868549399 -0.046838078323859687 0 -0.2476323682116322 -0.061520987214930753 0 -0.25620744044593469 -0.049667056832747067 0 -0.2338744138803254 -0.062312468216533988 0 -0.24278742868549399 -0.046838078323859687 0 -0.2476323682116322 -0.061520987214930753 0 -0.21882158577424271 -0.0103131571922281 0 -0.2374946151573453 -0.01775248911154621 0 -0.23546354233931949 0.0078270751002715265 0 -0.22646728404806721 -0.036724874627428489 0 -0.2374946151573453 -0.01775248911154621 0 -0.21155103461974961 -0.032223677091432062 0 -0.22646728404806721 -0.036724874627428489 0 -0.21882158577424271 -0.0103131571922281 0 -0.22646728404806721 -0.036724874627428489 0 -0.21882158577424271 -0.0103131571922281 0 -0.22646728404806721 -0.036724874627428489 0 -0.21882158577424271 -0.0103131571922281 0 -0.2374946151573453 -0.01775248911154621 0 -0.2374946151573453 -0.01775248911154621 0 -0.25227296286688322 -0.0076793426536460041 0 -0.25378175816230958 -0.02436733484642779 0 -0.2401414722927224 -0.032241302373577058 0 -0.2374946151573453 -0.01775248911154621 0 -0.25378175816230958 -0.02436733484642779 0 -0.22646728404806721 -0.036724874627428489 0 -0.2401414722927224 -0.032241302373577058 0 -0.2374946151573453 -0.01775248911154621 0 -0.2374946151573453 -0.01775248911154621 0 -0.25227296286688322 -0.0076793426536460041 0 -0.23546354233931949 0.0078270751002715265 0 -0.25227296286688322 -0.0076793426536460041 0 -0.27504786807920711 -0.016522946018952021 0 -0.26249405175029211 0.007662734938978108 0 -0.25227296286688322 -0.0076793426536460041 0 -0.25378175816230958 -0.02436733484642779 0 -0.27504786807920711 -0.016522946018952021 0 -0.25378175816230958 -0.02436733484642779 0 -0.27504786807920711 -0.016522946018952021 0 -0.26471526887818231 -0.03538659961621915 0 -0.27504786807920711 -0.016522946018952021 0 -0.27907013255445939 -0.03491531901183742 0 -0.26471526887818231 -0.03538659961621915 0 -0.27504786807920711 -0.016522946018952021 0 -0.26249405175029211 0.007662734938978108 0 -0.29088909275279012 0.0052797473078289572 0 -0.27504786807920711 -0.016522946018952021 0 -0.29710775469227729 -0.014596668466157351 0 -0.29088909275279012 0.0052797473078289572 0 -0.27504786807920711 -0.016522946018952021 0 -0.29121836233921761 -0.027938763998333869 0 -0.27907013255445939 -0.03491531901183742 0 -0.27504786807920711 -0.016522946018952021 0 -0.29121836233921761 -0.027938763998333869 0 -0.29710775469227729 -0.014596668466157351 0 -0.29710775469227729 -0.014596668466157351 0 -0.31759413704845219 -0.011310857140017521 0 -0.31311363369768291 -0.03310849193739672 0 -0.29121836233921761 -0.027938763998333869 0 -0.29710775469227729 -0.014596668466157351 0 -0.31311363369768291 -0.03310849193739672 0 -0.29710775469227729 -0.014596668466157351 0 -0.30518798685158838 -0.0020929360932298849 0 -0.29088909275279012 0.0052797473078289572 0 -0.29710775469227729 -0.014596668466157351 0 -0.30518798685158838 -0.0020929360932298849 0 -0.31759413704845219 -0.011310857140017521 0 -0.3114594072847322 -0.049306726894047262 0 -0.29175242267246138 -0.04055039455732605 0 -0.29253753360804391 -0.057483018047446738 0 -0.3114594072847322 -0.049306726894047262 0 -0.29253753360804391 -0.057483018047446738 0 -0.30696176126270219 -0.065158696513015008 0 -0.3114594072847322 -0.049306726894047262 0 -0.29175242267246138 -0.04055039455732605 0 -0.31311363369768291 -0.03310849193739672 0 -0.29175242267246138 -0.04055039455732605 0 -0.31311363369768291 -0.03310849193739672 0 -0.3114594072847322 -0.049306726894047262 0 -0.29175242267246138 -0.04055039455732605 0 -0.29121836233921761 -0.027938763998333869 0 -0.29175242267246138 -0.04055039455732605 0 -0.31311363369768291 -0.03310849193739672 0 -0.29175242267246138 -0.04055039455732605 0 -0.27907013255445939 -0.03491531901183742 0 -0.29121836233921761 -0.027938763998333869 0 -0.29175242267246138 -0.04055039455732605 0 -0.27907013255445939 -0.03491531901183742 0 -0.29175242267246138 -0.04055039455732605 0 -0.29253753360804391 -0.057483018047446738 0 -0.27994708571901822 -0.057980160189140359 0 -0.27994708571901822 -0.057980160189140359 0 -0.26824156593179532 -0.048741199197032549 0 -0.26874039246249382 -0.069271675174266092 0 -0.29175242267246138 -0.04055039455732605 0 -0.27994708571901822 -0.057980160189140359 0 -0.26824156593179532 -0.048741199197032549 0 -0.29175242267246138 -0.04055039455732605 0 -0.26824156593179532 -0.048741199197032549 0 -0.27907013255445939 -0.03491531901183742 0 -0.29175242267246138 -0.04055039455732605 0 -0.26824156593179532 -0.048741199197032549 0 -0.26824156593179532 -0.048741199197032549 0 -0.27907013255445939 -0.03491531901183742 0 -0.26471526887818231 -0.03538659961621915 0 -0.26824156593179532 -0.048741199197032549 0 -0.26471526887818231 -0.03538659961621915 0 -0.25620744044593469 -0.049667056832747067 0 -0.24278742868549399 -0.046838078323859687 0 -0.25219715932032732 -0.038265850071314 0 -0.25620744044593469 -0.049667056832747067 0 -0.26471526887818231 -0.03538659961621915 0 -0.25219715932032732 -0.038265850071314 0 -0.25620744044593469 -0.049667056832747067 0 -0.25378175816230958 -0.02436733484642779 0 -0.26471526887818231 -0.03538659961621915 0 -0.25219715932032732 -0.038265850071314 0 -0.26824156593179532 -0.048741199197032549 0 -0.25818533518880471 -0.062204128102381351 0 -0.26874039246249382 -0.069271675174266092 0 -0.26824156593179532 -0.048741199197032549 0 -0.25818533518880471 -0.062204128102381351 0 -0.25620744044593469 -0.049667056832747067 0 -0.2476323682116322 -0.061520987214930753 0 -0.25818533518880471 -0.062204128102381351 0 -0.25620744044593469 -0.049667056832747067 0 -0.2476323682116322 -0.061520987214930753 0 -0.25818533518880471 -0.062204128102381351 0 -0.2529882333064245 -0.070973901803662365 0 -0.25818533518880471 -0.062204128102381351 0 -0.25865454608389071 -0.0715458776642144 0 -0.2529882333064245 -0.070973901803662365 0 -0.25818533518880471 -0.062204128102381351 0 -0.25865454608389071 -0.0715458776642144 0 -0.26874039246249382 -0.069271675174266092 0 -0.25865454608389071 -0.0715458776642144 0 -0.25855249999409979 -0.079349971077516485 0 -0.26874039246249382 -0.069271675174266092 0 -0.24682403554985069 -0.077092069586417622 0 -0.25425482873356642 -0.074740455032952721 0 -0.25855249999409979 -0.079349971077516485 0 -0.25865454608389071 -0.0715458776642144 0 -0.25425482873356642 -0.074740455032952721 0 -0.25855249999409979 -0.079349971077516485 0 -0.25865454608389071 -0.0715458776642144 0 -0.25425482873356642 -0.074740455032952721 0 -0.2529882333064245 -0.070973901803662365 0 -0.24682403554985069 -0.077092069586417622 0 -0.25425482873356642 -0.074740455032952721 0 -0.2529882333064245 -0.070973901803662365 0 -0.2404192924220224 -0.087961553919881613 0 -0.25356789490128989 -0.088072195653340249 0 -0.26220824858947278 -0.082039970883894989 0 -0.2404192924220224 -0.087961553919881613 0 -0.26220824858947278 -0.082039970883894989 0 -0.2404192924220224 -0.087961553919881613 0 -0.26220824858947278 -0.082039970883894989 0 -0.25855249999409979 -0.079349971077516485 0 -0.25356789490128989 -0.088072195653340249 0 -0.25144169010332901 -0.091633326375329338 0 -0.26020234849033591 -0.090653931434255125 0 -0.25144169010332901 -0.091633326375329338 0 -0.26020234849033591 -0.090653931434255125 0 -0.2525882024947626 -0.098821099717938107 0 -0.26020234849033591 -0.090653931434255125 0 -0.26220824858947278 -0.082039970883894989 0 -0.26803774644364831 -0.088990216861234941 0 -0.26020234849033591 -0.090653931434255125 0 -0.26803774644364831 -0.088990216861234941 0 -0.26237563885443332 -0.099092169843888092 0 -0.25356789490128989 -0.088072195653340249 0 -0.26020234849033591 -0.090653931434255125 0 -0.26220824858947278 -0.082039970883894989 0 -0.26220824858947278 -0.082039970883894989 0 -0.25855249999409979 -0.079349971077516485 0 -0.27123440961567508 -0.082288547260032208 0 -0.27123440961567508 -0.082288547260032208 0 -0.26803774644364831 -0.088990216861234941 0 -0.28416808666832472 -0.090876464884104322 0 -0.26220824858947278 -0.082039970883894989 0 -0.27123440961567508 -0.082288547260032208 0 -0.26803774644364831 -0.088990216861234941 0 -0.27123440961567508 -0.082288547260032208 0 -0.28275713062840102 -0.072254333795265746 0 -0.28416808666832472 -0.090876464884104322 0 -0.26803774644364831 -0.088990216861234941 0 -0.26237563885443332 -0.099092169843888092 0 -0.28416808666832472 -0.090876464884104322 0 -0.25855249999409979 -0.079349971077516485 0 -0.28275713062840102 -0.072254333795265746 0 -0.25855249999409979 -0.079349971077516485 0 -0.26874039246249382 -0.069271675174266092 0 -0.28275713062840102 -0.072254333795265746 0 -0.25855249999409979 -0.079349971077516485 0 -0.27123440961567508 -0.082288547260032208 0 -0.28275713062840102 -0.072254333795265746 0 -0.27994708571901822 -0.057980160189140359 0 -0.26874039246249382 -0.069271675174266092 0 -0.28275713062840102 -0.072254333795265746 0 -0.2478381125959237 -0.13014188093155071 0 -0.26471173226585809 -0.1241277151614352 0 -0.25439292330372432 -0.11161035632906929 0 -0.26471173226585809 -0.1241277151614352 0 -0.25439292330372432 -0.11161035632906929 0 -0.26925149092450551 -0.1104881183943958 0 -0.25439292330372432 -0.11161035632906929 0 -0.26237563885443332 -0.099092169843888092 0 -0.26925149092450551 -0.1104881183943958 0 -0.25439292330372432 -0.11161035632906929 0 -0.2525882024947626 -0.098821099717938107 0 -0.26237563885443332 -0.099092169843888092 0 -0.2438502060585381 -0.1028583717612334 0 -0.25439292330372432 -0.11161035632906929 0 -0.2525882024947626 -0.098821099717938107 0 -0.26020234849033591 -0.090653931434255125 0 -0.2525882024947626 -0.098821099717938107 0 -0.26237563885443332 -0.099092169843888092 0 -0.26237563885443332 -0.099092169843888092 0 -0.26925149092450551 -0.1104881183943958 0 -0.28416808666832472 -0.090876464884104322 0 -0.26237563885443332 -0.099092169843888092 0 -0.28416808666832472 -0.090876464884104322 0 -0.26925149092450551 -0.1104881183943958 0 -0.28362018306611941 -0.1149768545032684 0 -0.28416808666832472 -0.090876464884104322 0 -0.26471173226585809 -0.1241277151614352 0 -0.26925149092450551 -0.1104881183943958 0 -0.28362018306611941 -0.1149768545032684 0 -0.28362018306611941 -0.1149768545032684 0 -0.30012398023346848 -0.099943372585857088 0 -0.29756340944960558 -0.1135198660677226 0 -0.28362018306611941 -0.1149768545032684 0 -0.29756340944960558 -0.1135198660677226 0 -0.29768876878828382 -0.12804597213566191 0 -0.28362018306611941 -0.1149768545032684 0 -0.30012398023346848 -0.099943372585857088 0 -0.28416808666832472 -0.090876464884104322 0 -0.30012398023346848 -0.099943372585857088 0 -0.30783691459248808 -0.106447779092323 0 -0.31567959952596442 -0.097557764174788134 0 -0.30012398023346848 -0.099943372585857088 0 -0.30783691459248808 -0.106447779092323 0 -0.29756340944960558 -0.1135198660677226 0 -0.31981531178534578 -0.1159443424066684 0 -0.31168640084693722 -0.1309238984722621 0 -0.29768876878828382 -0.12804597213566191 0 -0.31097561465500489 -0.1146061177684144 0 -0.31981531178534578 -0.1159443424066684 0 -0.29768876878828382 -0.12804597213566191 0 -0.31981531178534578 -0.1159443424066684 0 -0.29768876878828382 -0.12804597213566191 0 -0.30783691459248808 -0.106447779092323 0 -0.29756340944960558 -0.1135198660677226 0 -0.31097561465500489 -0.1146061177684144 0 -0.30783691459248808 -0.106447779092323 0 -0.31097561465500489 -0.1146061177684144 0 -0.31588048179209449 -0.1075745667651056 0 -0.29756340944960558 -0.1135198660677226 0 -0.31097561465500489 -0.1146061177684144 0 -0.29768876878828382 -0.12804597213566191 0 -0.29253753360804391 -0.057483018047446738 0 -0.28275713062840102 -0.072254333795265746 0 -0.30696176126270219 -0.065158696513015008 0 -0.28275713062840102 -0.072254333795265746 0 -0.30696176126270219 -0.065158696513015008 0 -0.29253753360804391 -0.057483018047446738 0 -0.27994708571901822 -0.057980160189140359 0 -0.28275713062840102 -0.072254333795265746 0 -0.28275713062840102 -0.072254333795265746 0 -0.28416808666832472 -0.090876464884104322 0 -0.30596053448221622 -0.082660759924320565 0 -0.30012398023346848 -0.099943372585857088 0 -0.28416808666832472 -0.090876464884104322 0 -0.30596053448221622 -0.082660759924320565 0 -0.28416808666832472 -0.090876464884104322 0 -0.30596053448221622 -0.082660759924320565 0 -0.30012398023346848 -0.099943372585857088 0 -0.30596053448221622 -0.082660759924320565 0 -0.31567959952596442 -0.097557764174788134 0 -0.28275713062840102 -0.072254333795265746 0 -0.30596053448221622 -0.082660759924320565 0 -0.30696176126270219 -0.065158696513015008 0 -0.30696176126270219 -0.065158696513015008 0 -0.32775298229610761 -0.074445054964536822 0 -0.33116639189700398 -0.058063059230765962 0 -0.30596053448221622 -0.082660759924320565 0 -0.30696176126270219 -0.065158696513015008 0 -0.32775298229610761 -0.074445054964536822 0 -0.30596053448221622 -0.082660759924320565 0 -0.32775298229610761 -0.074445054964536822 0 -0.30596053448221622 -0.082660759924320565 0 -0.32775298229610761 -0.074445054964536822 0 -0.32362127966136711 -0.087321124884110049 0 -0.30596053448221622 -0.082660759924320565 0 -0.32362127966136711 -0.087321124884110049 0 -0.31567959952596442 -0.097557764174788134 0 -0.32362127966136711 -0.087321124884110049 0 -0.31567959952596442 -0.097557764174788134 0 -0.33099901797333198 -0.096034161481027461 0 -0.32775298229610761 -0.074445054964536822 0 -0.32362127966136711 -0.087321124884110049 0 -0.33771426402921512 -0.08590788387587725 0 -0.32775298229610761 -0.074445054964536822 0 -0.33771426402921512 -0.08590788387587725 0 -0.3410929925936918 -0.075329856076351967 0 -0.32362127966136711 -0.087321124884110049 0 -0.33771426402921512 -0.08590788387587725 0 -0.33099901797333198 -0.096034161481027461 0 -0.33771426402921512 -0.08590788387587725 0 -0.34583111956259749 -0.098435285946989581 0 -0.34764631593145701 -0.084003956848892683 0 -0.33771426402921512 -0.08590788387587725 0 -0.33099901797333198 -0.096034161481027461 0 -0.34583111956259749 -0.098435285946989581 0 -0.33771426402921512 -0.08590788387587725 0 -0.3410929925936918 -0.075329856076351967 0 -0.34764631593145701 -0.084003956848892683 0 -0.32775298229610761 -0.074445054964536822 0 -0.34954543010999922 -0.066229350004753773 0 -0.32775298229610761 -0.074445054964536822 0 -0.34954543010999922 -0.066229350004753773 0 -0.33116639189700398 -0.058063059230765962 0 -0.32775298229610761 -0.074445054964536822 0 -0.3410929925936918 -0.075329856076351967 0 -0.34954543010999922 -0.066229350004753773 0 -0.31981531178534578 -0.1159443424066684 0 -0.33811662782018509 -0.1187149432167614 0 -0.32501708124079648 -0.13103464252731351 0 -0.31097561465500489 -0.1146061177684144 0 -0.31981531178534578 -0.1159443424066684 0 -0.31588048179209449 -0.1075745667651056 0 -0.31097561465500489 -0.1146061177684144 0 -0.31981531178534578 -0.1159443424066684 0 -0.31981531178534578 -0.1159443424066684 0 -0.32413251233690038 -0.10459203082738 0 -0.33754729440195652 -0.1062462215562652 0 -0.31981531178534578 -0.1159443424066684 0 -0.32413251233690038 -0.10459203082738 0 -0.31588048179209449 -0.1075745667651056 0 -0.32413251233690038 -0.10459203082738 0 -0.31588048179209449 -0.1075745667651056 0 -0.31567959952596442 -0.097557764174788134 0 -0.30783691459248808 -0.106447779092323 0 -0.31588048179209449 -0.1075745667651056 0 -0.31567959952596442 -0.097557764174788134 0 -0.32413251233690038 -0.10459203082738 0 -0.31567959952596442 -0.097557764174788134 0 -0.33099901797333198 -0.096034161481027461 0 -0.33754729440195652 -0.1062462215562652 0 -0.33811662782018509 -0.1187149432167614 0 -0.34583111956259749 -0.098435285946989581 0 -0.33099901797333198 -0.096034161481027461 0 -0.33754729440195652 -0.1062462215562652 0 -0.34583111956259749 -0.098435285946989581 0 -0.32413251233690038 -0.10459203082738 0 -0.33099901797333198 -0.096034161481027461 0 -0.33754729440195652 -0.1062462215562652 0 -0.31981531178534578 -0.1159443424066684 0 -0.33754729440195652 -0.1062462215562652 0 -0.31981531178534578 -0.1159443424066684 0 -0.33754729440195652 -0.1062462215562652 0 -0.33811662782018509 -0.1187149432167614 0 -0.31981531178534578 -0.1159443424066684 0 -0.33811662782018509 -0.1187149432167614 0 -0.33811662782018509 -0.1187149432167614 0 -0.32501708124079648 -0.13103464252731351 0 -0.33811662782018509 -0.1187149432167614 0 -0.35957868311145441 -0.098530575294378642 0 -0.36560935282136869 -0.1228770136391782 0 -0.33811662782018509 -0.1187149432167614 0 -0.36560935282136869 -0.1228770136391782 0 -0.33811662782018509 -0.1187149432167614 0 -0.35957868311145441 -0.098530575294378642 0 -0.33811662782018509 -0.1187149432167614 0 -0.34583111956259749 -0.098435285946989581 0 -0.35957868311145441 -0.098530575294378642 0 -0.37338072534044958 -0.1015395423542827 0 -0.35957868311145441 -0.098530575294378642 0 -0.36560935282136869 -0.1228770136391782 0 -0.37338072534044958 -0.1015395423542827 0 -0.35957868311145441 -0.098530575294378642 0 -0.3750868287242039 -0.083945666598845156 0 -0.35957868311145441 -0.098530575294378642 0 -0.36560935282136869 -0.1228770136391782 0 -0.37338072534044958 -0.1015395423542827 0 -0.36560935282136869 -0.1228770136391782 0 -0.38088751658449588 -0.11177605152490321 0 -0.35337645997328532 -0.073491557988243944 0 -0.34954543010999922 -0.066229350004753773 0 -0.36110028685175177 -0.071363477205066639 0 -0.34954543010999922 -0.066229350004753773 0 -0.36113753062154968 -0.061859153573384271 0 -0.35391811348297447 -0.060268720819388867 0 -0.34954543010999922 -0.066229350004753773 0 -0.36113753062154968 -0.061859153573384271 0 -0.34954543010999922 -0.066229350004753773 0 -0.36110028685175177 -0.071363477205066639 0 -0.36113753062154968 -0.061859153573384271 0 -0.34954543010999922 -0.066229350004753773 0 -0.36110028685175177 -0.071363477205066639 0 -0.3410929925936918 -0.075329856076351967 0 -0.34954543010999922 -0.066229350004753773 0 -0.34762887643352081 -0.074048264607039227 0 -0.3410929925936918 -0.075329856076351967 0 -0.34762887643352081 -0.074048264607039227 0 -0.34764631593145701 -0.084003956848892683 0 -0.35337645997328532 -0.073491557988243944 0 -0.34762887643352081 -0.074048264607039227 0 -0.34764631593145701 -0.084003956848892683 0 -0.35337645997328532 -0.073491557988243944 0 -0.34954543010999922 -0.066229350004753773 0 -0.34762887643352081 -0.074048264607039227 0 -0.35957868311145441 -0.098530575294378642 0 -0.35337645997328532 -0.073491557988243944 0 -0.34764631593145701 -0.084003956848892683 0 -0.35957868311145441 -0.098530575294378642 0 -0.35337645997328532 -0.073491557988243944 0 -0.34583111956259749 -0.098435285946989581 0 -0.35957868311145441 -0.098530575294378642 0 -0.34764631593145701 -0.084003956848892683 0 -0.35957868311145441 -0.098530575294378642 0 -0.36565466293458038 -0.077117114018749447 0 -0.3750868287242039 -0.083945666598845156 0 -0.35957868311145441 -0.098530575294378642 0 -0.35337645997328532 -0.073491557988243944 0 -0.36565466293458038 -0.077117114018749447 0 -0.35957868311145441 -0.098530575294378642 0 -0.3750868287242039 -0.083945666598845156 0 -0.36565466293458038 -0.077117114018749447 0 -0.37683012181080239 -0.068733301298065499 0 -0.3750868287242039 -0.083945666598845156 0 -0.36565466293458038 -0.077117114018749447 0 -0.36795559713598469 -0.066638105727896774 0 -0.37683012181080239 -0.068733301298065499 0 -0.36565466293458038 -0.077117114018749447 0 -0.36110028685175177 -0.071363477205066639 0 -0.36795559713598469 -0.066638105727896774 0 -0.35337645997328532 -0.073491557988243944 0 -0.36565466293458038 -0.077117114018749447 0 -0.36110028685175177 -0.071363477205066639 0 -0.36110028685175177 -0.071363477205066639 0 -0.36795559713598469 -0.066638105727896774 0 -0.36113753062154968 -0.061859153573384271 0 -0.36795559713598469 -0.066638105727896774 0 -0.37470589733927712 -0.0545527271000322 0 -0.37683012181080239 -0.068733301298065499 0 -0.35650250053147359 -0.050635726844241939 0 -0.37707154236451451 -0.044605869900925722 0 -0.37470589733927712 -0.0545527271000322 0 -0.35650250053147359 -0.050635726844241939 0 -0.36795559713598469 -0.066638105727896774 0 -0.37470589733927712 -0.0545527271000322 0 -0.36113753062154968 -0.061859153573384271 0 -0.37470589733927712 -0.0545527271000322 0 -0.35650250053147359 -0.050635726844241939 0 -0.37707154236451451 -0.044605869900925722 0 -0.37470589733927712 -0.0545527271000322 0 -0.35970252298352262 -0.056514655867325403 0 -0.35650250053147359 -0.050635726844241939 0 -0.37470589733927712 -0.0545527271000322 0 -0.35970252298352262 -0.056514655867325403 0 -0.36113753062154968 -0.061859153573384271 0 -0.35391811348297447 -0.060268720819388867 0 -0.35527395769833642 -0.05300159300784036 0 -0.33116639189700398 -0.058063059230765962 0 -0.35527395769833642 -0.05300159300784036 0 -0.35507992259877907 -0.051052758492802497 0 -0.33116639189700398 -0.058063059230765962 0 -0.34954543010999922 -0.066229350004753773 0 -0.35391811348297447 -0.060268720819388867 0 -0.33116639189700398 -0.058063059230765962 0 -0.35970252298352262 -0.056514655867325403 0 -0.36113753062154968 -0.061859153573384271 0 -0.35391811348297447 -0.060268720819388867 0 -0.35970252298352262 -0.056514655867325403 0 -0.35391811348297447 -0.060268720819388867 0 -0.35527395769833642 -0.05300159300784036 0 -0.35650250053147359 -0.050635726844241939 0 -0.35507992259877907 -0.051052758492802497 0 -0.3484308880043866 -0.044087332347355908 0 -0.35970252298352262 -0.056514655867325403 0 -0.35650250053147359 -0.050635726844241939 0 -0.35527395769833642 -0.05300159300784036 0 -0.35650250053147359 -0.050635726844241939 0 -0.35527395769833642 -0.05300159300784036 0 -0.35650250053147359 -0.050635726844241939 0 -0.35527395769833642 -0.05300159300784036 0 -0.35507992259877907 -0.051052758492802497 0 -0.35650250053147359 -0.050635726844241939 0 -0.35507992259877907 -0.051052758492802497 0 -0.35507992259877907 -0.051052758492802497 0 -0.33978397050626657 -0.048324977944356091 0 -0.35507992259877907 -0.051052758492802497 0 -0.3484308880043866 -0.044087332347355908 0 -0.33978397050626657 -0.048324977944356091 0 -0.35650250053147359 -0.050635726844241939 0 -0.3501214739100334 -0.034607419809747728 0 -0.3484308880043866 -0.044087332347355908 0 -0.35650250053147359 -0.050635726844241939 0 -0.3501214739100334 -0.034607419809747728 0 -0.36684988365240911 -0.03070925546092473 0 -0.3501214739100334 -0.034607419809747728 0 -0.3484308880043866 -0.044087332347355908 0 -0.33506880487583801 -0.038565334792038719 0 -0.35650250053147359 -0.050635726844241939 0 -0.36684988365240911 -0.03070925546092473 0 -0.37707154236451451 -0.044605869900925722 0 -0.35650250053147359 -0.050635726844241939 0 -0.36684988365240911 -0.03070925546092473 0 -0.36684988365240911 -0.03070925546092473 0 -0.37719726677334758 -0.010782784077609161 0 -0.36684988365240911 -0.03070925546092473 0 -0.35583605574812599 -0.018224686697538489 0 -0.37719726677334758 -0.010782784077609161 0 -0.35583605574812599 -0.018224686697538489 0 -0.37719726677334758 -0.010782784077609161 0 -0.37145675818362223 0.001704133189072726 0 -0.35583605574812599 -0.018224686697538489 0 -0.37719726677334758 -0.010782784077609161 0 -0.35583605574812599 -0.018224686697538489 0 -0.35182631000740072 0.0068229147672093007 0 -0.37145675818362223 0.001704133189072726 0 -0.35583605574812599 -0.018224686697538489 0 -0.33449922093445961 -0.0040818700918973123 0 -0.35182631000740072 0.0068229147672093007 0 -0.3501214739100334 -0.034607419809747728 0 -0.35583605574812599 -0.018224686697538489 0 -0.33447484472290451 -0.025666589317467611 0 -0.3501214739100334 -0.034607419809747728 0 -0.36684988365240911 -0.03070925546092473 0 -0.35583605574812599 -0.018224686697538489 0 -0.35583605574812599 -0.018224686697538489 0 -0.33447484472290451 -0.025666589317467611 0 -0.35583605574812599 -0.018224686697538489 0 -0.33447484472290451 -0.025666589317467611 0 -0.33449922093445961 -0.0040818700918973123 0 -0.33447484472290451 -0.025666589317467611 0 -0.33449922093445961 -0.0040818700918973123 0 -0.31759413704845219 -0.011310857140017521 0 -0.33449922093445961 -0.0040818700918973123 0 -0.31759413704845219 -0.011310857140017521 0 -0.32049615199215492 0.0045280339304297253 0 -0.30518798685158838 -0.0020929360932298849 0 -0.31759413704845219 -0.011310857140017521 0 -0.32049615199215492 0.0045280339304297253 0 -0.33447484472290451 -0.025666589317467611 0 -0.31759413704845219 -0.011310857140017521 0 -0.31311363369768291 -0.03310849193739672 0 -0.33447484472290451 -0.025666589317467611 0 -0.31311363369768291 -0.03310849193739672 0 -0.3114594072847322 -0.049306726894047262 0 -0.31311363369768291 -0.03310849193739672 0 -0.32448801841375452 -0.045597197395908257 0 -0.33447484472290451 -0.025666589317467611 0 -0.31311363369768291 -0.03310849193739672 0 -0.33506880487583801 -0.038565334792038719 0 -0.31311363369768291 -0.03310849193739672 0 -0.32448801841375452 -0.045597197395908257 0 -0.33506880487583801 -0.038565334792038719 0 -0.3114594072847322 -0.049306726894047262 0 -0.32448801841375452 -0.045597197395908257 0 -0.33116639189700398 -0.058063059230765962 0 -0.30696176126270219 -0.065158696513015008 0 -0.33116639189700398 -0.058063059230765962 0 -0.3114594072847322 -0.049306726894047262 0 -0.33116639189700398 -0.058063059230765962 0 -0.3114594072847322 -0.049306726894047262 0 -0.30696176126270219 -0.065158696513015008 0 -0.33116639189700398 -0.058063059230765962 0 -0.32448801841375452 -0.045597197395908257 0 -0.33116639189700398 -0.058063059230765962 0 -0.33978397050626657 -0.048324977944356091 0 -0.34954543010999922 -0.066229350004753773 0 -0.33116639189700398 -0.058063059230765962 0 -0.35507992259877907 -0.051052758492802497 0 -0.33116639189700398 -0.058063059230765962 0 -0.33978397050626657 -0.048324977944356091 0 -0.35507992259877907 -0.051052758492802497 0 -0.33116639189700398 -0.058063059230765962 0 -0.32448801841375452 -0.045597197395908257 0 -0.33978397050626657 -0.048324977944356091 0 -0.3501214739100334 -0.034607419809747728 0 -0.33447484472290451 -0.025666589317467611 0 -0.33506880487583801 -0.038565334792038719 0 -0.3484308880043866 -0.044087332347355908 0 -0.33978397050626657 -0.048324977944356091 0 -0.33506880487583801 -0.038565334792038719 0 -0.32448801841375452 -0.045597197395908257 0 -0.33978397050626657 -0.048324977944356091 0 -0.33506880487583801 -0.038565334792038719 0 -0.29859701231105729 -0.25301700882560368 0 -0.3071375446623259 -0.2335196387236223 0 -0.31421725341188372 -0.24977587129631751 0 -0.29859701231105729 -0.25301700882560368 0 -0.3071375446623259 -0.2335196387236223 0 -0.29138670340076089 -0.23873921836977791 0 -0.3071375446623259 -0.2335196387236223 0 -0.29268109579257923 -0.22411955864172181 0 -0.3060605016315725 -0.21226103782782971 0 -0.3071375446623259 -0.2335196387236223 0 -0.3060605016315725 -0.21226103782782971 0 -0.32042736925848198 -0.22641527486886631 0 -0.3071375446623259 -0.2335196387236223 0 -0.29268109579257923 -0.22411955864172181 0 -0.29138670340076089 -0.23873921836977791 0 -0.29268109579257923 -0.22411955864172181 0 -0.27778266513963018 -0.23141617934605249 0 -0.2809246376312578 -0.20830770343947971 0 -0.29268109579257923 -0.22411955864172181 0 -0.29138670340076089 -0.23873921836977791 0 -0.27778266513963018 -0.23141617934605249 0 -0.28073519909821221 -0.25162370631188929 0 -0.29138670340076089 -0.23873921836977791 0 -0.27778266513963018 -0.23141617934605249 0 -0.28073519909821221 -0.25162370631188929 0 -0.29859701231105729 -0.25301700882560368 0 -0.29138670340076089 -0.23873921836977791 0 -0.28073519909821221 -0.25162370631188929 0 -0.2582168116042447 -0.2439014490639565 0 -0.27778266513963018 -0.23141617934605249 0 -0.24510877540263959 -0.22548599802342939 0 -0.2582168116042447 -0.2439014490639565 0 -0.26321090898949828 -0.22136191750140799 0 -0.24510877540263959 -0.22548599802342939 0 -0.26321090898949828 -0.22136191750140799 0 -0.25247744799357308 -0.21261594090752481 0 -0.26321090898949828 -0.22136191750140799 0 -0.27778266513963018 -0.23141617934605249 0 -0.2809246376312578 -0.20830770343947971 0 -0.2582168116042447 -0.2439014490639565 0 -0.26321090898949828 -0.22136191750140799 0 -0.27778266513963018 -0.23141617934605249 0 -0.26321090898949828 -0.22136191750140799 0 -0.2809246376312578 -0.20830770343947971 0 -0.26409863293778341 -0.20573621058270139 0 -0.26321090898949828 -0.22136191750140799 0 -0.26409863293778341 -0.20573621058270139 0 -0.25247744799357308 -0.21261594090752481 0 -0.26409863293778341 -0.20573621058270139 0 -0.25247744799357308 -0.21261594090752481 0 -0.25047429362874257 -0.200219847641955 0 -0.26409863293778341 -0.20573621058270139 0 -0.25047429362874257 -0.200219847641955 0 -0.26742375486930359 -0.1882108285553544 0 -0.25047429362874257 -0.200219847641955 0 -0.26742375486930359 -0.1882108285553544 0 -0.23968786498356659 -0.18400375912907671 0 -0.25047429362874257 -0.200219847641955 0 -0.26742375486930359 -0.1882108285553544 0 -0.2809246376312578 -0.20830770343947971 0 -0.26742375486930359 -0.1882108285553544 0 -0.29199909585561379 -0.19193849570898799 0 -0.26742375486930359 -0.1882108285553544 0 -0.29199909585561379 -0.19193849570898799 0 -0.2809246376312578 -0.20830770343947971 0 -0.26409863293778341 -0.20573621058270139 0 -0.26742375486930359 -0.1882108285553544 0 -0.2809246376312578 -0.20830770343947971 0 -0.3060605016315725 -0.21226103782782971 0 -0.2809246376312578 -0.20830770343947971 0 -0.29199909585561379 -0.19193849570898799 0 -0.3060605016315725 -0.21226103782782971 0 -0.29268109579257923 -0.22411955864172181 0 -0.2809246376312578 -0.20830770343947971 0 -0.3060605016315725 -0.21226103782782971 0 -0.29199909585561379 -0.19193849570898799 0 -0.3060605016315725 -0.21226103782782971 0 -0.3165744368419241 -0.19566616286262159 0 -0.29199909585561379 -0.19193849570898799 0 -0.3165744368419241 -0.19566616286262159 0 -0.29199909585561379 -0.19193849570898799 0 -0.29938476110462459 -0.18143496863655581 0 -0.3165744368419241 -0.19566616286262159 0 -0.29938476110462459 -0.18143496863655581 0 -0.31036357984341878 -0.17729064654437279 0 -0.3165744368419241 -0.19566616286262159 0 -0.29938476110462459 -0.18143496863655581 0 -0.30228981993539911 -0.17082195765291869 0 -0.28961274120160779 -0.1724895052286107 0 -0.29938476110462459 -0.18143496863655581 0 -0.31036357984341878 -0.17729064654437279 0 -0.30228981993539911 -0.17082195765291869 0 -0.31036357984341878 -0.17729064654437279 0 -0.31099079812705838 -0.16810657065420029 0 -0.30228981993539911 -0.17082195765291869 0 -0.31099079812705838 -0.16810657065420029 0 -0.31180172753391222 -0.15676818190186689 0 -0.30228981993539911 -0.17082195765291869 0 -0.31180172753391222 -0.15676818190186689 0 -0.28961274120160779 -0.1724895052286107 0 -0.31180172753391222 -0.15676818190186689 0 -0.28581520798017918 -0.16349252579439161 0 -0.31180172753391222 -0.15676818190186689 0 -0.28581520798017918 -0.16349252579439161 0 -0.30248732557626462 -0.14891872701938649 0 -0.31180172753391222 -0.15676818190186689 0 -0.30228981993539911 -0.17082195765291869 0 -0.28961274120160779 -0.1724895052286107 0 -0.31180172753391222 -0.15676818190186689 0 -0.28581520798017918 -0.16349252579439161 0 -0.28961274120160779 -0.1724895052286107 0 -0.28581520798017918 -0.16349252579439161 0 -0.28961274120160779 -0.1724895052286107 0 -0.27455339795200551 -0.17354596063111 0 -0.29199909585561379 -0.19193849570898799 0 -0.29938476110462459 -0.18143496863655581 0 -0.28961274120160779 -0.1724895052286107 0 -0.26742375486930359 -0.1882108285553544 0 -0.29199909585561379 -0.19193849570898799 0 -0.28961274120160779 -0.1724895052286107 0 -0.26742375486930359 -0.1882108285553544 0 -0.28961274120160779 -0.1724895052286107 0 -0.26742375486930359 -0.1882108285553544 0 -0.28961274120160779 -0.1724895052286107 0 -0.27455339795200551 -0.17354596063111 0 -0.26742375486930359 -0.1882108285553544 0 -0.27455339795200551 -0.17354596063111 0 -0.25982868842644607 -0.17021686968691641 0 -0.23968786498356659 -0.18400375912907671 0 -0.26742375486930359 -0.1882108285553544 0 -0.23968786498356659 -0.18400375912907671 0 -0.26742375486930359 -0.1882108285553544 0 -0.25982868842644607 -0.17021686968691641 0 -0.25982868842644607 -0.17021686968691641 0 -0.27013136078807137 -0.15645680560504849 0 -0.25343568279415951 -0.15224923159364789 0 -0.24566481473353391 -0.1652464025747532 0 -0.25982868842644607 -0.17021686968691641 0 -0.25343568279415951 -0.15224923159364789 0 -0.28581520798017918 -0.16349252579439161 0 -0.25982868842644607 -0.17021686968691641 0 -0.27013136078807137 -0.15645680560504849 0 -0.28581520798017918 -0.16349252579439161 0 -0.27455339795200551 -0.17354596063111 0 -0.25982868842644607 -0.17021686968691641 0 -0.28581520798017918 -0.16349252579439161 0 -0.27013136078807137 -0.15645680560504849 0 -0.281048741890911 -0.15139895950123519 0 -0.28581520798017918 -0.16349252579439161 0 -0.25982868842644607 -0.17021686968691641 0 -0.27013136078807137 -0.15645680560504849 0 -0.281048741890911 -0.15139895950123519 0 -0.27556222579122169 -0.14014760186465491 0 -0.27013136078807137 -0.15645680560504849 0 -0.25343568279415951 -0.15224923159364789 0 -0.27556222579122169 -0.14014760186465491 0 -0.25343568279415951 -0.15224923159364789 0 -0.26038693836179072 -0.13666660738782219 0 -0.27556222579122169 -0.14014760186465491 0 -0.25343568279415951 -0.15224923159364789 0 -0.27556222579122169 -0.14014760186465491 0 -0.2478381125959237 -0.13014188093155071 0 -0.26471173226585809 -0.1241277151614352 0 -0.26038693836179072 -0.13666660738782219 0 -0.2478381125959237 -0.13014188093155071 0 -0.25343568279415951 -0.15224923159364789 0 -0.26038693836179072 -0.13666660738782219 0 -0.26471173226585809 -0.1241277151614352 0 -0.28362018306611941 -0.1149768545032684 0 -0.27556222579122169 -0.14014760186465491 0 -0.26471173226585809 -0.1241277151614352 0 -0.26038693836179072 -0.13666660738782219 0 -0.27556222579122169 -0.14014760186465491 0 -0.27556222579122169 -0.14014760186465491 0 -0.29268617300417199 -0.1454989047408457 0 -0.29768876878828382 -0.12804597213566191 0 -0.28362018306611941 -0.1149768545032684 0 -0.27556222579122169 -0.14014760186465491 0 -0.29768876878828382 -0.12804597213566191 0 -0.27556222579122169 -0.14014760186465491 0 -0.29768876878828382 -0.12804597213566191 0 -0.28581520798017918 -0.16349252579439161 0 -0.29268617300417199 -0.1454989047408457 0 -0.30248732557626462 -0.14891872701938649 0 -0.28581520798017918 -0.16349252579439161 0 -0.281048741890911 -0.15139895950123519 0 -0.29268617300417199 -0.1454989047408457 0 -0.281048741890911 -0.15139895950123519 0 -0.27556222579122169 -0.14014760186465491 0 -0.29268617300417199 -0.1454989047408457 0 -0.29268617300417199 -0.1454989047408457 0 -0.30248732557626462 -0.14891872701938649 0 -0.30370630156068762 -0.1389224563049837 0 -0.31180172753391222 -0.15676818190186689 0 -0.30248732557626462 -0.14891872701938649 0 -0.31398283958777989 -0.14122477915676221 0 -0.30248732557626462 -0.14891872701938649 0 -0.30370630156068762 -0.1389224563049837 0 -0.31398283958777989 -0.14122477915676221 0 -0.29268617300417199 -0.1454989047408457 0 -0.29768876878828382 -0.12804597213566191 0 -0.30370630156068762 -0.1389224563049837 0 -0.31168640084693722 -0.1309238984722621 0 -0.30370630156068762 -0.1389224563049837 0 -0.31398283958777989 -0.14122477915676221 0 -0.31168640084693722 -0.1309238984722621 0 -0.29768876878828382 -0.12804597213566191 0 -0.30370630156068762 -0.1389224563049837 0 -0.32501708124079648 -0.13103464252731351 0 -0.31398283958777989 -0.14122477915676221 0 -0.32769326224381667 -0.1455087240973956 0 -0.31981531178534578 -0.1159443424066684 0 -0.31168640084693722 -0.1309238984722621 0 -0.32501708124079648 -0.13103464252731351 0 -0.31168640084693722 -0.1309238984722621 0 -0.32501708124079648 -0.13103464252731351 0 -0.31398283958777989 -0.14122477915676221 0 -0.31180172753391222 -0.15676818190186689 0 -0.32298463198440808 -0.15387446252221321 0 -0.32769326224381667 -0.1455087240973956 0 -0.31180172753391222 -0.15676818190186689 0 -0.32769326224381667 -0.1455087240973956 0 -0.31180172753391222 -0.15676818190186689 0 -0.31398283958777989 -0.14122477915676221 0 -0.32769326224381667 -0.1455087240973956 0 -0.31180172753391222 -0.15676818190186689 0 -0.32298463198440808 -0.15387446252221321 0 -0.32298463198440808 -0.15387446252221321 0 -0.33102430582003672 -0.15284086827415069 0 -0.32912678435276249 -0.16184097596254959 0 -0.32298463198440808 -0.15387446252221321 0 -0.32769326224381667 -0.1455087240973956 0 -0.33102430582003672 -0.15284086827415069 0 -0.32769326224381667 -0.1455087240973956 0 -0.33779330298695009 -0.14738175250870711 0 -0.34358479695372102 -0.13424926629292419 0 -0.32769326224381667 -0.1455087240973956 0 -0.33102430582003672 -0.15284086827415069 0 -0.33779330298695009 -0.14738175250870711 0 -0.33779330298695009 -0.14738175250870711 0 -0.34838845348846031 -0.14833884467229949 0 -0.33902784532518498 -0.15634369213364299 0 -0.33102430582003672 -0.15284086827415069 0 -0.33779330298695009 -0.14738175250870711 0 -0.33902784532518498 -0.15634369213364299 0 -0.33779330298695009 -0.14738175250870711 0 -0.34358479695372102 -0.13424926629292419 0 -0.34838845348846031 -0.14833884467229949 0 -0.32501708124079648 -0.13103464252731351 0 -0.32769326224381667 -0.1455087240973956 0 -0.34358479695372102 -0.13424926629292419 0 -0.33811662782018509 -0.1187149432167614 0 -0.32501708124079648 -0.13103464252731351 0 -0.34358479695372102 -0.13424926629292419 0 -0.32769326224381667 -0.1455087240973956 0 -0.34358479695372102 -0.13424926629292419 0 -0.33811662782018509 -0.1187149432167614 0 -0.36560935282136869 -0.1228770136391782 0 -0.34358479695372102 -0.13424926629292419 0 -0.36560935282136869 -0.1228770136391782 0 -0.34358479695372102 -0.13424926629292419 0 -0.35789225520722451 -0.13996819740399649 0 -0.36560935282136869 -0.1228770136391782 0 -0.37179133304014322 -0.14783430818272611 0 -0.38404989885292651 -0.1400792958384918 0 -0.36560935282136869 -0.1228770136391782 0 -0.37179133304014322 -0.14783430818272611 0 -0.36560935282136869 -0.1228770136391782 0 -0.35789225520722451 -0.13996819740399649 0 -0.37179133304014322 -0.14783430818272611 0 -0.35789225520722451 -0.13996819740399649 0 -0.37179133304014322 -0.14783430818272611 0 -0.35884313601860912 -0.15417852746750099 0 -0.35884313601860912 -0.15417852746750099 0 -0.34838845348846031 -0.14833884467229949 0 -0.34888414490412811 -0.1629439357986564 0 -0.35789225520722451 -0.13996819740399649 0 -0.35884313601860912 -0.15417852746750099 0 -0.34838845348846031 -0.14833884467229949 0 -0.34358479695372102 -0.13424926629292419 0 -0.35789225520722451 -0.13996819740399649 0 -0.34838845348846031 -0.14833884467229949 0 -0.34838845348846031 -0.14833884467229949 0 -0.34888414490412811 -0.1629439357986564 0 -0.33902784532518498 -0.15634369213364299 0 -0.34888414490412811 -0.1629439357986564 0 -0.34454825898434782 -0.17720191583282571 0 -0.33836769259919219 -0.1670464993373886 0 -0.34888414490412811 -0.1629439357986564 0 -0.35381843126239348 -0.1726746577785957 0 -0.34454825898434782 -0.17720191583282571 0 -0.34888414490412811 -0.1629439357986564 0 -0.36338268495294579 -0.16800377969191779 0 -0.35381843126239348 -0.1726746577785957 0 -0.35884313601860912 -0.15417852746750099 0 -0.34888414490412811 -0.1629439357986564 0 -0.36338268495294579 -0.16800377969191779 0 -0.37179133304014322 -0.14783430818272611 0 -0.37797331325891809 -0.17279160272627381 0 -0.37179133304014322 -0.14783430818272611 0 -0.35884313601860912 -0.15417852746750099 0 -0.36338268495294579 -0.16800377969191779 0 -0.37179133304014322 -0.14783430818272611 0 -0.36338268495294579 -0.16800377969191779 0 -0.37797331325891809 -0.17279160272627381 0 -0.36338268495294579 -0.16800377969191779 0 -0.37192204740575269 -0.18508240213403099 0 -0.3584586362081526 -0.18254899979098321 0 -0.36338268495294579 -0.16800377969191779 0 -0.37192204740575269 -0.18508240213403099 0 -0.37797331325891809 -0.17279160272627381 0 -0.36338268495294579 -0.16800377969191779 0 -0.3584586362081526 -0.18254899979098321 0 -0.35381843126239348 -0.1726746577785957 0 -0.3584586362081526 -0.18254899979098321 0 -0.35381843126239348 -0.1726746577785957 0 -0.34454825898434782 -0.17720191583282571 0 -0.3584586362081526 -0.18254899979098321 0 -0.34454825898434782 -0.17720191583282571 0 -0.34833703943659811 -0.1887712121410032 0 -0.34454825898434782 -0.17720191583282571 0 -0.33350934598544107 -0.1865060965460745 0 -0.34833703943659811 -0.1887712121410032 0 -0.33350934598544107 -0.1865060965460745 0 -0.33087698944707578 -0.17469400287398781 0 -0.32216648346267268 -0.18034048106893991 0 -0.34454825898434782 -0.17720191583282571 0 -0.33087698944707578 -0.17469400287398781 0 -0.33836769259919219 -0.1670464993373886 0 -0.34454825898434782 -0.17720191583282571 0 -0.33350934598544107 -0.1865060965460745 0 -0.33087698944707578 -0.17469400287398781 0 -0.34888414490412811 -0.1629439357986564 0 -0.33836769259919219 -0.1670464993373886 0 -0.33902784532518498 -0.15634369213364299 0 -0.33102430582003672 -0.15284086827415069 0 -0.33902784532518498 -0.15634369213364299 0 -0.32912678435276249 -0.16184097596254959 0 -0.33836769259919219 -0.1670464993373886 0 -0.33902784532518498 -0.15634369213364299 0 -0.32912678435276249 -0.16184097596254959 0 -0.33087698944707578 -0.17469400287398781 0 -0.33836769259919219 -0.1670464993373886 0 -0.32912678435276249 -0.16184097596254959 0 -0.33087698944707578 -0.17469400287398781 0 -0.32912678435276249 -0.16184097596254959 0 -0.31950806519550368 -0.16754549651764289 0 -0.32298463198440808 -0.15387446252221321 0 -0.32912678435276249 -0.16184097596254959 0 -0.31950806519550368 -0.16754549651764289 0 -0.31180172753391222 -0.15676818190186689 0 -0.32298463198440808 -0.15387446252221321 0 -0.31950806519550368 -0.16754549651764289 0 -0.31099079812705838 -0.16810657065420029 0 -0.31180172753391222 -0.15676818190186689 0 -0.31950806519550368 -0.16754549651764289 0 -0.31036357984341878 -0.17729064654437279 0 -0.31099079812705838 -0.16810657065420029 0 -0.31950806519550368 -0.16754549651764289 0 -0.31036357984341878 -0.17729064654437279 0 -0.31950806519550368 -0.16754549651764289 0 -0.32216648346267268 -0.18034048106893991 0 -0.31036357984341878 -0.17729064654437279 0 -0.32216648346267268 -0.18034048106893991 0 -0.3165744368419241 -0.19566616286262159 0 -0.33087698944707578 -0.17469400287398781 0 -0.31950806519550368 -0.16754549651764289 0 -0.32216648346267268 -0.18034048106893991 0 -0.33350934598544107 -0.1865060965460745 0 -0.32216648346267268 -0.18034048106893991 0 -0.3165744368419241 -0.19566616286262159 0 -0.3060605016315725 -0.21226103782782971 0 -0.33119636563188709 -0.2162143722161797 0 -0.32042736925848198 -0.22641527486886631 0 -0.3060605016315725 -0.21226103782782971 0 -0.33119636563188709 -0.2162143722161797 0 -0.3060605016315725 -0.21226103782782971 0 -0.3165744368419241 -0.19566616286262159 0 -0.33119636563188709 -0.2162143722161797 0 -0.33119636563188709 -0.2162143722161797 0 -0.34114977782823441 -0.19939383001625499 0 -0.35633222963220179 -0.22016770660452969 0 -0.3165744368419241 -0.19566616286262159 0 -0.33119636563188709 -0.2162143722161797 0 -0.34114977782823441 -0.19939383001625499 0 -0.3165744368419241 -0.19566616286262159 0 -0.34114977782823441 -0.19939383001625499 0 -0.33350934598544107 -0.1865060965460745 0 -0.3165744368419241 -0.19566616286262159 0 -0.34114977782823441 -0.19939383001625499 0 -0.33350934598544107 -0.1865060965460745 0 -0.34114977782823441 -0.19939383001625499 0 -0.34833703943659811 -0.1887712121410032 0 -0.34114977782823441 -0.19939383001625499 0 -0.36572511881454461 -0.20312149716988859 0 -0.34114977782823441 -0.19939383001625499 0 -0.34833703943659811 -0.1887712121410032 0 -0.36572511881454461 -0.20312149716988859 0 -0.3584586362081526 -0.18254899979098321 0 -0.34833703943659811 -0.1887712121410032 0 -0.36572511881454461 -0.20312149716988859 0 -0.37192204740575269 -0.18508240213403099 0 -0.3584586362081526 -0.18254899979098321 0 -0.36572511881454461 -0.20312149716988859 0 -0.37192204740575269 -0.18508240213403099 0 -0.36572511881454461 -0.20312149716988859 0 -0.37832751345100762 -0.19569708509895661 0 -0.36572511881454461 -0.20312149716988859 0 -0.35633222963220179 -0.22016770660452969 0 -0.37671868671049757 -0.21209106954761561 0 -0.33119636563188709 -0.2162143722161797 0 -0.35633222963220179 -0.22016770660452969 0 -0.34114977782823441 -0.19939383001625499 0 -0.36572511881454461 -0.20312149716988859 0 -0.35633222963220179 -0.22016770660452969 0 -0.34918985577357953 -0.22996643434813971 0 -0.35633222963220179 -0.22016770660452969 0 -0.3644368395520925 -0.23786219595255659 0 -0.33119636563188709 -0.2162143722161797 0 -0.34918985577357953 -0.22996643434813971 0 -0.35633222963220179 -0.22016770660452969 0 -0.35633222963220179 -0.22016770660452969 0 -0.38146809363251649 -0.22412104099287969 0 -0.35633222963220179 -0.22016770660452969 0 -0.37359243883566862 -0.23215909975287299 0 -0.3644368395520925 -0.23786219595255659 0 -0.35633222963220179 -0.22016770660452969 0 -0.37359243883566862 -0.23215909975287299 0 -0.38146809363251649 -0.22412104099287969 0 -0.35633222963220179 -0.22016770660452969 0 -0.38146809363251649 -0.22412104099287969 0 -0.37671868671049757 -0.21209106954761561 0 -0.36999160380854529 -0.25160890498862648 0 -0.3644368395520925 -0.23786219595255659 0 -0.37872015884544641 -0.2435614714605657 0 -0.37359243883566862 -0.23215909975287299 0 -0.3644368395520925 -0.23786219595255659 0 -0.37872015884544641 -0.2435614714605657 0 -0.36999160380854529 -0.25160890498862648 0 -0.3644368395520925 -0.23786219595255659 0 -0.35707845064694121 -0.24935767075674509 0 -0.34918985577357953 -0.22996643434813971 0 -0.3644368395520925 -0.23786219595255659 0 -0.35707845064694121 -0.24935767075674509 0 -0.34918985577357953 -0.22996643434813971 0 -0.35707845064694121 -0.24935767075674509 0 -0.34918985577357953 -0.22996643434813971 0 -0.35707845064694121 -0.24935767075674509 0 -0.34161545739809862 -0.2441761224370865 0 -0.32577683519746242 -0.25897579210934468 0 -0.34161545739809862 -0.2441761224370865 0 -0.32489287339017531 -0.23961736858555491 0 -0.34918985577357953 -0.22996643434813971 0 -0.34161545739809862 -0.2441761224370865 0 -0.33284956097644908 -0.23046395699114461 0 -0.34161545739809862 -0.2441761224370865 0 -0.33284956097644908 -0.23046395699114461 0 -0.32489287339017531 -0.23961736858555491 0 -0.33119636563188709 -0.2162143722161797 0 -0.34918985577357953 -0.22996643434813971 0 -0.33284956097644908 -0.23046395699114461 0 -0.33119636563188709 -0.2162143722161797 0 -0.33284956097644908 -0.23046395699114461 0 -0.32042736925848198 -0.22641527486886631 0 -0.3071375446623259 -0.2335196387236223 0 -0.32042736925848198 -0.22641527486886631 0 -0.32489287339017531 -0.23961736858555491 0 -0.33284956097644908 -0.23046395699114461 0 -0.32042736925848198 -0.22641527486886631 0 -0.32489287339017531 -0.23961736858555491 0 -0.3071375446623259 -0.2335196387236223 0 -0.31421725341188372 -0.24977587129631751 0 -0.32489287339017531 -0.23961736858555491 0 -0.32577683519746242 -0.25897579210934468 0 -0.31421725341188372 -0.24977587129631751 0 -0.32489287339017531 -0.23961736858555491 0 -0.429193077912078 -0.24092705066174019 0 -0.42560539866416353 -0.22692866047589191 0 -0.44336769959532257 -0.23972790925379969 0 -0.429193077912078 -0.24092705066174019 0 -0.42560539866416353 -0.22692866047589191 0 -0.41466813127082142 -0.24184035413310251 0 -0.42775875008346192 -0.25507980811954323 0 -0.429193077912078 -0.24092705066174019 0 -0.41466813127082142 -0.24184035413310251 0 -0.44165736388207272 -0.25360003737878889 0 -0.42775875008346192 -0.25507980811954323 0 -0.429193077912078 -0.24092705066174019 0 -0.42560539866416353 -0.22692866047589191 0 -0.43795718746300122 -0.2140778908121922 0 -0.44658841198271632 -0.22637890077404829 0 -0.42560539866416353 -0.22692866047589191 0 -0.41054768849444062 -0.2248275857939297 0 -0.41466813127082142 -0.24184035413310251 0 -0.42560539866416353 -0.22692866047589191 0 -0.41054768849444062 -0.2248275857939297 0 -0.41728712034711612 -0.21094258822191489 0 -0.42560539866416353 -0.22692866047589191 0 -0.41728712034711612 -0.21094258822191489 0 -0.41054768849444062 -0.2248275857939297 0 -0.41466813127082142 -0.24184035413310251 0 -0.39796822484346261 -0.23652916605093899 0 -0.40220594800304021 -0.25293233307518609 0 -0.39796822484346261 -0.23652916605093899 0 -0.39442967684708991 -0.25208667127465478 0 -0.39796822484346261 -0.23652916605093899 0 -0.38700487251608578 -0.2350830837538336 0 -0.40220594800304021 -0.25293233307518609 0 -0.41466813127082142 -0.24184035413310251 0 -0.39796822484346261 -0.23652916605093899 0 -0.39442967684708991 -0.25208667127465478 0 -0.38700487251608578 -0.2350830837538336 0 -0.37872015884544641 -0.2435614714605657 0 -0.37359243883566862 -0.23215909975287299 0 -0.38700487251608578 -0.2350830837538336 0 -0.37872015884544641 -0.2435614714605657 0 -0.37359243883566862 -0.23215909975287299 0 -0.38700487251608578 -0.2350830837538336 0 -0.38146809363251649 -0.22412104099287969 0 -0.38700487251608578 -0.2350830837538336 0 -0.38146809363251649 -0.22412104099287969 0 -0.39413434232215888 -0.2216891651872302 0 -0.38146809363251649 -0.22412104099287969 0 -0.39413434232215888 -0.2216891651872302 0 -0.38565539561650702 -0.2161876100128117 0 -0.41054768849444062 -0.2248275857939297 0 -0.39796822484346261 -0.23652916605093899 0 -0.39720956734663881 -0.20789716008779879 0 -0.39796822484346261 -0.23652916605093899 0 -0.39413434232215888 -0.2216891651872302 0 -0.39720956734663881 -0.20789716008779879 0 -0.39796822484346261 -0.23652916605093899 0 -0.39720956734663881 -0.20789716008779879 0 -0.39796822484346261 -0.23652916605093899 0 -0.38700487251608578 -0.2350830837538336 0 -0.39413434232215888 -0.2216891651872302 0 -0.39796822484346261 -0.23652916605093899 0 -0.39413434232215888 -0.2216891651872302 0 -0.39720956734663881 -0.20789716008779879 0 -0.40277518483810348 -0.20053664405661509 0 -0.41728712034711612 -0.21094258822191489 0 -0.39720956734663881 -0.20789716008779879 0 -0.39030045980085482 -0.20684916432352149 0 -0.39413434232215888 -0.2216891651872302 0 -0.39720956734663881 -0.20789716008779879 0 -0.39030045980085482 -0.20684916432352149 0 -0.39413434232215888 -0.2216891651872302 0 -0.39030045980085482 -0.20684916432352149 0 -0.36572511881454461 -0.20312149716988859 0 -0.39030045980085482 -0.20684916432352149 0 -0.39413434232215888 -0.2216891651872302 0 -0.38565539561650702 -0.2161876100128117 0 -0.39030045980085482 -0.20684916432352149 0 -0.38565539561650702 -0.2161876100128117 0 -0.39030045980085482 -0.20684916432352149 0 -0.37671868671049757 -0.21209106954761561 0 -0.36572511881454461 -0.20312149716988859 0 -0.39030045980085482 -0.20684916432352149 0 -0.37671868671049757 -0.21209106954761561 0 -0.38146809363251649 -0.22412104099287969 0 -0.38565539561650702 -0.2161876100128117 0 -0.37671868671049757 -0.21209106954761561 0 -0.39030045980085482 -0.20684916432352149 0 -0.38536242778287788 -0.1877352767683855 0 -0.39030045980085482 -0.20684916432352149 0 -0.37832751345100762 -0.19569708509895661 0 -0.38536242778287788 -0.1877352767683855 0 -0.36572511881454461 -0.20312149716988859 0 -0.39030045980085482 -0.20684916432352149 0 -0.37832751345100762 -0.19569708509895661 0 -0.37192204740575269 -0.18508240213403099 0 -0.37832751345100762 -0.19569708509895661 0 -0.38536242778287788 -0.1877352767683855 0 -0.39030045980085482 -0.20684916432352149 0 -0.38536242778287788 -0.1877352767683855 0 -0.39682758983152833 -0.1934811917008569 0 -0.39720956734663881 -0.20789716008779879 0 -0.39682758983152833 -0.1934811917008569 0 -0.39720956734663881 -0.20789716008779879 0 -0.39030045980085482 -0.20684916432352149 0 -0.39682758983152833 -0.1934811917008569 0 -0.39720956734663881 -0.20789716008779879 0 -0.39682758983152833 -0.1934811917008569 0 -0.40277518483810348 -0.20053664405661509 0 -0.39682758983152833 -0.1934811917008569 0 -0.40277518483810348 -0.20053664405661509 0 -0.40786839632368732 -0.19284167875001809 0 -0.40786839632368732 -0.19284167875001809 0 -0.42071188954671479 -0.1977783538484196 0 -0.41728712034711612 -0.21094258822191489 0 -0.40277518483810348 -0.20053664405661509 0 -0.40786839632368732 -0.19284167875001809 0 -0.41728712034711612 -0.21094258822191489 0 -0.40786839632368732 -0.19284167875001809 0 -0.41728712034711612 -0.21094258822191489 0 -0.40786839632368732 -0.19284167875001809 0 -0.42071188954671479 -0.1977783538484196 0 -0.41781993309639348 -0.18473776223631169 0 -0.39720956734663881 -0.20789716008779879 0 -0.41728712034711612 -0.21094258822191489 0 -0.41054768849444062 -0.2248275857939297 0 -0.39720956734663881 -0.20789716008779879 0 -0.41728712034711612 -0.21094258822191489 0 -0.41728712034711612 -0.21094258822191489 0 -0.43042781253814327 -0.20309513998401429 0 -0.43795718746300122 -0.2140778908121922 0 -0.41728712034711612 -0.21094258822191489 0 -0.43795718746300122 -0.2140778908121922 0 -0.42071188954671479 -0.1977783538484196 0 -0.41728712034711612 -0.21094258822191489 0 -0.43042781253814327 -0.20309513998401429 0 -0.42560539866416353 -0.22692866047589191 0 -0.41728712034711612 -0.21094258822191489 0 -0.43795718746300122 -0.2140778908121922 0 -0.43042781253814327 -0.20309513998401429 0 -0.43110417706379089 -0.19272761716818959 0 -0.44507868827009389 -0.1999492498693555 0 -0.42071188954671479 -0.1977783538484196 0 -0.43110417706379089 -0.19272761716818959 0 -0.41781993309639348 -0.18473776223631169 0 -0.42071188954671479 -0.1977783538484196 0 -0.43042781253814327 -0.20309513998401429 0 -0.43110417706379089 -0.19272761716818959 0 -0.43179072736577528 -0.17970529711169 0 -0.42986163711504638 -0.16701354152048811 0 -0.41699473597813752 -0.17063285726143029 0 -0.43179072736577528 -0.17970529711169 0 -0.41699473597813752 -0.17063285726143029 0 -0.41781993309639348 -0.18473776223631169 0 -0.43110417706379089 -0.19272761716818959 0 -0.43179072736577528 -0.17970529711169 0 -0.41781993309639348 -0.18473776223631169 0 -0.43110417706379089 -0.19272761716818959 0 -0.43179072736577528 -0.17970529711169 0 -0.44559792516655838 -0.1851633886427331 0 -0.43179072736577528 -0.17970529711169 0 -0.42986163711504638 -0.16701354152048811 0 -0.44303700991658518 -0.17026832712875151 0 -0.42986163711504638 -0.16701354152048811 0 -0.43823455075000578 -0.15580669622701629 0 -0.44303700991658518 -0.17026832712875151 0 -0.42986163711504638 -0.16701354152048811 0 -0.41699473597813752 -0.17063285726143029 0 -0.41985581490816198 -0.154444998856094 0 -0.42986163711504638 -0.16701354152048811 0 -0.41985581490816198 -0.154444998856094 0 -0.43823455075000578 -0.15580669622701629 0 -0.41699473597813752 -0.17063285726143029 0 -0.39844967230025591 -0.17474076927812279 0 -0.4045200176128938 -0.16008114399198281 0 -0.41699473597813752 -0.17063285726143029 0 -0.4045200176128938 -0.16008114399198281 0 -0.41985581490816198 -0.154444998856094 0 -0.41699473597813752 -0.17063285726143029 0 -0.41781993309639348 -0.18473776223631169 0 -0.39844967230025591 -0.17474076927812279 0 -0.40786839632368732 -0.19284167875001809 0 -0.41781993309639348 -0.18473776223631169 0 -0.39844967230025591 -0.17474076927812279 0 -0.40786839632368732 -0.19284167875001809 0 -0.39844967230025591 -0.17474076927812279 0 -0.39682758983152833 -0.1934811917008569 0 -0.40786839632368732 -0.19284167875001809 0 -0.39844967230025591 -0.17474076927812279 0 -0.38536242778287788 -0.1877352767683855 0 -0.39682758983152833 -0.1934811917008569 0 -0.39844967230025591 -0.17474076927812279 0 -0.38536242778287788 -0.1877352767683855 0 -0.39844967230025591 -0.17474076927812279 0 -0.37797331325891809 -0.17279160272627381 0 -0.37192204740575269 -0.18508240213403099 0 -0.38536242778287788 -0.1877352767683855 0 -0.37797331325891809 -0.17279160272627381 0 -0.37179133304014322 -0.14783430818272611 0 -0.37797331325891809 -0.17279160272627381 0 -0.38903094827682438 -0.15663985980622741 0 -0.39844967230025591 -0.17474076927812279 0 -0.37797331325891809 -0.17279160272627381 0 -0.38903094827682438 -0.15663985980622741 0 -0.39844967230025591 -0.17474076927812279 0 -0.38903094827682438 -0.15663985980622741 0 -0.39844967230025591 -0.17474076927812279 0 -0.38903094827682438 -0.15663985980622741 0 -0.4045200176128938 -0.16008114399198281 0 -0.38903094827682438 -0.15663985980622741 0 -0.4045200176128938 -0.16008114399198281 0 -0.39938536477583741 -0.14370127207381619 0 -0.38903094827682438 -0.15663985980622741 0 -0.39938536477583741 -0.14370127207381619 0 -0.38404989885292651 -0.1400792958384918 0 -0.37179133304014322 -0.14783430818272611 0 -0.38903094827682438 -0.15663985980622741 0 -0.38404989885292651 -0.1400792958384918 0 -0.36560935282136869 -0.1228770136391782 0 -0.38404989885292651 -0.1400792958384918 0 -0.38887223831657869 -0.12639873684615319 0 -0.38887223831657869 -0.12639873684615319 0 -0.41213512381178841 -0.1299204600531296 0 -0.39938536477583741 -0.14370127207381619 0 -0.38887223831657869 -0.12639873684615319 0 -0.41213512381178841 -0.1299204600531296 0 -0.39938536477583741 -0.14370127207381619 0 -0.38404989885292651 -0.1400792958384918 0 -0.38887223831657869 -0.12639873684615319 0 -0.4045200176128938 -0.16008114399198281 0 -0.39938536477583741 -0.14370127207381619 0 -0.41985581490816198 -0.154444998856094 0 -0.39938536477583741 -0.14370127207381619 0 -0.41213512381178841 -0.1299204600531296 0 -0.41985581490816198 -0.154444998856094 0 -0.41985581490816198 -0.154444998856094 0 -0.43539800930699801 -0.1334421832601059 0 -0.43823455075000578 -0.15580669622701629 0 -0.41213512381178841 -0.1299204600531296 0 -0.41985581490816198 -0.154444998856094 0 -0.43539800930699801 -0.1334421832601059 0 -0.41213512381178841 -0.1299204600531296 0 -0.43539800930699801 -0.1334421832601059 0 -0.43259539229225402 -0.1157747654031315 0 -0.41213512381178841 -0.1299204600531296 0 -0.43539800930699801 -0.1334421832601059 0 -0.43539800930699801 -0.1334421832601059 0 -0.45866089480220767 -0.1369639064670822 0 -0.45113905152447542 -0.1175368028588321 0 -0.43539800930699801 -0.1334421832601059 0 -0.44775450515208032 -0.1461386934312979 0 -0.45866089480220767 -0.1369639064670822 0 -0.43539800930699801 -0.1334421832601059 0 -0.45866089480220767 -0.1369639064670822 0 -0.44775450515208032 -0.1461386934312979 0 -0.43823455075000578 -0.15580669622701629 0 -0.45633895227784033 -0.1576945794699274 0 -0.43539800930699801 -0.1334421832601059 0 -0.44775450515208032 -0.1461386934312979 0 -0.43823455075000578 -0.15580669622701629 0 -0.44775450515208032 -0.1461386934312979 0 -0.45866089480220767 -0.1369639064670822 0 -0.45633895227784033 -0.1576945794699274 0 -0.45866089480220767 -0.1369639064670822 0 -0.47575659097790751 -0.15007175010341289 0 -0.45633895227784033 -0.1576945794699274 0 -0.45866089480220767 -0.1369639064670822 0 -0.47575659097790751 -0.15007175010341289 0 -0.46915934665662162 -0.1230624738371303 0 -0.45866089480220767 -0.1369639064670822 0 -0.45113905152447542 -0.1175368028588321 0 -0.46915934665662162 -0.1230624738371303 0 -0.47575659097790751 -0.15007175010341289 0 -0.46915934665662162 -0.1230624738371303 0 -0.48351137830779539 -0.13386722315158131 0 -0.47575659097790751 -0.15007175010341289 0 -0.46915934665662162 -0.1230624738371303 0 -0.48351137830779539 -0.13386722315158131 0 -0.5 -0.12673639045435739 0 -0.5 -0.15610943167098409 0 -0.48351137830779539 -0.13386722315158131 0 -0.5 -0.15610943167098409 0 -0.47575659097790751 -0.15007175010341289 0 -0.47575659097790751 -0.15007175010341289 0 -0.4823538352991934 -0.17708102636969561 0 -0.47575659097790751 -0.15007175010341289 0 -0.46899934294491291 -0.16540597077255109 0 -0.4823538352991934 -0.17708102636969561 0 -0.5 -0.15610943167098409 0 -0.47575659097790751 -0.15007175010341289 0 -0.4823538352991934 -0.17708102636969561 0 -0.5 -0.15610943167098409 0 -0.49999999999999722 -0.18548247288761069 0 -0.4823538352991934 -0.17708102636969561 0 -0.4823538352991934 -0.17708102636969561 0 -0.46154799322471052 -0.17677652714716849 0 -0.47332956926376563 -0.19085067910818809 0 -0.46899934294491291 -0.16540597077255109 0 -0.4823538352991934 -0.17708102636969561 0 -0.46154799322471052 -0.17677652714716849 0 -0.46154799322471052 -0.17677652714716849 0 -0.44559792516655838 -0.1851633886427331 0 -0.46102895515839498 -0.19155331343124329 0 -0.46154799322471052 -0.17677652714716849 0 -0.46102895515839498 -0.19155331343124329 0 -0.47332956926376563 -0.19085067910818809 0 -0.46899934294491291 -0.16540597077255109 0 -0.46154799322471052 -0.17677652714716849 0 -0.45633895227784033 -0.1576945794699274 0 -0.47575659097790751 -0.15007175010341289 0 -0.46899934294491291 -0.16540597077255109 0 -0.45633895227784033 -0.1576945794699274 0 -0.46154799322471052 -0.17677652714716849 0 -0.45633895227784033 -0.1576945794699274 0 -0.44303700991658518 -0.17026832712875151 0 -0.43823455075000578 -0.15580669622701629 0 -0.45633895227784033 -0.1576945794699274 0 -0.44303700991658518 -0.17026832712875151 0 -0.46154799322471052 -0.17677652714716849 0 -0.44303700991658518 -0.17026832712875151 0 -0.44559792516655838 -0.1851633886427331 0 -0.43179072736577528 -0.17970529711169 0 -0.44303700991658518 -0.17026832712875151 0 -0.44559792516655838 -0.1851633886427331 0 -0.44559792516655838 -0.1851633886427331 0 -0.44507868827009389 -0.1999492498693555 0 -0.46102895515839498 -0.19155331343124329 0 -0.43110417706379089 -0.19272761716818959 0 -0.44559792516655838 -0.1851633886427331 0 -0.44507868827009389 -0.1999492498693555 0 -0.44507868827009389 -0.1999492498693555 0 -0.43795718746300122 -0.2140778908121922 0 -0.4586272545788867 -0.21721319340246781 0 -0.43042781253814327 -0.20309513998401429 0 -0.44507868827009389 -0.1999492498693555 0 -0.43795718746300122 -0.2140778908121922 0 -0.43795718746300122 -0.2140778908121922 0 -0.4586272545788867 -0.21721319340246781 0 -0.4586272545788867 -0.21721319340246781 0 -0.46102895515839498 -0.19155331343124329 0 -0.47276598301604827 -0.20475222595685469 0 -0.44507868827009389 -0.1999492498693555 0 -0.4586272545788867 -0.21721319340246781 0 -0.46102895515839498 -0.19155331343124329 0 -0.47332956926376563 -0.19085067910818809 0 -0.48895107962048001 -0.20409030263597791 0 -0.47276598301604827 -0.20475222595685469 0 -0.4823538352991934 -0.17708102636969561 0 -0.47332956926376563 -0.19085067910818809 0 -0.48895107962048001 -0.20409030263597791 0 -0.46102895515839498 -0.19155331343124329 0 -0.47332956926376563 -0.19085067910818809 0 -0.47276598301604827 -0.20475222595685469 0 -0.4823538352991934 -0.17708102636969561 0 -0.48895107962048001 -0.20409030263597791 0 -0.49999999999999722 -0.18548247288761069 0 -0.48895107962048001 -0.20409030263597791 0 -0.49999999999999722 -0.18548247288761069 0 -0.5 -0.2044856090206181 0 -0.48895107962048001 -0.20409030263597791 0 -0.49999999999999722 -0.18548247288761069 0 -0.4823538352991934 -0.17708102636969561 0 -0.48895107962048001 -0.20409030263597791 0 -0.5 -0.2044856090206181 0 -0.500000000000002 -0.2234887451536256 0 -0.49344650703865789 -0.22249469015893941 0 -0.5 -0.2044856090206181 0 -0.48895107962048001 -0.20409030263597791 0 -0.49344650703865789 -0.22249469015893941 0 -0.48895107962048001 -0.20409030263597791 0 -0.47929732169477218 -0.22034849599274231 0 -0.49344650703865789 -0.22249469015893941 0 -0.48895107962048001 -0.20409030263597791 0 -0.49344650703865789 -0.22249469015893941 0 -0.48895107962048001 -0.20409030263597791 0 -0.47276598301604827 -0.20475222595685469 0 -0.47929732169477218 -0.22034849599274231 0 -0.48895107962048001 -0.20409030263597791 0 -0.47929732169477218 -0.22034849599274231 0 -0.4586272545788867 -0.21721319340246781 0 -0.47276598301604827 -0.20475222595685469 0 -0.47929732169477218 -0.22034849599274231 0 -0.4586272545788867 -0.21721319340246781 0 -0.47929732169477218 -0.22034849599274231 0 -0.47929732169477218 -0.22034849599274231 0 -0.48416686203858311 -0.23469505857438669 0 -0.46465652818918263 -0.24483730068029039 0 -0.47929732169477218 -0.22034849599274231 0 -0.46465652818918263 -0.24483730068029039 0 -0.47929732169477218 -0.22034849599274231 0 -0.49344650703865789 -0.22249469015893941 0 -0.47929732169477218 -0.22034849599274231 0 -0.49344650703865789 -0.22249469015893941 0 -0.48416686203858311 -0.23469505857438669 0 -0.49344650703865789 -0.22249469015893941 0 -0.49730382647131183 -0.23828664830542051 0 -0.48416686203858311 -0.23469505857438669 0 -0.500000000000002 -0.2234887451536256 0 -0.49344650703865789 -0.22249469015893941 0 -0.49730382647131183 -0.23828664830542051 0 -0.49344650703865789 -0.22249469015893941 0 -0.49730382647131183 -0.23828664830542051 0 -0.500000000000002 -0.2234887451536256 0 -0.49344650703865789 -0.22249469015893941 0 -0.5 -0.25150281007534703 0 -0.500000000000002 -0.2234887451536256 0 -0.49730382647131183 -0.23828664830542051 0 -0.5 -0.25150281007534703 0 -0.49730382647131183 -0.23828664830542051 0 -0.48570939693172899 -0.24902992718248729 0 -0.49730382647131183 -0.23828664830542051 0 -0.48570939693172899 -0.24902992718248729 0 -0.48416686203858311 -0.23469505857438669 0 -0.48570939693172899 -0.24902992718248729 0 -0.48416686203858311 -0.23469505857438669 0 -0.46465652818918263 -0.24483730068029039 0 -0.4586272545788867 -0.21721319340246781 0 -0.47929732169477218 -0.22034849599274231 0 -0.46465652818918263 -0.24483730068029039 0 -0.4586272545788867 -0.21721319340246781 0 -0.46465652818918263 -0.24483730068029039 0 -0.44658841198271632 -0.22637890077404829 0 -0.43795718746300122 -0.2140778908121922 0 -0.4586272545788867 -0.21721319340246781 0 -0.44658841198271632 -0.22637890077404829 0 -0.42560539866416353 -0.22692866047589191 0 -0.44658841198271632 -0.22637890077404829 0 -0.44336769959532257 -0.23972790925379969 0 -0.46465652818918263 -0.24483730068029039 0 -0.44658841198271632 -0.22637890077404829 0 -0.44336769959532257 -0.23972790925379969 0 -0.44165736388207272 -0.25360003737878889 0 -0.46465652818918263 -0.24483730068029039 0 -0.44336769959532257 -0.23972790925379969 0 -0.44165736388207272 -0.25360003737878889 0 -0.429193077912078 -0.24092705066174019 0 -0.44336769959532257 -0.23972790925379969 0 -0.41631059699689099 -0.042084497863468198 0 -0.41965755993826598 -0.033894451920331033 0 -0.42761534325808798 -0.038876017594557971 0 -0.41631059699689099 -0.042084497863468198 0 -0.41965755993826598 -0.033894451920331033 0 -0.41128163845263888 -0.036426639289896208 0 -0.41965755993826598 -0.033894451920331033 0 -0.41128163845263888 -0.036426639289896208 0 -0.41258462043609562 -0.025993866725156231 0 -0.41128163845263888 -0.036426639289896208 0 -0.40704563849368902 -0.043093498236160592 0 -0.40124408047313331 -0.037519640608623422 0 -0.41128163845263888 -0.036426639289896208 0 -0.41258462043609562 -0.025993866725156231 0 -0.40124408047313331 -0.037519640608623422 0 -0.41631059699689099 -0.042084497863468198 0 -0.40704563849368902 -0.043093498236160592 0 -0.41300523529446281 -0.049717993690613083 0 -0.41631059699689099 -0.042084497863468198 0 -0.41128163845263888 -0.036426639289896208 0 -0.40704563849368902 -0.043093498236160592 0 -0.40704563849368902 -0.043093498236160592 0 -0.41300523529446281 -0.049717993690613083 0 -0.40411610338443682 -0.050557450003133962 0 -0.41300523529446281 -0.049717993690613083 0 -0.41414033076402768 -0.061585207313392322 0 -0.40411610338443682 -0.050557450003133962 0 -0.41300523529446281 -0.049717993690613083 0 -0.41414033076402768 -0.061585207313392322 0 -0.42341350683326928 -0.051269315036910318 0 -0.41631059699689099 -0.042084497863468198 0 -0.41300523529446281 -0.049717993690613083 0 -0.42341350683326928 -0.051269315036910318 0 -0.41414033076402768 -0.061585207313392322 0 -0.42341350683326928 -0.051269315036910318 0 -0.43505259438904009 -0.065314564308975948 0 -0.42341350683326928 -0.051269315036910318 0 -0.43594560852523878 -0.049663465434261311 0 -0.43505259438904009 -0.065314564308975948 0 -0.43594560852523878 -0.049663465434261311 0 -0.42761534325808798 -0.038876017594557971 0 -0.44052059365423879 -0.038318026972638523 0 -0.42341350683326928 -0.051269315036910318 0 -0.43594560852523878 -0.049663465434261311 0 -0.42761534325808798 -0.038876017594557971 0 -0.41631059699689099 -0.042084497863468198 0 -0.42341350683326928 -0.051269315036910318 0 -0.42761534325808798 -0.038876017594557971 0 -0.41965755993826598 -0.033894451920331033 0 -0.42761534325808798 -0.038876017594557971 0 -0.43049560054761637 -0.026091238128576531 0 -0.42761534325808798 -0.038876017594557971 0 -0.43049560054761637 -0.026091238128576531 0 -0.44052059365423879 -0.038318026972638523 0 -0.43049560054761637 -0.026091238128576531 0 -0.42123606753034548 -0.0078521834473191492 0 -0.44016826678282051 -0.008282799190680902 0 -0.42123606753034548 -0.0078521834473191492 0 -0.41258462043609562 -0.025993866725156231 0 -0.40359645288427559 -0.01255273007959058 0 -0.42123606753034548 -0.0078521834473191492 0 -0.40359645288427559 -0.01255273007959058 0 -0.411842978763718 0.0071810696113592566 0 -0.43049560054761637 -0.026091238128576531 0 -0.42123606753034548 -0.0078521834473191492 0 -0.41258462043609562 -0.025993866725156231 0 -0.41965755993826598 -0.033894451920331033 0 -0.43049560054761637 -0.026091238128576531 0 -0.41258462043609562 -0.025993866725156231 0 -0.41258462043609562 -0.025993866725156231 0 -0.40359645288427559 -0.01255273007959058 0 -0.40124408047313331 -0.037519640608623422 0 -0.40359645288427559 -0.01255273007959058 0 -0.39764058419755538 -0.038576012957609408 0 -0.40124408047313331 -0.037519640608623422 0 -0.40359645288427559 -0.01255273007959058 0 -0.38932648706987377 -0.013730584936831609 0 -0.38650677435962982 -0.026234410340964749 0 -0.40359645288427559 -0.01255273007959058 0 -0.38650677435962982 -0.026234410340964749 0 -0.39764058419755538 -0.038576012957609408 0 -0.40359645288427559 -0.01255273007959058 0 -0.39764058419755538 -0.038576012957609408 0 -0.40359645288427559 -0.01255273007959058 0 -0.411842978763718 0.0071810696113592566 0 -0.39856960861661739 0.0046729487720050386 0 -0.40359645288427559 -0.01255273007959058 0 -0.39149303023403142 -0.005335277537219363 0 -0.39856960861661739 0.0046729487720050386 0 -0.40359645288427559 -0.01255273007959058 0 -0.39149303023403142 -0.005335277537219363 0 -0.38932648706987377 -0.013730584936831609 0 -0.39149303023403142 -0.005335277537219363 0 -0.38087232901863782 -0.0095024514541764069 0 -0.38510027358075227 0.0044364300124967379 0 -0.39149303023403142 -0.005335277537219363 0 -0.38932648706987377 -0.013730584936831609 0 -0.38087232901863782 -0.0095024514541764069 0 -0.38932648706987377 -0.013730584936831609 0 -0.38087232901863782 -0.0095024514541764069 0 -0.38186988518864651 -0.018280442328540609 0 -0.37719726677334758 -0.010782784077609161 0 -0.38087232901863782 -0.0095024514541764069 0 -0.38186988518864651 -0.018280442328540609 0 -0.37719726677334758 -0.010782784077609161 0 -0.38087232901863782 -0.0095024514541764069 0 -0.37719726677334758 -0.010782784077609161 0 -0.38510027358075227 0.0044364300124967379 0 -0.37145675818362223 0.001704133189072726 0 -0.37719726677334758 -0.010782784077609161 0 -0.38510027358075227 0.0044364300124967379 0 -0.37719726677334758 -0.010782784077609161 0 -0.38087232901863782 -0.0095024514541764069 0 -0.38510027358075227 0.0044364300124967379 0 -0.36684988365240911 -0.03070925546092473 0 -0.38650677435962982 -0.026234410340964749 0 -0.38186988518864651 -0.018280442328540609 0 -0.36684988365240911 -0.03070925546092473 0 -0.37719726677334758 -0.010782784077609161 0 -0.38186988518864651 -0.018280442328540609 0 -0.38932648706987377 -0.013730584936831609 0 -0.38650677435962982 -0.026234410340964749 0 -0.38186988518864651 -0.018280442328540609 0 -0.36684988365240911 -0.03070925546092473 0 -0.38650677435962982 -0.026234410340964749 0 -0.37707154236451451 -0.044605869900925722 0 -0.38650677435962982 -0.026234410340964749 0 -0.37707154236451451 -0.044605869900925722 0 -0.39764058419755538 -0.038576012957609408 0 -0.37707154236451451 -0.044605869900925722 0 -0.39764058419755538 -0.038576012957609408 0 -0.39764058419755538 -0.038576012957609408 0 -0.40065489473756588 -0.045520490424667083 0 -0.40124408047313331 -0.037519640608623422 0 -0.40704563849368902 -0.043093498236160592 0 -0.40065489473756588 -0.045520490424667083 0 -0.40124408047313331 -0.037519640608623422 0 -0.40704563849368902 -0.043093498236160592 0 -0.40065489473756588 -0.045520490424667083 0 -0.40411610338443682 -0.050557450003133962 0 -0.39764058419755538 -0.038576012957609408 0 -0.40124408047313331 -0.037519640608623422 0 -0.39764058419755538 -0.038576012957609408 0 -0.40065489473756588 -0.045520490424667083 0 -0.39322806713901498 -0.057855850317809959 0 -0.41414033076402768 -0.061585207313392322 0 -0.39322806713901498 -0.057855850317809959 0 -0.40444542418072821 -0.066780626888537295 0 -0.41414033076402768 -0.061585207313392322 0 -0.40411610338443682 -0.050557450003133962 0 -0.39322806713901498 -0.057855850317809959 0 -0.39764058419755538 -0.038576012957609408 0 -0.39322806713901498 -0.057855850317809959 0 -0.41414033076402768 -0.061585207313392322 0 -0.39322806713901498 -0.057855850317809959 0 -0.40065489473756588 -0.045520490424667083 0 -0.40411610338443682 -0.050557450003133962 0 -0.39322806713901498 -0.057855850317809959 0 -0.37470589733927712 -0.0545527271000322 0 -0.39322806713901498 -0.057855850317809959 0 -0.37470589733927712 -0.0545527271000322 0 -0.37707154236451451 -0.044605869900925722 0 -0.39322806713901498 -0.057855850317809959 0 -0.37707154236451451 -0.044605869900925722 0 -0.39764058419755538 -0.038576012957609408 0 -0.39322806713901498 -0.057855850317809959 0 -0.37470589733927712 -0.0545527271000322 0 -0.39322806713901498 -0.057855850317809959 0 -0.3838397651565123 -0.062625659154805113 0 -0.37470589733927712 -0.0545527271000322 0 -0.37683012181080239 -0.068733301298065499 0 -0.3838397651565123 -0.062625659154805113 0 -0.39322806713901498 -0.057855850317809959 0 -0.3838397651565123 -0.062625659154805113 0 -0.39059497433695439 -0.069360757903312753 0 -0.37683012181080239 -0.068733301298065499 0 -0.3838397651565123 -0.062625659154805113 0 -0.39059497433695439 -0.069360757903312753 0 -0.39059497433695439 -0.069360757903312753 0 -0.3750868287242039 -0.083945666598845156 0 -0.37683012181080239 -0.068733301298065499 0 -0.39059497433695439 -0.069360757903312753 0 -0.3750868287242039 -0.083945666598845156 0 -0.39059497433695439 -0.069360757903312753 0 -0.38574124546072602 -0.090568404714108222 0 -0.3750868287242039 -0.083945666598845156 0 -0.39059497433695439 -0.069360757903312753 0 -0.38574124546072602 -0.090568404714108222 0 -0.37338072534044958 -0.1015395423542827 0 -0.38574124546072602 -0.090568404714108222 0 -0.3750868287242039 -0.083945666598845156 0 -0.39059497433695439 -0.069360757903312753 0 -0.38574124546072602 -0.090568404714108222 0 -0.39722678832591729 -0.08549102947411294 0 -0.38574124546072602 -0.090568404714108222 0 -0.39722678832591729 -0.08549102947411294 0 -0.39016591446444671 -0.1027403174982935 0 -0.39722678832591729 -0.08549102947411294 0 -0.40358704082088931 -0.10183248075400859 0 -0.40955223446300359 -0.086375659296802715 0 -0.39722678832591729 -0.08549102947411294 0 -0.40456307765117672 -0.076708553120630463 0 -0.40955223446300359 -0.086375659296802715 0 -0.39722678832591729 -0.08549102947411294 0 -0.40456307765117672 -0.076708553120630463 0 -0.39841612749299532 -0.072664694729402735 0 -0.40456307765117672 -0.076708553120630463 0 -0.40444542418072821 -0.066780626888537295 0 -0.39841612749299532 -0.072664694729402735 0 -0.39059497433695439 -0.069360757903312753 0 -0.39722678832591729 -0.08549102947411294 0 -0.39841612749299532 -0.072664694729402735 0 -0.40444542418072821 -0.066780626888537295 0 -0.39525037297019971 -0.064982506260420264 0 -0.39841612749299532 -0.072664694729402735 0 -0.39059497433695439 -0.069360757903312753 0 -0.39525037297019971 -0.064982506260420264 0 -0.39841612749299532 -0.072664694729402735 0 -0.39322806713901498 -0.057855850317809959 0 -0.39059497433695439 -0.069360757903312753 0 -0.39525037297019971 -0.064982506260420264 0 -0.39322806713901498 -0.057855850317809959 0 -0.40444542418072821 -0.066780626888537295 0 -0.39525037297019971 -0.064982506260420264 0 -0.39322806713901498 -0.057855850317809959 0 -0.39059497433695439 -0.069360757903312753 0 -0.39059497433695439 -0.069360757903312753 0 -0.39525037297019971 -0.064982506260420264 0 -0.36560935282136869 -0.1228770136391782 0 -0.38887223831657869 -0.12639873684615319 0 -0.38887223831657869 -0.12639873684615319 0 -0.38088751658449588 -0.11177605152490321 0 -0.39861419104112761 -0.1141217052544175 0 -0.38088751658449588 -0.11177605152490321 0 -0.39016591446444671 -0.1027403174982935 0 -0.39861419104112761 -0.1141217052544175 0 -0.36560935282136869 -0.1228770136391782 0 -0.38887223831657869 -0.12639873684615319 0 -0.38088751658449588 -0.11177605152490321 0 -0.38574124546072602 -0.090568404714108222 0 -0.38088751658449588 -0.11177605152490321 0 -0.38574124546072602 -0.090568404714108222 0 -0.38088751658449588 -0.11177605152490321 0 -0.39016591446444671 -0.1027403174982935 0 -0.37338072534044958 -0.1015395423542827 0 -0.38574124546072602 -0.090568404714108222 0 -0.38088751658449588 -0.11177605152490321 0 -0.40358704082088931 -0.10183248075400859 0 -0.39861419104112761 -0.1141217052544175 0 -0.4160373122485671 -0.1120621848500169 0 -0.39722678832591729 -0.08549102947411294 0 -0.39016591446444671 -0.1027403174982935 0 -0.40358704082088931 -0.10183248075400859 0 -0.39016591446444671 -0.1027403174982935 0 -0.40358704082088931 -0.10183248075400859 0 -0.39861419104112761 -0.1141217052544175 0 -0.38887223831657869 -0.12639873684615319 0 -0.41213512381178841 -0.1299204600531296 0 -0.39861419104112761 -0.1141217052544175 0 -0.41213512381178841 -0.1299204600531296 0 -0.39861419104112761 -0.1141217052544175 0 -0.4160373122485671 -0.1120621848500169 0 -0.41213512381178841 -0.1299204600531296 0 -0.4160373122485671 -0.1120621848500169 0 -0.43259539229225402 -0.1157747654031315 0 -0.4160373122485671 -0.1120621848500169 0 -0.4169341364211625 -0.097460269163205951 0 -0.43115901768430159 -0.099355876929453982 0 -0.40358704082088931 -0.10183248075400859 0 -0.4160373122485671 -0.1120621848500169 0 -0.4169341364211625 -0.097460269163205951 0 -0.40358704082088931 -0.10183248075400859 0 -0.4169341364211625 -0.097460269163205951 0 -0.40955223446300359 -0.086375659296802715 0 -0.4160373122485671 -0.1120621848500169 0 -0.43115901768430159 -0.099355876929453982 0 -0.43259539229225402 -0.1157747654031315 0 -0.43115901768430159 -0.099355876929453982 0 -0.43259539229225402 -0.1157747654031315 0 -0.44676155729694311 -0.09856935048049352 0 -0.41414033076402768 -0.061585207313392322 0 -0.41477655714820522 -0.073508962632903227 0 -0.43505259438904009 -0.065314564308975948 0 -0.41414033076402768 -0.061585207313392322 0 -0.40444542418072821 -0.066780626888537295 0 -0.41477655714820522 -0.073508962632903227 0 -0.40456307765117672 -0.076708553120630463 0 -0.40444542418072821 -0.066780626888537295 0 -0.41477655714820522 -0.073508962632903227 0 -0.40456307765117672 -0.076708553120630463 0 -0.41477655714820522 -0.073508962632903227 0 -0.40955223446300359 -0.086375659296802715 0 -0.41477655714820522 -0.073508962632903227 0 -0.40955223446300359 -0.086375659296802715 0 -0.42547236143691691 -0.079964116854811126 0 -0.4169341364211625 -0.097460269163205951 0 -0.40955223446300359 -0.086375659296802715 0 -0.42547236143691691 -0.079964116854811126 0 -0.43115901768430159 -0.099355876929453982 0 -0.42547236143691691 -0.079964116854811126 0 -0.43948503029078051 -0.084366611422258486 0 -0.4169341364211625 -0.097460269163205951 0 -0.43115901768430159 -0.099355876929453982 0 -0.42547236143691691 -0.079964116854811126 0 -0.42547236143691691 -0.079964116854811126 0 -0.43593321389199208 -0.076166958257645731 0 -0.43948503029078051 -0.084366611422258486 0 -0.41414033076402768 -0.061585207313392322 0 -0.43505259438904009 -0.065314564308975948 0 -0.42547236143691691 -0.079964116854811126 0 -0.43593321389199208 -0.076166958257645731 0 -0.43505259438904009 -0.065314564308975948 0 -0.41477655714820522 -0.073508962632903227 0 -0.42547236143691691 -0.079964116854811126 0 -0.43505259438904009 -0.065314564308975948 0 -0.43505259438904009 -0.065314564308975948 0 -0.45596485801405168 -0.069043921304564548 0 -0.45254776170430372 -0.055054247167343383 0 -0.43505259438904009 -0.065314564308975948 0 -0.44372286945123102 -0.075022540444537378 0 -0.45596485801405168 -0.069043921304564548 0 -0.43505259438904009 -0.065314564308975948 0 -0.45596485801405168 -0.069043921304564548 0 -0.44372286945123102 -0.075022540444537378 0 -0.44986078827983011 -0.084538284578158471 0 -0.45596485801405168 -0.069043921304564548 0 -0.43593321389199208 -0.076166958257645731 0 -0.43505259438904009 -0.065314564308975948 0 -0.44372286945123102 -0.075022540444537378 0 -0.43593321389199208 -0.076166958257645731 0 -0.44372286945123102 -0.075022540444537378 0 -0.43948503029078051 -0.084366611422258486 0 -0.44986078827983011 -0.084538284578158471 0 -0.44676155729694311 -0.09856935048049352 0 -0.46256210233533568 -0.096053197570847695 0 -0.44372286945123102 -0.075022540444537378 0 -0.43948503029078051 -0.084366611422258486 0 -0.44986078827983011 -0.084538284578158471 0 -0.43948503029078051 -0.084366611422258486 0 -0.44986078827983011 -0.084538284578158471 0 -0.44676155729694311 -0.09856935048049352 0 -0.46571079481874128 -0.075383853833439818 0 -0.45596485801405168 -0.069043921304564548 0 -0.46256210233533568 -0.096053197570847695 0 -0.45596485801405168 -0.069043921304564548 0 -0.46256210233533568 -0.096053197570847695 0 -0.44986078827983011 -0.084538284578158471 0 -0.45596485801405168 -0.069043921304564548 0 -0.46256210233533568 -0.096053197570847695 0 -0.46571079481874128 -0.075383853833439818 0 -0.46440728388852631 -0.065665476577682319 0 -0.45759908464129401 -0.069335358645535999 0 -0.46571079481874128 -0.075383853833439818 0 -0.46440728388852631 -0.065665476577682319 0 -0.47046251890076313 -0.067508589662998122 0 -0.45759908464129401 -0.069335358645535999 0 -0.45958199435623182 -0.062522792654202811 0 -0.45596485801405168 -0.069043921304564548 0 -0.46440728388852631 -0.065665476577682319 0 -0.45759908464129401 -0.069335358645535999 0 -0.45958199435623182 -0.062522792654202811 0 -0.45759908464129401 -0.069335358645535999 0 -0.45596485801405168 -0.069043921304564548 0 -0.46571079481874128 -0.075383853833439818 0 -0.45759908464129401 -0.069335358645535999 0 -0.45596485801405168 -0.069043921304564548 0 -0.43539800930699801 -0.1334421832601059 0 -0.43259539229225402 -0.1157747654031315 0 -0.45113905152447542 -0.1175368028588321 0 -0.43259539229225402 -0.1157747654031315 0 -0.45113905152447542 -0.1175368028588321 0 -0.44676155729694311 -0.09856935048049352 0 -0.43115901768430159 -0.099355876929453982 0 -0.43948503029078051 -0.084366611422258486 0 -0.44676155729694311 -0.09856935048049352 0 -0.45113905152447542 -0.1175368028588321 0 -0.44676155729694311 -0.09856935048049352 0 -0.46256210233533568 -0.096053197570847695 0 -0.46256210233533568 -0.096053197570847695 0 -0.46915934665662162 -0.1230624738371303 0 -0.45113905152447542 -0.1175368028588321 0 -0.46256210233533568 -0.096053197570847695 0 -0.46915934665662162 -0.1230624738371303 0 -0.48351137830779539 -0.13386722315158131 0 -0.46915934665662162 -0.1230624738371303 0 -0.48133806505124233 -0.10835548473569059 0 -0.46256210233533568 -0.096053197570847695 0 -0.46915934665662162 -0.1230624738371303 0 -0.48133806505124233 -0.10835548473569059 0 -0.46256210233533568 -0.096053197570847695 0 -0.48133806505124233 -0.10835548473569059 0 -0.4787903951136242 -0.090525190808538269 0 -0.48133806505124233 -0.10835548473569059 0 -0.500000000000001 -0.097363349237730712 0 -0.4787903951136242 -0.090525190808538269 0 -0.48351137830779539 -0.13386722315158131 0 -0.5 -0.12673639045435739 0 -0.48133806505124233 -0.10835548473569059 0 -0.5 -0.12673639045435739 0 -0.48133806505124233 -0.10835548473569059 0 -0.500000000000001 -0.097363349237730712 0 -0.48434101336280139 -0.075470068664982515 0 -0.47046251890076313 -0.067508589662998122 0 -0.46868202672560128 -0.053576788092234838 0 -0.46571079481874128 -0.075383853833439818 0 -0.48434101336280139 -0.075470068664982515 0 -0.47046251890076313 -0.067508589662998122 0 -0.48434101336280139 -0.075470068664982515 0 -0.46868202672560128 -0.053576788092234838 0 -0.46571079481874128 -0.075383853833439818 0 -0.48434101336280139 -0.075470068664982515 0 -0.4787903951136242 -0.090525190808538269 0 -0.46571079481874128 -0.075383853833439818 0 -0.46256210233533568 -0.096053197570847695 0 -0.4787903951136242 -0.090525190808538269 0 -0.500000000000001 -0.097363349237730712 0 -0.48434101336280139 -0.075470068664982515 0 -0.5 -0.067775448906690738 0 -0.500000000000001 -0.097363349237730712 0 -0.48434101336280139 -0.075470068664982515 0 -0.4787903951136242 -0.090525190808538269 0 -0.500000000000001 -0.097363349237730712 0 -0.48434101336280139 -0.075470068664982515 0 -0.48434101336280139 -0.075470068664982515 0 -0.5 -0.067775448906690738 0 -0.48551694096935982 -0.058082376044726818 0 -0.5 -0.067775448906690738 0 -0.48551694096935982 -0.058082376044726818 0 -0.5 -0.038187548575650758 0 -0.48551694096935982 -0.058082376044726818 0 -0.5 -0.038187548575650758 0 -0.47983884509016961 -0.04559408958900394 0 -0.5 -0.038187548575650758 0 -0.47627813796950452 -0.032068202833415903 0 -0.47983884509016961 -0.04559408958900394 0 -0.47627813796950452 -0.032068202833415903 0 -0.47983884509016961 -0.04559408958900394 0 -0.46868202672560128 -0.053576788092234838 0 -0.48434101336280139 -0.075470068664982515 0 -0.48551694096935982 -0.058082376044726818 0 -0.46868202672560128 -0.053576788092234838 0 -0.48551694096935982 -0.058082376044726818 0 -0.47983884509016961 -0.04559408958900394 0 -0.46868202672560128 -0.053576788092234838 0 -0.46440728388852631 -0.065665476577682319 0 -0.47046251890076313 -0.067508589662998122 0 -0.46868202672560128 -0.053576788092234838 0 -0.45958199435623182 -0.062522792654202811 0 -0.46868202672560128 -0.053576788092234838 0 -0.45254776170430372 -0.055054247167343383 0 -0.46440728388852631 -0.065665476577682319 0 -0.45958199435623182 -0.062522792654202811 0 -0.46868202672560128 -0.053576788092234838 0 -0.45596485801405168 -0.069043921304564548 0 -0.45254776170430372 -0.055054247167343383 0 -0.45958199435623182 -0.062522792654202811 0 -0.45596485801405168 -0.069043921304564548 0 -0.45254776170430372 -0.055054247167343383 0 -0.46868202672560128 -0.053576788092234838 0 -0.45302304008840111 -0.031683507519487203 0 -0.45254776170430372 -0.055054247167343383 0 -0.46868202672560128 -0.053576788092234838 0 -0.45302304008840111 -0.031683507519487203 0 -0.47627813796950452 -0.032068202833415903 0 -0.46868202672560128 -0.053576788092234838 0 -0.45302304008840111 -0.031683507519487203 0 -0.43049560054761637 -0.026091238128576531 0 -0.45302304008840111 -0.031683507519487203 0 -0.44052059365423879 -0.038318026972638523 0 -0.45302304008840111 -0.031683507519487203 0 -0.44052059365423879 -0.038318026972638523 0 -0.45254776170430372 -0.055054247167343383 0 -0.43594560852523878 -0.049663465434261311 0 -0.44052059365423879 -0.038318026972638523 0 -0.45254776170430372 -0.055054247167343383 0 -0.43594560852523878 -0.049663465434261311 0 -0.43505259438904009 -0.065314564308975948 0 -0.45254776170430372 -0.055054247167343383 0 -0.44016826678282051 -0.008282799190680902 0 -0.46819439313074318 -0.0088485217403602174 0 -0.44910531892432481 0.0088256729137652749 0 -0.43049560054761637 -0.026091238128576531 0 -0.45302304008840111 -0.031683507519487203 0 -0.44016826678282051 -0.008282799190680902 0 -0.45302304008840111 -0.031683507519487203 0 -0.44016826678282051 -0.008282799190680902 0 -0.46819439313074318 -0.0088485217403602174 0 -0.47627813796950452 -0.032068202833415903 0 -0.45302304008840111 -0.031683507519487203 0 -0.46819439313074318 -0.0088485217403602174 0 -0.47627813796950452 -0.032068202833415903 0 -0.46819439313074318 -0.0088485217403602174 0 -0.5 -0.0085996482446106803 0 -0.46819439313074318 -0.0088485217403602174 0 -0.5 -0.0085996482446106803 0 -0.48327269561072528 0.0075949784500739621 0 -0.5 -0.038187548575650758 0 -0.47627813796950452 -0.032068202833415903 0 -0.5 -0.0085996482446106803 0 -0.5 -0.0085996482446106803 0 -0.500000000000001 0.020988252086429401 0 -0.48327269561072528 0.0075949784500739621 0 -0.500000000000001 0.020988252086429401 0 -0.4818334059336834 0.02486827538731046 0 -0.48327269561072528 0.0075949784500739621 0 -0.500000000000001 0.020988252086429401 0 -0.4818334059336834 0.02486827538731046 0 -0.48627387230376801 0.042906068467448051 0 -0.4818334059336834 0.02486827538731046 0 -0.46506519868097418 0.040930436164492531 0 -0.46608959876636241 0.01500864777446809 0 -0.4818334059336834 0.02486827538731046 0 -0.48327269561072528 0.0075949784500739621 0 -0.46608959876636241 0.01500864777446809 0 -0.46819439313074318 -0.0088485217403602174 0 -0.48327269561072528 0.0075949784500739621 0 -0.46608959876636241 0.01500864777446809 0 -0.5 0.047519219301533577 0 -0.48827346409411548 0.06027768147110632 0 -0.48627387230376801 0.042906068467448051 0 -0.5 0.047519219301533577 0 -0.48827346409411548 0.06027768147110632 0 -0.5 0.074050186516637917 0 -0.500000000000001 0.020988252086429401 0 -0.48627387230376801 0.042906068467448051 0 -0.500000000000001 0.020988252086429401 0 -0.5 0.047519219301533577 0 -0.48627387230376801 0.042906068467448051 0 -0.4818334059336834 0.02486827538731046 0 -0.48627387230376801 0.042906068467448051 0 -0.46506519868097418 0.040930436164492531 0 -0.48627387230376801 0.042906068467448051 0 -0.46506519868097418 0.040930436164492531 0 -0.47254774460753413 0.064823884848466309 0 -0.48827346409411548 0.06027768147110632 0 -0.48627387230376801 0.042906068467448051 0 -0.47254774460753413 0.064823884848466309 0 -0.48627387230376801 0.042906068467448051 0 -0.47254774460753413 0.064823884848466309 0 -0.46506519868097418 0.040930436164492531 0 -0.44375990034961432 0.061031549153910312 0 -0.47254774460753413 0.064823884848466309 0 -0.46506519868097418 0.040930436164492531 0 -0.44486031810931148 0.031744527408694517 0 -0.44375990034961432 0.061031549153910312 0 -0.46819439313074318 -0.0088485217403602174 0 -0.46608959876636241 0.01500864777446809 0 -0.44910531892432481 0.0088256729137652749 0 -0.46506519868097418 0.040930436164492531 0 -0.44486031810931148 0.031744527408694517 0 -0.46608959876636241 0.01500864777446809 0 -0.44486031810931148 0.031744527408694517 0 -0.46608959876636241 0.01500864777446809 0 -0.44910531892432481 0.0088256729137652749 0 -0.44486031810931148 0.031744527408694517 0 -0.44910531892432481 0.0088256729137652749 0 -0.43171222321057451 0.016975124179167082 0 -0.44016826678282051 -0.008282799190680902 0 -0.44910531892432481 0.0088256729137652749 0 -0.43171222321057451 0.016975124179167082 0 -0.42123606753034548 -0.0078521834473191492 0 -0.44016826678282051 -0.008282799190680902 0 -0.43171222321057451 0.016975124179167082 0 -0.44016826678282051 -0.008282799190680902 0 -0.43171222321057451 0.016975124179167082 0 -0.42123606753034548 -0.0078521834473191492 0 -0.411842978763718 0.0071810696113592566 0 -0.43171222321057451 0.016975124179167082 0 -0.411842978763718 0.0071810696113592566 0 -0.40872204527111111 0.022867749962900141 0 -0.39856960861661739 0.0046729487720050386 0 -0.40872204527111111 0.022867749962900141 0 -0.43171222321057451 0.016975124179167082 0 -0.4232561796383284 0.042233047549015017 0 -0.411842978763718 0.0071810696113592566 0 -0.40872204527111111 0.022867749962900141 0 -0.43171222321057451 0.016975124179167082 0 -0.44486031810931148 0.031744527408694517 0 -0.43171222321057451 0.016975124179167082 0 -0.4232561796383284 0.042233047549015017 0 -0.43171222321057451 0.016975124179167082 0 -0.4232561796383284 0.042233047549015017 0 -0.44486031810931148 0.031744527408694517 0 -0.44375990034961432 0.061031549153910312 0 -0.4232561796383284 0.042233047549015017 0 -0.44375990034961432 0.061031549153910312 0 -0.4232561796383284 0.042233047549015017 0 -0.41480013606608229 0.067490970918863163 0 -0.4232561796383284 0.042233047549015017 0 -0.41480013606608229 0.067490970918863163 0 -0.4232561796383284 0.042233047549015017 0 -0.40217936848404251 0.040656332868689943 0 -0.41480013606608229 0.067490970918863163 0 -0.40872204527111111 0.022867749962900141 0 -0.4232561796383284 0.042233047549015017 0 -0.40217936848404251 0.040656332868689943 0 -0.40217936848404251 0.040656332868689943 0 -0.38532972384356262 0.04987884220830327 0 -0.38670634030283008 0.033034015008687988 0 -0.40217936848404251 0.040656332868689943 0 -0.39445515791527019 0.0661614229995688 0 -0.41480013606608229 0.067490970918863163 0 -0.40217936848404251 0.040656332868689943 0 -0.38532972384356262 0.04987884220830327 0 -0.39445515791527019 0.0661614229995688 0 -0.38532972384356262 0.04987884220830327 0 -0.36842953035862158 0.050481425088617103 0 -0.37191756568804107 0.066739953928913298 0 -0.38532972384356262 0.04987884220830327 0 -0.39445515791527019 0.0661614229995688 0 -0.37191756568804107 0.066739953928913298 0 -0.38532972384356262 0.04987884220830327 0 -0.38670634030283008 0.033034015008687988 0 -0.37363166703579942 0.035604814688565273 0 -0.38532972384356262 0.04987884220830327 0 -0.37363166703579942 0.035604814688565273 0 -0.36842953035862158 0.050481425088617103 0 -0.38670634030283008 0.033034015008687988 0 -0.37938766176258892 0.01937444117527904 0 -0.37363166703579942 0.035604814688565273 0 -0.38670634030283008 0.033034015008687988 0 -0.37938766176258892 0.01937444117527904 0 -0.39300328038815729 0.019655644102602461 0 -0.37938766176258892 0.01937444117527904 0 -0.38510027358075227 0.0044364300124967379 0 -0.37145675818362223 0.001704133189072726 0 -0.38510027358075227 0.0044364300124967379 0 -0.39300328038815729 0.019655644102602461 0 -0.37938766176258892 0.01937444117527904 0 -0.38510027358075227 0.0044364300124967379 0 -0.39300328038815729 0.019655644102602461 0 -0.38510027358075227 0.0044364300124967379 0 -0.39856960861661739 0.0046729487720050386 0 -0.39300328038815729 0.019655644102602461 0 -0.39149303023403142 -0.005335277537219363 0 -0.38510027358075227 0.0044364300124967379 0 -0.39856960861661739 0.0046729487720050386 0 -0.40872204527111111 0.022867749962900141 0 -0.40217936848404251 0.040656332868689943 0 -0.39300328038815729 0.019655644102602461 0 -0.40217936848404251 0.040656332868689943 0 -0.38670634030283008 0.033034015008687988 0 -0.39300328038815729 0.019655644102602461 0 -0.40872204527111111 0.022867749962900141 0 -0.39856960861661739 0.0046729487720050386 0 -0.39300328038815729 0.019655644102602461 0 -0.3875766108720648 0.10801011350679229 0 -0.40575939566394709 0.088936040450249165 0 -0.41194990864025682 0.1130743234930766 0 -0.3875766108720648 0.10801011350679229 0 -0.41194990864025682 0.1130743234930766 0 -0.39303850838018423 0.12948099644521679 0 -0.3875766108720648 0.10801011350679229 0 -0.39303850838018423 0.12948099644521679 0 -0.36938718168541179 0.1255902499967409 0 -0.3875766108720648 0.10801011350679229 0 -0.37678680274428078 0.095920052983538381 0 -0.36262419495280129 0.1038515713423341 0 -0.3875766108720648 0.10801011350679229 0 -0.37678680274428078 0.095920052983538381 0 -0.38674475774594591 0.083266397622394045 0 -0.37678680274428078 0.095920052983538381 0 -0.38674475774594591 0.083266397622394045 0 -0.37138104083623391 0.082703932652830325 0 -0.38674475774594591 0.083266397622394045 0 -0.37191756568804107 0.066739953928913298 0 -0.37138104083623391 0.082703932652830325 0 -0.38674475774594591 0.083266397622394045 0 -0.39445515791527019 0.0661614229995688 0 -0.37191756568804107 0.066739953928913298 0 -0.39445515791527019 0.0661614229995688 0 -0.40575939566394709 0.088936040450249165 0 -0.41480013606608229 0.067490970918863163 0 -0.38674475774594591 0.083266397622394045 0 -0.39445515791527019 0.0661614229995688 0 -0.40575939566394709 0.088936040450249165 0 -0.3875766108720648 0.10801011350679229 0 -0.38674475774594591 0.083266397622394045 0 -0.40575939566394709 0.088936040450249165 0 -0.40575939566394709 0.088936040450249165 0 -0.41480013606608229 0.067490970918863163 0 -0.43079976792318958 0.090862199026124468 0 -0.44375990034961432 0.061031549153910312 0 -0.41480013606608229 0.067490970918863163 0 -0.43079976792318958 0.090862199026124468 0 -0.43079976792318958 0.090862199026124468 0 -0.41194990864025682 0.1130743234930766 0 -0.43625153759456498 0.1245866202337218 0 -0.40575939566394709 0.088936040450249165 0 -0.43079976792318958 0.090862199026124468 0 -0.41194990864025682 0.1130743234930766 0 -0.43079976792318958 0.090862199026124468 0 -0.43625153759456498 0.1245866202337218 0 -0.45075561745381781 0.10580031757457831 0 -0.43625153759456498 0.1245866202337218 0 -0.45075561745381781 0.10580031757457831 0 -0.46287227134589981 0.1236989169114972 0 -0.43079976792318958 0.090862199026124468 0 -0.45075561745381781 0.10580031757457831 0 -0.4588216169113003 0.086741701229484575 0 -0.45075561745381781 0.10580031757457831 0 -0.4588216169113003 0.086741701229484575 0 -0.47201107007212878 0.1037065685212097 0 -0.45075561745381781 0.10580031757457831 0 -0.46287227134589981 0.1236989169114972 0 -0.47201107007212878 0.1037065685212097 0 -0.44375990034961432 0.061031549153910312 0 -0.43079976792318958 0.090862199026124468 0 -0.4588216169113003 0.086741701229484575 0 -0.44375990034961432 0.061031549153910312 0 -0.4588216169113003 0.086741701229484575 0 -0.47254774460753413 0.064823884848466309 0 -0.4588216169113003 0.086741701229484575 0 -0.47254774460753413 0.064823884848466309 0 -0.4588216169113003 0.086741701229484575 0 -0.47254774460753413 0.064823884848466309 0 -0.4818122771930986 0.082263337292499406 0 -0.48827346409411548 0.06027768147110632 0 -0.47254774460753413 0.064823884848466309 0 -0.4818122771930986 0.082263337292499406 0 -0.4588216169113003 0.086741701229484575 0 -0.4818122771930986 0.082263337292499406 0 -0.47201107007212878 0.1037065685212097 0 -0.4818122771930986 0.082263337292499406 0 -0.5 0.074050186516637917 0 -0.5 0.1005811537317424 0 -0.48827346409411548 0.06027768147110632 0 -0.4818122771930986 0.082263337292499406 0 -0.5 0.074050186516637917 0 -0.46287227134589981 0.1236989169114972 0 -0.48219315692656572 0.1205151432882924 0 -0.47201107007212878 0.1037065685212097 0 -0.4818122771930986 0.082263337292499406 0 -0.47201107007212878 0.1037065685212097 0 -0.5 0.1005811537317424 0 -0.48219315692656572 0.1205151432882924 0 -0.47201107007212878 0.1037065685212097 0 -0.5 0.1005811537317424 0 -0.48219315692656572 0.1205151432882924 0 -0.5 0.1005811537317424 0 -0.5 0.12711212094684679 0 -0.48219315692656572 0.1205151432882924 0 -0.5 0.12711212094684679 0 -0.47883924748460222 0.14018161060892731 0 -0.5 0.12711212094684679 0 -0.47883924748460222 0.14018161060892731 0 -0.5 0.15364308816195121 0 -0.46287227134589981 0.1236989169114972 0 -0.48219315692656572 0.1205151432882924 0 -0.47883924748460222 0.14018161060892731 0 -0.47883924748460222 0.14018161060892731 0 -0.5 0.15364308816195121 0 -0.47008479780898071 0.1615400033189848 0 -0.5 0.15364308816195121 0 -0.50000000000000089 0.18017405537705561 0 -0.48213074815480522 0.17495155205334359 0 -0.50000000000000089 0.18017405537705561 0 -0.48146292621815812 0.19355635563559381 0 -0.50000000000000089 0.18017405537705561 0 -0.48213074815480522 0.17495155205334359 0 -0.48146292621815812 0.19355635563559381 0 -0.48213074815480522 0.17495155205334359 0 -0.45945765920556431 0.18493118343544621 0 -0.48146292621815812 0.19355635563559381 0 -0.48213074815480522 0.17495155205334359 0 -0.47008479780898071 0.1615400033189848 0 -0.45945765920556431 0.18493118343544621 0 -0.5 0.15364308816195121 0 -0.48213074815480522 0.17495155205334359 0 -0.47008479780898071 0.1615400033189848 0 -0.47008479780898071 0.1615400033189848 0 -0.45945765920556431 0.18493118343544621 0 -0.44491624466772411 0.16813711573335099 0 -0.47008479780898071 0.1615400033189848 0 -0.44491624466772411 0.16813711573335099 0 -0.45700588157118233 0.14460720660399121 0 -0.45945765920556431 0.18493118343544621 0 -0.44491624466772411 0.16813711573335099 0 -0.43474290047699488 0.19015608798310391 0 -0.44491624466772411 0.16813711573335099 0 -0.45700588157118233 0.14460720660399121 0 -0.43611169665434868 0.1504606440305504 0 -0.43625153759456498 0.1245866202337218 0 -0.45700588157118233 0.14460720660399121 0 -0.43611169665434868 0.1504606440305504 0 -0.43625153759456498 0.1245866202337218 0 -0.46287227134589981 0.1236989169114972 0 -0.45700588157118233 0.14460720660399121 0 -0.46287227134589981 0.1236989169114972 0 -0.47883924748460222 0.14018161060892731 0 -0.45700588157118233 0.14460720660399121 0 -0.47883924748460222 0.14018161060892731 0 -0.47008479780898071 0.1615400033189848 0 -0.45700588157118233 0.14460720660399121 0 -0.48207357253193078 0.21739097549918149 0 -0.5 0.2118815469096284 0 -0.5 0.25502500317745308 0 -0.48207357253193078 0.21739097549918149 0 -0.46802780128701832 0.22930896654194979 0 -0.5 0.25502500317745308 0 -0.46802780128701832 0.22930896654194979 0 -0.5 0.25502500317745308 0 -0.46826200115894351 0.25268254595322559 0 -0.50000000000000089 0.18017405537705561 0 -0.5 0.2118815469096284 0 -0.48146292621815812 0.19355635563559381 0 -0.48207357253193078 0.21739097549918149 0 -0.46292585243631501 0.20693865589413171 0 -0.46802780128701832 0.22930896654194979 0 -0.48207357253193078 0.21739097549918149 0 -0.48146292621815812 0.19355635563559381 0 -0.46292585243631501 0.20693865589413171 0 -0.48207357253193078 0.21739097549918149 0 -0.5 0.2118815469096284 0 -0.48146292621815812 0.19355635563559381 0 -0.48146292621815812 0.19355635563559381 0 -0.46292585243631501 0.20693865589413171 0 -0.45945765920556431 0.18493118343544621 0 -0.44696073447060752 0.20212681262101459 0 -0.46292585243631501 0.20693865589413171 0 -0.45945765920556431 0.18493118343544621 0 -0.48146292621815812 0.19355635563559381 0 -0.46292585243631501 0.20693865589413171 0 -0.45945765920556431 0.18493118343544621 0 -0.44696073447060752 0.20212681262101459 0 -0.43474290047699488 0.19015608798310391 0 -0.44696073447060752 0.20212681262101459 0 -0.43414988282090411 0.20902301392359759 0 -0.43474290047699488 0.19015608798310391 0 -0.44696073447060752 0.20212681262101459 0 -0.44438877865447191 0.2203209561526695 0 -0.43414988282090411 0.20902301392359759 0 -0.44696073447060752 0.20212681262101459 0 -0.46292585243631501 0.20693865589413171 0 -0.44438877865447191 0.2203209561526695 0 -0.46292585243631501 0.20693865589413171 0 -0.46802780128701832 0.22930896654194979 0 -0.45690026230445402 0.21971898361319381 0 -0.46292585243631501 0.20693865589413171 0 -0.44438877865447191 0.2203209561526695 0 -0.46292585243631501 0.20693865589413171 0 -0.45690026230445402 0.21971898361319381 0 -0.44438877865447191 0.2203209561526695 0 -0.46802780128701832 0.22930896654194979 0 -0.45424796336563722 0.22861724854116511 0 -0.45412118124825718 0.2395922552223117 0 -0.46802780128701832 0.22930896654194979 0 -0.45424796336563722 0.22861724854116511 0 -0.45690026230445402 0.21971898361319381 0 -0.45424796336563722 0.22861724854116511 0 -0.45690026230445402 0.21971898361319381 0 -0.44707608940517052 0.22231138206831691 0 -0.44707608940517052 0.22231138206831691 0 -0.44438877865447191 0.2203209561526695 0 -0.42586105085507731 0.219809117860577 0 -0.45690026230445402 0.21971898361319381 0 -0.44707608940517052 0.22231138206831691 0 -0.44438877865447191 0.2203209561526695 0 -0.44707608940517052 0.22231138206831691 0 -0.43755936465329281 0.22698532229141799 0 -0.44511448258328629 0.23215465526005299 0 -0.43755936465329281 0.22698532229141799 0 -0.44511448258328629 0.23215465526005299 0 -0.43218583576963709 0.2336661339767252 0 -0.45424796336563722 0.22861724854116511 0 -0.44707608940517052 0.22231138206831691 0 -0.44511448258328629 0.23215465526005299 0 -0.45424796336563722 0.22861724854116511 0 -0.44511448258328629 0.23215465526005299 0 -0.45412118124825718 0.2395922552223117 0 -0.44511448258328629 0.23215465526005299 0 -0.44161393816558842 0.24155257742212199 0 -0.45412118124825718 0.2395922552223117 0 -0.44511448258328629 0.23215465526005299 0 -0.44161393816558842 0.24155257742212199 0 -0.43218583576963709 0.2336661339767252 0 -0.44161393816558842 0.24155257742212199 0 -0.43243648966469961 0.24825823729562091 0 -0.44622747097204157 0.25447826500352411 0 -0.44161393816558842 0.24155257742212199 0 -0.45412118124825718 0.2395922552223117 0 -0.44622747097204157 0.25447826500352411 0 -0.46802780128701832 0.22930896654194979 0 -0.45412118124825718 0.2395922552223117 0 -0.46826200115894351 0.25268254595322559 0 -0.45412118124825718 0.2395922552223117 0 -0.46826200115894351 0.25268254595322559 0 -0.44622747097204157 0.25447826500352411 0 -0.40931020750963998 0.23948355441692229 0 -0.40101037553383972 0.24850817254535781 0 -0.4154354269666965 0.25327969466909228 0 -0.40931020750963998 0.23948355441692229 0 -0.42148184861410209 0.2406921978309261 0 -0.41698703102379953 0.22969989485302911 0 -0.40931020750963998 0.23948355441692229 0 -0.42148184861410209 0.2406921978309261 0 -0.4154354269666965 0.25327969466909228 0 -0.42148184861410209 0.2406921978309261 0 -0.43243648966469961 0.24825823729562091 0 -0.4154354269666965 0.25327969466909228 0 -0.44161393816558842 0.24155257742212199 0 -0.43243648966469961 0.24825823729562091 0 -0.43218583576963709 0.2336661339767252 0 -0.42148184861410209 0.2406921978309261 0 -0.43243648966469961 0.24825823729562091 0 -0.43218583576963709 0.2336661339767252 0 -0.42148184861410209 0.2406921978309261 0 -0.43218583576963709 0.2336661339767252 0 -0.41698703102379953 0.22969989485302911 0 -0.43218583576963709 0.2336661339767252 0 -0.42586105085507731 0.219809117860577 0 -0.41698703102379953 0.22969989485302911 0 -0.44707608940517052 0.22231138206831691 0 -0.42586105085507731 0.219809117860577 0 -0.44707608940517052 0.22231138206831691 0 -0.43755936465329281 0.22698532229141799 0 -0.42586105085507731 0.219809117860577 0 -0.43755936465329281 0.22698532229141799 0 -0.43218583576963709 0.2336661339767252 0 -0.42586105085507731 0.219809117860577 0 -0.42586105085507731 0.219809117860577 0 -0.41698703102379953 0.22969989485302911 0 -0.4046460123049842 0.2173068536528372 0 -0.40931020750963998 0.23948355441692229 0 -0.41698703102379953 0.22969989485302911 0 -0.40590702596286521 0.22946517391640911 0 -0.41698703102379953 0.22969989485302911 0 -0.4046460123049842 0.2173068536528372 0 -0.40590702596286521 0.22946517391640911 0 -0.42586105085507731 0.219809117860577 0 -0.4046460123049842 0.2173068536528372 0 -0.41722227291546332 0.20591524768845371 0 -0.39877196507631202 0.20270266476287849 0 -0.4046460123049842 0.2173068536528372 0 -0.42586105085507731 0.219809117860577 0 -0.41722227291546332 0.20591524768845371 0 -0.4046460123049842 0.2173068536528372 0 -0.42586105085507731 0.219809117860577 0 -0.41722227291546332 0.20591524768845371 0 -0.43414988282090411 0.20902301392359759 0 -0.44438877865447191 0.2203209561526695 0 -0.42586105085507731 0.219809117860577 0 -0.43414988282090411 0.20902301392359759 0 -0.41722227291546332 0.20591524768845371 0 -0.43414988282090411 0.20902301392359759 0 -0.43474290047699488 0.19015608798310391 0 -0.41722227291546332 0.20591524768845371 0 -0.40891615430536432 0.18798503216574861 0 -0.39877196507631202 0.20270266476287849 0 -0.41722227291546332 0.20591524768845371 0 -0.43474290047699488 0.19015608798310391 0 -0.40891615430536432 0.18798503216574861 0 -0.40891615430536432 0.18798503216574861 0 -0.39877196507631202 0.20270266476287849 0 -0.38648279715089662 0.18713020989402271 0 -0.38343097375489099 0.21480458944509739 0 -0.38648279715089662 0.18713020989402271 0 -0.37238122863976891 0.2002171120067491 0 -0.39877196507631202 0.20270266476287849 0 -0.38343097375489099 0.21480458944509739 0 -0.38648279715089662 0.18713020989402271 0 -0.38343097375489099 0.21480458944509739 0 -0.38648279715089662 0.18713020989402271 0 -0.38343097375489099 0.21480458944509739 0 -0.37154761244084089 0.2134029747549531 0 -0.37238122863976891 0.2002171120067491 0 -0.38343097375489099 0.21480458944509739 0 -0.37566813965858681 0.2234148702422048 0 -0.37154761244084089 0.2134029747549531 0 -0.38343097375489099 0.21480458944509739 0 -0.37154761244084089 0.2134029747549531 0 -0.38343097375489099 0.21480458944509739 0 -0.4046460123049842 0.2173068536528372 0 -0.38992427199157043 0.22185450724293909 0 -0.38343097375489099 0.21480458944509739 0 -0.4046460123049842 0.2173068536528372 0 -0.39877196507631202 0.20270266476287849 0 -0.38343097375489099 0.21480458944509739 0 -0.4046460123049842 0.2173068536528372 0 -0.4046460123049842 0.2173068536528372 0 -0.39872340832513992 0.226351764622962 0 -0.40590702596286521 0.22946517391640911 0 -0.39872340832513992 0.226351764622962 0 -0.40590702596286521 0.22946517391640911 0 -0.39648996776890633 0.23582301492399779 0 -0.39872340832513992 0.226351764622962 0 -0.38992427199157043 0.22185450724293909 0 -0.39648996776890633 0.23582301492399779 0 -0.4046460123049842 0.2173068536528372 0 -0.39872340832513992 0.226351764622962 0 -0.38992427199157043 0.22185450724293909 0 -0.38343097375489099 0.21480458944509739 0 -0.37566813965858681 0.2234148702422048 0 -0.38119555285080597 0.2350757121572056 0 -0.38343097375489099 0.21480458944509739 0 -0.38992427199157043 0.22185450724293909 0 -0.38119555285080597 0.2350757121572056 0 -0.38343097375489099 0.21480458944509739 0 -0.38119555285080597 0.2350757121572056 0 -0.38119555285080597 0.2350757121572056 0 -0.37210575503526089 0.24405057661464391 0 -0.37896013194671968 0.25534683486931381 0 -0.38119555285080597 0.2350757121572056 0 -0.37896013194671968 0.25534683486931381 0 -0.38992427199157043 0.22185450724293909 0 -0.38119555285080597 0.2350757121572056 0 -0.38722819947627368 0.24843385443806909 0 -0.38992427199157043 0.22185450724293909 0 -0.38722819947627368 0.24843385443806909 0 -0.38119555285080597 0.2350757121572056 0 -0.38722819947627368 0.24843385443806909 0 -0.37896013194671968 0.25534683486931381 0 -0.38992427199157043 0.22185450724293909 0 -0.38722819947627368 0.24843385443806909 0 -0.39648996776890633 0.23582301492399779 0 -0.38722819947627368 0.24843385443806909 0 -0.39648996776890633 0.23582301492399779 0 -0.40101037553383972 0.24850817254535781 0 -0.40931020750963998 0.23948355441692229 0 -0.39648996776890633 0.23582301492399779 0 -0.40101037553383972 0.24850817254535781 0 -0.40931020750963998 0.23948355441692229 0 -0.40590702596286521 0.22946517391640911 0 -0.39648996776890633 0.23582301492399779 0 -0.41530534823700072 0.1390315752597536 0 -0.41919069938251302 0.1652820875776414 0 -0.39528973877013662 0.15130477977831461 0 -0.41194990864025682 0.1130743234930766 0 -0.41530534823700072 0.1390315752597536 0 -0.39303850838018423 0.12948099644521679 0 -0.41194990864025682 0.1130743234930766 0 -0.43625153759456498 0.1245866202337218 0 -0.41530534823700072 0.1390315752597536 0 -0.43625153759456498 0.1245866202337218 0 -0.41530534823700072 0.1390315752597536 0 -0.43611169665434868 0.1504606440305504 0 -0.41530534823700072 0.1390315752597536 0 -0.43611169665434868 0.1504606440305504 0 -0.41919069938251302 0.1652820875776414 0 -0.44491624466772411 0.16813711573335099 0 -0.43611169665434868 0.1504606440305504 0 -0.41919069938251302 0.1652820875776414 0 -0.44491624466772411 0.16813711573335099 0 -0.43474290047699488 0.19015608798310391 0 -0.41919069938251302 0.1652820875776414 0 -0.40891615430536432 0.18798503216574861 0 -0.41919069938251302 0.1652820875776414 0 -0.39971758700540821 0.17129016696027699 0 -0.43474290047699488 0.19015608798310391 0 -0.40891615430536432 0.18798503216574861 0 -0.41919069938251302 0.1652820875776414 0 -0.41919069938251302 0.1652820875776414 0 -0.39971758700540821 0.17129016696027699 0 -0.39528973877013662 0.15130477977831461 0 -0.40891615430536432 0.18798503216574861 0 -0.39971758700540821 0.17129016696027699 0 -0.38648279715089662 0.18713020989402271 0 -0.39971758700540821 0.17129016696027699 0 -0.38648279715089662 0.18713020989402271 0 -0.372146074932449 0.16344591630492469 0 -0.39971758700540821 0.17129016696027699 0 -0.39528973877013662 0.15130477977831461 0 -0.372146074932449 0.16344591630492469 0 -0.37815506306193358 0.1433222327004802 0 -0.39528973877013662 0.15130477977831461 0 -0.39303850838018423 0.12948099644521679 0 -0.37815506306193358 0.1433222327004802 0 -0.39528973877013662 0.15130477977831461 0 -0.372146074932449 0.16344591630492469 0 -0.41530534823700072 0.1390315752597536 0 -0.39528973877013662 0.15130477977831461 0 -0.39303850838018423 0.12948099644521679 0 -0.37815506306193358 0.1433222327004802 0 -0.39303850838018423 0.12948099644521679 0 -0.36938718168541179 0.1255902499967409 0 -0.36938718168541179 0.1255902499967409 0 -0.35200794605681629 0.12502238642781019 0 -0.36027383228078641 0.14176664061691219 0 -0.37815506306193358 0.1433222327004802 0 -0.36938718168541179 0.1255902499967409 0 -0.36027383228078641 0.14176664061691219 0 -0.35200794605681629 0.12502238642781019 0 -0.36027383228078641 0.14176664061691219 0 -0.34238396195098092 0.13747367741656721 0 -0.34692124746973713 0.1542878562826405 0 -0.36027383228078641 0.14176664061691219 0 -0.34238396195098092 0.13747367741656721 0 -0.34692124746973713 0.1542878562826405 0 -0.36027383228078641 0.14176664061691219 0 -0.372146074932449 0.16344591630492469 0 -0.37815506306193358 0.1433222327004802 0 -0.36027383228078641 0.14176664061691219 0 -0.372146074932449 0.16344591630492469 0 -0.38648279715089662 0.18713020989402271 0 -0.372146074932449 0.16344591630492469 0 -0.35825464468573548 0.18846491094187309 0 -0.372146074932449 0.16344591630492469 0 -0.35358483912925948 0.17080886943100959 0 -0.35825464468573548 0.18846491094187309 0 -0.35358483912925948 0.17080886943100959 0 -0.35825464468573548 0.18846491094187309 0 -0.33660402194939321 0.18841081708856641 0 -0.34692124746973713 0.1542878562826405 0 -0.372146074932449 0.16344591630492469 0 -0.35358483912925948 0.17080886943100959 0 -0.34692124746973713 0.1542878562826405 0 -0.35358483912925948 0.17080886943100959 0 -0.33500456297109971 0.16792639800837539 0 -0.33500456297109971 0.16792639800837539 0 -0.31851102729851588 0.15590236448055639 0 -0.33255517435583237 0.14646848770795259 0 -0.35358483912925948 0.17080886943100959 0 -0.33500456297109971 0.16792639800837539 0 -0.33660402194939321 0.18841081708856641 0 -0.33500456297109971 0.16792639800837539 0 -0.31289652582642141 0.1805837036697519 0 -0.33660402194939321 0.18841081708856641 0 -0.33500456297109971 0.16792639800837539 0 -0.31289652582642141 0.1805837036697519 0 -0.33500456297109971 0.16792639800837539 0 -0.31289652582642141 0.1805837036697519 0 -0.31851102729851588 0.15590236448055639 0 -0.31851102729851588 0.15590236448055639 0 -0.31283651791160189 0.14254581953933751 0 -0.32160496684282269 0.13812883269818441 0 -0.31851102729851588 0.15590236448055639 0 -0.32160496684282269 0.13812883269818441 0 -0.33255517435583237 0.14646848770795259 0 -0.31283651791160189 0.14254581953933751 0 -0.32160496684282269 0.13812883269818441 0 -0.31723531685176609 0.1198603304800319 0 -0.32160496684282269 0.13812883269818441 0 -0.33282908497732799 0.12691684344983439 0 -0.31723531685176609 0.1198603304800319 0 -0.32160496684282269 0.13812883269818441 0 -0.33282908497732799 0.12691684344983439 0 -0.33255517435583237 0.14646848770795259 0 -0.35200794605681629 0.12502238642781019 0 -0.34238396195098092 0.13747367741656721 0 -0.33282908497732799 0.12691684344983439 0 -0.34238396195098092 0.13747367741656721 0 -0.33282908497732799 0.12691684344983439 0 -0.33255517435583237 0.14646848770795259 0 -0.34692124746973713 0.1542878562826405 0 -0.34238396195098092 0.13747367741656721 0 -0.33255517435583237 0.14646848770795259 0 -0.34692124746973713 0.1542878562826405 0 -0.33500456297109971 0.16792639800837539 0 -0.33255517435583237 0.14646848770795259 0 -0.36182205832064851 0.24457456243760281 0 -0.34139946132247112 0.24041351753421181 0 -0.35754908974886279 0.25815157521253052 0 -0.36182205832064851 0.24457456243760281 0 -0.36649841958780932 0.23037620461156319 0 -0.34139946132247112 0.24041351753421181 0 -0.36182205832064851 0.24457456243760281 0 -0.37210575503526089 0.24405057661464391 0 -0.36759241766554501 0.2538245840294952 0 -0.38119555285080597 0.2350757121572056 0 -0.37210575503526089 0.24405057661464391 0 -0.36649841958780932 0.23037620461156319 0 -0.36182205832064851 0.24457456243760281 0 -0.37210575503526089 0.24405057661464391 0 -0.36649841958780932 0.23037620461156319 0 -0.36649841958780932 0.23037620461156319 0 -0.35688565293773689 0.21871143604885451 0 -0.37154761244084089 0.2134029747549531 0 -0.37566813965858681 0.2234148702422048 0 -0.36649841958780932 0.23037620461156319 0 -0.37154761244084089 0.2134029747549531 0 -0.37566813965858681 0.2234148702422048 0 -0.38119555285080597 0.2350757121572056 0 -0.36649841958780932 0.23037620461156319 0 -0.35688565293773689 0.21871143604885451 0 -0.34289792395499269 0.21218791974938919 0 -0.34139946132247112 0.24041351753421181 0 -0.36649841958780932 0.23037620461156319 0 -0.35688565293773689 0.21871143604885451 0 -0.34139946132247112 0.24041351753421181 0 -0.35688565293773689 0.21871143604885451 0 -0.36039341253181489 0.20659687070036381 0 -0.34289792395499269 0.21218791974938919 0 -0.35688565293773689 0.21871143604885451 0 -0.37154761244084089 0.2134029747549531 0 -0.36039341253181489 0.20659687070036381 0 -0.37154761244084089 0.2134029747549531 0 -0.36039341253181489 0.20659687070036381 0 -0.37238122863976891 0.2002171120067491 0 -0.38648279715089662 0.18713020989402271 0 -0.37238122863976891 0.2002171120067491 0 -0.35825464468573548 0.18846491094187309 0 -0.36039341253181489 0.20659687070036381 0 -0.37238122863976891 0.2002171120067491 0 -0.35825464468573548 0.18846491094187309 0 -0.36039341253181489 0.20659687070036381 0 -0.35825464468573548 0.18846491094187309 0 -0.34289792395499269 0.21218791974938919 0 -0.35825464468573548 0.18846491094187309 0 -0.33660402194939321 0.18841081708856641 0 -0.34289792395499269 0.21218791974938919 0 -0.33660402194939321 0.18841081708856641 0 -0.32037844320246261 0.2049322073775762 0 -0.34289792395499269 0.21218791974938919 0 -0.31289652582642141 0.1805837036697519 0 -0.33660402194939321 0.18841081708856641 0 -0.32037844320246261 0.2049322073775762 0 -0.32037844320246261 0.2049322073775762 0 -0.32007631676378118 0.22793178832776281 0 -0.30808679103638181 0.2157672566230279 0 -0.32037844320246261 0.2049322073775762 0 -0.34289792395499269 0.21218791974938919 0 -0.32007631676378118 0.22793178832776281 0 -0.34289792395499269 0.21218791974938919 0 -0.34139946132247112 0.24041351753421181 0 -0.34289792395499269 0.21218791974938919 0 -0.32007631676378118 0.22793178832776281 0 -0.34139946132247112 0.24041351753421181 0 -0.32007631676378118 0.22793178832776281 0 -0.30683534910107541 0.24131982490484771 0 -0.32052316857880009 0.25199218265017043 0 -0.32007631676378118 0.22793178832776281 0 -0.34139946132247112 0.24041351753421181 0 -0.32052316857880009 0.25199218265017043 0 -0.28520633826073721 0.24204505302591109 0 -0.29177957584356251 0.2379097909607483 0 -0.29813700426351908 0.2549985658140525 0 -0.28520633826073721 0.24204505302591109 0 -0.29177957584356251 0.2379097909607483 0 -0.28620422144783292 0.23331914670984491 0 -0.28520633826073721 0.24204505302591109 0 -0.28620422144783292 0.23331914670984491 0 -0.2743775822837069 0.2311971640619615 0 -0.28520633826073721 0.24204505302591109 0 -0.29177957584356251 0.2379097909607483 0 -0.28520633826073721 0.24204505302591109 0 -0.29813700426351908 0.2549985658140525 0 -0.29177957584356251 0.2379097909607483 0 -0.30683534910107541 0.24131982490484771 0 -0.29813700426351908 0.2549985658140525 0 -0.30683534910107541 0.24131982490484771 0 -0.32052316857880009 0.25199218265017043 0 -0.29813700426351908 0.2549985658140525 0 -0.29177957584356251 0.2379097909607483 0 -0.30683534910107541 0.24131982490484771 0 -0.3025311369596701 0.2279451799051346 0 -0.32007631676378118 0.22793178832776281 0 -0.3025311369596701 0.2279451799051346 0 -0.30808679103638181 0.2157672566230279 0 -0.32007631676378118 0.22793178832776281 0 -0.30683534910107541 0.24131982490484771 0 -0.3025311369596701 0.2279451799051346 0 -0.3025311369596701 0.2279451799051346 0 -0.29339823295664158 0.22906557906458669 0 -0.29484583138699982 0.21546216672010021 0 -0.3025311369596701 0.2279451799051346 0 -0.29484583138699982 0.21546216672010021 0 -0.30808679103638181 0.2157672566230279 0 -0.28556364975324361 0.2258194074993474 0 -0.29484583138699982 0.21546216672010021 0 -0.2791973288468384 0.21790572090905611 0 -0.29339823295664158 0.22906557906458669 0 -0.28556364975324361 0.2258194074993474 0 -0.29484583138699982 0.21546216672010021 0 -0.29177957584356251 0.2379097909607483 0 -0.29339823295664158 0.22906557906458669 0 -0.28620422144783292 0.23331914670984491 0 -0.29177957584356251 0.2379097909607483 0 -0.3025311369596701 0.2279451799051346 0 -0.29339823295664158 0.22906557906458669 0 -0.29339823295664158 0.22906557906458669 0 -0.28620422144783292 0.23331914670984491 0 -0.28556364975324361 0.2258194074993474 0 -0.28620422144783292 0.23331914670984491 0 -0.28556364975324361 0.2258194074993474 0 -0.2743775822837069 0.2311971640619615 0 -0.29484583138699982 0.21546216672010021 0 -0.2791973288468384 0.21790572090905611 0 -0.28722286546432818 0.20701443054747121 0 -0.29484583138699982 0.21546216672010021 0 -0.2791973288468384 0.21790572090905611 0 -0.28722286546432818 0.20701443054747121 0 -0.29484583138699982 0.21546216672010021 0 -0.30260222686899518 0.20256494078456561 0 -0.32037844320246261 0.2049322073775762 0 -0.30808679103638181 0.2157672566230279 0 -0.30260222686899518 0.20256494078456561 0 -0.29484583138699982 0.21546216672010021 0 -0.30808679103638181 0.2157672566230279 0 -0.30260222686899518 0.20256494078456561 0 -0.31289652582642141 0.1805837036697519 0 -0.30260222686899518 0.20256494078456561 0 -0.29078848868174278 0.1932410093311285 0 -0.31289652582642141 0.1805837036697519 0 -0.32037844320246261 0.2049322073775762 0 -0.30260222686899518 0.20256494078456561 0 -0.28722286546432818 0.20701443054747121 0 -0.29078848868174278 0.1932410093311285 0 -0.26868045153706449 0.20589831499250541 0 -0.28722286546432818 0.20701443054747121 0 -0.30260222686899518 0.20256494078456561 0 -0.29078848868174278 0.1932410093311285 0 -0.29078848868174278 0.1932410093311285 0 -0.27856333876668132 0.18821622517566469 0 -0.28884814108856732 0.1821072455122304 0 -0.29078848868174278 0.1932410093311285 0 -0.27856333876668132 0.18821622517566469 0 -0.26868045153706449 0.20589831499250541 0 -0.27856333876668132 0.18821622517566469 0 -0.26868045153706449 0.20589831499250541 0 -0.29078848868174278 0.1932410093311285 0 -0.26868045153706449 0.20589831499250541 0 -0.27856333876668132 0.18821622517566469 0 -0.26868045153706449 0.20589831499250541 0 -0.26716833294266512 0.18744146854889909 0 -0.25462413856064708 0.2114088186030785 0 -0.26716833294266512 0.18744146854889909 0 -0.25193880530206408 0.19370481573741441 0 -0.26716833294266512 0.18744146854889909 0 -0.25648243047464631 0.1826357185327456 0 -0.25193880530206408 0.19370481573741441 0 -0.25462413856064708 0.2114088186030785 0 -0.26716833294266512 0.18744146854889909 0 -0.25462413856064708 0.2114088186030785 0 -0.26868045153706449 0.20589831499250541 0 -0.26716833294266512 0.18744146854889909 0 -0.2562356768596219 0.21302320427817639 0 -0.26868045153706449 0.20589831499250541 0 -0.25462413856064708 0.2114088186030785 0 -0.2562356768596219 0.21302320427817639 0 -0.26868045153706449 0.20589831499250541 0 -0.25272816581491458 0.21503132644266379 0 -0.25462413856064708 0.2114088186030785 0 -0.25272816581491458 0.21503132644266379 0 -0.2562356768596219 0.21302320427817639 0 -0.25272816581491458 0.21503132644266379 0 -0.25462413856064708 0.2114088186030785 0 -0.2562356768596219 0.21302320427817639 0 -0.25462413856064708 0.2114088186030785 0 -0.2562356768596219 0.21302320427817639 0 -0.25272816581491458 0.21503132644266379 0 -0.2562356768596219 0.21302320427817639 0 -0.25599591734786031 0.2173373503046071 0 -0.2562356768596219 0.21302320427817639 0 -0.25599591734786031 0.2173373503046071 0 -0.25801218981811458 0.2175055682723043 0 -0.25272816581491458 0.21503132644266379 0 -0.25599591734786031 0.2173373503046071 0 -0.2564563288255462 0.2214567869436789 0 -0.25599591734786031 0.2173373503046071 0 -0.25801218981811458 0.2175055682723043 0 -0.25703316838862827 0.21958787938824861 0 -0.2562356768596219 0.21302320427817639 0 -0.26166069193192981 0.2184578046382698 0 -0.26868045153706449 0.20589831499250541 0 -0.25801218981811458 0.2175055682723043 0 -0.25913549456253288 0.21912160275221951 0 -0.25703316838862827 0.21958787938824861 0 -0.26166069193192981 0.2184578046382698 0 -0.26868045153706449 0.20589831499250541 0 -0.26354882630667698 0.22034927509801169 0 -0.2562356768596219 0.21302320427817639 0 -0.26166069193192981 0.2184578046382698 0 -0.26166069193192981 0.2184578046382698 0 -0.26868045153706449 0.20589831499250541 0 -0.25801218981811458 0.2175055682723043 0 -0.26166069193192981 0.2184578046382698 0 -0.25913549456253288 0.21912160275221951 0 -0.2562356768596219 0.21302320427817639 0 -0.25801218981811458 0.2175055682723043 0 -0.26166069193192981 0.2184578046382698 0 -0.28722286546432818 0.20701443054747121 0 -0.26868045153706449 0.20589831499250541 0 -0.2791973288468384 0.21790572090905611 0 -0.26868045153706449 0.20589831499250541 0 -0.2791973288468384 0.21790572090905611 0 -0.26354882630667698 0.22034927509801169 0 -0.2791973288468384 0.21790572090905611 0 -0.26354882630667698 0.22034927509801169 0 -0.2791973288468384 0.21790572090905611 0 -0.2743775822837069 0.2311971640619615 0 -0.26354882630667698 0.22034927509801169 0 -0.28556364975324361 0.2258194074993474 0 -0.2791973288468384 0.21790572090905611 0 -0.2743775822837069 0.2311971640619615 0 -0.2743775822837069 0.2311971640619615 0 -0.26322708885207657 0.23130122429223079 0 -0.27053130904085088 0.23989425105438689 0 -0.2743775822837069 0.2311971640619615 0 -0.26354882630667698 0.22034927509801169 0 -0.26322708885207657 0.23130122429223079 0 -0.2743775822837069 0.2311971640619615 0 -0.26354882630667698 0.22034927509801169 0 -0.26354882630667698 0.22034927509801169 0 -0.26032187107898369 0.22085317251209219 0 -0.26322708885207657 0.23130122429223079 0 -0.26354882630667698 0.22034927509801169 0 -0.26032187107898369 0.22085317251209219 0 -0.26166069193192981 0.2184578046382698 0 -0.26354882630667698 0.22034927509801169 0 -0.26032187107898369 0.22085317251209219 0 -0.26166069193192981 0.2184578046382698 0 -0.26354882630667698 0.22034927509801169 0 -0.26166069193192981 0.2184578046382698 0 -0.26032187107898369 0.22085317251209219 0 -0.26166069193192981 0.2184578046382698 0 -0.26032187107898369 0.22085317251209219 0 -0.25913549456253288 0.21912160275221951 0 -0.26032187107898369 0.22085317251209219 0 -0.2564563288255462 0.2214567869436789 0 -0.26032187107898369 0.22085317251209219 0 -0.25703316838862827 0.21958787938824861 0 -0.2564563288255462 0.2214567869436789 0 -0.26032187107898369 0.22085317251209219 0 -0.25913549456253288 0.21912160275221951 0 -0.25703316838862827 0.21958787938824861 0 -0.25599591734786031 0.2173373503046071 0 -0.25703316838862827 0.21958787938824861 0 -0.2564563288255462 0.2214567869436789 0 -0.2564563288255462 0.2214567869436789 0 -0.25210514226647263 0.23555423440704959 0 -0.248734035528067 0.22266264303674471 0 -0.26032187107898369 0.22085317251209219 0 -0.2564563288255462 0.2214567869436789 0 -0.25210514226647263 0.23555423440704959 0 -0.25703316838862827 0.21958787938824861 0 -0.2564563288255462 0.2214567869436789 0 -0.25272816581491458 0.21503132644266379 0 -0.2564563288255462 0.2214567869436789 0 -0.248734035528067 0.22266264303674471 0 -0.2564563288255462 0.2214567869436789 0 -0.248734035528067 0.22266264303674471 0 -0.25272816581491458 0.21503132644266379 0 -0.248734035528067 0.22266264303674471 0 -0.26032187107898369 0.22085317251209219 0 -0.25210514226647263 0.23555423440704959 0 -0.2564563288255462 0.2214567869436789 0 -0.25210514226647263 0.23555423440704959 0 -0.26032187107898369 0.22085317251209219 0 -0.26322708885207657 0.23130122429223079 0 -0.25210514226647263 0.23555423440704959 0 -0.26322708885207657 0.23130122429223079 0 -0.25210514226647263 0.23555423440704959 0 -0.25993357060704247 0.2432609816545768 0 -0.25054816238852479 0.24059870715785611 0 -0.25993357060704247 0.2432609816545768 0 -0.2546175921406465 0.26128861144859822 0 -0.26322708885207657 0.23130122429223079 0 -0.25993357060704247 0.2432609816545768 0 -0.27053130904085088 0.23989425105438689 0 -0.25054816238852479 0.24059870715785611 0 -0.25210514226647263 0.23555423440704959 0 -0.25993357060704247 0.2432609816545768 0 -0.25054816238852479 0.24059870715785611 0 -0.25210514226647263 0.23555423440704959 0 -0.25993357060704247 0.2432609816545768 0 -0.27053130904085088 0.23989425105438689 0 -0.26991196520069161 0.25166683223725428 0 -0.28520633826073721 0.24204505302591109 0 -0.2743775822837069 0.2311971640619615 0 -0.27053130904085088 0.23989425105438689 0 -0.28520633826073721 0.24204505302591109 0 -0.2743775822837069 0.2311971640619615 0 -0.28520633826073721 0.24204505302591109 0 -0.26991196520069161 0.25166683223725428 0 -0.28520633826073721 0.24204505302591109 0 -0.27053130904085088 0.23989425105438689 0 -0.26991196520069161 0.25166683223725428 0 -0.29367763624156518 0.14580120048619691 0 -0.30132029725935677 0.14489814247345079 0 -0.28540527766694768 0.16993595446686949 0 -0.30132029725935677 0.14489814247345079 0 -0.29832911322591421 0.15285204554198301 0 -0.28540527766694768 0.16993595446686949 0 -0.29225672170669897 0.1395067684405393 0 -0.27971252732468282 0.16347411849471971 0 -0.29367763624156518 0.14580120048619691 0 -0.29225672170669897 0.1395067684405393 0 -0.27971252732468282 0.16347411849471971 0 -0.29225672170669897 0.1395067684405393 0 -0.27971252732468282 0.16347411849471971 0 -0.27793738210199243 0.14829742822643491 0 -0.29367763624156518 0.14580120048619691 0 -0.29225672170669897 0.1395067684405393 0 -0.29367763624156518 0.14580120048619691 0 -0.29225672170669897 0.1395067684405393 0 -0.29707098058306791 0.1417275861303573 0 -0.29225672170669897 0.1395067684405393 0 -0.27793738210199243 0.14829742822643491 0 -0.28046643513796882 0.14013597811185341 0 -0.29225672170669897 0.1395067684405393 0 -0.27842990629181991 0.12905884737457521 0 -0.28046643513796882 0.14013597811185341 0 -0.29225672170669897 0.1395067684405393 0 -0.27842990629181991 0.12905884737457521 0 -0.2863041877154166 0.1131379617402274 0 -0.29225672170669897 0.1395067684405393 0 -0.2863041877154166 0.1131379617402274 0 -0.29225672170669897 0.1395067684405393 0 -0.2981778848162786 0.128193599602963 0 -0.2863041877154166 0.1131379617402274 0 -0.29225672170669897 0.1395067684405393 0 -0.30121224024343363 0.13483728542546841 0 -0.29707098058306791 0.1417275861303573 0 -0.29225672170669897 0.1395067684405393 0 -0.2981778848162786 0.128193599602963 0 -0.29225672170669897 0.1395067684405393 0 -0.30121224024343363 0.13483728542546841 0 -0.2981778848162786 0.128193599602963 0 -0.30121224024343363 0.13483728542546841 0 -0.2981778848162786 0.128193599602963 0 -0.31723531685176609 0.1198603304800319 0 -0.30132029725935677 0.14489814247345079 0 -0.31723531685176609 0.1198603304800319 0 -0.30121224024343363 0.13483728542546841 0 -0.30132029725935677 0.14489814247345079 0 -0.29707098058306791 0.1417275861303573 0 -0.31283651791160189 0.14254581953933751 0 -0.30132029725935677 0.14489814247345079 0 -0.31723531685176609 0.1198603304800319 0 -0.30121224024343363 0.13483728542546841 0 -0.30132029725935677 0.14489814247345079 0 -0.31723531685176609 0.1198603304800319 0 -0.31283651791160189 0.14254581953933751 0 -0.30132029725935677 0.14489814247345079 0 -0.30551098130554788 0.1539394275644638 0 -0.29367763624156518 0.14580120048619691 0 -0.30132029725935677 0.14489814247345079 0 -0.29707098058306791 0.1417275861303573 0 -0.30132029725935677 0.14489814247345079 0 -0.29832911322591421 0.15285204554198301 0 -0.30551098130554788 0.1539394275644638 0 -0.31851102729851588 0.15590236448055639 0 -0.31283651791160189 0.14254581953933751 0 -0.30551098130554788 0.1539394275644638 0 -0.31289652582642141 0.1805837036697519 0 -0.31851102729851588 0.15590236448055639 0 -0.30548605551313601 0.16580850627828139 0 -0.31851102729851588 0.15590236448055639 0 -0.30551098130554788 0.1539394275644638 0 -0.30548605551313601 0.16580850627828139 0 -0.30548605551313601 0.16580850627828139 0 -0.29764345600278319 0.16844986735664469 0 -0.29759451090954719 0.17643761218330459 0 -0.30548605551313601 0.16580850627828139 0 -0.29764345600278319 0.16844986735664469 0 -0.29908316640873578 0.16231679642003941 0 -0.29832911322591421 0.15285204554198301 0 -0.30551098130554788 0.1539394275644638 0 -0.29908316640873578 0.16231679642003941 0 -0.30551098130554788 0.1539394275644638 0 -0.30548605551313601 0.16580850627828139 0 -0.29908316640873578 0.16231679642003941 0 -0.31289652582642141 0.1805837036697519 0 -0.29078848868174278 0.1932410093311285 0 -0.29759451090954719 0.17643761218330459 0 -0.31289652582642141 0.1805837036697519 0 -0.29078848868174278 0.1932410093311285 0 -0.31289652582642141 0.1805837036697519 0 -0.30548605551313601 0.16580850627828139 0 -0.29759451090954719 0.17643761218330459 0 -0.27856333876668132 0.18821622517566469 0 -0.28844622599629782 0.17053413535882381 0 -0.27856333876668132 0.18821622517566469 0 -0.28884814108856732 0.1821072455122304 0 -0.28844622599629782 0.17053413535882381 0 -0.27856333876668132 0.18821622517566469 0 -0.28540527766694768 0.16993595446686949 0 -0.28844622599629782 0.17053413535882381 0 -0.29078848868174278 0.1932410093311285 0 -0.29759451090954719 0.17643761218330459 0 -0.28884814108856732 0.1821072455122304 0 -0.29759451090954719 0.17643761218330459 0 -0.28884814108856732 0.1821072455122304 0 -0.28844622599629782 0.17053413535882381 0 -0.29832911322591421 0.15285204554198301 0 -0.29908316640873578 0.16231679642003941 0 -0.28844622599629782 0.17053413535882381 0 -0.30132029725935677 0.14489814247345079 0 -0.28540527766694768 0.16993595446686949 0 -0.29367763624156518 0.14580120048619691 0 -0.28540527766694768 0.16993595446686949 0 -0.27971252732468282 0.16347411849471971 0 -0.29832911322591421 0.15285204554198301 0 -0.28540527766694768 0.16993595446686949 0 -0.28844622599629782 0.17053413535882381 0 -0.29832911322591421 0.15285204554198301 0 -0.28844622599629782 0.17053413535882381 0 -0.29764345600278319 0.16844986735664469 0 -0.29759451090954719 0.17643761218330459 0 -0.28844622599629782 0.17053413535882381 0 -0.29764345600278319 0.16844986735664469 0 -0.29908316640873578 0.16231679642003941 0 -0.28844622599629782 0.17053413535882381 0 -0.27971252732468282 0.16347411849471971 0 -0.26681583754358312 0.15703960248194049 0 -0.27793738210199243 0.14829742822643491 0 -0.27971252732468282 0.16347411849471971 0 -0.26864544582317851 0.1695326912228835 0 -0.26681583754358312 0.15703960248194049 0 -0.28540527766694768 0.16993595446686949 0 -0.27971252732468282 0.16347411849471971 0 -0.26716833294266512 0.18744146854889909 0 -0.27971252732468282 0.16347411849471971 0 -0.26716833294266512 0.18744146854889909 0 -0.27856333876668132 0.18821622517566469 0 -0.28540527766694768 0.16993595446686949 0 -0.26716833294266512 0.18744146854889909 0 -0.27971252732468282 0.16347411849471971 0 -0.26864544582317851 0.1695326912228835 0 -0.26716833294266512 0.18744146854889909 0 -0.26088508548178302 0.1701755753659748 0 -0.24346313069296871 0.16633892637512099 0 -0.24593749817207319 0.17922101447869401 0 -0.26864544582317851 0.1695326912228835 0 -0.26716833294266512 0.18744146854889909 0 -0.26088508548178302 0.1701755753659748 0 -0.26716833294266512 0.18744146854889909 0 -0.25648243047464631 0.1826357185327456 0 -0.26088508548178302 0.1701755753659748 0 -0.25648243047464631 0.1826357185327456 0 -0.26088508548178302 0.1701755753659748 0 -0.24593749817207319 0.17922101447869401 0 -0.25193880530206408 0.19370481573741441 0 -0.25648243047464631 0.1826357185327456 0 -0.24593749817207319 0.17922101447869401 0 -0.26681583754358312 0.15703960248194049 0 -0.26088508548178302 0.1701755753659748 0 -0.25072842261960387 0.15603505327837411 0 -0.26088508548178302 0.1701755753659748 0 -0.25072842261960387 0.15603505327837411 0 -0.24346313069296871 0.16633892637512099 0 -0.26864544582317851 0.1695326912228835 0 -0.26681583754358312 0.15703960248194049 0 -0.26088508548178302 0.1701755753659748 0 -0.26088508548178302 0.1701755753659748 0 -0.25072842261960387 0.15603505327837411 0 -0.26681583754358312 0.15703960248194049 0 -0.25608290515330878 0.14176455504424121 0 -0.27043538879702828 0.1413306736031216 0 -0.26681583754358312 0.15703960248194049 0 -0.25072842261960387 0.15603505327837411 0 -0.25608290515330878 0.14176455504424121 0 -0.26681583754358312 0.15703960248194049 0 -0.27043538879702828 0.1413306736031216 0 -0.27793738210199243 0.14829742822643491 0 -0.27043538879702828 0.1413306736031216 0 -0.27793738210199243 0.14829742822643491 0 -0.28046643513796882 0.14013597811185341 0 -0.27043538879702828 0.1413306736031216 0 -0.27842990629181991 0.12905884737457521 0 -0.28046643513796882 0.14013597811185341 0 -0.27043538879702828 0.1413306736031216 0 -0.27842990629181991 0.12905884737457521 0 -0.2648400147316442 0.13011893998476409 0 -0.27842990629181991 0.12905884737457521 0 -0.2648400147316442 0.13011893998476409 0 -0.26830038075826779 0.11624375259475619 0 -0.25608290515330878 0.14176455504424121 0 -0.2648400147316442 0.13011893998476409 0 -0.24895710550971339 0.12165530893482571 0 -0.25608290515330878 0.14176455504424121 0 -0.27043538879702828 0.1413306736031216 0 -0.2648400147316442 0.13011893998476409 0 -0.25734245126200062 0.1014160866788785 0 -0.26830038075826779 0.11624375259475619 0 -0.24895710550971339 0.12165530893482571 0 -0.2648400147316442 0.13011893998476409 0 -0.26830038075826779 0.11624375259475619 0 -0.24895710550971339 0.12165530893482571 0 -0.25734245126200062 0.1014160866788785 0 -0.24895710550971339 0.12165530893482571 0 -0.25734245126200062 0.1014160866788785 0 -0.27392861903901239 0.1020753708552664 0 -0.26830038075826779 0.11624375259475619 0 -0.27392861903901239 0.1020753708552664 0 -0.2863041877154166 0.1131379617402274 0 -0.28035165372413551 0.086769155039914989 0 -0.25734245126200062 0.1014160866788785 0 -0.27392861903901239 0.1020753708552664 0 -0.26572779701428773 0.081176864422931191 0 -0.27842990629181991 0.12905884737457521 0 -0.26830038075826779 0.11624375259475619 0 -0.2863041877154166 0.1131379617402274 0 -0.27392861903901239 0.1020753708552664 0 -0.26830038075826779 0.11624375259475619 0 -0.2863041877154166 0.1131379617402274 0 -0.2981778848162786 0.128193599602963 0 -0.2863041877154166 0.1131379617402274 0 -0.30134905106005738 0.1164832023402728 0 -0.2863041877154166 0.1131379617402274 0 -0.28035165372413551 0.086769155039914989 0 -0.2863041877154166 0.1131379617402274 0 -0.29405774138327462 0.094893752904386258 0 -0.28035165372413551 0.086769155039914989 0 -0.2863041877154166 0.1131379617402274 0 -0.29405774138327462 0.094893752904386258 0 -0.30367881485676818 0.104740917537869 0 -0.29405774138327462 0.094893752904386258 0 -0.30367881485676818 0.104740917537869 0 -0.30859009333780452 0.087437634974232029 0 -0.30367881485676818 0.104740917537869 0 -0.30859009333780452 0.087437634974232029 0 -0.31724517505712951 0.098806923667406316 0 -0.2981778848162786 0.128193599602963 0 -0.30134905106005738 0.1164832023402728 0 -0.31723531685176609 0.1198603304800319 0 -0.2863041877154166 0.1131379617402274 0 -0.30367881485676818 0.104740917537869 0 -0.30134905106005738 0.1164832023402728 0 -0.30367881485676818 0.104740917537869 0 -0.30134905106005738 0.1164832023402728 0 -0.31723531685176609 0.1198603304800319 0 -0.30660633332941051 0.074378369855040594 0 -0.29366682663590249 0.070755320590707688 0 -0.31081826144354868 0.060679329518446831 0 -0.30660633332941051 0.074378369855040594 0 -0.29665452968210548 0.0828468466728563 0 -0.29366682663590249 0.070755320590707688 0 -0.29405774138327462 0.094893752904386258 0 -0.30859009333780452 0.087437634974232029 0 -0.29665452968210548 0.0828468466728563 0 -0.30660633332941051 0.074378369855040594 0 -0.30859009333780452 0.087437634974232029 0 -0.29665452968210548 0.0828468466728563 0 -0.29665452968210548 0.0828468466728563 0 -0.29366682663590249 0.070755320590707688 0 -0.28035165372413551 0.086769155039914989 0 -0.29405774138327462 0.094893752904386258 0 -0.29665452968210548 0.0828468466728563 0 -0.28035165372413551 0.086769155039914989 0 -0.29366682663590249 0.070755320590707688 0 -0.28035165372413551 0.086769155039914989 0 -0.2743991197328543 0.06040034833960263 0 -0.28035165372413551 0.086769155039914989 0 -0.2743991197328543 0.06040034833960263 0 -0.28035165372413551 0.086769155039914989 0 -0.26572779701428773 0.081176864422931191 0 -0.2743991197328543 0.06040034833960263 0 -0.27392861903901239 0.1020753708552664 0 -0.28035165372413551 0.086769155039914989 0 -0.26572779701428773 0.081176864422931191 0 -0.25734245126200062 0.1014160866788785 0 -0.26572779701428773 0.081176864422931191 0 -0.24672703352553629 0.080158677613093823 0 -0.25734245126200062 0.1014160866788785 0 -0.26572779701428773 0.081176864422931191 0 -0.26572779701428773 0.081176864422931191 0 -0.2559826395353394 0.061597363551489349 0 -0.2743991197328543 0.06040034833960263 0 -0.26572779701428773 0.081176864422931191 0 -0.2559826395353394 0.061597363551489349 0 -0.24672703352553629 0.080158677613093823 0 -0.2559826395353394 0.061597363551489349 0 -0.26844658574157321 0.034031541639290362 0 -0.24450296286368231 0.049373315754277197 0 -0.26844658574157321 0.034031541639290362 0 -0.24192231969137759 0.032530148466345048 0 -0.24450296286368231 0.049373315754277197 0 -0.26844658574157321 0.034031541639290362 0 -0.2743991197328543 0.06040034833960263 0 -0.28919208176463768 0.041254089627619089 0 -0.26844658574157321 0.034031541639290362 0 -0.28503043027369879 0.024646141826126219 0 -0.28919208176463768 0.041254089627619089 0 -0.2559826395353394 0.061597363551489349 0 -0.26844658574157321 0.034031541639290362 0 -0.2743991197328543 0.06040034833960263 0 -0.26844658574157321 0.034031541639290362 0 -0.2743991197328543 0.06040034833960263 0 -0.25227296286688322 -0.0076793426536460041 0 -0.26249405175029211 0.007662734938978108 0 -0.23546354233931949 0.0078270751002715265 0 -0.26844658574157321 0.034031541639290362 0 -0.26249405175029211 0.007662734938978108 0 -0.26844658574157321 0.034031541639290362 0 -0.26249405175029211 0.007662734938978108 0 -0.24192231969137759 0.032530148466345048 0 -0.26844658574157321 0.034031541639290362 0 -0.26249405175029211 0.007662734938978108 0 -0.28503043027369879 0.024646141826126219 0 -0.26249405175029211 0.007662734938978108 0 -0.29088909275279012 0.0052797473078289572 0 -0.28503043027369879 0.024646141826126219 0 -0.28503043027369879 0.024646141826126219 0 -0.30319396424779033 0.026796870749645822 0 -0.28919208176463768 0.041254089627619089 0 -0.29088909275279012 0.0052797473078289572 0 -0.28503043027369879 0.024646141826126219 0 -0.30319396424779033 0.026796870749645822 0 -0.30319396424779033 0.026796870749645822 0 -0.30957503066598552 0.011427225412800709 0 -0.32058731744473762 0.019928587991941731 0 -0.29088909275279012 0.0052797473078289572 0 -0.30319396424779033 0.026796870749645822 0 -0.30957503066598552 0.011427225412800709 0 -0.30518798685158838 -0.0020929360932298849 0 -0.29088909275279012 0.0052797473078289572 0 -0.30957503066598552 0.011427225412800709 0 -0.30518798685158838 -0.0020929360932298849 0 -0.30957503066598552 0.011427225412800709 0 -0.32049615199215492 0.0045280339304297253 0 -0.2743991197328543 0.06040034833960263 0 -0.29603323201561299 0.055812399873303893 0 -0.28919208176463768 0.041254089627619089 0 -0.29366682663590249 0.070755320590707688 0 -0.2743991197328543 0.06040034833960263 0 -0.29603323201561299 0.055812399873303893 0 -0.30319396424779033 0.026796870749645822 0 -0.28919208176463768 0.041254089627619089 0 -0.31060618731623352 0.044985865152084623 0 -0.30319396424779033 0.026796870749645822 0 -0.31060618731623352 0.044985865152084623 0 -0.31880783956767128 0.032922242476857162 0 -0.29603323201561299 0.055812399873303893 0 -0.28919208176463768 0.041254089627619089 0 -0.31060618731623352 0.044985865152084623 0 -0.29603323201561299 0.055812399873303893 0 -0.31060618731623352 0.044985865152084623 0 -0.31081826144354868 0.060679329518446831 0 -0.29366682663590249 0.070755320590707688 0 -0.29603323201561299 0.055812399873303893 0 -0.31081826144354868 0.060679329518446831 0 -0.31060618731623352 0.044985865152084623 0 -0.32788744175529538 0.041514351910999107 0 -0.32831049041907839 0.055921771907720449 0 -0.31060618731623352 0.044985865152084623 0 -0.31081826144354868 0.060679329518446831 0 -0.32831049041907839 0.055921771907720449 0 -0.31060618731623352 0.044985865152084623 0 -0.31880783956767128 0.032922242476857162 0 -0.32788744175529538 0.041514351910999107 0 -0.31880783956767128 0.032922242476857162 0 -0.32788744175529538 0.041514351910999107 0 -0.33284048064853922 0.02898560650307868 0 -0.34306862850599618 0.040992927417729488 0 -0.33284048064853922 0.02898560650307868 0 -0.34878147881263583 0.02639136098039228 0 -0.32788744175529538 0.041514351910999107 0 -0.34306862850599618 0.040992927417729488 0 -0.32831049041907839 0.055921771907720449 0 -0.32788744175529538 0.041514351910999107 0 -0.34306862850599618 0.040992927417729488 0 -0.33284048064853922 0.02898560650307868 0 -0.32831049041907839 0.055921771907720449 0 -0.34909822148757808 0.06037421403352132 0 -0.3353113387102199 0.067919589230939131 0 -0.34306862850599618 0.040992927417729488 0 -0.32831049041907839 0.055921771907720449 0 -0.34909822148757808 0.06037421403352132 0 -0.30957503066598552 0.011427225412800709 0 -0.32049615199215492 0.0045280339304297253 0 -0.32058731744473762 0.019928587991941731 0 -0.32049615199215492 0.0045280339304297253 0 -0.32058731744473762 0.019928587991941731 0 -0.33553321900770577 0.01329805350298063 0 -0.30319396424779033 0.026796870749645822 0 -0.31880783956767128 0.032922242476857162 0 -0.32058731744473762 0.019928587991941731 0 -0.31880783956767128 0.032922242476857162 0 -0.32058731744473762 0.019928587991941731 0 -0.33284048064853922 0.02898560650307868 0 -0.33284048064853922 0.02898560650307868 0 -0.33553321900770577 0.01329805350298063 0 -0.34878147881263583 0.02639136098039228 0 -0.32058731744473762 0.019928587991941731 0 -0.33284048064853922 0.02898560650307868 0 -0.33553321900770577 0.01329805350298063 0 -0.33449922093445961 -0.0040818700918973123 0 -0.32049615199215492 0.0045280339304297253 0 -0.33553321900770577 0.01329805350298063 0 -0.33449922093445961 -0.0040818700918973123 0 -0.33553321900770577 0.01329805350298063 0 -0.35182631000740072 0.0068229147672093007 0 -0.33553321900770577 0.01329805350298063 0 -0.35182631000740072 0.0068229147672093007 0 -0.34878147881263583 0.02639136098039228 0 -0.34878147881263583 0.02639136098039228 0 -0.3640039126182737 0.02126082680388874 0 -0.35655106705292511 0.040817520418704747 0 -0.35182631000740072 0.0068229147672093007 0 -0.34878147881263583 0.02639136098039228 0 -0.3640039126182737 0.02126082680388874 0 -0.3640039126182737 0.02126082680388874 0 -0.35655106705292511 0.040817520418704747 0 -0.37938766176258892 0.01937444117527904 0 -0.3640039126182737 0.02126082680388874 0 -0.37363166703579942 0.035604814688565273 0 -0.3640039126182737 0.02126082680388874 0 -0.37145675818362223 0.001704133189072726 0 -0.35182631000740072 0.0068229147672093007 0 -0.3640039126182737 0.02126082680388874 0 -0.37145675818362223 0.001704133189072726 0 -0.37938766176258892 0.01937444117527904 0 -0.3640039126182737 0.02126082680388874 0 -0.37145675818362223 0.001704133189072726 0 -0.34909822148757808 0.06037421403352132 0 -0.35655106705292511 0.040817520418704747 0 -0.34306862850599618 0.040992927417729488 0 -0.34909822148757808 0.06037421403352132 0 -0.35655106705292511 0.040817520418704747 0 -0.34306862850599618 0.040992927417729488 0 -0.34909822148757808 0.06037421403352132 0 -0.34909822148757808 0.06037421403352132 0 -0.35655106705292511 0.040817520418704747 0 -0.36842953035862158 0.050481425088617103 0 -0.34306862850599618 0.040992927417729488 0 -0.34878147881263583 0.02639136098039228 0 -0.35655106705292511 0.040817520418704747 0 -0.3640039126182737 0.02126082680388874 0 -0.35655106705292511 0.040817520418704747 0 -0.37363166703579942 0.035604814688565273 0 -0.35655106705292511 0.040817520418704747 0 -0.37363166703579942 0.035604814688565273 0 -0.36842953035862158 0.050481425088617103 0 -0.34909822148757808 0.06037421403352132 0 -0.36842953035862158 0.050481425088617103 0 -0.37191756568804107 0.066739953928913298 0 -0.37191756568804107 0.066739953928913298 0 -0.35586120822019068 0.082112892687927444 0 -0.37138104083623391 0.082703932652830325 0 -0.34909822148757808 0.06037421403352132 0 -0.35586120822019068 0.082112892687927444 0 -0.34909822148757808 0.06037421403352132 0 -0.35586120822019068 0.082112892687927444 0 -0.34122595447521131 0.081031493547087358 0 -0.34909822148757808 0.06037421403352132 0 -0.37191756568804107 0.066739953928913298 0 -0.35586120822019068 0.082112892687927444 0 -0.34909822148757808 0.06037421403352132 0 -0.34122595447521131 0.081031493547087358 0 -0.35586120822019068 0.082112892687927444 0 -0.36262419495280129 0.1038515713423341 0 -0.35586120822019068 0.082112892687927444 0 -0.36262419495280129 0.1038515713423341 0 -0.34676829850597268 0.094510259469289468 0 -0.35586120822019068 0.082112892687927444 0 -0.34676829850597268 0.094510259469289468 0 -0.34122595447521131 0.081031493547087358 0 -0.35586120822019068 0.082112892687927444 0 -0.37138104083623391 0.082703932652830325 0 -0.36262419495280129 0.1038515713423341 0 -0.37678680274428078 0.095920052983538381 0 -0.37138104083623391 0.082703932652830325 0 -0.36262419495280129 0.1038515713423341 0 -0.36938718168541179 0.1255902499967409 0 -0.35200794605681629 0.12502238642781019 0 -0.36262419495280129 0.1038515713423341 0 -0.3875766108720648 0.10801011350679229 0 -0.36938718168541179 0.1255902499967409 0 -0.36262419495280129 0.1038515713423341 0 -0.36938718168541179 0.1255902499967409 0 -0.36262419495280129 0.1038515713423341 0 -0.35200794605681629 0.12502238642781019 0 -0.36262419495280129 0.1038515713423341 0 -0.34097979843748499 0.11073282128248541 0 -0.36262419495280129 0.1038515713423341 0 -0.34676829850597268 0.094510259469289468 0 -0.34097979843748499 0.11073282128248541 0 -0.33315033644417541 0.094822518486612939 0 -0.34097979843748499 0.11073282128248541 0 -0.31723531685176609 0.1198603304800319 0 -0.34676829850597268 0.094510259469289468 0 -0.33315033644417541 0.094822518486612939 0 -0.34097979843748499 0.11073282128248541 0 -0.35200794605681629 0.12502238642781019 0 -0.33282908497732799 0.12691684344983439 0 -0.34097979843748499 0.11073282128248541 0 -0.33282908497732799 0.12691684344983439 0 -0.34097979843748499 0.11073282128248541 0 -0.31723531685176609 0.1198603304800319 0 -0.30367881485676818 0.104740917537869 0 -0.31723531685176609 0.1198603304800319 0 -0.31724517505712951 0.098806923667406316 0 -0.33315033644417541 0.094822518486612939 0 -0.31723531685176609 0.1198603304800319 0 -0.33315033644417541 0.094822518486612939 0 -0.31723531685176609 0.1198603304800319 0 -0.31724517505712951 0.098806923667406316 0 -0.30859009333780452 0.087437634974232029 0 -0.31724517505712951 0.098806923667406316 0 -0.32357131379513321 0.087173216858285787 0 -0.33315033644417541 0.094822518486612939 0 -0.31724517505712951 0.098806923667406316 0 -0.32357131379513321 0.087173216858285787 0 -0.30660633332941051 0.074378369855040594 0 -0.30859009333780452 0.087437634974232029 0 -0.32274642435413547 0.073355371094589714 0 -0.30859009333780452 0.087437634974232029 0 -0.32357131379513321 0.087173216858285787 0 -0.32274642435413547 0.073355371094589714 0 -0.31081826144354868 0.060679329518446831 0 -0.32831049041907839 0.055921771907720449 0 -0.32274642435413547 0.073355371094589714 0 -0.30660633332941051 0.074378369855040594 0 -0.31081826144354868 0.060679329518446831 0 -0.32274642435413547 0.073355371094589714 0 -0.32831049041907839 0.055921771907720449 0 -0.32274642435413547 0.073355371094589714 0 -0.3353113387102199 0.067919589230939131 0 -0.34909822148757808 0.06037421403352132 0 -0.3353113387102199 0.067919589230939131 0 -0.34122595447521131 0.081031493547087358 0 -0.32274642435413547 0.073355371094589714 0 -0.3353113387102199 0.067919589230939131 0 -0.34122595447521131 0.081031493547087358 0 -0.33315033644417541 0.094822518486612939 0 -0.32357131379513321 0.087173216858285787 0 -0.34122595447521131 0.081031493547087358 0 -0.32357131379513321 0.087173216858285787 0 -0.32274642435413547 0.073355371094589714 0 -0.34122595447521131 0.081031493547087358 0 -0.34676829850597268 0.094510259469289468 0 -0.33315033644417541 0.094822518486612939 0 -0.34122595447521131 0.081031493547087358 0 -0.39098080248864292 0.48082949146892462 0 -0.39688472812408349 0.46225301958370763 0 -0.40654981809613899 0.47943816589621452 0 -0.39098080248864292 0.48082949146892462 0 -0.40517642966730788 0.5 0 -0.40654981809613899 0.47943816589621452 0 -0.39098080248864292 0.48082949146892462 0 -0.40517642966730788 0.5 0 -0.37984386551400101 0.5 0 -0.39098080248864292 0.48082949146892462 0 -0.37984386551400101 0.5 0 -0.36562800957556379 0.48144847740775781 0 -0.39098080248864292 0.48082949146892462 0 -0.37674471779043378 0.46289695481551602 0 -0.36562800957556379 0.48144847740775781 0 -0.39098080248864292 0.48082949146892462 0 -0.37674471779043378 0.46289695481551602 0 -0.39688472812408349 0.46225301958370763 0 -0.37674471779043378 0.46289695481551602 0 -0.38786142600530288 0.44434543222327372 0 -0.37674471779043378 0.46289695481551602 0 -0.38786142600530288 0.44434543222327372 0 -0.3636594906987341 0.45259116813215772 0 -0.37674471779043378 0.46289695481551602 0 -0.38786142600530288 0.44434543222327372 0 -0.39688472812408349 0.46225301958370763 0 -0.38786142600530288 0.44434543222327372 0 -0.38219330561030318 0.43733759585905729 0 -0.37031446948010971 0.44164379239859503 0 -0.38786142600530288 0.44434543222327372 0 -0.3636594906987341 0.45259116813215772 0 -0.38786142600530288 0.44434543222327372 0 -0.39005529127119792 0.44068431777663197 0 -0.38219330561030318 0.43733759585905729 0 -0.38786142600530288 0.44434543222327372 0 -0.39005529127119792 0.44068431777663197 0 -0.38786142600530288 0.44434543222327372 0 -0.40276516754681568 0.43926764339155733 0 -0.39688472812408349 0.46225301958370763 0 -0.38786142600530288 0.44434543222327372 0 -0.40276516754681568 0.43926764339155733 0 -0.38786142600530288 0.44434543222327372 0 -0.39005529127119792 0.44068431777663197 0 -0.40276516754681568 0.43926764339155733 0 -0.40276516754681568 0.43926764339155733 0 -0.39688472812408349 0.46225301958370763 0 -0.41912534642966243 0.46276605766276058 0 -0.39688472812408349 0.46225301958370763 0 -0.41912534642966243 0.46276605766276058 0 -0.40654981809613899 0.47943816589621452 0 -0.40276516754681568 0.43926764339155733 0 -0.41912534642966243 0.46276605766276058 0 -0.41766890908832871 0.43418985455984122 0 -0.41912534642966243 0.46276605766276058 0 -0.41766890908832871 0.43418985455984122 0 -0.43637228529971711 0.45059119829788907 0 -0.44062134191292651 0.43194009349776402 0 -0.42355994468304931 0.43218274549486041 0 -0.41912534642966243 0.46276605766276058 0 -0.43637228529971711 0.45059119829788907 0 -0.41766890908832871 0.43418985455984122 0 -0.43637228529971711 0.45059119829788907 0 -0.42355994468304931 0.43218274549486041 0 -0.41766890908832871 0.43418985455984122 0 -0.41912534642966243 0.46276605766276058 0 -0.43637228529971711 0.45059119829788907 0 -0.43819607322225379 0.4802098919466351 0 -0.41912534642966243 0.46276605766276058 0 -0.42058178377099831 0.49134226076567977 0 -0.43819607322225379 0.4802098919466351 0 -0.41912534642966243 0.46276605766276058 0 -0.40654981809613899 0.47943816589621452 0 -0.42058178377099831 0.49134226076567977 0 -0.41912534642966243 0.46276605766276058 0 -0.42058178377099831 0.49134226076567977 0 -0.40517642966730788 0.5 0 -0.40654981809613899 0.47943816589621452 0 -0.42058178377099831 0.49134226076567977 0 -0.40517642966730788 0.5 0 -0.42058178377099831 0.49134226076567977 0 -0.43050899382061492 0.5 0 -0.42058178377099831 0.49134226076567977 0 -0.43050899382061492 0.5 0 -0.43819607322225379 0.4802098919466351 0 -0.43050899382061492 0.5 0 -0.43819607322225379 0.4802098919466351 0 -0.4558415579739219 0.50000000000000289 0 -0.5 0.5 0 -0.45848093797747058 0.44107104525054719 0 -0.5 0.39368719930634488 0 -0.43819607322225379 0.4802098919466351 0 -0.45716124797569629 0.47053552262527509 0 -0.4558415579739219 0.50000000000000289 0 -0.45716124797569629 0.47053552262527509 0 -0.4558415579739219 0.50000000000000289 0 -0.45716124797569629 0.47053552262527509 0 -0.5 0.5 0 -0.45848093797747058 0.44107104525054719 0 -0.45716124797569629 0.47053552262527509 0 -0.4558415579739219 0.50000000000000289 0 -0.5 0.5 0 -0.45716124797569629 0.47053552262527509 0 -0.45848093797747058 0.44107104525054719 0 -0.43637228529971711 0.45059119829788907 0 -0.45716124797569629 0.47053552262527509 0 -0.45848093797747058 0.44107104525054719 0 -0.43637228529971711 0.45059119829788907 0 -0.43819607322225379 0.4802098919466351 0 -0.45716124797569629 0.47053552262527509 0 -0.43637228529971711 0.45059119829788907 0 -0.45848093797747058 0.44107104525054719 0 -0.44062134191292651 0.43194009349776402 0 -0.45848093797747058 0.44107104525054719 0 -0.44062134191292651 0.43194009349776402 0 -0.45980062797924498 0.41160656787581928 0 -0.44121582346845373 0.41376147505037958 0 -0.45980062797924498 0.41160656787581928 0 -0.45143531712829632 0.39504510946912502 0 -0.44062134191292651 0.43194009349776402 0 -0.44121582346845373 0.41376147505037958 0 -0.45980062797924498 0.41160656787581928 0 -0.45848093797747058 0.44107104525054719 0 -0.45980062797924498 0.41160656787581928 0 -0.45848093797747058 0.44107104525054719 0 -0.45980062797924498 0.41160656787581928 0 -0.5 0.39368719930634488 0 -0.45980062797924498 0.41160656787581928 0 -0.5 0.39368719930634488 0 -0.47061151440635052 0.38738233066939171 0 -0.5 0.39368719930634488 0 -0.47061151440635052 0.38738233066939171 0 -0.47244599738177773 0.36378702031114818 0 -0.47061151440635052 0.38738233066939171 0 -0.45360913424094712 0.37591717629495691 0 -0.45143531712829632 0.39504510946912502 0 -0.47061151440635052 0.38738233066939171 0 -0.45360913424094712 0.37591717629495691 0 -0.47244599738177773 0.36378702031114818 0 -0.45980062797924498 0.41160656787581928 0 -0.47061151440635052 0.38738233066939171 0 -0.45143531712829632 0.39504510946912502 0 -0.44121582346845373 0.41376147505037958 0 -0.45143531712829632 0.39504510946912502 0 -0.43115992967391842 0.40404311620122768 0 -0.45143531712829632 0.39504510946912502 0 -0.43477227110011651 0.38804733227876548 0 -0.43115992967391842 0.40404311620122768 0 -0.45360913424094712 0.37591717629495691 0 -0.43477227110011651 0.38804733227876548 0 -0.43761421779729981 0.36799172170783712 0 -0.45360913424094712 0.37591717629495691 0 -0.43477227110011651 0.38804733227876548 0 -0.45360913424094712 0.37591717629495691 0 -0.45143531712829632 0.39504510946912502 0 -0.43477227110011651 0.38804733227876548 0 -0.41504006019910189 0.38261021041501481 0 -0.43761421779729981 0.36799172170783712 0 -0.43477227110011651 0.38804733227876548 0 -0.41504006019910189 0.38261021041501481 0 -0.43761421779729981 0.36799172170783712 0 -0.43477227110011651 0.38804733227876548 0 -0.41504006019910189 0.38261021041501481 0 -0.4159354079592873 0.40017748826257649 0 -0.41504006019910189 0.38261021041501481 0 -0.41164644412426671 0.3848078356442457 0 -0.42787124419666578 0.3625299828724986 0 -0.41164644412426671 0.3848078356442457 0 -0.40212947449434688 0.3748414468342991 0 -0.41107150013157362 0.36619624614190099 0 -0.41504006019910189 0.38261021041501481 0 -0.41164644412426671 0.3848078356442457 0 -0.41109804598765209 0.39149102164547678 0 -0.41504006019910189 0.38261021041501481 0 -0.41164644412426671 0.3848078356442457 0 -0.41504006019910189 0.38261021041501481 0 -0.4159354079592873 0.40017748826257649 0 -0.41504006019910189 0.38261021041501481 0 -0.41109804598765209 0.39149102164547678 0 -0.4159354079592873 0.40017748826257649 0 -0.41164644412426671 0.3848078356442457 0 -0.41109804598765209 0.39149102164547678 0 -0.40177027166795132 0.3983685522600704 0 -0.41109804598765209 0.39149102164547678 0 -0.4159354079592873 0.40017748826257649 0 -0.40177027166795132 0.3983685522600704 0 -0.41164644412426671 0.3848078356442457 0 -0.40177027166795132 0.3983685522600704 0 -0.43477227110011651 0.38804733227876548 0 -0.4159354079592873 0.40017748826257649 0 -0.43477227110011651 0.38804733227876548 0 -0.4159354079592873 0.40017748826257649 0 -0.43115992967391842 0.40404311620122768 0 -0.44121582346845373 0.41376147505037958 0 -0.43115992967391842 0.40404311620122768 0 -0.42986314558338468 0.42022497384430652 0 -0.43115992967391842 0.40404311620122768 0 -0.42986314558338468 0.42022497384430652 0 -0.41680215852380748 0.41718367141120882 0 -0.44062134191292651 0.43194009349776402 0 -0.44121582346845373 0.41376147505037958 0 -0.42986314558338468 0.42022497384430652 0 -0.44062134191292651 0.43194009349776402 0 -0.42986314558338468 0.42022497384430652 0 -0.42355994468304931 0.43218274549486041 0 -0.42986314558338468 0.42022497384430652 0 -0.42355994468304931 0.43218274549486041 0 -0.41680215852380748 0.41718367141120882 0 -0.41766890908832871 0.43418985455984122 0 -0.41680215852380748 0.41718367141120882 0 -0.41766890908832871 0.43418985455984122 0 -0.41680215852380748 0.41718367141120882 0 -0.40452415779474138 0.42721409118458831 0 -0.42355994468304931 0.43218274549486041 0 -0.41766890908832871 0.43418985455984122 0 -0.41680215852380748 0.41718367141120882 0 -0.42355994468304931 0.43218274549486041 0 -0.41766890908832871 0.43418985455984122 0 -0.40276516754681568 0.43926764339155733 0 -0.41766890908832871 0.43418985455984122 0 -0.40276516754681568 0.43926764339155733 0 -0.41766890908832871 0.43418985455984122 0 -0.40452415779474138 0.42721409118458831 0 -0.4159354079592873 0.40017748826257649 0 -0.43115992967391842 0.40404311620122768 0 -0.41680215852380748 0.41718367141120882 0 -0.4159354079592873 0.40017748826257649 0 -0.41680215852380748 0.41718367141120882 0 -0.4159354079592873 0.40017748826257649 0 -0.41680215852380748 0.41718367141120882 0 -0.39328619543943649 0.41476263859902718 0 -0.39328619543943649 0.41476263859902718 0 -0.39189409921163532 0.41192926887589459 0 -0.40177027166795132 0.3983685522600704 0 -0.4159354079592873 0.40017748826257649 0 -0.39328619543943649 0.41476263859902718 0 -0.41680215852380748 0.41718367141120882 0 -0.39328619543943649 0.41476263859902718 0 -0.40452415779474138 0.42721409118458831 0 -0.39328619543943649 0.41476263859902718 0 -0.40452415779474138 0.42721409118458831 0 -0.39209835837531859 0.43066664796130649 0 -0.40276516754681568 0.43926764339155733 0 -0.40452415779474138 0.42721409118458831 0 -0.39209835837531859 0.43066664796130649 0 -0.39005529127119792 0.44068431777663197 0 -0.40276516754681568 0.43926764339155733 0 -0.39209835837531859 0.43066664796130649 0 -0.39328619543943649 0.41476263859902718 0 -0.37063698291958719 0.42934778893548009 0 -0.39209835837531859 0.43066664796130649 0 -0.38219330561030318 0.43733759585905729 0 -0.37063698291958719 0.42934778893548009 0 -0.39328619543943649 0.41476263859902718 0 -0.39209835837531859 0.43066664796130649 0 -0.37063698291958719 0.42934778893548009 0 -0.39005529127119792 0.44068431777663197 0 -0.39209835837531859 0.43066664796130649 0 -0.38219330561030318 0.43733759585905729 0 -0.39189409921163532 0.41192926887589459 0 -0.39195655763330312 0.3975585388349005 0 -0.37226667114234002 0.41030924202555608 0 -0.39328619543943649 0.41476263859902718 0 -0.39189409921163532 0.41192926887589459 0 -0.37226667114234002 0.41030924202555608 0 -0.39328619543943649 0.41476263859902718 0 -0.37226667114234002 0.41030924202555608 0 -0.37063698291958719 0.42934778893548009 0 -0.39195655763330312 0.3975585388349005 0 -0.37226667114234002 0.41030924202555608 0 -0.39195655763330312 0.3975585388349005 0 -0.37495024184161951 0.39669027322643757 0 -0.37226667114234002 0.41030924202555608 0 -0.38343510648805168 0.38508963626910381 0 -0.39195655763330312 0.3975585388349005 0 -0.37495024184161951 0.39669027322643757 0 -0.38343510648805168 0.38508963626910381 0 -0.36896039956082288 0.38726624238899698 0 -0.37495024184161951 0.39669027322643757 0 -0.38343510648805168 0.38508963626910381 0 -0.37817844187468841 0.37049799817574158 0 -0.36896039956082288 0.38726624238899698 0 -0.38343510648805168 0.38508963626910381 0 -0.39677184295297052 0.38392901966133991 0 -0.39106782088146019 0.37499676007273403 0 -0.38343510648805168 0.38508963626910381 0 -0.39106782088146019 0.37499676007273403 0 -0.37817844187468841 0.37049799817574158 0 -0.38343510648805168 0.38508963626910381 0 -0.39677184295297052 0.38392901966133991 0 -0.39195655763330312 0.3975585388349005 0 -0.41164644412426671 0.3848078356442457 0 -0.39677184295297052 0.38392901966133991 0 -0.39195655763330312 0.3975585388349005 0 -0.39677184295297052 0.38392901966133991 0 -0.40212947449434688 0.3748414468342991 0 -0.39106782088146019 0.37499676007273403 0 -0.41164644412426671 0.3848078356442457 0 -0.39677184295297052 0.38392901966133991 0 -0.40212947449434688 0.3748414468342991 0 -0.41164644412426671 0.3848078356442457 0 -0.39195655763330312 0.3975585388349005 0 -0.4159354079592873 0.40017748826257649 0 -0.39328619543943649 0.41476263859902718 0 -0.40177027166795132 0.3983685522600704 0 -0.41164644412426671 0.3848078356442457 0 -0.40177027166795132 0.3983685522600704 0 -0.39195655763330312 0.3975585388349005 0 -0.39189409921163532 0.41192926887589459 0 -0.40177027166795132 0.3983685522600704 0 -0.39195655763330312 0.3975585388349005 0 -0.39189409921163532 0.41192926887589459 0 -0.40177027166795132 0.3983685522600704 0 -0.38763875309648088 0.35121150247505228 0 -0.41586739868277361 0.34573181628790323 0 -0.39706953126344319 0.36332699894800602 0 -0.38763875309648088 0.35121150247505228 0 -0.41586739868277361 0.34573181628790323 0 -0.38763875309648088 0.35121150247505228 0 -0.3937872350367228 0.33507229671605809 0 -0.41586739868277361 0.34573181628790323 0 -0.40212947449434688 0.3748414468342991 0 -0.39706953126344319 0.36332699894800602 0 -0.41107150013157362 0.36619624614190099 0 -0.40212947449434688 0.3748414468342991 0 -0.39106782088146019 0.37499676007273403 0 -0.39706953126344319 0.36332699894800602 0 -0.37817844187468841 0.37049799817574158 0 -0.38763875309648088 0.35121150247505228 0 -0.35941010751018809 0.3566911886622014 0 -0.39706953126344319 0.36332699894800602 0 -0.37817844187468841 0.37049799817574158 0 -0.38763875309648088 0.35121150247505228 0 -0.39106782088146019 0.37499676007273403 0 -0.39706953126344319 0.36332699894800602 0 -0.37817844187468841 0.37049799817574158 0 -0.38659885775585739 0.31565850626255348 0 -0.3937872350367228 0.33507229671605809 0 -0.371857819856382 0.33718357931137699 0 -0.38763875309648088 0.35121150247505228 0 -0.3937872350367228 0.33507229671605809 0 -0.371857819856382 0.33718357931137699 0 -0.38659885775585739 0.31565850626255348 0 -0.371857819856382 0.33718357931137699 0 -0.38659885775585739 0.31565850626255348 0 -0.3736940231061725 0.31398947852622111 0 -0.371857819856382 0.33718357931137699 0 -0.38659885775585739 0.31565850626255348 0 -0.3937872350367228 0.33507229671605809 0 -0.40697334579212008 0.32557607924340459 0 -0.38659885775585739 0.31565850626255348 0 -0.40697334579212008 0.32557607924340459 0 -0.40344199037643141 0.31069905435295109 0 -0.3937872350367228 0.33507229671605809 0 -0.40697334579212008 0.32557607924340459 0 -0.41586739868277361 0.34573181628790323 0 -0.40697334579212008 0.32557607924340459 0 -0.42641657962310969 0.33014507151577532 0 -0.41586739868277361 0.34573181628790323 0 -0.40697334579212008 0.32557607924340459 0 -0.42482201379485501 0.3164116993459492 0 -0.40344199037643141 0.31069905435295109 0 -0.40697334579212008 0.32557607924340459 0 -0.42482201379485501 0.3164116993459492 0 -0.42641657962310969 0.33014507151577532 0 -0.42482201379485501 0.3164116993459492 0 -0.44032409557673402 0.32275363260086698 0 -0.44093041861641502 0.30629419798598828 0 -0.42482201379485501 0.3164116993459492 0 -0.42641657962310969 0.33014507151577532 0 -0.44032409557673402 0.32275363260086698 0 -0.42641657962310969 0.33014507151577532 0 -0.41586739868277361 0.34573181628790323 0 -0.44409604426906601 0.34025213010075239 0 -0.42641657962310969 0.33014507151577532 0 -0.44409604426906601 0.34025213010075239 0 -0.44032409557673402 0.32275363260086698 0 -0.41586739868277361 0.34573181628790323 0 -0.44409604426906601 0.34025213010075239 0 -0.42787124419666578 0.3625299828724986 0 -0.44409604426906601 0.34025213010075239 0 -0.41586739868277361 0.34573181628790323 0 -0.42787124419666578 0.3625299828724986 0 -0.44409604426906601 0.34025213010075239 0 -0.41586739868277361 0.34573181628790323 0 -0.41107150013157362 0.36619624614190099 0 -0.42787124419666578 0.3625299828724986 0 -0.39706953126344319 0.36332699894800602 0 -0.41586739868277361 0.34573181628790323 0 -0.41107150013157362 0.36619624614190099 0 -0.41164644412426671 0.3848078356442457 0 -0.41107150013157362 0.36619624614190099 0 -0.42787124419666578 0.3625299828724986 0 -0.41164644412426671 0.3848078356442457 0 -0.42787124419666578 0.3625299828724986 0 -0.41504006019910189 0.38261021041501481 0 -0.42787124419666578 0.3625299828724986 0 -0.43761421779729981 0.36799172170783712 0 -0.42787124419666578 0.3625299828724986 0 -0.43761421779729981 0.36799172170783712 0 -0.44532995730629832 0.35516754502531411 0 -0.5 0.39368719930634488 0 -0.5 0.31375562759013931 0 -0.49236992051172512 0.33088130527536841 0 -0.5 0.39368719930634488 0 -0.49236992051172512 0.33088130527536841 0 -0.48276253299369798 0.33875474429348529 0 -0.43761421779729981 0.36799172170783712 0 -0.46018837539549878 0.35337323300066131 0 -0.45360913424094712 0.37591717629495691 0 -0.43761421779729981 0.36799172170783712 0 -0.46018837539549878 0.35337323300066131 0 -0.44532995730629832 0.35516754502531411 0 -0.46018837539549878 0.35337323300066131 0 -0.44409604426906601 0.34025213010075239 0 -0.42787124419666578 0.3625299828724986 0 -0.44532995730629832 0.35516754502531411 0 -0.44409604426906601 0.34025213010075239 0 -0.43761421779729981 0.36799172170783712 0 -0.44532995730629832 0.35516754502531411 0 -0.46018837539549878 0.35337323300066131 0 -0.45360913424094712 0.37591717629495691 0 -0.47244599738177773 0.36378702031114818 0 -0.45360913424094712 0.37591717629495691 0 -0.46018837539549878 0.35337323300066131 0 -0.47244599738177773 0.36378702031114818 0 -0.5 0.39368719930634488 0 -0.47244599738177773 0.36378702031114818 0 -0.48276253299369798 0.33875474429348529 0 -0.46018837539549878 0.35337323300066131 0 -0.47244599738177773 0.36378702031114818 0 -0.48276253299369798 0.33875474429348529 0 -0.46018837539549878 0.35337323300066131 0 -0.48276253299369798 0.33875474429348529 0 -0.5 0.31375562759013931 0 -0.49236992051172512 0.33088130527536841 0 -0.47844448370196352 0.32365782782372382 0 -0.49236992051172512 0.33088130527536841 0 -0.48276253299369798 0.33875474429348529 0 -0.46823298239039562 0.33556671768806118 0 -0.49236992051172512 0.33088130527536841 0 -0.47844448370196352 0.32365782782372382 0 -0.46823298239039562 0.33556671768806118 0 -0.46018837539549878 0.35337323300066131 0 -0.48276253299369798 0.33875474429348529 0 -0.46823298239039562 0.33556671768806118 0 -0.49236992051172512 0.33088130527536841 0 -0.46823298239039562 0.33556671768806118 0 -0.5 0.31375562759013931 0 -0.47844448370196352 0.32365782782372382 0 -0.47326150671693828 0.30885130336962702 0 -0.47844448370196352 0.32365782782372382 0 -0.46553845445045222 0.32292377735302652 0 -0.46823298239039562 0.33556671768806118 0 -0.47844448370196352 0.32365782782372382 0 -0.46553845445045222 0.32292377735302652 0 -0.47326150671693828 0.30885130336962702 0 -0.46553845445045222 0.32292377735302652 0 -0.45536731290503107 0.31414791777939732 0 -0.47326150671693828 0.30885130336962702 0 -0.46553845445045222 0.32292377735302652 0 -0.45342644041040631 0.32744080480790411 0 -0.45536731290503107 0.31414791777939732 0 -0.46823298239039562 0.33556671768806118 0 -0.44409604426906601 0.34025213010075239 0 -0.46018837539549878 0.35337323300066131 0 -0.46823298239039562 0.33556671768806118 0 -0.44409604426906601 0.34025213010075239 0 -0.45342644041040631 0.32744080480790411 0 -0.46823298239039562 0.33556671768806118 0 -0.44409604426906601 0.34025213010075239 0 -0.46553845445045222 0.32292377735302652 0 -0.45342644041040631 0.32744080480790411 0 -0.46823298239039562 0.33556671768806118 0 -0.45342644041040631 0.32744080480790411 0 -0.44409604426906601 0.34025213010075239 0 -0.44032409557673402 0.32275363260086698 0 -0.45342644041040631 0.32744080480790411 0 -0.44409604426906601 0.34025213010075239 0 -0.45536731290503107 0.31414791777939732 0 -0.44032409557673402 0.32275363260086698 0 -0.44093041861641502 0.30629419798598828 0 -0.45342644041040631 0.32744080480790411 0 -0.45536731290503107 0.31414791777939732 0 -0.44032409557673402 0.32275363260086698 0 -0.44093041861641502 0.30629419798598828 0 -0.44456522433562062 0.28987896746967612 0 -0.45784842118247587 0.29630392741269229 0 -0.45536731290503107 0.31414791777939732 0 -0.44093041861641502 0.30629419798598828 0 -0.45784842118247587 0.29630392741269229 0 -0.44456522433562062 0.28987896746967612 0 -0.45784842118247587 0.29630392741269229 0 -0.45683589886731429 0.27944522996227389 0 -0.45784842118247587 0.29630392741269229 0 -0.47613016565353689 0.27920594790919162 0 -0.45683589886731429 0.27944522996227389 0 -0.45536731290503107 0.31414791777939732 0 -0.45784842118247587 0.29630392741269229 0 -0.47326150671693828 0.30885130336962702 0 -0.5 0.31375562759013931 0 -0.47326150671693828 0.30885130336962702 0 -0.47613016565353689 0.27920594790919162 0 -0.5 0.31375562759013931 0 -0.5 0.25502500317745308 0 -0.47613016565353689 0.27920594790919162 0 -0.45784842118247587 0.29630392741269229 0 -0.47326150671693828 0.30885130336962702 0 -0.47613016565353689 0.27920594790919162 0 -0.5 0.25502500317745308 0 -0.47613016565353689 0.27920594790919162 0 -0.46826200115894351 0.25268254595322559 0 -0.46826200115894351 0.25268254595322559 0 -0.46001429554523132 0.26715439528268792 0 -0.44622747097204157 0.25447826500352411 0 -0.47613016565353689 0.27920594790919162 0 -0.46001429554523132 0.26715439528268792 0 -0.45683589886731429 0.27944522996227389 0 -0.47613016565353689 0.27920594790919162 0 -0.46826200115894351 0.25268254595322559 0 -0.46001429554523132 0.26715439528268792 0 -0.44456522433562062 0.28987896746967612 0 -0.45683589886731429 0.27944522996227389 0 -0.43912327732866052 0.27082845975049152 0 -0.46001429554523132 0.26715439528268792 0 -0.45683589886731429 0.27944522996227389 0 -0.43912327732866052 0.27082845975049152 0 -0.43912327732866052 0.27082845975049152 0 -0.44622747097204157 0.25447826500352411 0 -0.4271662496375016 0.26119471126077209 0 -0.46001429554523132 0.26715439528268792 0 -0.43912327732866052 0.27082845975049152 0 -0.44622747097204157 0.25447826500352411 0 -0.43243648966469961 0.24825823729562091 0 -0.4271662496375016 0.26119471126077209 0 -0.4154354269666965 0.25327969466909228 0 -0.43243648966469961 0.24825823729562091 0 -0.44622747097204157 0.25447826500352411 0 -0.4271662496375016 0.26119471126077209 0 -0.4154354269666965 0.25327969466909228 0 -0.41608093355480807 0.27260836016490658 0 -0.3994904005985685 0.26310408063752239 0 -0.4271662496375016 0.26119471126077209 0 -0.4154354269666965 0.25327969466909228 0 -0.41608093355480807 0.27260836016490658 0 -0.43912327732866052 0.27082845975049152 0 -0.4271662496375016 0.26119471126077209 0 -0.41608093355480807 0.27260836016490658 0 -0.43912327732866052 0.27082845975049152 0 -0.41608093355480807 0.27260836016490658 0 -0.42569467822547491 0.29333324823827622 0 -0.44093041861641502 0.30629419798598828 0 -0.44456522433562062 0.28987896746967612 0 -0.42569467822547491 0.29333324823827622 0 -0.44456522433562062 0.28987896746967612 0 -0.43912327732866052 0.27082845975049152 0 -0.42569467822547491 0.29333324823827622 0 -0.42482201379485501 0.3164116993459492 0 -0.44093041861641502 0.30629419798598828 0 -0.42569467822547491 0.29333324823827622 0 -0.42482201379485501 0.3164116993459492 0 -0.42569467822547491 0.29333324823827622 0 -0.41580892915603301 0.30455156730479449 0 -0.41580892915603301 0.30455156730479449 0 -0.40133989565533279 0.29413343321372998 0 -0.40344199037643141 0.31069905435295109 0 -0.42569467822547491 0.29333324823827622 0 -0.41580892915603301 0.30455156730479449 0 -0.40133989565533279 0.29413343321372998 0 -0.42482201379485501 0.3164116993459492 0 -0.41580892915603301 0.30455156730479449 0 -0.40344199037643141 0.31069905435295109 0 -0.41608093355480807 0.27260836016490658 0 -0.42569467822547491 0.29333324823827622 0 -0.40133989565533279 0.29413343321372998 0 -0.41608093355480807 0.27260836016490658 0 -0.40133989565533279 0.29413343321372998 0 -0.40133989565533279 0.29413343321372998 0 -0.391405356210975 0.28736794428101681 0 -0.38183605444568008 0.30159254882832942 0 -0.41608093355480807 0.27260836016490658 0 -0.40133989565533279 0.29413343321372998 0 -0.39791334778191012 0.27873259344880857 0 -0.40133989565533279 0.29413343321372998 0 -0.391405356210975 0.28736794428101681 0 -0.39791334778191012 0.27873259344880857 0 -0.38659885775585739 0.31565850626255348 0 -0.40133989565533279 0.29413343321372998 0 -0.40344199037643141 0.31069905435295109 0 -0.38659885775585739 0.31565850626255348 0 -0.40133989565533279 0.29413343321372998 0 -0.38659885775585739 0.31565850626255348 0 -0.40133989565533279 0.29413343321372998 0 -0.38183605444568008 0.30159254882832942 0 -0.38183605444568008 0.30159254882832942 0 -0.37466468983423318 0.28951354051077988 0 -0.36997315068782782 0.30191223918603199 0 -0.38183605444568008 0.30159254882832942 0 -0.36997315068782782 0.30191223918603199 0 -0.3736940231061725 0.31398947852622111 0 -0.38659885775585739 0.31565850626255348 0 -0.38183605444568008 0.30159254882832942 0 -0.3736940231061725 0.31398947852622111 0 -0.391405356210975 0.28736794428101681 0 -0.38183605444568008 0.30159254882832942 0 -0.38453212696097688 0.2750132016331992 0 -0.38183605444568008 0.30159254882832942 0 -0.38453212696097688 0.2750132016331992 0 -0.37466468983423318 0.28951354051077988 0 -0.38183605444568008 0.30159254882832942 0 -0.38453212696097688 0.2750132016331992 0 -0.37672471104263361 0.27561795758142188 0 -0.38453212696097688 0.2750132016331992 0 -0.37466468983423318 0.28951354051077988 0 -0.37672471104263361 0.27561795758142188 0 -0.38453212696097688 0.2750132016331992 0 -0.37896013194671968 0.25534683486931381 0 -0.38722819947627368 0.24843385443806909 0 -0.38453212696097688 0.2750132016331992 0 -0.37896013194671968 0.25534683486931381 0 -0.37672471104263361 0.27561795758142188 0 -0.37896013194671968 0.25534683486931381 0 -0.38722819947627368 0.24843385443806909 0 -0.38453212696097688 0.2750132016331992 0 -0.3994904005985685 0.26310408063752239 0 -0.38722819947627368 0.24843385443806909 0 -0.38453212696097688 0.2750132016331992 0 -0.40101037553383972 0.24850817254535781 0 -0.4154354269666965 0.25327969466909228 0 -0.3994904005985685 0.26310408063752239 0 -0.38722819947627368 0.24843385443806909 0 -0.40101037553383972 0.24850817254535781 0 -0.3994904005985685 0.26310408063752239 0 -0.38453212696097688 0.2750132016331992 0 -0.3994904005985685 0.26310408063752239 0 -0.39791334778191012 0.27873259344880857 0 -0.41608093355480807 0.27260836016490658 0 -0.3994904005985685 0.26310408063752239 0 -0.39791334778191012 0.27873259344880857 0 -0.391405356210975 0.28736794428101681 0 -0.38453212696097688 0.2750132016331992 0 -0.39791334778191012 0.27873259344880857 0 -0.35754908974886279 0.25815157521253052 0 -0.35995394297715549 0.27846885519039472 0 -0.3399009986899495 0.26863911531903439 0 -0.34139946132247112 0.24041351753421181 0 -0.35754908974886279 0.25815157521253052 0 -0.3399009986899495 0.26863911531903439 0 -0.37672471104263361 0.27561795758142188 0 -0.37896013194671968 0.25534683486931381 0 -0.3691483330232409 0.26445373858247911 0 -0.35754908974886279 0.25815157521253052 0 -0.36759241766554501 0.2538245840294952 0 -0.3691483330232409 0.26445373858247911 0 -0.36182205832064851 0.24457456243760281 0 -0.35754908974886279 0.25815157521253052 0 -0.36759241766554501 0.2538245840294952 0 -0.37210575503526089 0.24405057661464391 0 -0.37896013194671968 0.25534683486931381 0 -0.36759241766554501 0.2538245840294952 0 -0.37896013194671968 0.25534683486931381 0 -0.36759241766554501 0.2538245840294952 0 -0.3691483330232409 0.26445373858247911 0 -0.35754908974886279 0.25815157521253052 0 -0.3691483330232409 0.26445373858247911 0 -0.35995394297715549 0.27846885519039472 0 -0.37672471104263361 0.27561795758142188 0 -0.3691483330232409 0.26445373858247911 0 -0.35995394297715549 0.27846885519039472 0 -0.37672471104263361 0.27561795758142188 0 -0.35995394297715549 0.27846885519039472 0 -0.37466468983423318 0.28951354051077988 0 -0.35995394297715549 0.27846885519039472 0 -0.37466468983423318 0.28951354051077988 0 -0.36067095067979221 0.29568292426180159 0 -0.37466468983423318 0.28951354051077988 0 -0.36067095067979221 0.29568292426180159 0 -0.36997315068782782 0.30191223918603199 0 -0.36067095067979221 0.29568292426180159 0 -0.36997315068782782 0.30191223918603199 0 -0.35820423278511537 0.31360051904281339 0 -0.36997315068782782 0.30191223918603199 0 -0.35820423278511537 0.31360051904281339 0 -0.3736940231061725 0.31398947852622111 0 -0.36067095067979221 0.29568292426180159 0 -0.33840253605742793 0.29686471310385681 0 -0.35820423278511537 0.31360051904281339 0 -0.33840253605742793 0.29686471310385681 0 -0.33690407342490619 0.32509031088867912 0 -0.35820423278511537 0.31360051904281339 0 -0.35995394297715549 0.27846885519039472 0 -0.33840253605742793 0.29686471310385681 0 -0.3399009986899495 0.26863911531903439 0 -0.35995394297715549 0.27846885519039472 0 -0.36067095067979221 0.29568292426180159 0 -0.33840253605742793 0.29686471310385681 0 -0.33840253605742793 0.29686471310385681 0 -0.3399009986899495 0.26863911531903439 0 -0.33840253605742793 0.29686471310385681 0 -0.31331907053128433 0.313878567385664 0 -0.33690407342490619 0.32509031088867912 0 -0.33840253605742793 0.29686471310385681 0 -0.33690407342490619 0.32509031088867912 0 -0.33840253605742793 0.29686471310385681 0 -0.31760133335066493 0.29423642541125972 0 -0.31331907053128433 0.313878567385664 0 -0.33840253605742793 0.29686471310385681 0 -0.31760133335066493 0.29423642541125972 0 -0.31493928155445272 0.27430993559415479 0 -0.33840253605742793 0.29686471310385681 0 -0.31493928155445272 0.27430993559415479 0 -0.3399009986899495 0.26863911531903439 0 -0.34139946132247112 0.24041351753421181 0 -0.3399009986899495 0.26863911531903439 0 -0.34139946132247112 0.24041351753421181 0 -0.3399009986899495 0.26863911531903439 0 -0.32052316857880009 0.25199218265017043 0 -0.31493928155445272 0.27430993559415479 0 -0.3399009986899495 0.26863911531903439 0 -0.32052316857880009 0.25199218265017043 0 -0.31493928155445272 0.27430993559415479 0 -0.32052316857880009 0.25199218265017043 0 -0.29813700426351908 0.2549985658140525 0 -0.31493928155445272 0.27430993559415479 0 -0.29813700426351908 0.2549985658140525 0 -0.29529200006252948 0.27158343417855851 0 -0.31493928155445272 0.27430993559415479 0 -0.29529200006252948 0.27158343417855851 0 -0.29860197381843362 0.29024571476828781 0 -0.29529200006252948 0.27158343417855851 0 -0.28356153015689661 0.26077246338072052 0 -0.28122021051934548 0.27759049133557667 0 -0.29529200006252948 0.27158343417855851 0 -0.28122021051934548 0.27759049133557667 0 -0.29860197381843362 0.29024571476828781 0 -0.29813700426351908 0.2549985658140525 0 -0.29529200006252948 0.27158343417855851 0 -0.28356153015689661 0.26077246338072052 0 -0.28520633826073721 0.24204505302591109 0 -0.29813700426351908 0.2549985658140525 0 -0.28356153015689661 0.26077246338072052 0 -0.28520633826073721 0.24204505302591109 0 -0.28356153015689661 0.26077246338072052 0 -0.26991196520069161 0.25166683223725428 0 -0.28356153015689661 0.26077246338072052 0 -0.26991196520069161 0.25166683223725428 0 -0.26982671458757052 0.26781375962876097 0 -0.28356153015689661 0.26077246338072052 0 -0.26982671458757052 0.26781375962876097 0 -0.28122021051934548 0.27759049133557667 0 -0.26982671458757052 0.26781375962876097 0 -0.28122021051934548 0.27759049133557667 0 -0.25982227492027221 0.287750399741656 0 -0.2546175921406465 0.26128861144859822 0 -0.25982227492027221 0.287750399741656 0 -0.26982671458757052 0.26781375962876097 0 -0.2546175921406465 0.26128861144859822 0 -0.25982227492027221 0.287750399741656 0 -0.2546175921406465 0.26128861144859822 0 -0.25982227492027221 0.287750399741656 0 -0.24164285362834059 0.26945109504960563 0 -0.25054816238852479 0.24059870715785611 0 -0.2546175921406465 0.26128861144859822 0 -0.26991196520069161 0.25166683223725428 0 -0.26982671458757052 0.26781375962876097 0 -0.2546175921406465 0.26128861144859822 0 -0.25993357060704247 0.2432609816545768 0 -0.26991196520069161 0.25166683223725428 0 -0.2546175921406465 0.26128861144859822 0 -0.26991196520069161 0.25166683223725428 0 -0.2546175921406465 0.26128861144859822 0 -0.25982227492027221 0.287750399741656 0 -0.26502695769989643 0.31421218803471418 0 -0.25040582964490582 0.29567583303740069 0 -0.26031873506221342 0.31817490468258641 0 -0.26502695769989643 0.31421218803471418 0 -0.25040582964490582 0.29567583303740069 0 -0.26031873506221342 0.31817490468258641 0 -0.25040582964490582 0.29567583303740069 0 -0.25982227492027221 0.287750399741656 0 -0.26502695769989643 0.31421218803471418 0 -0.25040582964490582 0.29567583303740069 0 -0.26031873506221342 0.31817490468258641 0 -0.2434150889916675 0.31528126182336752 0 -0.25040582964490582 0.29567583303740069 0 -0.25982227492027221 0.287750399741656 0 -0.2404929242275981 0.27317676139221531 0 -0.28122021051934548 0.27759049133557667 0 -0.25982227492027221 0.287750399741656 0 -0.27872696579211859 0.29653502721740232 0 -0.27872696579211859 0.29653502721740232 0 -0.2889634120026453 0.31287634220677663 0 -0.26502695769989643 0.31421218803471418 0 -0.25982227492027221 0.287750399741656 0 -0.27872696579211859 0.29653502721740232 0 -0.26502695769989643 0.31421218803471418 0 -0.27872696579211859 0.29653502721740232 0 -0.29860197381843362 0.29024571476828781 0 -0.2889634120026453 0.31287634220677663 0 -0.28122021051934548 0.27759049133557667 0 -0.27872696579211859 0.29653502721740232 0 -0.29860197381843362 0.29024571476828781 0 -0.31760133335066493 0.29423642541125972 0 -0.31493928155445272 0.27430993559415479 0 -0.29860197381843362 0.29024571476828781 0 -0.29860197381843362 0.29024571476828781 0 -0.2889634120026453 0.31287634220677663 0 -0.31331907053128433 0.313878567385664 0 -0.31760133335066493 0.29423642541125972 0 -0.29860197381843362 0.29024571476828781 0 -0.31331907053128433 0.313878567385664 0 -0.29891576475332582 0.33197597815543639 0 -0.2889634120026453 0.31287634220677663 0 -0.31331907053128433 0.313878567385664 0 -0.29891576475332582 0.33197597815543639 0 -0.31508677610875602 0.33246264155886579 0 -0.31331907053128433 0.313878567385664 0 -0.29891576475332582 0.33197597815543639 0 -0.30998113757288742 0.35016350933599311 0 -0.31508677610875602 0.33246264155886579 0 -0.29891576475332582 0.33197597815543639 0 -0.27956012110933898 0.33426516842927712 0 -0.28899367546018362 0.34990607578599969 0 -0.27956012110933898 0.33426516842927712 0 -0.27835705654663001 0.3466973614805422 0 -0.28899367546018362 0.34990607578599969 0 -0.29891576475332582 0.33197597815543639 0 -0.2889634120026453 0.31287634220677663 0 -0.27956012110933898 0.33426516842927712 0 -0.27023164047952081 0.34067397632777208 0 -0.26502695769989643 0.31421218803471418 0 -0.2889634120026453 0.31287634220677663 0 -0.27956012110933898 0.33426516842927712 0 -0.26502695769989643 0.31421218803471418 0 -0.27956012110933898 0.33426516842927712 0 -0.27023164047952081 0.34067397632777208 0 -0.26502695769989643 0.31421218803471418 0 -0.27956012110933898 0.33426516842927712 0 -0.27023164047952081 0.34067397632777208 0 -0.27835705654663001 0.3466973614805422 0 -0.27023164047952081 0.34067397632777208 0 -0.25008303346203908 0.33611797840414298 0 -0.26058904667577898 0.35313253120237981 0 -0.27023164047952081 0.34067397632777208 0 -0.25008303346203908 0.33611797840414298 0 -0.26031873506221342 0.31817490468258641 0 -0.27023164047952081 0.34067397632777208 0 -0.26031873506221342 0.31817490468258641 0 -0.27023164047952081 0.34067397632777208 0 -0.26031873506221342 0.31817490468258641 0 -0.26502695769989643 0.31421218803471418 0 -0.25008303346203908 0.33611797840414298 0 -0.26031873506221342 0.31817490468258641 0 -0.2434150889916675 0.31528126182336752 0 -0.2592717334901794 0.37344143954643821 0 -0.26058904667577898 0.35313253120237981 0 -0.245130999697667 0.35617292401417999 0 -0.2592717334901794 0.37344143954643821 0 -0.26058904667577898 0.35313253120237981 0 -0.2742317000365197 0.36101118680509853 0 -0.25008303346203908 0.33611797840414298 0 -0.26058904667577898 0.35313253120237981 0 -0.245130999697667 0.35617292401417999 0 -0.27023164047952081 0.34067397632777208 0 -0.27835705654663001 0.3466973614805422 0 -0.2742317000365197 0.36101118680509853 0 -0.27023164047952081 0.34067397632777208 0 -0.26058904667577898 0.35313253120237981 0 -0.2742317000365197 0.36101118680509853 0 -0.27023164047952081 0.34067397632777208 0 -0.2742317000365197 0.36101118680509853 0 -0.27835705654663001 0.3466973614805422 0 -0.2742317000365197 0.36101118680509853 0 -0.28899367546018362 0.34990607578599969 0 -0.2592717334901794 0.37344143954643821 0 -0.2742317000365197 0.36101118680509853 0 -0.27666944541277583 0.38068284486427251 0 -0.2742317000365197 0.36101118680509853 0 -0.2918056253057611 0.36977816091582622 0 -0.27666944541277583 0.38068284486427251 0 -0.2742317000365197 0.36101118680509853 0 -0.2918056253057611 0.36977816091582622 0 -0.28899367546018362 0.34990607578599969 0 -0.2918056253057611 0.36977816091582622 0 -0.28899367546018362 0.34990607578599969 0 -0.30998113757288742 0.35016350933599311 0 -0.29891576475332582 0.33197597815543639 0 -0.28899367546018362 0.34990607578599969 0 -0.30998113757288742 0.35016350933599311 0 -0.2918056253057611 0.36977816091582622 0 -0.30998113757288742 0.35016350933599311 0 -0.30751920709622288 0.37811993239733782 0 -0.30998113757288742 0.35016350933599311 0 -0.3241796865990505 0.37446232129606583 0 -0.30998113757288742 0.35016350933599311 0 -0.3241796865990505 0.37446232129606583 0 -0.3311814619238953 0.36217087484935062 0 -0.30998113757288742 0.35016350933599311 0 -0.3241796865990505 0.37446232129606583 0 -0.30751920709622288 0.37811993239733782 0 -0.3241796865990505 0.37446232129606583 0 -0.3311814619238953 0.36217087484935062 0 -0.3450213805631549 0.37637896488870742 0 -0.3311814619238953 0.36217087484935062 0 -0.34248144252655999 0.3449329262912757 0 -0.32671787735756741 0.34394441277493482 0 -0.30998113757288742 0.35016350933599311 0 -0.3311814619238953 0.36217087484935062 0 -0.32671787735756741 0.34394441277493482 0 -0.30998113757288742 0.35016350933599311 0 -0.32671787735756741 0.34394441277493482 0 -0.31508677610875602 0.33246264155886579 0 -0.32671787735756741 0.34394441277493482 0 -0.31508677610875602 0.33246264155886579 0 -0.33690407342490619 0.32509031088867912 0 -0.31508677610875602 0.33246264155886579 0 -0.31331907053128433 0.313878567385664 0 -0.33690407342490619 0.32509031088867912 0 -0.34248144252655999 0.3449329262912757 0 -0.32671787735756741 0.34394441277493482 0 -0.33690407342490619 0.32509031088867912 0 -0.34248144252655999 0.3449329262912757 0 -0.33690407342490619 0.32509031088867912 0 -0.35402019531300261 0.33435003863570822 0 -0.33690407342490619 0.32509031088867912 0 -0.35402019531300261 0.33435003863570822 0 -0.35820423278511537 0.31360051904281339 0 -0.35820423278511537 0.31360051904281339 0 -0.3736940231061725 0.31398947852622111 0 -0.371857819856382 0.33718357931137699 0 -0.35402019531300261 0.33435003863570822 0 -0.35820423278511537 0.31360051904281339 0 -0.371857819856382 0.33718357931137699 0 -0.35402019531300261 0.33435003863570822 0 -0.371857819856382 0.33718357931137699 0 -0.35941010751018809 0.3566911886622014 0 -0.38763875309648088 0.35121150247505228 0 -0.371857819856382 0.33718357931137699 0 -0.35941010751018809 0.3566911886622014 0 -0.38763875309648088 0.35121150247505228 0 -0.35941010751018809 0.3566911886622014 0 -0.37817844187468841 0.37049799817574158 0 -0.35941010751018809 0.3566911886622014 0 -0.36132744716974019 0.37598607000928502 0 -0.35941010751018809 0.3566911886622014 0 -0.3450213805631549 0.37637896488870742 0 -0.36132744716974019 0.37598607000928502 0 -0.3311814619238953 0.36217087484935062 0 -0.35941010751018809 0.3566911886622014 0 -0.3450213805631549 0.37637896488870742 0 -0.3311814619238953 0.36217087484935062 0 -0.35941010751018809 0.3566911886622014 0 -0.34248144252655999 0.3449329262912757 0 -0.35402019531300261 0.33435003863570822 0 -0.35941010751018809 0.3566911886622014 0 -0.3311814619238953 0.36217087484935062 0 -0.34248144252655999 0.3449329262912757 0 -0.35941010751018809 0.3566911886622014 0 -0.35813247438357998 0.40322770661363078 0 -0.35506690633984689 0.38909595593077778 0 -0.33837823562521357 0.3987611332561386 0 -0.3450213805631549 0.37637896488870742 0 -0.35506690633984689 0.38909595593077778 0 -0.36132744716974019 0.37598607000928502 0 -0.3450213805631549 0.37637896488870742 0 -0.35506690633984689 0.38909595593077778 0 -0.33837823562521357 0.3987611332561386 0 -0.37817844187468841 0.37049799817574158 0 -0.36132744716974019 0.37598607000928502 0 -0.36896039956082288 0.38726624238899698 0 -0.35506690633984689 0.38909595593077778 0 -0.36132744716974019 0.37598607000928502 0 -0.36896039956082288 0.38726624238899698 0 -0.35813247438357998 0.40322770661363078 0 -0.35506690633984689 0.38909595593077778 0 -0.36896039956082288 0.38726624238899698 0 -0.35813247438357998 0.40322770661363078 0 -0.36896039956082288 0.38726624238899698 0 -0.37495024184161951 0.39669027322643757 0 -0.35813247438357998 0.40322770661363078 0 -0.37495024184161951 0.39669027322643757 0 -0.37226667114234002 0.41030924202555608 0 -0.37226667114234002 0.41030924202555608 0 -0.37063698291958719 0.42934778893548009 0 -0.35257678465137682 0.42305994521621149 0 -0.37226667114234002 0.41030924202555608 0 -0.35257678465137682 0.42305994521621149 0 -0.35813247438357998 0.40322770661363078 0 -0.37226667114234002 0.41030924202555608 0 -0.35257678465137682 0.42305994521621149 0 -0.37063698291958719 0.42934778893548009 0 -0.35509229673206349 0.42736488897625841 0 -0.35257678465137682 0.42305994521621149 0 -0.38219330561030318 0.43733759585905729 0 -0.37063698291958719 0.42934778893548009 0 -0.37031446948010971 0.44164379239859503 0 -0.37063698291958719 0.42934778893548009 0 -0.35100800832540779 0.43373908660655719 0 -0.34797539811694939 0.44391372641119659 0 -0.35257678465137682 0.42305994521621149 0 -0.34703292232895172 0.42665001888350013 0 -0.33490384995054723 0.4214646834239163 0 -0.37063698291958719 0.42934778893548009 0 -0.35509229673206349 0.42736488897625841 0 -0.35100800832540779 0.43373908660655719 0 -0.37063698291958719 0.42934778893548009 0 -0.34797539811694939 0.44391372641119659 0 -0.35509229673206349 0.42736488897625841 0 -0.35257678465137682 0.42305994521621149 0 -0.35120601168128568 0.42714359628681298 0 -0.35509229673206349 0.42736488897625841 0 -0.35120601168128568 0.42714359628681298 0 -0.35100800832540779 0.43373908660655719 0 -0.35509229673206349 0.42736488897625841 0 -0.35257678465137682 0.42305994521621149 0 -0.35257678465137682 0.42305994521621149 0 -0.34703292232895172 0.42665001888350013 0 -0.35120601168128568 0.42714359628681298 0 -0.35257678465137682 0.42305994521621149 0 -0.34703292232895172 0.42665001888350013 0 -0.34703292232895172 0.42665001888350013 0 -0.35120601168128568 0.42714359628681298 0 -0.35100800832540779 0.43373908660655719 0 -0.34703292232895172 0.42665001888350013 0 -0.35100800832540779 0.43373908660655719 0 -0.3416144021158749 0.43307637903049229 0 -0.35100800832540779 0.43373908660655719 0 -0.3416144021158749 0.43307637903049229 0 -0.34797539811694939 0.44391372641119659 0 -0.35257678465137682 0.42305994521621149 0 -0.33837823562521357 0.3987611332561386 0 -0.35813247438357998 0.40322770661363078 0 -0.35257678465137682 0.42305994521621149 0 -0.33837823562521357 0.3987611332561386 0 -0.35257678465137682 0.42305994521621149 0 -0.33490384995054723 0.4214646834239163 0 -0.33837823562521357 0.3987611332561386 0 -0.33490384995054723 0.4214646834239163 0 -0.32139182098691871 0.40894936325787168 0 -0.33837823562521357 0.3987611332561386 0 -0.34703292232895172 0.42665001888350013 0 -0.33490384995054723 0.4214646834239163 0 -0.3416144021158749 0.43307637903049229 0 -0.33490384995054723 0.4214646834239163 0 -0.3416144021158749 0.43307637903049229 0 -0.32915885350338547 0.436077628681731 0 -0.32915885350338547 0.436077628681731 0 -0.31540425984898302 0.42282960227343241 0 -0.31037484696397899 0.44222133160263499 0 -0.33490384995054723 0.4214646834239163 0 -0.32915885350338547 0.436077628681731 0 -0.31540425984898302 0.42282960227343241 0 -0.31540425984898302 0.42282960227343241 0 -0.32139182098691871 0.40894936325787168 0 -0.30380921659141291 0.40737586576510598 0 -0.33490384995054723 0.4214646834239163 0 -0.31540425984898302 0.42282960227343241 0 -0.32139182098691871 0.40894936325787168 0 -0.32139182098691871 0.40894936325787168 0 -0.31446354291843659 0.3943155315707651 0 -0.30380921659141291 0.40737586576510598 0 -0.32139182098691871 0.40894936325787168 0 -0.31446354291843659 0.3943155315707651 0 -0.33837823562521357 0.3987611332561386 0 -0.3241796865990505 0.37446232129606583 0 -0.33837823562521357 0.3987611332561386 0 -0.3241796865990505 0.37446232129606583 0 -0.3450213805631549 0.37637896488870742 0 -0.33837823562521357 0.3987611332561386 0 -0.3241796865990505 0.37446232129606583 0 -0.31446354291843659 0.3943155315707651 0 -0.33837823562521357 0.3987611332561386 0 -0.3241796865990505 0.37446232129606583 0 -0.31446354291843659 0.3943155315707651 0 -0.30751920709622288 0.37811993239733782 0 -0.31446354291843659 0.3943155315707651 0 -0.30751920709622288 0.37811993239733782 0 -0.29017157169787189 0.39747123853798338 0 -0.31446354291843659 0.3943155315707651 0 -0.29017157169787189 0.39747123853798338 0 -0.30380921659141291 0.40737586576510598 0 -0.31446354291843659 0.3943155315707651 0 -0.29017157169787189 0.39747123853798338 0 -0.2918056253057611 0.36977816091582622 0 -0.29017157169787189 0.39747123853798338 0 -0.27666944541277583 0.38068284486427251 0 -0.2918056253057611 0.36977816091582622 0 -0.30751920709622288 0.37811993239733782 0 -0.29017157169787189 0.39747123853798338 0 -0.2592717334901794 0.37344143954643821 0 -0.27666944541277583 0.38068284486427251 0 -0.26587960047730708 0.40062694550520161 0 -0.29017157169787189 0.39747123853798338 0 -0.26587960047730708 0.40062694550520161 0 -0.29017157169787189 0.39747123853798338 0 -0.27666944541277583 0.38068284486427251 0 -0.26587960047730708 0.40062694550520161 0 -0.26587960047730708 0.40062694550520161 0 -0.24390026663595221 0.4098265108577458 0 -0.24158762925674229 0.40378265247242029 0 -0.26587960047730708 0.40062694550520161 0 -0.24855740320059311 0.38849035142128929 0 -0.24158762925674229 0.40378265247242029 0 -0.26587960047730708 0.40062694550520161 0 -0.24158762925674229 0.40378265247242029 0 -0.2592717334901794 0.37344143954643821 0 -0.24855740320059311 0.38849035142128929 0 -0.24298804513369371 0.37489662163126852 0 -0.2592717334901794 0.37344143954643821 0 -0.26587960047730708 0.40062694550520161 0 -0.24855740320059311 0.38849035142128929 0 -0.26486291021761232 0.42723466671622251 0 -0.25440434670568679 0.43727792757369249 0 -0.24390026663595221 0.4098265108577458 0 -0.26486291021761232 0.42723466671622251 0 -0.25440434670568679 0.43727792757369249 0 -0.268601175871508 0.43936588513269881 0 -0.26587960047730708 0.40062694550520161 0 -0.26486291021761232 0.42723466671622251 0 -0.24390026663595221 0.4098265108577458 0 -0.26486291021761232 0.42723466671622251 0 -0.24390026663595221 0.4098265108577458 0 -0.26587960047730708 0.40062694550520161 0 -0.26486291021761232 0.42723466671622251 0 -0.29212211282505068 0.42111929002973092 0 -0.26486291021761232 0.42723466671622251 0 -0.28582555379927221 0.44464282257469973 0 -0.26486291021761232 0.42723466671622251 0 -0.29212211282505068 0.42111929002973092 0 -0.28582555379927221 0.44464282257469973 0 -0.26486291021761232 0.42723466671622251 0 -0.28582555379927221 0.44464282257469973 0 -0.268601175871508 0.43936588513269881 0 -0.29212211282505068 0.42111929002973092 0 -0.31037484696397899 0.44222133160263499 0 -0.28582555379927221 0.44464282257469973 0 -0.29017157169787189 0.39747123853798338 0 -0.26587960047730708 0.40062694550520161 0 -0.29212211282505068 0.42111929002973092 0 -0.29017157169787189 0.39747123853798338 0 -0.29212211282505068 0.42111929002973092 0 -0.30380921659141291 0.40737586576510598 0 -0.31540425984898302 0.42282960227343241 0 -0.29212211282505068 0.42111929002973092 0 -0.30380921659141291 0.40737586576510598 0 -0.31540425984898302 0.42282960227343241 0 -0.29212211282505068 0.42111929002973092 0 -0.31037484696397899 0.44222133160263499 0 -0.31037484696397899 0.44222133160263499 0 -0.30678819738092977 0.46205097843317938 0 -0.28582555379927221 0.44464282257469973 0 -0.30678819738092977 0.46205097843317938 0 -0.28923783613749188 0.46977947950295129 0 -0.30678819738092977 0.46205097843317938 0 -0.28923783613749188 0.46977947950295129 0 -0.30891410950205461 0.46909475087526598 0 -0.30891410950205461 0.46909475087526598 0 -0.31325745709166991 0.46742329137141808 0 -0.30678819738092977 0.46205097843317938 0 -0.30891410950205461 0.46909475087526598 0 -0.31325745709166991 0.46742329137141808 0 -0.30891410950205461 0.46909475087526598 0 -0.31525562008559699 0.46908263994992622 0 -0.31325745709166991 0.46742329137141808 0 -0.30678819738092977 0.46205097843317938 0 -0.31325745709166991 0.46742329137141808 0 -0.30678819738092977 0.46205097843317938 0 -0.29206160947224158 0.45498445755246653 0 -0.28582555379927221 0.44464282257469973 0 -0.30678819738092977 0.46205097843317938 0 -0.28582555379927221 0.44464282257469973 0 -0.30678819738092977 0.46205097843317938 0 -0.29206160947224158 0.45498445755246653 0 -0.28923783613749188 0.46977947950295129 0 -0.29206160947224158 0.45498445755246653 0 -0.28923783613749188 0.46977947950295129 0 -0.29206160947224158 0.45498445755246653 0 -0.27802275223802481 0.45856884181986929 0 -0.28923783613749188 0.46977947950295129 0 -0.29206160947224158 0.45498445755246653 0 -0.28582555379927221 0.44464282257469973 0 -0.27802275223802481 0.45856884181986929 0 -0.28582555379927221 0.44464282257469973 0 -0.26931189276346068 0.44830812366618028 0 -0.27802275223802481 0.45856884181986929 0 -0.28582555379927221 0.44464282257469973 0 -0.268601175871508 0.43936588513269881 0 -0.26931189276346068 0.44830812366618028 0 -0.26931189276346068 0.44830812366618028 0 -0.27802275223802481 0.45856884181986929 0 -0.26490842677542209 0.46472934428963919 0 -0.27802275223802481 0.45856884181986929 0 -0.26490842677542209 0.46472934428963919 0 -0.27188202748178247 0.47742230712921863 0 -0.27802275223802481 0.45856884181986929 0 -0.27188202748178247 0.47742230712921863 0 -0.28923783613749188 0.46977947950295129 0 -0.26190074499161498 0.45925492802712919 0 -0.25374771190227041 0.46769530379170138 0 -0.2470835307717511 0.45204209071788648 0 -0.25440434670568679 0.43727792757369249 0 -0.26190074499161498 0.45925492802712919 0 -0.26490842677542209 0.46472934428963919 0 -0.26190074499161498 0.45925492802712919 0 -0.26490842677542209 0.46472934428963919 0 -0.25374771190227041 0.46769530379170138 0 -0.26190074499161498 0.45925492802712919 0 -0.26490842677542209 0.46472934428963919 0 -0.25440434670568679 0.43727792757369249 0 -0.26190074499161498 0.45925492802712919 0 -0.2470835307717511 0.45204209071788648 0 -0.25440434670568679 0.43727792757369249 0 -0.26490842677542209 0.46472934428963919 0 -0.25440434670568679 0.43727792757369249 0 -0.26931189276346068 0.44830812366618028 0 -0.26490842677542209 0.46472934428963919 0 -0.25440434670568679 0.43727792757369249 0 -0.268601175871508 0.43936588513269881 0 -0.26931189276346068 0.44830812366618028 0 -0.25847810702610519 0.48850414280974469 0 -0.27007053304879808 0.47822001929417107 0 -0.24534086517324849 0.48911000964708612 0 -0.25847810702610519 0.48850414280974469 0 -0.26092149103342371 0.50000000000000044 0 -0.24271601658602809 0.5 0 -0.25847810702610519 0.48850414280974469 0 -0.27201266959149478 0.48329560889354789 0 -0.25847810702610519 0.48850414280974469 0 -0.26092149103342371 0.50000000000000044 0 -0.26665442019254082 0.49000718405533439 0 -0.26490842677542209 0.46472934428963919 0 -0.25374771190227041 0.46769530379170138 0 -0.27007053304879808 0.47822001929417107 0 -0.25374771190227041 0.46769530379170138 0 -0.27007053304879808 0.47822001929417107 0 -0.24534086517324849 0.48911000964708612 0 -0.27007053304879808 0.47822001929417107 0 -0.24534086517324849 0.48911000964708612 0 -0.27188202748178247 0.47742230712921863 0 -0.28923783613749188 0.46977947950295129 0 -0.25847810702610519 0.48850414280974469 0 -0.27007053304879808 0.47822001929417107 0 -0.27201266959149478 0.48329560889354789 0 -0.27188202748178247 0.47742230712921863 0 -0.27456848518075422 0.48231204905436859 0 -0.28781911866264892 0.47721278015904062 0 -0.27007053304879808 0.47822001929417107 0 -0.27188202748178247 0.47742230712921863 0 -0.27210308472192962 0.4803444769229962 0 -0.27188202748178247 0.47742230712921863 0 -0.27456848518075422 0.48231204905436859 0 -0.27188202748178247 0.47742230712921863 0 -0.27210308472192962 0.4803444769229962 0 -0.27456848518075422 0.48231204905436859 0 -0.27007053304879808 0.47822001929417107 0 -0.27188202748178247 0.47742230712921863 0 -0.27007053304879808 0.47822001929417107 0 -0.27201266959149478 0.48329560889354789 0 -0.27210308472192962 0.4803444769229962 0 -0.27201266959149478 0.48329560889354789 0 -0.27456848518075422 0.48231204905436859 0 -0.27007053304879808 0.47822001929417107 0 -0.27210308472192962 0.4803444769229962 0 -0.27201266959149478 0.48329560889354789 0 -0.27201266959149478 0.48329560889354789 0 -0.27456848518075422 0.48231204905436859 0 -0.26490842677542209 0.46472934428963919 0 -0.27188202748178247 0.47742230712921863 0 -0.26490842677542209 0.46472934428963919 0 -0.27007053304879808 0.47822001929417107 0 -0.27188202748178247 0.47742230712921863 0 -0.26490842677542209 0.46472934428963919 0 -0.27007053304879808 0.47822001929417107 0 -0.27456848518075422 0.48231204905436859 0 -0.28781911866264892 0.47721278015904062 0 -0.26092149103342371 0.50000000000000044 0 -0.27494821351356852 0.49096737443205551 0 -0.27840448038632598 0.49999999999999989 0 -0.27456848518075422 0.48231204905436859 0 -0.27818028796098981 0.48888605298774751 0 -0.28662963421400323 0.4834450256126463 0 -0.27818028796098981 0.48888605298774751 0 -0.27494821351356852 0.49096737443205551 0 -0.27201266959149478 0.48329560889354789 0 -0.27494821351356852 0.49096737443205551 0 -0.27201266959149478 0.48329560889354789 0 -0.27456848518075422 0.48231204905436859 0 -0.27818028796098981 0.48888605298774751 0 -0.27201266959149478 0.48329560889354789 0 -0.27818028796098981 0.48888605298774751 0 -0.27494821351356852 0.49096737443205551 0 -0.27456848518075422 0.48231204905436859 0 -0.27818028796098981 0.48888605298774751 0 -0.27201266959149478 0.48329560889354789 0 -0.27494821351356852 0.49096737443205551 0 -0.26665442019254082 0.49000718405533439 0 -0.25847810702610519 0.48850414280974469 0 -0.27201266959149478 0.48329560889354789 0 -0.26665442019254082 0.49000718405533439 0 -0.26092149103342371 0.50000000000000044 0 -0.27494821351356852 0.49096737443205551 0 -0.26092149103342371 0.50000000000000044 0 -0.27494821351356852 0.49096737443205551 0 -0.26665442019254082 0.49000718405533439 0 -0.27494821351356852 0.49096737443205551 0 -0.27840448038632598 0.49999999999999989 0 -0.27818028796098981 0.48888605298774751 0 -0.27840448038632598 0.49999999999999989 0 -0.28368044823936328 0.49889714094141469 0 -0.27818028796098981 0.48888605298774751 0 -0.27494821351356852 0.49096737443205551 0 -0.27840448038632598 0.49999999999999989 0 -0.27818028796098981 0.48888605298774751 0 -0.28368044823936328 0.49889714094141469 0 -0.28368044823936328 0.49889714094141469 0 -0.29224888689071188 0.49344190183271952 0 -0.30769467815930068 0.5 0 -0.27818028796098981 0.48888605298774751 0 -0.28368044823936328 0.49889714094141469 0 -0.28662963421400323 0.4834450256126463 0 -0.28368044823936328 0.49889714094141469 0 -0.28662963421400323 0.4834450256126463 0 -0.28368044823936328 0.49889714094141469 0 -0.29224888689071188 0.49344190183271952 0 -0.28662963421400323 0.4834450256126463 0 -0.27818028796098981 0.48888605298774751 0 -0.28662963421400323 0.4834450256126463 0 -0.29224888689071188 0.49344190183271952 0 -0.28662963421400323 0.4834450256126463 0 -0.30094150763636901 0.48708058862929682 0 -0.28781911866264892 0.47721278015904062 0 -0.28923783613749188 0.46977947950295129 0 -0.30891410950205461 0.46909475087526598 0 -0.27188202748178247 0.47742230712921863 0 -0.28781911866264892 0.47721278015904062 0 -0.28923783613749188 0.46977947950295129 0 -0.28781911866264892 0.47721278015904062 0 -0.28923783613749188 0.46977947950295129 0 -0.27456848518075422 0.48231204905436859 0 -0.28781911866264892 0.47721278015904062 0 -0.28662963421400323 0.4834450256126463 0 -0.28781911866264892 0.47721278015904062 0 -0.28662963421400323 0.4834450256126463 0 -0.28662963421400323 0.4834450256126463 0 -0.30182933433063519 0.4736570512592001 0 -0.30094150763636901 0.48708058862929682 0 -0.28781911866264892 0.47721278015904062 0 -0.28662963421400323 0.4834450256126463 0 -0.30182933433063519 0.4736570512592001 0 -0.28662963421400323 0.4834450256126463 0 -0.30182933433063519 0.4736570512592001 0 -0.28781911866264892 0.47721278015904062 0 -0.30182933433063519 0.4736570512592001 0 -0.30182933433063519 0.4736570512592001 0 -0.31729910476423501 0.48596558745179752 0 -0.31525562008559699 0.46908263994992622 0 -0.30182933433063519 0.4736570512592001 0 -0.30094150763636901 0.48708058862929682 0 -0.31729910476423501 0.48596558745179752 0 -0.28781911866264892 0.47721278015904062 0 -0.30182933433063519 0.4736570512592001 0 -0.30891410950205461 0.46909475087526598 0 -0.28781911866264892 0.47721278015904062 0 -0.30891410950205461 0.46909475087526598 0 -0.30182933433063519 0.4736570512592001 0 -0.31525562008559699 0.46908263994992622 0 -0.30182933433063519 0.4736570512592001 0 -0.30891410950205461 0.46909475087526598 0 -0.31525562008559699 0.46908263994992622 0 -0.30182933433063519 0.4736570512592001 0 -0.30891410950205461 0.46909475087526598 0 -0.30094150763636901 0.48708058862929682 0 -0.30769467815930068 0.5 0 -0.31729910476423501 0.48596558745179752 0 -0.29224888689071188 0.49344190183271952 0 -0.30094150763636901 0.48708058862929682 0 -0.30769467815930068 0.5 0 -0.31729910476423501 0.48596558745179752 0 -0.33427013892530733 0.48487300084816443 0 -0.33110298975999741 0.5 0 -0.30769467815930068 0.5 0 -0.31729910476423501 0.48596558745179752 0 -0.33110298975999741 0.5 0 -0.33427013892530733 0.48487300084816443 0 -0.33110298975999741 0.5 0 -0.35451130136069398 0.4999999999999995 0 -0.33427013892530733 0.48487300084816443 0 -0.33945755539216582 0.46083690404104272 0 -0.34969032548814538 0.47637365565428952 0 -0.33427013892530733 0.48487300084816443 0 -0.31525562008559699 0.46908263994992622 0 -0.33945755539216582 0.46083690404104272 0 -0.31729910476423501 0.48596558745179752 0 -0.33427013892530733 0.48487300084816443 0 -0.31525562008559699 0.46908263994992622 0 -0.33427013892530733 0.48487300084816443 0 -0.31525562008559699 0.46908263994992622 0 -0.31525562008559699 0.46908263994992622 0 -0.31325745709166991 0.46742329137141808 0 -0.33361387207467458 0.45958948977355291 0 -0.31325745709166991 0.46742329137141808 0 -0.33024094015483157 0.45536115943149169 0 -0.33361387207467458 0.45958948977355291 0 -0.31525562008559699 0.46908263994992622 0 -0.31325745709166991 0.46742329137141808 0 -0.30678819738092977 0.46205097843317938 0 -0.32738179774893988 0.45298235242218882 0 -0.30678819738092977 0.46205097843317938 0 -0.31325745709166991 0.46742329137141808 0 -0.32738179774893988 0.45298235242218882 0 -0.31325745709166991 0.46742329137141808 0 -0.33024094015483157 0.45536115943149169 0 -0.31325745709166991 0.46742329137141808 0 -0.32738179774893988 0.45298235242218882 0 -0.33024094015483157 0.45536115943149169 0 -0.31325745709166991 0.46742329137141808 0 -0.33361387207467458 0.45958948977355291 0 -0.31525562008559699 0.46908263994992622 0 -0.33945755539216582 0.46083690404104272 0 -0.31037484696397899 0.44222133160263499 0 -0.30678819738092977 0.46205097843317938 0 -0.32738179774893988 0.45298235242218882 0 -0.32915885350338547 0.436077628681731 0 -0.31037484696397899 0.44222133160263499 0 -0.32738179774893988 0.45298235242218882 0 -0.32915885350338547 0.436077628681731 0 -0.32738179774893988 0.45298235242218882 0 -0.34797539811694939 0.44391372641119659 0 -0.32738179774893988 0.45298235242218882 0 -0.34797539811694939 0.44391372641119659 0 -0.33024094015483157 0.45536115943149169 0 -0.33361387207467458 0.45958948977355291 0 -0.34797539811694939 0.44391372641119659 0 -0.3416144021158749 0.43307637903049229 0 -0.32915885350338547 0.436077628681731 0 -0.34797539811694939 0.44391372641119659 0 -0.33024094015483157 0.45536115943149169 0 -0.34797539811694939 0.44391372641119659 0 -0.32738179774893988 0.45298235242218882 0 -0.33024094015483157 0.45536115943149169 0 -0.34797539811694939 0.44391372641119659 0 -0.31525562008559699 0.46908263994992622 0 -0.33361387207467458 0.45958948977355291 0 -0.33945755539216582 0.46083690404104272 0 -0.33361387207467458 0.45958948977355291 0 -0.33945755539216582 0.46083690404104272 0 -0.35397028705767941 0.45175568817568751 0 -0.33945755539216582 0.46083690404104272 0 -0.35397028705767941 0.45175568817568751 0 -0.3636594906987341 0.45259116813215772 0 -0.33945755539216582 0.46083690404104272 0 -0.35903601978900862 0.4668294320101527 0 -0.3636594906987341 0.45259116813215772 0 -0.33945755539216582 0.46083690404104272 0 -0.35903601978900862 0.4668294320101527 0 -0.34969032548814538 0.47637365565428952 0 -0.33361387207467458 0.45958948977355291 0 -0.35397028705767941 0.45175568817568751 0 -0.33945755539216582 0.46083690404104272 0 -0.3636594906987341 0.45259116813215772 0 -0.35397028705767941 0.45175568817568751 0 -0.34797539811694939 0.44391372641119659 0 -0.3636594906987341 0.45259116813215772 0 -0.33361387207467458 0.45958948977355291 0 -0.35397028705767941 0.45175568817568751 0 -0.34797539811694939 0.44391372641119659 0 -0.38786142600530288 0.44434543222327372 0 -0.3636594906987341 0.45259116813215772 0 -0.37031446948010971 0.44164379239859503 0 -0.34797539811694939 0.44391372641119659 0 -0.3636594906987341 0.45259116813215772 0 -0.37031446948010971 0.44164379239859503 0 -0.37063698291958719 0.42934778893548009 0 -0.34797539811694939 0.44391372641119659 0 -0.37031446948010971 0.44164379239859503 0 -0.37674471779043378 0.46289695481551602 0 -0.35903601978900862 0.4668294320101527 0 -0.3636594906987341 0.45259116813215772 0 -0.37674471779043378 0.46289695481551602 0 -0.35903601978900862 0.4668294320101527 0 -0.36562800957556379 0.48144847740775781 0 -0.37674471779043378 0.46289695481551602 0 -0.36562800957556379 0.48144847740775781 0 -0.36562800957556379 0.48144847740775781 0 -0.35451130136069398 0.4999999999999995 0 -0.37984386551400101 0.5 0 -0.36562800957556379 0.48144847740775781 0 -0.35451130136069398 0.4999999999999995 0 -0.33427013892530733 0.48487300084816443 0 -0.35451130136069398 0.4999999999999995 0 -0.34969032548814538 0.47637365565428952 0 -0.36562800957556379 0.48144847740775781 0 -0.35451130136069398 0.4999999999999995 0 -0.34969032548814538 0.47637365565428952 0 -0.35903601978900862 0.4668294320101527 0 -0.36562800957556379 0.48144847740775781 0 -0.34969032548814538 0.47637365565428952 0 -0.13298062755884579 0.48255116261061692 0 -0.15843735091332889 0.4710522502620903 0 -0.13298062755884579 0.48255116261061692 0 -0.14150291950411281 0.46425469992345519 0 -0.15843735091332889 0.4710522502620903 0 -0.13975760046378269 0.49999999999999878 0 -0.15843735091332889 0.4710522502620903 0 -0.16099880066542119 0.50000000000000022 0 -0.13975760046378269 0.49999999999999878 0 -0.13298062755884579 0.48255116261061692 0 -0.15843735091332889 0.4710522502620903 0 -0.13975760046378269 0.49999999999999878 0 -0.13298062755884579 0.48255116261061692 0 -0.13975760046378269 0.49999999999999878 0 -0.13298062755884579 0.48255116261061692 0 -0.11380605494256869 0.5 0 -0.13298062755884579 0.48255116261061692 0 -0.12544051825853689 0.4631374593356033 0 -0.14150291950411281 0.46425469992345519 0 -0.13298062755884579 0.48255116261061692 0 -0.12544051825853689 0.4631374593356033 0 -0.1336307511693739 0.45491465667522191 0 -0.12544051825853689 0.4631374593356033 0 -0.14150291950411281 0.46425469992345519 0 -0.1336307511693739 0.45491465667522191 0 -0.13175207046494611 0.44346192959665548 0 -0.11475987009784661 0.45084407402711402 0 -0.13175207046494611 0.44346192959665548 0 -0.15702534962047851 0.44961797073374349 0 -0.14544522351027661 0.43702334659483638 0 -0.1336307511693739 0.45491465667522191 0 -0.13175207046494611 0.44346192959665548 0 -0.15702534962047851 0.44961797073374349 0 -0.15702534962047851 0.44961797073374349 0 -0.14544522351027661 0.43702334659483638 0 -0.1556699124179855 0.4290423380990836 0 -0.13175207046494611 0.44346192959665548 0 -0.15702534962047851 0.44961797073374349 0 -0.1336307511693739 0.45491465667522191 0 -0.14150291950411281 0.46425469992345519 0 -0.15702534962047851 0.44961797073374349 0 -0.14150291950411281 0.46425469992345519 0 -0.15702534962047851 0.44961797073374349 0 -0.15843735091332889 0.4710522502620903 0 -0.15702534962047851 0.44961797073374349 0 -0.15843735091332889 0.4710522502620903 0 -0.16426353778385031 0.46842053638370362 0 -0.16193071402987511 0.45081281469960982 0 -0.15843735091332889 0.4710522502620903 0 -0.15702534962047851 0.44961797073374349 0 -0.16193071402987511 0.45081281469960982 0 -0.15843735091332889 0.4710522502620903 0 -0.16426353778385031 0.46842053638370362 0 -0.16193071402987511 0.45081281469960982 0 -0.17220307999619611 0.44534927840499378 0 -0.16426353778385031 0.46842053638370362 0 -0.17220307999619611 0.44534927840499378 0 -0.15702534962047851 0.44961797073374349 0 -0.1556699124179855 0.4290423380990836 0 -0.16306062424848339 0.44050736484390751 0 -0.15702534962047851 0.44961797073374349 0 -0.1556699124179855 0.4290423380990836 0 -0.16306062424848339 0.44050736484390751 0 -0.15702534962047851 0.44961797073374349 0 -0.16193071402987511 0.45081281469960982 0 -0.15702534962047851 0.44961797073374349 0 -0.16193071402987511 0.45081281469960982 0 -0.16306062424848339 0.44050736484390751 0 -0.16193071402987511 0.45081281469960982 0 -0.17220307999619611 0.44534927840499378 0 -0.16306062424848339 0.44050736484390751 0 -0.17220307999619611 0.44534927840499378 0 -0.16780974434499221 0.43040982398245581 0 -0.17220307999619611 0.44534927840499378 0 -0.18281758700689349 0.4600395918781951 0 -0.19105692089556489 0.43334490180876922 0 -0.18281758700689349 0.4600395918781951 0 -0.19105692089556489 0.43334490180876922 0 -0.18281758700689349 0.4600395918781951 0 -0.17801000380965989 0.47561572280906489 0 -0.19482622675472999 0.46587529032893948 0 -0.16426353778385031 0.46842053638370362 0 -0.17220307999619611 0.44534927840499378 0 -0.18281758700689349 0.4600395918781951 0 -0.16426353778385031 0.46842053638370362 0 -0.18281758700689349 0.4600395918781951 0 -0.17801000380965989 0.47561572280906489 0 -0.16426353778385031 0.46842053638370362 0 -0.18281758700689349 0.4600395918781951 0 -0.18281758700689349 0.4600395918781951 0 -0.17801000380965989 0.47561572280906489 0 -0.17801000380965989 0.47561572280906489 0 -0.17320242061242691 0.49119185373993512 0 -0.190689979325044 0.47856994519631457 0 -0.17801000380965989 0.47561572280906489 0 -0.17014513666291531 0.48171822366538508 0 -0.17320242061242691 0.49119185373993512 0 -0.17801000380965989 0.47561572280906489 0 -0.17320242061242691 0.49119185373993512 0 -0.16116749874829769 0.47741721571243328 0 -0.15843735091332889 0.4710522502620903 0 -0.16099880066542119 0.50000000000000022 0 -0.16426353778385031 0.46842053638370362 0 -0.17801000380965989 0.47561572280906489 0 -0.17014513666291531 0.48171822366538508 0 -0.16426353778385031 0.46842053638370362 0 -0.17014513666291531 0.48171822366538508 0 -0.16116749874829769 0.47741721571243328 0 -0.16426353778385031 0.46842053638370362 0 -0.16116749874829769 0.47741721571243328 0 -0.15843735091332889 0.4710522502620903 0 -0.16426353778385031 0.46842053638370362 0 -0.16116749874829769 0.47741721571243328 0 -0.16426353778385031 0.46842053638370362 0 -0.15843735091332889 0.4710522502620903 0 -0.17014513666291531 0.48171822366538508 0 -0.16116749874829769 0.47741721571243328 0 -0.16099880066542119 0.50000000000000022 0 -0.17014513666291531 0.48171822366538508 0 -0.16099880066542119 0.50000000000000022 0 -0.17320242061242691 0.49119185373993512 0 -0.15843735091332889 0.4710522502620903 0 -0.16099880066542119 0.50000000000000022 0 -0.17048378039640921 0.499999999999996 0 -0.17320242061242691 0.49119185373993512 0 -0.16099880066542119 0.50000000000000022 0 -0.17048378039640921 0.499999999999996 0 -0.17320242061242691 0.49119185373993512 0 -0.16099880066542119 0.50000000000000022 0 -0.17320242061242691 0.49119185373993512 0 -0.17320242061242691 0.49119185373993512 0 -0.190689979325044 0.47856994519631457 0 -0.17048378039640921 0.499999999999996 0 -0.17320242061242691 0.49119185373993512 0 -0.18581873262730181 0.49118729788902749 0 -0.17320242061242691 0.49119185373993512 0 -0.18581873262730181 0.49118729788902749 0 -0.190689979325044 0.47856994519631457 0 -0.17048378039640921 0.499999999999996 0 -0.18581873262730181 0.49118729788902749 0 -0.19554748884705389 0.5 0 -0.18581873262730181 0.49118729788902749 0 -0.19487595816744871 0.48827984865781948 0 -0.19554748884705389 0.5 0 -0.19487595816744871 0.48827984865781948 0 -0.19554748884705389 0.5 0 -0.20744763187039511 0.48336215154593609 0 -0.18581873262730181 0.49118729788902749 0 -0.19487595816744871 0.48827984865781948 0 -0.190689979325044 0.47856994519631457 0 -0.190689979325044 0.47856994519631457 0 -0.20817753803766101 0.46594803665269391 0 -0.190689979325044 0.47856994519631457 0 -0.20817753803766101 0.46594803665269391 0 -0.19482622675472999 0.46587529032893948 0 -0.19487595816744871 0.48827984865781948 0 -0.190689979325044 0.47856994519631457 0 -0.20744763187039511 0.48336215154593609 0 -0.17801000380965989 0.47561572280906489 0 -0.190689979325044 0.47856994519631457 0 -0.19482622675472999 0.46587529032893948 0 -0.190689979325044 0.47856994519631457 0 -0.20744763187039511 0.48336215154593609 0 -0.20817753803766101 0.46594803665269391 0 -0.20744763187039511 0.48336215154593609 0 -0.2232475932131088 0.47874498222143241 0 -0.20817753803766101 0.46594803665269391 0 -0.2232475932131088 0.47874498222143241 0 -0.22334275735617259 0.46647783610587229 0 -0.20817753803766101 0.46594803665269391 0 -0.19554748884705389 0.5 0 -0.20744763187039511 0.48336215154593609 0 -0.22061119729769851 0.50000000000000044 0 -0.20744763187039511 0.48336215154593609 0 -0.22061119729769851 0.50000000000000044 0 -0.2232475932131088 0.47874498222143241 0 -0.22061119729769851 0.50000000000000044 0 -0.22451054213863281 0.50000000000000233 0 -0.24534086517324849 0.48911000964708612 0 -0.22061119729769851 0.50000000000000044 0 -0.2232475932131088 0.47874498222143241 0 -0.24534086517324849 0.48911000964708612 0 -0.22061119729769851 0.50000000000000044 0 -0.24534086517324849 0.48911000964708612 0 -0.22451054213863281 0.50000000000000233 0 -0.24148255890114151 0.49421753813106339 0 -0.2232475932131088 0.47874498222143241 0 -0.23628080142364249 0.46789219744028959 0 -0.22334275735617259 0.46647783610587229 0 -0.2232475932131088 0.47874498222143241 0 -0.24534086517324849 0.48911000964708612 0 -0.23628080142364249 0.46789219744028959 0 -0.25374771190227041 0.46769530379170138 0 -0.24534086517324849 0.48911000964708612 0 -0.23628080142364249 0.46789219744028959 0 -0.22451054213863281 0.50000000000000233 0 -0.24534086517324849 0.48911000964708612 0 -0.24148255890114151 0.49421753813106339 0 -0.25847810702610519 0.48850414280974469 0 -0.24534086517324849 0.48911000964708612 0 -0.24148255890114151 0.49421753813106339 0 -0.22451054213863281 0.50000000000000233 0 -0.24271601658602809 0.5 0 -0.24148255890114151 0.49421753813106339 0 -0.25847810702610519 0.48850414280974469 0 -0.24271601658602809 0.5 0 -0.24148255890114151 0.49421753813106339 0 -0.25847810702610519 0.48850414280974469 0 -0.24148255890114151 0.49421753813106339 0 -0.25440434670568679 0.43727792757369249 0 -0.2470835307717511 0.45204209071788648 0 -0.23583124119127399 0.4374763133559072 0 -0.2470835307717511 0.45204209071788648 0 -0.2256650967502781 0.4533261281090733 0 -0.23583124119127399 0.4374763133559072 0 -0.2470835307717511 0.45204209071788648 0 -0.23628080142364249 0.46789219744028959 0 -0.2256650967502781 0.4533261281090733 0 -0.25374771190227041 0.46769530379170138 0 -0.2470835307717511 0.45204209071788648 0 -0.23628080142364249 0.46789219744028959 0 -0.22334275735617259 0.46647783610587229 0 -0.2256650967502781 0.4533261281090733 0 -0.20817753803766101 0.46594803665269391 0 -0.23628080142364249 0.46789219744028959 0 -0.22334275735617259 0.46647783610587229 0 -0.2256650967502781 0.4533261281090733 0 -0.2256650967502781 0.4533261281090733 0 -0.22084070426585289 0.43538371924467612 0 -0.23583124119127399 0.4374763133559072 0 -0.2256650967502781 0.4533261281090733 0 -0.20831066890565611 0.44852425621752878 0 -0.22084070426585289 0.43538371924467612 0 -0.2256650967502781 0.4533261281090733 0 -0.20831066890565611 0.44852425621752878 0 -0.20817753803766101 0.46594803665269391 0 -0.2256650967502781 0.4533261281090733 0 -0.20817753803766101 0.46594803665269391 0 -0.20831066890565611 0.44852425621752878 0 -0.20817753803766101 0.46594803665269391 0 -0.19482622675472999 0.46587529032893948 0 -0.18281758700689349 0.4600395918781951 0 -0.20831066890565611 0.44852425621752878 0 -0.19482622675472999 0.46587529032893948 0 -0.18281758700689349 0.4600395918781951 0 -0.20831066890565611 0.44852425621752878 0 -0.18281758700689349 0.4600395918781951 0 -0.20831066890565611 0.44852425621752878 0 -0.19105692089556489 0.43334490180876922 0 -0.20831066890565611 0.44852425621752878 0 -0.19105692089556489 0.43334490180876922 0 -0.20810391325395439 0.42398758438242701 0 -0.19105692089556489 0.43334490180876922 0 -0.1992962547842371 0.40665021173934351 0 -0.19105692089556489 0.43334490180876922 0 -0.1992962547842371 0.40665021173934351 0 -0.18014262220854191 0.42227802042628387 0 -0.1992962547842371 0.40665021173934351 0 -0.18808216442088779 0.39920676244757408 0 -0.18014262220854191 0.42227802042628387 0 -0.19105692089556489 0.43334490180876922 0 -0.1992962547842371 0.40665021173934351 0 -0.20810391325395439 0.42398758438242701 0 -0.1992962547842371 0.40665021173934351 0 -0.21742618678061951 0.40692140278904287 0 -0.20810391325395439 0.42398758438242701 0 -0.21742618678061951 0.40692140278904287 0 -0.20810391325395439 0.42398758438242701 0 -0.22035716728969429 0.42060188859009112 0 -0.20831066890565611 0.44852425621752878 0 -0.20810391325395439 0.42398758438242701 0 -0.22084070426585289 0.43538371924467612 0 -0.20810391325395439 0.42398758438242701 0 -0.22084070426585289 0.43538371924467612 0 -0.22035716728969429 0.42060188859009112 0 -0.22084070426585289 0.43538371924467612 0 -0.22806234900785671 0.42609527632417488 0 -0.23583124119127399 0.4374763133559072 0 -0.22806234900785671 0.42609527632417488 0 -0.23583124119127399 0.4374763133559072 0 -0.23813634159033989 0.42290976463926327 0 -0.22084070426585289 0.43538371924467612 0 -0.22806234900785671 0.42609527632417488 0 -0.22035716728969429 0.42060188859009112 0 -0.21742618678061951 0.40692140278904287 0 -0.22961658629595061 0.41319157683878799 0 -0.24158762925674229 0.40378265247242029 0 -0.22806234900785671 0.42609527632417488 0 -0.22035716728969429 0.42060188859009112 0 -0.22961658629595061 0.41319157683878799 0 -0.21742618678061951 0.40692140278904287 0 -0.22035716728969429 0.42060188859009112 0 -0.22961658629595061 0.41319157683878799 0 -0.22806234900785671 0.42609527632417488 0 -0.22961658629595061 0.41319157683878799 0 -0.23813634159033989 0.42290976463926327 0 -0.22961658629595061 0.41319157683878799 0 -0.239163799237434 0.41168781992760201 0 -0.23813634159033989 0.42290976463926327 0 -0.239163799237434 0.41168781992760201 0 -0.24390026663595221 0.4098265108577458 0 -0.23813634159033989 0.42290976463926327 0 -0.22961658629595061 0.41319157683878799 0 -0.239163799237434 0.41168781992760201 0 -0.24158762925674229 0.40378265247242029 0 -0.239163799237434 0.41168781992760201 0 -0.24390026663595221 0.4098265108577458 0 -0.24158762925674229 0.40378265247242029 0 -0.24390026663595221 0.4098265108577458 0 -0.24158762925674229 0.40378265247242029 0 -0.25440434670568679 0.43727792757369249 0 -0.24390026663595221 0.4098265108577458 0 -0.25440434670568679 0.43727792757369249 0 -0.23583124119127399 0.4374763133559072 0 -0.23813634159033989 0.42290976463926327 0 -0.25440434670568679 0.43727792757369249 0 -0.24390026663595221 0.4098265108577458 0 -0.23813634159033989 0.42290976463926327 0 -0.23424469339825599 0.38459258624753379 0 -0.22773539588177269 0.371785806926901 0 -0.24298804513369371 0.37489662163126852 0 -0.24855740320059311 0.38849035142128929 0 -0.23424469339825599 0.38459258624753379 0 -0.24298804513369371 0.37489662163126852 0 -0.24158762925674229 0.40378265247242029 0 -0.23424469339825599 0.38459258624753379 0 -0.24855740320059311 0.38849035142128929 0 -0.24158762925674229 0.40378265247242029 0 -0.23424469339825599 0.38459258624753379 0 -0.24158762925674229 0.40378265247242029 0 -0.22554848148559539 0.39550039904942808 0 -0.23424469339825599 0.38459258624753379 0 -0.21742618678061951 0.40692140278904287 0 -0.24158762925674229 0.40378265247242029 0 -0.21742618678061951 0.40692140278904287 0 -0.24158762925674229 0.40378265247242029 0 -0.22554848148559539 0.39550039904942808 0 -0.21742618678061951 0.40692140278904287 0 -0.22554848148559539 0.39550039904942808 0 -0.2145442316967007 0.39558569262158683 0 -0.22554848148559539 0.39550039904942808 0 -0.2206001822887777 0.38503322384510019 0 -0.2145442316967007 0.39558569262158683 0 -0.22554848148559539 0.39550039904942808 0 -0.2206001822887777 0.38503322384510019 0 -0.23424469339825599 0.38459258624753379 0 -0.2206001822887777 0.38503322384510019 0 -0.23424469339825599 0.38459258624753379 0 -0.22773539588177269 0.371785806926901 0 -0.2206001822887777 0.38503322384510019 0 -0.2075355886729093 0.37995552166991781 0 -0.22773539588177269 0.371785806926901 0 -0.2206001822887777 0.38503322384510019 0 -0.2075355886729093 0.37995552166991781 0 -0.2145442316967007 0.39558569262158683 0 -0.1992962547842371 0.40665021173934351 0 -0.21742618678061951 0.40692140278904287 0 -0.2145442316967007 0.39558569262158683 0 -0.1992962547842371 0.40665021173934351 0 -0.2075355886729093 0.37995552166991781 0 -0.2145442316967007 0.39558569262158683 0 -0.1992962547842371 0.40665021173934351 0 -0.2075355886729093 0.37995552166991781 0 -0.1992962547842371 0.40665021173934351 0 -0.2075355886729093 0.37995552166991781 0 -0.19773392862781691 0.3904870000814249 0 -0.1992962547842371 0.40665021173934351 0 -0.18808216442088779 0.39920676244757408 0 -0.19773392862781691 0.3904870000814249 0 -0.18808216442088779 0.39920676244757408 0 -0.19602170663323359 0.37613550446886429 0 -0.18808216442088779 0.39920676244757408 0 -0.19602170663323359 0.37613550446886429 0 -0.19773392862781691 0.3904870000814249 0 -0.18808216442088779 0.39920676244757408 0 -0.19602170663323359 0.37613550446886429 0 -0.18047408951467989 0.38368683415264299 0 -0.2075355886729093 0.37995552166991781 0 -0.19602170663323359 0.37613550446886429 0 -0.19773392862781691 0.3904870000814249 0 -0.18047408951467989 0.38368683415264299 0 -0.16393263101776051 0.377811301899728 0 -0.17738562461233581 0.36620191856746193 0 -0.19602170663323359 0.37613550446886429 0 -0.18047408951467989 0.38368683415264299 0 -0.18587119209385661 0.37354081621318608 0 -0.16393263101776051 0.377811301899728 0 -0.1697532507094677 0.3985670854867942 0 -0.14892453724321039 0.38998910039625528 0 -0.18047408951467989 0.38368683415264299 0 -0.16393263101776051 0.377811301899728 0 -0.1697532507094677 0.3985670854867942 0 -0.1697532507094677 0.3985670854867942 0 -0.1543144752154926 0.40846670546442382 0 -0.14892453724321039 0.38998910039625528 0 -0.18808216442088779 0.39920676244757408 0 -0.18047408951467989 0.38368683415264299 0 -0.1697532507094677 0.3985670854867942 0 -0.18808216442088779 0.39920676244757408 0 -0.1697532507094677 0.3985670854867942 0 -0.1764876300481629 0.40873099662466561 0 -0.18808216442088779 0.39920676244757408 0 -0.1764876300481629 0.40873099662466561 0 -0.18014262220854191 0.42227802042628387 0 -0.18808216442088779 0.39920676244757408 0 -0.18014262220854191 0.42227802042628387 0 -0.1764876300481629 0.40873099662466561 0 -0.18014262220854191 0.42227802042628387 0 -0.16797248285375421 0.41487211813801012 0 -0.17220307999619611 0.44534927840499378 0 -0.18014262220854191 0.42227802042628387 0 -0.17220307999619611 0.44534927840499378 0 -0.19105692089556489 0.43334490180876922 0 -0.18014262220854191 0.42227802042628387 0 -0.17220307999619611 0.44534927840499378 0 -0.18014262220854191 0.42227802042628387 0 -0.16780974434499221 0.43040982398245581 0 -0.18014262220854191 0.42227802042628387 0 -0.16780974434499221 0.43040982398245581 0 -0.16797248285375421 0.41487211813801012 0 -0.16780974434499221 0.43040982398245581 0 -0.16797248285375421 0.41487211813801012 0 -0.1556699124179855 0.4290423380990836 0 -0.16306062424848339 0.44050736484390751 0 -0.16780974434499221 0.43040982398245581 0 -0.1556699124179855 0.4290423380990836 0 -0.1697532507094677 0.3985670854867942 0 -0.1764876300481629 0.40873099662466561 0 -0.16797248285375421 0.41487211813801012 0 -0.16797248285375421 0.41487211813801012 0 -0.1543144752154926 0.40846670546442382 0 -0.1556699124179855 0.4290423380990836 0 -0.1697532507094677 0.3985670854867942 0 -0.16797248285375421 0.41487211813801012 0 -0.1543144752154926 0.40846670546442382 0 -0.1543144752154926 0.40846670546442382 0 -0.13955083839820601 0.41331054213078378 0 -0.1342738988421254 0.39940632656162323 0 -0.1543144752154926 0.40846670546442382 0 -0.1556699124179855 0.4290423380990836 0 -0.13955083839820601 0.41331054213078378 0 -0.1543144752154926 0.40846670546442382 0 -0.1556699124179855 0.4290423380990836 0 -0.14544522351027661 0.43702334659483638 0 -0.1556699124179855 0.4290423380990836 0 -0.13656638764367751 0.42782024169105087 0 -0.1556699124179855 0.4290423380990836 0 -0.13656638764367751 0.42782024169105087 0 -0.13955083839820601 0.41331054213078378 0 -0.13175207046494611 0.44346192959665548 0 -0.13656638764367751 0.42782024169105087 0 -0.1221002198223846 0.42926878838971572 0 -0.13175207046494611 0.44346192959665548 0 -0.14544522351027661 0.43702334659483638 0 -0.13656638764367751 0.42782024169105087 0 -0.13656638764367751 0.42782024169105087 0 -0.12548201032280559 0.41579856094527679 0 -0.1221002198223846 0.42926878838971572 0 -0.13955083839820601 0.41331054213078378 0 -0.12548201032280559 0.41579856094527679 0 -0.1342738988421254 0.39940632656162323 0 -0.13656638764367751 0.42782024169105087 0 -0.13955083839820601 0.41331054213078378 0 -0.12548201032280559 0.41579856094527679 0 -0.1342738988421254 0.39940632656162323 0 -0.12655549565904481 0.38459039506062281 0 -0.14892453724321039 0.38998910039625528 0 -0.12655549565904481 0.38459039506062281 0 -0.14892453724321039 0.38998910039625528 0 -0.14471747201537141 0.37109278790434008 0 -0.16393263101776051 0.377811301899728 0 -0.14892453724321039 0.38998910039625528 0 -0.14471747201537141 0.37109278790434008 0 -0.1543144752154926 0.40846670546442382 0 -0.1342738988421254 0.39940632656162323 0 -0.14892453724321039 0.38998910039625528 0 -0.14165043288496271 0.34906334461799549 0 -0.15843984593516669 0.3353087962765417 0 -0.16020893970901179 0.3578896071927124 0 -0.14165043288496271 0.34906334461799549 0 -0.14471747201537141 0.37109278790434008 0 -0.16020893970901179 0.3578896071927124 0 -0.12655549565904481 0.38459039506062281 0 -0.14471747201537141 0.37109278790434008 0 -0.12710123171609961 0.3622807710251873 0 -0.14165043288496271 0.34906334461799549 0 -0.14471747201537141 0.37109278790434008 0 -0.12710123171609961 0.3622807710251873 0 -0.14165043288496271 0.34906334461799549 0 -0.12710123171609961 0.3622807710251873 0 -0.1189994847652637 0.3425748687043878 0 -0.14165043288496271 0.34906334461799549 0 -0.1315170279352865 0.33102482385584192 0 -0.1189994847652637 0.3425748687043878 0 -0.14165043288496271 0.34906334461799549 0 -0.1315170279352865 0.33102482385584192 0 -0.1443776795059328 0.33390895980560381 0 -0.1315170279352865 0.33102482385584192 0 -0.14495419486811961 0.31734813855161759 0 -0.12577302420238409 0.3093301053864293 0 -0.1315170279352865 0.33102482385584192 0 -0.14495419486811961 0.31734813855161759 0 -0.1443776795059328 0.33390895980560381 0 -0.14495419486811961 0.31734813855161759 0 -0.15843984593516669 0.3353087962765417 0 -0.16290230207748849 0.31861206890147392 0 -0.14495419486811961 0.31734813855161759 0 -0.1443776795059328 0.33390895980560381 0 -0.15843984593516669 0.3353087962765417 0 -0.14165043288496271 0.34906334461799549 0 -0.1443776795059328 0.33390895980560381 0 -0.15843984593516669 0.3353087962765417 0 -0.15843984593516669 0.3353087962765417 0 -0.17774973011518999 0.33020764546750409 0 -0.17749789925717871 0.34686132115754031 0 -0.15843984593516669 0.3353087962765417 0 -0.16290230207748849 0.31861206890147392 0 -0.17774973011518999 0.33020764546750409 0 -0.17774973011518999 0.33020764546750409 0 -0.19720201262974121 0.32662885324472202 0 -0.17861358928141469 0.31234998356939919 0 -0.16290230207748849 0.31861206890147392 0 -0.17774973011518999 0.33020764546750409 0 -0.17861358928141469 0.31234998356939919 0 -0.17774973011518999 0.33020764546750409 0 -0.17749789925717871 0.34686132115754031 0 -0.1924972983359893 0.34358046834146699 0 -0.17749789925717871 0.34686132115754031 0 -0.17738562461233581 0.36620191856746193 0 -0.1942619271162552 0.36094369023707662 0 -0.17749789925717871 0.34686132115754031 0 -0.16020893970901179 0.3578896071927124 0 -0.17738562461233581 0.36620191856746193 0 -0.15843984593516669 0.3353087962765417 0 -0.17749789925717871 0.34686132115754031 0 -0.16020893970901179 0.3578896071927124 0 -0.16393263101776051 0.377811301899728 0 -0.16020893970901179 0.3578896071927124 0 -0.17738562461233581 0.36620191856746193 0 -0.16393263101776051 0.377811301899728 0 -0.14471747201537141 0.37109278790434008 0 -0.16020893970901179 0.3578896071927124 0 -0.18047408951467989 0.38368683415264299 0 -0.17738562461233581 0.36620191856746193 0 -0.18587119209385661 0.37354081621318608 0 -0.17738562461233581 0.36620191856746193 0 -0.18587119209385661 0.37354081621318608 0 -0.1942619271162552 0.36094369023707662 0 -0.19602170663323359 0.37613550446886429 0 -0.18587119209385661 0.37354081621318608 0 -0.1942619271162552 0.36094369023707662 0 -0.2075355886729093 0.37995552166991781 0 -0.19602170663323359 0.37613550446886429 0 -0.1942619271162552 0.36094369023707662 0 -0.1942619271162552 0.36094369023707662 0 -0.2157749225615814 0.35326083160049221 0 -0.1924972983359893 0.34358046834146699 0 -0.17749789925717871 0.34686132115754031 0 -0.1942619271162552 0.36094369023707662 0 -0.1924972983359893 0.34358046834146699 0 -0.2075355886729093 0.37995552166991781 0 -0.2157749225615814 0.35326083160049221 0 -0.2075355886729093 0.37995552166991781 0 -0.2157749225615814 0.35326083160049221 0 -0.22773539588177269 0.371785806926901 0 -0.2075355886729093 0.37995552166991781 0 -0.1942619271162552 0.36094369023707662 0 -0.2157749225615814 0.35326083160049221 0 -0.2157749225615814 0.35326083160049221 0 -0.22773539588177269 0.371785806926901 0 -0.245130999697667 0.35617292401417999 0 -0.2157749225615814 0.35326083160049221 0 -0.245130999697667 0.35617292401417999 0 -0.23295058751304551 0.34252643707592823 0 -0.25008303346203908 0.33611797840414298 0 -0.245130999697667 0.35617292401417999 0 -0.23295058751304551 0.34252643707592823 0 -0.22773539588177269 0.371785806926901 0 -0.245130999697667 0.35617292401417999 0 -0.24298804513369371 0.37489662163126852 0 -0.2592717334901794 0.37344143954643821 0 -0.245130999697667 0.35617292401417999 0 -0.24298804513369371 0.37489662163126852 0 -0.25008303346203908 0.33611797840414298 0 -0.2434150889916675 0.31528126182336752 0 -0.22401425645025361 0.32656614153106639 0 -0.25008303346203908 0.33611797840414298 0 -0.23295058751304551 0.34252643707592823 0 -0.22401425645025361 0.32656614153106639 0 -0.2157749225615814 0.35326083160049221 0 -0.22401425645025361 0.32656614153106639 0 -0.2157749225615814 0.35326083160049221 0 -0.23295058751304551 0.34252643707592823 0 -0.22401425645025361 0.32656614153106639 0 -0.2434150889916675 0.31528126182336752 0 -0.22401425645025361 0.32656614153106639 0 -0.2322535903389257 0.29987145146164079 0 -0.22401425645025361 0.32656614153106639 0 -0.2322535903389257 0.29987145146164079 0 -0.22401425645025361 0.32656614153106639 0 -0.19720201262974121 0.32662885324472202 0 -0.19906220937645289 0.30981321912625731 0 -0.2157749225615814 0.35326083160049221 0 -0.22401425645025361 0.32656614153106639 0 -0.19720201262974121 0.32662885324472202 0 -0.2157749225615814 0.35326083160049221 0 -0.1924972983359893 0.34358046834146699 0 -0.19720201262974121 0.32662885324472202 0 -0.17774973011518999 0.33020764546750409 0 -0.1924972983359893 0.34358046834146699 0 -0.19720201262974121 0.32662885324472202 0 -0.19720201262974121 0.32662885324472202 0 -0.19906220937645289 0.30981321912625731 0 -0.17861358928141469 0.31234998356939919 0 -0.19906220937645289 0.30981321912625731 0 -0.19856760929965681 0.29512163553205928 0 -0.18259298835682489 0.29782857031946008 0 -0.19085311474529701 0.28244454806871849 0 -0.19856760929965681 0.29512163553205928 0 -0.18259298835682489 0.29782857031946008 0 -0.19085311474529701 0.28244454806871849 0 -0.19856760929965681 0.29512163553205928 0 -0.2071077174296316 0.28582887531117668 0 -0.2071077174296316 0.28582887531117668 0 -0.21338280024082609 0.30038413056083629 0 -0.2192288693812762 0.28355186314419151 0 -0.19856760929965681 0.29512163553205928 0 -0.2071077174296316 0.28582887531117668 0 -0.21338280024082609 0.30038413056083629 0 -0.2071077174296316 0.28582887531117668 0 -0.2192288693812762 0.28355186314419151 0 -0.2134516182061634 0.27614892865934582 0 -0.22401425645025361 0.32656614153106639 0 -0.19906220937645289 0.30981321912625731 0 -0.21338280024082609 0.30038413056083629 0 -0.19906220937645289 0.30981321912625731 0 -0.19856760929965681 0.29512163553205928 0 -0.21338280024082609 0.30038413056083629 0 -0.22401425645025361 0.32656614153106639 0 -0.21338280024082609 0.30038413056083629 0 -0.2322535903389257 0.29987145146164079 0 -0.21338280024082609 0.30038413056083629 0 -0.2322535903389257 0.29987145146164079 0 -0.2192288693812762 0.28355186314419151 0 -0.2322535903389257 0.29987145146164079 0 -0.2192288693812762 0.28355186314419151 0 -0.2404929242275981 0.27317676139221531 0 -0.2322535903389257 0.29987145146164079 0 -0.2404929242275981 0.27317676139221531 0 -0.25040582964490582 0.29567583303740069 0 -0.2322535903389257 0.29987145146164079 0 -0.2404929242275981 0.27317676139221531 0 -0.25040582964490582 0.29567583303740069 0 -0.2404929242275981 0.27317676139221531 0 -0.25040582964490582 0.29567583303740069 0 -0.2434150889916675 0.31528126182336752 0 -0.2322535903389257 0.29987145146164079 0 -0.25054816238852479 0.24059870715785611 0 -0.2546175921406465 0.26128861144859822 0 -0.24164285362834059 0.26945109504960563 0 -0.25054816238852479 0.24059870715785611 0 -0.24164285362834059 0.26945109504960563 0 -0.24164285362834059 0.26945109504960563 0 -0.23310158204141429 0.25640081827561029 0 -0.2466801300010773 0.2452604621424746 0 -0.25054816238852479 0.24059870715785611 0 -0.24164285362834059 0.26945109504960563 0 -0.2466801300010773 0.2452604621424746 0 -0.24164285362834059 0.26945109504960563 0 -0.2394572339012683 0.27082608115536438 0 -0.23310158204141429 0.25640081827561029 0 -0.2394572339012683 0.27082608115536438 0 -0.23310158204141429 0.25640081827561029 0 -0.2546175921406465 0.26128861144859822 0 -0.24164285362834059 0.26945109504960563 0 -0.25982227492027221 0.287750399741656 0 -0.24164285362834059 0.26945109504960563 0 -0.2404929242275981 0.27317676139221531 0 -0.24164285362834059 0.26945109504960563 0 -0.2404929242275981 0.27317676139221531 0 -0.24164285362834059 0.26945109504960563 0 -0.2394572339012683 0.27082608115536438 0 -0.24164285362834059 0.26945109504960563 0 -0.2404929242275981 0.27317676139221531 0 -0.2394572339012683 0.27082608115536438 0 -0.2404929242275981 0.27317676139221531 0 -0.2394572339012683 0.27082608115536438 0 -0.2192288693812762 0.28355186314419151 0 -0.2404929242275981 0.27317676139221531 0 -0.2394572339012683 0.27082608115536438 0 -0.2192288693812762 0.28355186314419151 0 -0.2394572339012683 0.27082608115536438 0 -0.2223662512991782 0.27304179816788748 0 -0.2192288693812762 0.28355186314419151 0 -0.2394572339012683 0.27082608115536438 0 -0.2394572339012683 0.27082608115536438 0 -0.2223662512991782 0.27304179816788748 0 -0.23310158204141429 0.25640081827561029 0 -0.2223662512991782 0.27304179816788748 0 -0.23310158204141429 0.25640081827561029 0 -0.2355501434136231 0.2478522206023164 0 -0.2223662512991782 0.27304179816788748 0 -0.2355501434136231 0.2478522206023164 0 -0.2223662512991782 0.27304179816788748 0 -0.222192014233517 0.25700640751059239 0 -0.2355501434136231 0.2478522206023164 0 -0.2223662512991782 0.27304179816788748 0 -0.222192014233517 0.25700640751059239 0 -0.21287289659801359 0.26516855002046552 0 -0.222192014233517 0.25700640751059239 0 -0.22222104444170529 0.2467327462878163 0 -0.2355501434136231 0.2478522206023164 0 -0.222192014233517 0.25700640751059239 0 -0.21371201764358261 0.25214650866738469 0 -0.22222104444170529 0.2467327462878163 0 -0.222192014233517 0.25700640751059239 0 -0.21371201764358261 0.25214650866738469 0 -0.21287289659801359 0.26516855002046552 0 -0.21371201764358261 0.25214650866738469 0 -0.21287289659801359 0.26516855002046552 0 -0.20206212765223941 0.25873777709478579 0 -0.21287289659801359 0.26516855002046552 0 -0.20374397774259509 0.27266482885045462 0 -0.20206212765223941 0.25873777709478579 0 -0.21371201764358261 0.25214650866738469 0 -0.20206212765223941 0.25873777709478579 0 -0.20132404028626799 0.2438270423260239 0 -0.2192288693812762 0.28355186314419151 0 -0.2223662512991782 0.27304179816788748 0 -0.2134516182061634 0.27614892865934582 0 -0.2223662512991782 0.27304179816788748 0 -0.21287289659801359 0.26516855002046552 0 -0.2134516182061634 0.27614892865934582 0 -0.21287289659801359 0.26516855002046552 0 -0.2134516182061634 0.27614892865934582 0 -0.20374397774259509 0.27266482885045462 0 -0.2071077174296316 0.28582887531117668 0 -0.2134516182061634 0.27614892865934582 0 -0.20374397774259509 0.27266482885045462 0 -0.19085311474529701 0.28244454806871849 0 -0.2071077174296316 0.28582887531117668 0 -0.20374397774259509 0.27266482885045462 0 -0.20374397774259509 0.27266482885045462 0 -0.19076826268548239 0.26827287779833747 0 -0.20206212765223941 0.25873777709478579 0 -0.19085311474529701 0.28244454806871849 0 -0.20374397774259509 0.27266482885045462 0 -0.19076826268548239 0.26827287779833747 0 -0.19076826268548239 0.26827287779833747 0 -0.20206212765223941 0.25873777709478579 0 -0.18859670902218051 0.25052543551881717 0 -0.20206212765223941 0.25873777709478579 0 -0.18859670902218051 0.25052543551881717 0 -0.20132404028626799 0.2438270423260239 0 -0.18859670902218051 0.25052543551881717 0 -0.17798103800664031 0.2589484764895198 0 -0.1765110772481347 0.2431385849621667 0 -0.19076826268548239 0.26827287779833747 0 -0.18859670902218051 0.25052543551881717 0 -0.17798103800664031 0.2589484764895198 0 -0.1593990608277665 0.26226189644582071 0 -0.1613020889038615 0.23837444865205379 0 -0.14911298171075679 0.24967097175487091 0 -0.17798103800664031 0.2589484764895198 0 -0.1593990608277665 0.26226189644582071 0 -0.1765110772481347 0.2431385849621667 0 -0.1593990608277665 0.26226189644582071 0 -0.1613020889038615 0.23837444865205379 0 -0.17798103800664031 0.2589484764895198 0 -0.1593990608277665 0.26226189644582071 0 -0.17625891120693621 0.27267786553860818 0 -0.1593990608277665 0.26226189644582071 0 -0.1625734141651913 0.27864750634068558 0 -0.17625891120693621 0.27267786553860818 0 -0.1625734141651913 0.27864750634068558 0 -0.17625891120693621 0.27267786553860818 0 -0.1759785768112396 0.28549188808856729 0 -0.19076826268548239 0.26827287779833747 0 -0.17798103800664031 0.2589484764895198 0 -0.17625891120693621 0.27267786553860818 0 -0.19085311474529701 0.28244454806871849 0 -0.19076826268548239 0.26827287779833747 0 -0.17625891120693621 0.27267786553860818 0 -0.19085311474529701 0.28244454806871849 0 -0.17625891120693621 0.27267786553860818 0 -0.1759785768112396 0.28549188808856729 0 -0.19085311474529701 0.28244454806871849 0 -0.1759785768112396 0.28549188808856729 0 -0.18259298835682489 0.29782857031946008 0 -0.1759785768112396 0.28549188808856729 0 -0.18259298835682489 0.29782857031946008 0 -0.16136995080389721 0.29864400117774398 0 -0.17861358928141469 0.31234998356939919 0 -0.18259298835682489 0.29782857031946008 0 -0.16136995080389721 0.29864400117774398 0 -0.19906220937645289 0.30981321912625731 0 -0.17861358928141469 0.31234998356939919 0 -0.18259298835682489 0.29782857031946008 0 -0.14495419486811961 0.31734813855161759 0 -0.16290230207748849 0.31861206890147392 0 -0.16136995080389721 0.29864400117774398 0 -0.16290230207748849 0.31861206890147392 0 -0.17861358928141469 0.31234998356939919 0 -0.16136995080389721 0.29864400117774398 0 -0.1625734141651913 0.27864750634068558 0 -0.16136995080389721 0.29864400117774398 0 -0.1450808597671244 0.27950790118027541 0 -0.1625734141651913 0.27864750634068558 0 -0.1759785768112396 0.28549188808856729 0 -0.16136995080389721 0.29864400117774398 0 -0.16136995080389721 0.29864400117774398 0 -0.14126992245711781 0.29947087285495883 0 -0.1450808597671244 0.27950790118027541 0 -0.14495419486811961 0.31734813855161759 0 -0.16136995080389721 0.29864400117774398 0 -0.14126992245711781 0.29947087285495883 0 -0.14126992245711781 0.29947087285495883 0 -0.12577302420238409 0.3093301053864293 0 -0.12922822593455879 0.28960894173240792 0 -0.14495419486811961 0.31734813855161759 0 -0.14126992245711781 0.29947087285495883 0 -0.12577302420238409 0.3093301053864293 0 -0.14126992245711781 0.29947087285495883 0 -0.12922822593455879 0.28960894173240792 0 -0.1450808597671244 0.27950790118027541 0 -0.12922822593455879 0.28960894173240792 0 -0.1349930010153193 0.26255216121800568 0 -0.12922822593455879 0.28960894173240792 0 -0.1349930010153193 0.26255216121800568 0 -0.1450808597671244 0.27950790118027541 0 -0.12922822593455879 0.28960894173240792 0 -0.1349930010153193 0.26255216121800568 0 -0.1154385093851408 0.26413547420137762 0 -0.1593990608277665 0.26226189644582071 0 -0.1349930010153193 0.26255216121800568 0 -0.14911298171075679 0.24967097175487091 0 -0.1593990608277665 0.26226189644582071 0 -0.1349930010153193 0.26255216121800568 0 -0.1450808597671244 0.27950790118027541 0 -0.1593990608277665 0.26226189644582071 0 -0.1625734141651913 0.27864750634068558 0 -0.1450808597671244 0.27950790118027541 0 -0.1125365884501535 0.28353815127968629 0 -0.09362037031597753 0.26527792879994888 0 -0.1125365884501535 0.28353815127968629 0 -0.093128128460342754 0.28254352657507131 0 -0.09362037031597753 0.26527792879994888 0 -0.1154385093851408 0.26413547420137762 0 -0.1125365884501535 0.28353815127968629 0 -0.09362037031597753 0.26527792879994888 0 -0.1154385093851408 0.26413547420137762 0 -0.09362037031597753 0.26527792879994888 0 -0.097135213821017974 0.2450179218164267 0 -0.1154385093851408 0.26413547420137762 0 -0.097135213821017974 0.2450179218164267 0 -0.11832329044822951 0.24304604882281969 0 -0.1349930010153193 0.26255216121800568 0 -0.1154385093851408 0.26413547420137762 0 -0.11832329044822951 0.24304604882281969 0 -0.12922822593455879 0.28960894173240792 0 -0.1154385093851408 0.26413547420137762 0 -0.1125365884501535 0.28353815127968629 0 -0.12922822593455879 0.28960894173240792 0 -0.1125365884501535 0.28353815127968629 0 -0.11715930820710339 0.29724977554595788 0 -0.1125365884501535 0.28353815127968629 0 -0.11715930820710339 0.29724977554595788 0 -0.1038404580068167 0.30398166541893579 0 -0.12577302420238409 0.3093301053864293 0 -0.1038404580068167 0.30398166541893579 0 -0.11250071635914489 0.32397018824961021 0 -0.12577302420238409 0.3093301053864293 0 -0.11715930820710339 0.29724977554595788 0 -0.1038404580068167 0.30398166541893579 0 -0.12577302420238409 0.3093301053864293 0 -0.12922822593455879 0.28960894173240792 0 -0.11715930820710339 0.29724977554595788 0 -0.1125365884501535 0.28353815127968629 0 -0.1038404580068167 0.30398166541893579 0 -0.093128128460342754 0.28254352657507131 0 -0.083140595227089928 0.29591471829194321 0 -0.093128128460342754 0.28254352657507131 0 -0.06936539161773822 0.28020753346750782 0 -0.1038404580068167 0.30398166541893579 0 -0.083140595227089928 0.29591471829194321 0 -0.093128128460342754 0.28254352657507131 0 -0.1038404580068167 0.30398166541893579 0 -0.083140595227089928 0.29591471829194321 0 -0.090988500091643998 0.31647506579520901 0 -0.083140595227089928 0.29591471829194321 0 -0.073171874186503463 0.31004866742903531 0 -0.090988500091643998 0.31647506579520901 0 -0.083140595227089928 0.29591471829194321 0 -0.073171874186503463 0.31004866742903531 0 -0.058649820332164468 0.29485946887662068 0 -0.073171874186503463 0.31004866742903531 0 -0.058649820332164468 0.29485946887662068 0 -0.056101506374375817 0.3128319137626559 0 -0.083140595227089928 0.29591471829194321 0 -0.06936539161773822 0.28020753346750782 0 -0.058649820332164468 0.29485946887662068 0 -0.06936539161773822 0.28020753346750782 0 -0.077315147936728598 0.26324091235374891 0 -0.061029816546774987 0.26105054837526498 0 -0.093128128460342754 0.28254352657507131 0 -0.09362037031597753 0.26527792879994888 0 -0.077315147936728598 0.26324091235374891 0 -0.093128128460342754 0.28254352657507131 0 -0.06936539161773822 0.28020753346750782 0 -0.077315147936728598 0.26324091235374891 0 -0.09362037031597753 0.26527792879994888 0 -0.097135213821017974 0.2450179218164267 0 -0.074704152181801681 0.24701770632021169 0 -0.09362037031597753 0.26527792879994888 0 -0.077315147936728598 0.26324091235374891 0 -0.074704152181801681 0.24701770632021169 0 -0.09362037031597753 0.26527792879994888 0 -0.074704152181801681 0.24701770632021169 0 -0.061029816546774987 0.26105054837526498 0 -0.074704152181801681 0.24701770632021169 0 -0.057747386715908428 0.24463041023760571 0 -0.077315147936728598 0.26324091235374891 0 -0.061029816546774987 0.26105054837526498 0 -0.074704152181801681 0.24701770632021169 0 -0.061029816546774987 0.26105054837526498 0 -0.03742977218140614 0.26357467527551443 0 -0.046594812073733123 0.24823599275617891 0 -0.061029816546774987 0.26105054837526498 0 -0.046594812073733123 0.24823599275617891 0 -0.057747386715908428 0.24463041023760571 0 -0.06936539161773822 0.28020753346750782 0 -0.061029816546774987 0.26105054837526498 0 -0.048476972550706023 0.27982564543664679 0 -0.061029816546774987 0.26105054837526498 0 -0.048476972550706023 0.27982564543664679 0 -0.03742977218140614 0.26357467527551443 0 -0.061029816546774987 0.26105054837526498 0 -0.048476972550706023 0.27982564543664679 0 -0.048476972550706023 0.27982564543664679 0 -0.031819983271387867 0.27999546987022927 0 -0.03742977218140614 0.26357467527551443 0 -0.03742977218140614 0.26357467527551443 0 -0.03189830216395443 0.24568919817845219 0 -0.046594812073733123 0.24823599275617891 0 -0.03742977218140614 0.26357467527551443 0 -0.020565667716041462 0.25572736355358933 0 -0.03189830216395443 0.24568919817845219 0 -0.03742977218140614 0.26357467527551443 0 -0.020565667716041462 0.25572736355358933 0 -0.022715456858953278 0.26994870387583431 0 -0.020565667716041462 0.25572736355358933 0 -0.022715456858953278 0.26994870387583431 0 -0.0080731797928139601 0.26595294531788349 0 -0.031819983271387867 0.27999546987022927 0 -0.03742977218140614 0.26357467527551443 0 -0.022715456858953278 0.26994870387583431 0 -0.031819983271387867 0.27999546987022927 0 -0.022715456858953278 0.26994870387583431 0 -0.01304989637173277 0.28246747093767138 0 -0.022715456858953278 0.26994870387583431 0 -0.0080731797928139601 0.26595294531788349 0 -0.01304989637173277 0.28246747093767138 0 -0.0080731797928139601 0.26595294531788349 0 -0.01304989637173277 0.28246747093767138 0 0.0042686616650212863 0.27440264234540929 0 -0.0080731797928139601 0.26595294531788349 0 -0.004361582131907446 0.25012675423618741 0 0.0045166499774289158 0.26107549289106269 0 -0.020565667716041462 0.25572736355358933 0 -0.0080731797928139601 0.26595294531788349 0 -0.004361582131907446 0.25012675423618741 0 -0.0025045175740335168 0.31031314766219981 0 -0.001308369768482999 0.29320410557187471 0 -0.016598711115656001 0.30159589275249321 0 -0.0025045175740335168 0.31031314766219981 0 -0.016598711115656001 0.30159589275249321 0 -0.021593132986752129 0.32003539370993961 0 -0.001308369768482999 0.29320410557187471 0 -0.01304989637173277 0.28246747093767138 0 0.0042686616650212863 0.27440264234540929 0 -0.001308369768482999 0.29320410557187471 0 -0.01304989637173277 0.28246747093767138 0 -0.016598711115656001 0.30159589275249321 0 -0.01304989637173277 0.28246747093767138 0 -0.035924128554638488 0.29860074249802943 0 -0.01304989637173277 0.28246747093767138 0 -0.016598711115656001 0.30159589275249321 0 -0.035924128554638488 0.29860074249802943 0 -0.031819983271387867 0.27999546987022927 0 -0.01304989637173277 0.28246747093767138 0 -0.035924128554638488 0.29860074249802943 0 -0.016598711115656001 0.30159589275249321 0 -0.035924128554638488 0.29860074249802943 0 -0.021593132986752129 0.32003539370993961 0 -0.035924128554638488 0.29860074249802943 0 -0.021593132986752129 0.32003539370993961 0 -0.035924128554638488 0.29860074249802943 0 -0.056101506374375817 0.3128319137626559 0 -0.035924128554638488 0.29860074249802943 0 -0.038849285662232391 0.31623083740802288 0 -0.021593132986752129 0.32003539370993961 0 -0.035924128554638488 0.29860074249802943 0 -0.056101506374375817 0.3128319137626559 0 -0.038849285662232391 0.31623083740802288 0 -0.048476972550706023 0.27982564543664679 0 -0.031819983271387867 0.27999546987022927 0 -0.035924128554638488 0.29860074249802943 0 -0.048476972550706023 0.27982564543664679 0 -0.035924128554638488 0.29860074249802943 0 -0.06936539161773822 0.28020753346750782 0 -0.048476972550706023 0.27982564543664679 0 -0.058649820332164468 0.29485946887662068 0 -0.048476972550706023 0.27982564543664679 0 -0.035924128554638488 0.29860074249802943 0 -0.058649820332164468 0.29485946887662068 0 -0.035924128554638488 0.29860074249802943 0 -0.058649820332164468 0.29485946887662068 0 -0.056101506374375817 0.3128319137626559 0 -0.056101506374375817 0.3128319137626559 0 -0.061273612338163523 0.34168082392211641 0 -0.041778374733163148 0.33345529966146709 0 -0.041778374733163148 0.33345529966146709 0 -0.038849285662232391 0.31623083740802288 0 -0.021593132986752129 0.32003539370993961 0 -0.056101506374375817 0.3128319137626559 0 -0.041778374733163148 0.33345529966146709 0 -0.038849285662232391 0.31623083740802288 0 -0.021593132986752129 0.32003539370993961 0 -0.0072621374188671052 0.34147004492185079 0 -0.026756520995263839 0.34622662442059521 0 -0.041778374733163148 0.33345529966146709 0 -0.021593132986752129 0.32003539370993961 0 -0.026756520995263839 0.34622662442059521 0 -0.021593132986752129 0.32003539370993961 0 -0.0072621374188671052 0.34147004492185079 0 -0.021593132986752129 0.32003539370993961 0 -0.0072621374188671052 0.34147004492185079 0 -0.00017254440855824261 0.32560037032276101 0 -0.0025045175740335168 0.31031314766219981 0 -0.021593132986752129 0.32003539370993961 0 -0.00017254440855824261 0.32560037032276101 0 -0.017975249263795932 0.36469023687930041 0 -0.0036227877329230301 0.37947700469323042 0 0.0070688581490178301 0.36290469613376197 0 -0.017975249263795932 0.36469023687930041 0 -0.017202423973373768 0.37968737263981228 0 -0.0036227877329230301 0.37947700469323042 0 -0.0072621374188671052 0.34147004492185079 0 0.0070688581490178301 0.36290469613376197 0 -0.0072621374188671052 0.34147004492185079 0 -0.017975249263795932 0.36469023687930041 0 0.0070688581490178301 0.36290469613376197 0 -0.0072621374188671052 0.34147004492185079 0 -0.026756520995263839 0.34622662442059521 0 -0.017975249263795932 0.36469023687930041 0 -0.026756520995263839 0.34622662442059521 0 -0.017975249263795932 0.36469023687930041 0 -0.044972299261370183 0.36017708579622421 0 -0.017975249263795932 0.36469023687930041 0 -0.044972299261370183 0.36017708579622421 0 -0.033696569954803593 0.38151106350699548 0 -0.044972299261370183 0.36017708579622421 0 -0.056355392512392112 0.37995563405969551 0 -0.033696569954803593 0.38151106350699548 0 -0.041778374733163148 0.33345529966146709 0 -0.026756520995263839 0.34622662442059521 0 -0.044972299261370183 0.36017708579622421 0 -0.061273612338163523 0.34168082392211641 0 -0.044972299261370183 0.36017708579622421 0 -0.06521228616511808 0.36405037212009378 0 -0.061273612338163523 0.34168082392211641 0 -0.041778374733163148 0.33345529966146709 0 -0.044972299261370183 0.36017708579622421 0 -0.044972299261370183 0.36017708579622421 0 -0.06521228616511808 0.36405037212009378 0 -0.056355392512392112 0.37995563405969551 0 -0.06521228616511808 0.36405037212009378 0 -0.083611302269088666 0.35468926302163939 0 -0.079848824444575958 0.38374905380079372 0 -0.083611302269088666 0.35468926302163939 0 -0.096975471326963783 0.37148378381343322 0 -0.079848824444575958 0.38374905380079372 0 -0.061273612338163523 0.34168082392211641 0 -0.06521228616511808 0.36405037212009378 0 -0.083611302269088666 0.35468926302163939 0 -0.061273612338163523 0.34168082392211641 0 -0.083611302269088666 0.35468926302163939 0 -0.076278884194113258 0.32706308502728249 0 -0.056101506374375817 0.3128319137626559 0 -0.076278884194113258 0.32706308502728249 0 -0.056101506374375817 0.3128319137626559 0 -0.061273612338163523 0.34168082392211641 0 -0.076278884194113258 0.32706308502728249 0 -0.073171874186503463 0.31004866742903531 0 -0.056101506374375817 0.3128319137626559 0 -0.076278884194113258 0.32706308502728249 0 -0.076278884194113258 0.32706308502728249 0 -0.090988500091643998 0.31647506579520901 0 -0.096998472576195746 0.33787207035444761 0 -0.073171874186503463 0.31004866742903531 0 -0.076278884194113258 0.32706308502728249 0 -0.090988500091643998 0.31647506579520901 0 -0.083611302269088666 0.35468926302163939 0 -0.076278884194113258 0.32706308502728249 0 -0.096998472576195746 0.33787207035444761 0 -0.090988500091643998 0.31647506579520901 0 -0.096998472576195746 0.33787207035444761 0 -0.11250071635914489 0.32397018824961021 0 -0.1038404580068167 0.30398166541893579 0 -0.090988500091643998 0.31647506579520901 0 -0.11250071635914489 0.32397018824961021 0 -0.1315170279352865 0.33102482385584192 0 -0.12577302420238409 0.3093301053864293 0 -0.11250071635914489 0.32397018824961021 0 -0.1315170279352865 0.33102482385584192 0 -0.11250071635914489 0.32397018824961021 0 -0.1189994847652637 0.3425748687043878 0 -0.096998472576195746 0.33787207035444761 0 -0.11250071635914489 0.32397018824961021 0 -0.1189994847652637 0.3425748687043878 0 -0.12710123171609961 0.3622807710251873 0 -0.1189994847652637 0.3425748687043878 0 -0.1089146800649551 0.3561770594294375 0 -0.12710123171609961 0.3622807710251873 0 -0.1130895959368447 0.37246627340933908 0 -0.1089146800649551 0.3561770594294375 0 -0.12655549565904481 0.38459039506062281 0 -0.12710123171609961 0.3622807710251873 0 -0.1130895959368447 0.37246627340933908 0 -0.1130895959368447 0.37246627340933908 0 -0.096975471326963783 0.37148378381343322 0 -0.1089146800649551 0.3561770594294375 0 -0.083611302269088666 0.35468926302163939 0 -0.096975471326963783 0.37148378381343322 0 -0.1089146800649551 0.3561770594294375 0 -0.096998472576195746 0.33787207035444761 0 -0.1189994847652637 0.3425748687043878 0 -0.1089146800649551 0.3561770594294375 0 -0.083611302269088666 0.35468926302163939 0 -0.096998472576195746 0.33787207035444761 0 -0.1089146800649551 0.3561770594294375 0 -0.10335637586111809 0.38776536102133979 0 -0.1122756033997336 0.40440751886529608 0 -0.092626744140319878 0.40339206391310989 0 -0.1130895959368447 0.37246627340933908 0 -0.096975471326963783 0.37148378381343322 0 -0.10335637586111809 0.38776536102133979 0 -0.12655549565904481 0.38459039506062281 0 -0.1130895959368447 0.37246627340933908 0 -0.10335637586111809 0.38776536102133979 0 -0.12655549565904481 0.38459039506062281 0 -0.10335637586111809 0.38776536102133979 0 -0.1122756033997336 0.40440751886529608 0 -0.1342738988421254 0.39940632656162323 0 -0.12655549565904481 0.38459039506062281 0 -0.1122756033997336 0.40440751886529608 0 -0.12548201032280559 0.41579856094527679 0 -0.1122756033997336 0.40440751886529608 0 -0.1104394098233438 0.42174348832390141 0 -0.12548201032280559 0.41579856094527679 0 -0.1342738988421254 0.39940632656162323 0 -0.1122756033997336 0.40440751886529608 0 -0.13175207046494611 0.44346192959665548 0 -0.1221002198223846 0.42926878838971572 0 -0.1064787913094135 0.43730588845956792 0 -0.12548201032280559 0.41579856094527679 0 -0.1104394098233438 0.42174348832390141 0 -0.1221002198223846 0.42926878838971572 0 -0.1104394098233438 0.42174348832390141 0 -0.1221002198223846 0.42926878838971572 0 -0.1064787913094135 0.43730588845956792 0 -0.1064787913094135 0.43730588845956792 0 -0.08120551215388104 0.43114984732248018 0 -0.1064787913094135 0.43730588845956792 0 -0.097026127818036836 0.42472771569137829 0 -0.08120551215388104 0.43114984732248018 0 -0.1104394098233438 0.42174348832390141 0 -0.1064787913094135 0.43730588845956792 0 -0.097026127818036836 0.42472771569137829 0 -0.1122756033997336 0.40440751886529608 0 -0.098824778170087071 0.41543684488035082 0 -0.092626744140319878 0.40339206391310989 0 -0.1122756033997336 0.40440751886529608 0 -0.1104394098233438 0.42174348832390141 0 -0.098824778170087071 0.41543684488035082 0 -0.1104394098233438 0.42174348832390141 0 -0.097026127818036836 0.42472771569137829 0 -0.098824778170087071 0.41543684488035082 0 -0.097026127818036836 0.42472771569137829 0 -0.098824778170087071 0.41543684488035082 0 -0.088182147633458732 0.41800250947059109 0 -0.088182147633458732 0.41800250947059109 0 -0.075766822878524695 0.41019172804676379 0 -0.092626744140319878 0.40339206391310989 0 -0.088182147633458732 0.41800250947059109 0 -0.08120551215388104 0.43114984732248018 0 -0.075766822878524695 0.41019172804676379 0 -0.098824778170087071 0.41543684488035082 0 -0.088182147633458732 0.41800250947059109 0 -0.092626744140319878 0.40339206391310989 0 -0.08120551215388104 0.43114984732248018 0 -0.071684821312473307 0.43663440229273398 0 -0.093222345705159748 0.44373923815992428 0 -0.097026127818036836 0.42472771569137829 0 -0.088182147633458732 0.41800250947059109 0 -0.08120551215388104 0.43114984732248018 0 -0.1064787913094135 0.43730588845956792 0 -0.08120551215388104 0.43114984732248018 0 -0.093222345705159748 0.44373923815992428 0 -0.065135249615538293 0.42231944082984091 0 -0.071684821312473307 0.43663440229273398 0 -0.055943765893954757 0.43144171565494821 0 -0.065135249615538293 0.42231944082984091 0 -0.071684821312473307 0.43663440229273398 0 -0.075766822878524695 0.41019172804676379 0 -0.08120551215388104 0.43114984732248018 0 -0.071684821312473307 0.43663440229273398 0 -0.075766822878524695 0.41019172804676379 0 -0.071684821312473307 0.43663440229273398 0 -0.055943765893954757 0.43144171565494821 0 -0.071684821312473307 0.43663440229273398 0 -0.075766822878524695 0.41019172804676379 0 -0.065135249615538293 0.42231944082984091 0 -0.075766822878524695 0.41019172804676379 0 -0.05600936231039217 0.41342904923233581 0 -0.075766822878524695 0.41019172804676379 0 -0.063299398534094969 0.39691509799282482 0 -0.05600936231039217 0.41342904923233581 0 -0.075766822878524695 0.41019172804676379 0 -0.063299398534094969 0.39691509799282482 0 -0.079848824444575958 0.38374905380079372 0 -0.075766822878524695 0.41019172804676379 0 -0.079848824444575958 0.38374905380079372 0 -0.10335637586111809 0.38776536102133979 0 -0.092626744140319878 0.40339206391310989 0 -0.079848824444575958 0.38374905380079372 0 -0.075766822878524695 0.41019172804676379 0 -0.092626744140319878 0.40339206391310989 0 -0.079848824444575958 0.38374905380079372 0 -0.096975471326963783 0.37148378381343322 0 -0.10335637586111809 0.38776536102133979 0 -0.079848824444575958 0.38374905380079372 0 -0.06521228616511808 0.36405037212009378 0 -0.079848824444575958 0.38374905380079372 0 -0.056355392512392112 0.37995563405969551 0 -0.063299398534094969 0.39691509799282482 0 -0.079848824444575958 0.38374905380079372 0 -0.056355392512392112 0.37995563405969551 0 -0.063299398534094969 0.39691509799282482 0 -0.056355392512392112 0.37995563405969551 0 -0.048516590524589932 0.3972500248245352 0 -0.063299398534094969 0.39691509799282482 0 -0.048516590524589932 0.3972500248245352 0 -0.05600936231039217 0.41342904923233581 0 -0.048516590524589932 0.3972500248245352 0 -0.032850518460687449 0.39898186447299261 0 -0.037770955976974781 0.41204834058667128 0 -0.048516590524589932 0.3972500248245352 0 -0.032850518460687449 0.39898186447299261 0 -0.033696569954803593 0.38151106350699548 0 -0.056355392512392112 0.37995563405969551 0 -0.048516590524589932 0.3972500248245352 0 -0.033696569954803593 0.38151106350699548 0 -0.017975249263795932 0.36469023687930041 0 -0.033696569954803593 0.38151106350699548 0 -0.017202423973373768 0.37968737263981228 0 -0.033696569954803593 0.38151106350699548 0 -0.017202423973373768 0.37968737263981228 0 -0.018646700241063071 0.39302480292672293 0 -0.018646700241063071 0.39302480292672293 0 -0.0081246324890641812 0.40805065625530412 0 -0.02380123978217763 0.41023834757766542 0 -0.032850518460687449 0.39898186447299261 0 -0.018646700241063071 0.39302480292672293 0 -0.02380123978217763 0.41023834757766542 0 -0.032850518460687449 0.39898186447299261 0 -0.033696569954803593 0.38151106350699548 0 -0.018646700241063071 0.39302480292672293 0 -0.018646700241063071 0.39302480292672293 0 -0.0081246324890641812 0.40805065625530412 0 0.0058412231562265226 0.39891749499975832 0 -0.018646700241063071 0.39302480292672293 0 -0.0036227877329230301 0.37947700469323042 0 0.0058412231562265226 0.39891749499975832 0 -0.017202423973373768 0.37968737263981228 0 -0.018646700241063071 0.39302480292672293 0 -0.0036227877329230301 0.37947700469323042 0 -0.0072392309157056894 0.43649428994281841 0 -0.01082192781792536 0.4212785973985777 0 -0.025245314308565012 0.42614172839533782 0 -0.0072392309157056894 0.43649428994281841 0 -0.01082192781792536 0.4212785973985777 0 0.0059488009041311612 0.41735624870114602 0 -0.0081246324890641812 0.40805065625530412 0 -0.01082192781792536 0.4212785973985777 0 -0.02380123978217763 0.41023834757766542 0 -0.0081246324890641812 0.40805065625530412 0 -0.01082192781792536 0.4212785973985777 0 0.0059488009041311612 0.41735624870114602 0 -0.02380123978217763 0.41023834757766542 0 -0.025245314308565012 0.42614172839533782 0 -0.037770955976974781 0.41204834058667128 0 -0.01082192781792536 0.4212785973985777 0 -0.02380123978217763 0.41023834757766542 0 -0.025245314308565012 0.42614172839533782 0 -0.0072392309157056894 0.43649428994281841 0 -0.025245314308565012 0.42614172839533782 0 -0.027102965719072159 0.44246949839488359 0 -0.025245314308565012 0.42614172839533782 0 -0.040202710475436512 0.4262490290171615 0 -0.027102965719072159 0.44246949839488359 0 -0.040202710475436512 0.4262490290171615 0 -0.037770955976974781 0.41204834058667128 0 -0.05600936231039217 0.41342904923233581 0 -0.032850518460687449 0.39898186447299261 0 -0.02380123978217763 0.41023834757766542 0 -0.037770955976974781 0.41204834058667128 0 -0.025245314308565012 0.42614172839533782 0 -0.040202710475436512 0.4262490290171615 0 -0.037770955976974781 0.41204834058667128 0 -0.048516590524589932 0.3972500248245352 0 -0.037770955976974781 0.41204834058667128 0 -0.05600936231039217 0.41342904923233581 0 -0.040202710475436512 0.4262490290171615 0 -0.055943765893954757 0.43144171565494821 0 -0.065135249615538293 0.42231944082984091 0 -0.05600936231039217 0.41342904923233581 0 -0.055943765893954757 0.43144171565494821 0 -0.040202710475436512 0.4262490290171615 0 -0.055943765893954757 0.43144171565494821 0 -0.044517274739645132 0.44459183642540612 0 -0.040202710475436512 0.4262490290171615 0 -0.05600936231039217 0.41342904923233581 0 -0.055943765893954757 0.43144171565494821 0 -0.058335943557526457 0.44624868987483279 0 -0.051109653666529857 0.46081922680591902 0 -0.044517274739645132 0.44459183642540612 0 -0.071684821312473307 0.43663440229273398 0 -0.055943765893954757 0.43144171565494821 0 -0.058335943557526457 0.44624868987483279 0 -0.055943765893954757 0.43144171565494821 0 -0.058335943557526457 0.44624868987483279 0 -0.044517274739645132 0.44459183642540612 0 -0.051109653666529857 0.46081922680591902 0 -0.065163583037585071 0.47887813409757868 0 -0.068424202175029258 0.45775626819515641 0 -0.058335943557526457 0.44624868987483279 0 -0.051109653666529857 0.46081922680591902 0 -0.068424202175029258 0.45775626819515641 0 -0.051109653666529857 0.46081922680591902 0 -0.032757904119458489 0.46093040696708881 0 -0.044531910374045837 0.48023148171387958 0 -0.051109653666529857 0.46081922680591902 0 -0.032757904119458489 0.46093040696708881 0 -0.044517274739645132 0.44459183642540612 0 -0.040202710475436512 0.4262490290171615 0 -0.044517274739645132 0.44459183642540612 0 -0.027102965719072159 0.44246949839488359 0 -0.032757904119458489 0.46093040696708881 0 -0.044517274739645132 0.44459183642540612 0 -0.027102965719072159 0.44246949839488359 0 -0.0072392309157056894 0.43649428994281841 0 -0.027102965719072159 0.44246949839488359 0 -0.01461213653914459 0.45725057482734738 0 -0.032757904119458489 0.46093040696708881 0 -0.027102965719072159 0.44246949839488359 0 -0.01461213653914459 0.45725057482734738 0 -0.032757904119458489 0.46093040696708881 0 -0.01461213653914459 0.45725057482734738 0 -0.02185909025790168 0.48076112241269181 0 -0.01461213653914459 0.45725057482734738 0 -0.003089566724048357 0.47326761514296101 0 0.0026031304198410629 0.45131346537392758 0 -0.0072392309157056894 0.43649428994281841 0 -0.01461213653914459 0.45725057482734738 0 0.0026031304198410629 0.45131346537392758 0 -0.0068935706251778139 0.5 0 -0.003089566724048357 0.47326761514296101 0 -0.02185909025790168 0.48076112241269181 0 -0.01461213653914459 0.45725057482734738 0 -0.003089566724048357 0.47326761514296101 0 -0.02185909025790168 0.48076112241269181 0 -0.0068935706251778139 0.5 0 -0.02185909025790168 0.48076112241269181 0 -0.034398267262659273 0.5 0 -0.02185909025790168 0.48076112241269181 0 -0.034398267262659273 0.5 0 -0.044531910374045837 0.48023148171387958 0 -0.032757904119458489 0.46093040696708881 0 -0.02185909025790168 0.48076112241269181 0 -0.044531910374045837 0.48023148171387958 0 -0.051109653666529857 0.46081922680591902 0 -0.044531910374045837 0.48023148171387958 0 -0.065163583037585071 0.47887813409757868 0 -0.044531910374045837 0.48023148171387958 0 -0.061902963900140731 0.50000000000000089 0 -0.065163583037585071 0.47887813409757868 0 -0.034398267262659273 0.5 0 -0.044531910374045837 0.48023148171387958 0 -0.061902963900140731 0.50000000000000089 0 -0.061902963900140731 0.50000000000000089 0 -0.065163583037585071 0.47887813409757868 0 -0.061902963900140731 0.50000000000000089 0 -0.077838109667281524 0.48710250329852411 0 -0.087854509421354754 0.5 0 -0.061902963900140731 0.50000000000000089 0 -0.077838109667281524 0.48710250329852411 0 -0.065163583037585071 0.47887813409757868 0 -0.077838109667281524 0.48710250329852411 0 -0.087854509421354754 0.5 0 -0.093631833857276997 0.48378290981445132 0 -0.077838109667281524 0.48710250329852411 0 -0.093631833857276997 0.48378290981445132 0 -0.080637658120050082 0.47285147258059063 0 -0.093631833857276997 0.48378290981445132 0 -0.080637658120050082 0.47285147258059063 0 -0.095304075467821936 0.46893627996427029 0 -0.080637658120050082 0.47285147258059063 0 -0.065163583037585071 0.47887813409757868 0 -0.068424202175029258 0.45775626819515641 0 -0.077838109667281524 0.48710250329852411 0 -0.080637658120050082 0.47285147258059063 0 -0.065163583037585071 0.47887813409757868 0 -0.065163583037585071 0.47887813409757868 0 -0.068424202175029258 0.45775626819515641 0 -0.068424202175029258 0.45775626819515641 0 -0.079579065155363032 0.44906004053067289 0 -0.084984891428789844 0.45811025347487683 0 -0.080637658120050082 0.47285147258059063 0 -0.068424202175029258 0.45775626819515641 0 -0.084984891428789844 0.45811025347487683 0 -0.071684821312473307 0.43663440229273398 0 -0.058335943557526457 0.44624868987483279 0 -0.068424202175029258 0.45775626819515641 0 -0.071684821312473307 0.43663440229273398 0 -0.068424202175029258 0.45775626819515641 0 -0.071684821312473307 0.43663440229273398 0 -0.068424202175029258 0.45775626819515641 0 -0.079579065155363032 0.44906004053067289 0 -0.071684821312473307 0.43663440229273398 0 -0.079579065155363032 0.44906004053067289 0 -0.093222345705159748 0.44373923815992428 0 -0.071684821312473307 0.43663440229273398 0 -0.093222345705159748 0.44373923815992428 0 -0.079579065155363032 0.44906004053067289 0 -0.093222345705159748 0.44373923815992428 0 -0.084984891428789844 0.45811025347487683 0 -0.093222345705159748 0.44373923815992428 0 -0.084984891428789844 0.45811025347487683 0 -0.099437105326258865 0.45731761566948659 0 -0.084984891428789844 0.45811025347487683 0 -0.099437105326258865 0.45731761566948659 0 -0.095304075467821936 0.46893627996427029 0 -0.080637658120050082 0.47285147258059063 0 -0.084984891428789844 0.45811025347487683 0 -0.095304075467821936 0.46893627996427029 0 -0.099437105326258865 0.45731761566948659 0 -0.10891434393167621 0.46495823272124781 0 -0.095304075467821936 0.46893627996427029 0 -0.099437105326258865 0.45731761566948659 0 -0.10891434393167621 0.46495823272124781 0 -0.11475987009784661 0.45084407402711402 0 -0.093222345705159748 0.44373923815992428 0 -0.099437105326258865 0.45731761566948659 0 -0.11475987009784661 0.45084407402711402 0 -0.1064787913094135 0.43730588845956792 0 -0.093222345705159748 0.44373923815992428 0 -0.11475987009784661 0.45084407402711402 0 -0.093222345705159748 0.44373923815992428 0 -0.11475987009784661 0.45084407402711402 0 -0.13175207046494611 0.44346192959665548 0 -0.1064787913094135 0.43730588845956792 0 -0.13175207046494611 0.44346192959665548 0 -0.1064787913094135 0.43730588845956792 0 -0.11475987009784661 0.45084407402711402 0 -0.1336307511693739 0.45491465667522191 0 -0.12544051825853689 0.4631374593356033 0 -0.11475987009784661 0.45084407402711402 0 -0.12544051825853689 0.4631374593356033 0 -0.10891434393167621 0.46495823272124781 0 -0.1136160252334053 0.47771856728300521 0 -0.12544051825853689 0.4631374593356033 0 -0.10891434393167621 0.46495823272124781 0 -0.11475987009784661 0.45084407402711402 0 -0.13298062755884579 0.48255116261061692 0 -0.12544051825853689 0.4631374593356033 0 -0.1136160252334053 0.47771856728300521 0 -0.13298062755884579 0.48255116261061692 0 -0.1058458182692171 0.49480807365413371 0 -0.13298062755884579 0.48255116261061692 0 -0.11380605494256869 0.5 0 -0.1058458182692171 0.49480807365413371 0 -0.13298062755884579 0.48255116261061692 0 -0.1136160252334053 0.47771856728300521 0 -0.1058458182692171 0.49480807365413371 0 -0.087854509421354754 0.5 0 -0.11380605494256869 0.5 0 -0.1058458182692171 0.49480807365413371 0 -0.087854509421354754 0.5 0 -0.093631833857276997 0.48378290981445132 0 -0.1058458182692171 0.49480807365413371 0 -0.1136160252334053 0.47771856728300521 0 -0.1058458182692171 0.49480807365413371 0 -0.1043559736166358 0.48381945471134902 0 -0.093631833857276997 0.48378290981445132 0 -0.1058458182692171 0.49480807365413371 0 -0.1043559736166358 0.48381945471134902 0 -0.093631833857276997 0.48378290981445132 0 -0.1048057889081305 0.47442420204765762 0 -0.1043559736166358 0.48381945471134902 0 -0.093631833857276997 0.48378290981445132 0 -0.095304075467821936 0.46893627996427029 0 -0.1048057889081305 0.47442420204765762 0 -0.10891434393167621 0.46495823272124781 0 -0.1136160252334053 0.47771856728300521 0 -0.1048057889081305 0.47442420204765762 0 -0.10891434393167621 0.46495823272124781 0 -0.095304075467821936 0.46893627996427029 0 -0.1048057889081305 0.47442420204765762 0 -0.1136160252334053 0.47771856728300521 0 -0.1048057889081305 0.47442420204765762 0 -0.1043559736166358 0.48381945471134902 0 -0.16372231175516949 0.08442819848465731 0 -0.15093626356447659 0.087069345181943508 0 -0.15518952671466241 0.069788713381716036 0 -0.16372231175516949 0.08442819848465731 0 -0.1756345505012066 0.070889783495268699 0 -0.1751333004977583 0.097143888168289519 0 -0.16372231175516949 0.08442819848465731 0 -0.1751333004977583 0.097143888168289519 0 -0.16171791749774381 0.097249262196068775 0 -0.16372231175516949 0.08442819848465731 0 -0.16171791749774381 0.097249262196068775 0 -0.15093626356447659 0.087069345181943508 0 -0.16372231175516949 0.08442819848465731 0 -0.1756345505012066 0.070889783495268699 0 -0.15518952671466241 0.069788713381716036 0 -0.1756345505012066 0.070889783495268699 0 -0.15518952671466241 0.069788713381716036 0 -0.16223695238926561 0.052594200190125132 0 -0.1756345505012066 0.070889783495268699 0 -0.19053419445951161 0.052610770621845292 0 -0.19612483249420401 0.068091746174319415 0 -0.1756345505012066 0.070889783495268699 0 -0.18871947576181089 0.093673214670465021 0 -0.19612483249420401 0.068091746174319415 0 -0.1756345505012066 0.070889783495268699 0 -0.1751333004977583 0.097143888168289519 0 -0.1756345505012066 0.070889783495268699 0 -0.1751333004977583 0.097143888168289519 0 -0.18871947576181089 0.093673214670465021 0 -0.18131411902941769 0.11925468316661041 0 -0.18871947576181089 0.093673214670465021 0 -0.1751333004977583 0.097143888168289519 0 -0.18131411902941769 0.11925468316661041 0 -0.18871947576181089 0.093673214670465021 0 -0.1751333004977583 0.097143888168289519 0 -0.17463205049430791 0.1233979928413103 0 -0.18131411902941769 0.11925468316661041 0 -0.17463205049430791 0.1233979928413103 0 -0.19892457962824481 0.1205653340059829 0 -0.17463205049430791 0.1233979928413103 0 -0.19892457962824481 0.1205653340059829 0 -0.18530606321329801 0.12949084902847491 0 -0.1751333004977583 0.097143888168289519 0 -0.18131411902941769 0.11925468316661041 0 -0.17463205049430791 0.1233979928413103 0 -0.17463205049430791 0.1233979928413103 0 -0.19892457962824481 0.1205653340059829 0 -0.1751333004977583 0.097143888168289519 0 -0.17463205049430791 0.1233979928413103 0 -0.165591889364022 0.1100935584672583 0 -0.17463205049430791 0.1233979928413103 0 -0.1598554046101329 0.12512104095579701 0 -0.17463205049430791 0.1233979928413103 0 -0.16396547557359309 0.1179523604009539 0 -0.1598554046101329 0.12512104095579701 0 -0.17463205049430791 0.1233979928413103 0 -0.165591889364022 0.1100935584672583 0 -0.16396547557359309 0.1179523604009539 0 -0.165591889364022 0.1100935584672583 0 -0.16396547557359309 0.1179523604009539 0 -0.1557825578259103 0.11319684933944919 0 -0.16396547557359309 0.1179523604009539 0 -0.1557825578259103 0.11319684933944919 0 -0.1598554046101329 0.12512104095579701 0 -0.1751333004977583 0.097143888168289519 0 -0.165591889364022 0.1100935584672583 0 -0.16171791749774381 0.097249262196068775 0 -0.165591889364022 0.1100935584672583 0 -0.1513048045227823 0.10252569531319269 0 -0.1557825578259103 0.11319684933944919 0 -0.165591889364022 0.1100935584672583 0 -0.16171791749774381 0.097249262196068775 0 -0.1513048045227823 0.10252569531319269 0 -0.1513048045227823 0.10252569531319269 0 -0.1355182161913136 0.10914070680675041 0 -0.13964798444238999 0.092855372928561969 0 -0.16171791749774381 0.097249262196068775 0 -0.1513048045227823 0.10252569531319269 0 -0.15093626356447659 0.087069345181943508 0 -0.1513048045227823 0.10252569531319269 0 -0.1557825578259103 0.11319684933944919 0 -0.1355182161913136 0.10914070680675041 0 -0.1513048045227823 0.10252569531319269 0 -0.13964798444238999 0.092855372928561969 0 -0.15093626356447659 0.087069345181943508 0 -0.1557825578259103 0.11319684933944919 0 -0.1355182161913136 0.10914070680675041 0 -0.1598554046101329 0.12512104095579701 0 -0.1355182161913136 0.10914070680675041 0 -0.1598554046101329 0.12512104095579701 0 -0.14280445220814469 0.1192500300409249 0 -0.1598554046101329 0.12512104095579701 0 -0.13922952195075211 0.12752614618091959 0 -0.14280445220814469 0.1192500300409249 0 -0.1355182161913136 0.10914070680675041 0 -0.1598554046101329 0.12512104095579701 0 -0.13074244959953979 0.11946175785799951 0 -0.1355182161913136 0.10914070680675041 0 -0.123743476780604 0.10140915347104661 0 -0.14280445220814469 0.1192500300409249 0 -0.13074244959953979 0.11946175785799951 0 -0.13922952195075211 0.12752614618091959 0 -0.14280445220814469 0.1192500300409249 0 -0.1355182161913136 0.10914070680675041 0 -0.14280445220814469 0.1192500300409249 0 -0.13074244959953979 0.11946175785799951 0 -0.1355182161913136 0.10914070680675041 0 -0.1355182161913136 0.10914070680675041 0 -0.12576525993317081 0.095608920700106598 0 -0.13964798444238999 0.092855372928561969 0 -0.1355182161913136 0.10914070680675041 0 -0.12576525993317081 0.095608920700106598 0 -0.1355182161913136 0.10914070680675041 0 -0.12576525993317081 0.095608920700106598 0 -0.123743476780604 0.10140915347104661 0 -0.1355182161913136 0.10914070680675041 0 -0.123743476780604 0.10140915347104661 0 -0.12576525993317081 0.095608920700106598 0 -0.13964798444238999 0.092855372928561969 0 -0.13471537800020611 0.069932196640817734 0 -0.12576525993317081 0.095608920700106598 0 -0.13471537800020611 0.069932196640817734 0 -0.1158200249735767 0.081810356583590621 0 -0.12576525993317081 0.095608920700106598 0 -0.13471537800020611 0.069932196640817734 0 -0.13964798444238999 0.092855372928561969 0 -0.15093626356447659 0.087069345181943508 0 -0.13471537800020611 0.069932196640817734 0 -0.15093626356447659 0.087069345181943508 0 -0.15518952671466241 0.069788713381716036 0 -0.13471537800020611 0.069932196640817734 0 -0.13471537800020611 0.069932196640817734 0 -0.12657932631233151 0.049909814768299969 0 -0.1143187324205953 0.061132814960732959 0 -0.13471537800020611 0.069932196640817734 0 -0.14366549606724091 0.044255472581528732 0 -0.13471537800020611 0.069932196640817734 0 -0.12657932631233151 0.049909814768299969 0 -0.14366549606724091 0.044255472581528732 0 -0.12657932631233151 0.049909814768299969 0 -0.1284208098020175 0.033179877632891097 0 -0.14366549606724091 0.044255472581528732 0 -0.1284208098020175 0.033179877632891097 0 -0.14366549606724091 0.044255472581528732 0 -0.1467564914265658 0.025061264112791169 0 -0.14366549606724091 0.044255472581528732 0 -0.16223695238926561 0.052594200190125132 0 -0.1605593881585633 0.033401352669864208 0 -0.14366549606724091 0.044255472581528732 0 -0.1467564914265658 0.025061264112791169 0 -0.1605593881585633 0.033401352669864208 0 -0.15518952671466241 0.069788713381716036 0 -0.13471537800020611 0.069932196640817734 0 -0.14366549606724091 0.044255472581528732 0 -0.15518952671466241 0.069788713381716036 0 -0.14366549606724091 0.044255472581528732 0 -0.16223695238926561 0.052594200190125132 0 -0.13137048688310951 -0.003337023478303953 0 -0.13460564055411489 0.01723703355858653 0 -0.11131614731463491 0.019777731715017489 0 -0.13137048688310951 -0.003337023478303953 0 -0.13460564055411489 0.01723703355858653 0 -0.1433170204333889 0.0042533116210359059 0 -0.13137048688310951 -0.003337023478303953 0 -0.1433170204333889 0.0042533116210359059 0 -0.1284208098020175 0.033179877632891097 0 -0.13460564055411489 0.01723703355858653 0 -0.1467564914265658 0.025061264112791169 0 -0.13460564055411489 0.01723703355858653 0 -0.1467564914265658 0.025061264112791169 0 -0.15542372099760421 0.0119454102405231 0 -0.1467564914265658 0.025061264112791169 0 -0.15542372099760421 0.0119454102405231 0 -0.1605593881585633 0.033401352669864208 0 -0.13460564055411489 0.01723703355858653 0 -0.15542372099760421 0.0119454102405231 0 -0.1433170204333889 0.0042533116210359059 0 -0.15542372099760421 0.0119454102405231 0 -0.1433170204333889 0.0042533116210359059 0 -0.1564869492866878 -0.00059129627401754796 0 -0.15542372099760421 0.0119454102405231 0 -0.1433170204333889 0.0042533116210359059 0 -0.15542372099760421 0.0119454102405231 0 -0.17947695511209899 0.027227843959349921 0 -0.17208342559322409 0.0058404778805985873 0 -0.1564869492866878 -0.00059129627401754796 0 -0.15542372099760421 0.0119454102405231 0 -0.17208342559322409 0.0058404778805985873 0 -0.15542372099760421 0.0119454102405231 0 -0.17947695511209899 0.027227843959349921 0 -0.1605593881585633 0.033401352669864208 0 -0.15542372099760421 0.0119454102405231 0 -0.17947695511209899 0.027227843959349921 0 -0.18418091461086311 -0.0067458590849352237 0 -0.17208342559322409 0.0058404778805985873 0 -0.19246094727398991 0.01350162855121731 0 -0.17947695511209899 0.027227843959349921 0 -0.17208342559322409 0.0058404778805985873 0 -0.19246094727398991 0.01350162855121731 0 -0.1756345505012066 0.070889783495268699 0 -0.16223695238926561 0.052594200190125132 0 -0.17613580050465499 0.044635678822247941 0 -0.16223695238926561 0.052594200190125132 0 -0.1605593881585633 0.033401352669864208 0 -0.17613580050465499 0.044635678822247941 0 -0.17947695511209899 0.027227843959349921 0 -0.17613580050465499 0.044635678822247941 0 -0.19053419445951161 0.052610770621845292 0 -0.17947695511209899 0.027227843959349921 0 -0.1605593881585633 0.033401352669864208 0 -0.17613580050465499 0.044635678822247941 0 -0.1756345505012066 0.070889783495268699 0 -0.17613580050465499 0.044635678822247941 0 -0.1756345505012066 0.070889783495268699 0 -0.17613580050465499 0.044635678822247941 0 -0.19053419445951161 0.052610770621845292 0 -0.20353018922659619 0.042510277678173593 0 -0.19612483249420401 0.068091746174319415 0 -0.19053419445951161 0.052610770621845292 0 -0.20353018922659619 0.042510277678173593 0 -0.19612483249420401 0.068091746174319415 0 -0.17947695511209899 0.027227843959349921 0 -0.20353018922659619 0.042510277678173593 0 -0.17947695511209899 0.027227843959349921 0 -0.19053419445951161 0.052610770621845292 0 -0.20353018922659619 0.042510277678173593 0 -0.20353018922659619 0.042510277678173593 0 -0.21955159654467851 0.052689619643397433 0 -0.22113039192623851 0.032431486205985689 0 -0.20353018922659619 0.042510277678173593 0 -0.2127216369241372 0.066942535097736622 0 -0.19612483249420401 0.068091746174319415 0 -0.20353018922659619 0.042510277678173593 0 -0.21955159654467851 0.052689619643397433 0 -0.20353018922659619 0.042510277678173593 0 -0.21955159654467851 0.052689619643397433 0 -0.2127216369241372 0.066942535097736622 0 -0.2008908429601583 -0.001101000049535744 0 -0.19246094727398991 0.01350162855121731 0 -0.21117588750041991 0.016098560242972841 0 -0.18418091461086311 -0.0067458590849352237 0 -0.2008908429601583 -0.001101000049535744 0 -0.19246094727398991 0.01350162855121731 0 -0.17947695511209899 0.027227843959349921 0 -0.20353018922659619 0.042510277678173593 0 -0.19246094727398991 0.01350162855121731 0 -0.20353018922659619 0.042510277678173593 0 -0.19246094727398991 0.01350162855121731 0 -0.21117588750041991 0.016098560242972841 0 -0.20353018922659619 0.042510277678173593 0 -0.21117588750041991 0.016098560242972841 0 -0.22113039192623851 0.032431486205985689 0 -0.20353018922659619 0.042510277678173593 0 -0.21117588750041991 0.016098560242972841 0 -0.21882158577424271 -0.0103131571922281 0 -0.21117588750041991 0.016098560242972841 0 -0.2008908429601583 -0.001101000049535744 0 -0.21882158577424271 -0.0103131571922281 0 -0.21117588750041991 0.016098560242972841 0 -0.21882158577424271 -0.0103131571922281 0 -0.21117588750041991 0.016098560242972841 0 -0.23546354233931949 0.0078270751002715265 0 -0.23546354233931949 0.0078270751002715265 0 -0.22113039192623851 0.032431486205985689 0 -0.24192231969137759 0.032530148466345048 0 -0.21117588750041991 0.016098560242972841 0 -0.23546354233931949 0.0078270751002715265 0 -0.22113039192623851 0.032431486205985689 0 -0.26249405175029211 0.007662734938978108 0 -0.23546354233931949 0.0078270751002715265 0 -0.24192231969137759 0.032530148466345048 0 -0.21955159654467851 0.052689619643397433 0 -0.235573003862763 0.062868961608618018 0 -0.21955159654467851 0.052689619643397433 0 -0.235573003862763 0.062868961608618018 0 -0.2127216369241372 0.066942535097736622 0 -0.21955159654467851 0.052689619643397433 0 -0.24450296286368231 0.049373315754277197 0 -0.235573003862763 0.062868961608618018 0 -0.21955159654467851 0.052689619643397433 0 -0.22113039192623851 0.032431486205985689 0 -0.24192231969137759 0.032530148466345048 0 -0.21955159654467851 0.052689619643397433 0 -0.24192231969137759 0.032530148466345048 0 -0.24450296286368231 0.049373315754277197 0 -0.2559826395353394 0.061597363551489349 0 -0.24450296286368231 0.049373315754277197 0 -0.235573003862763 0.062868961608618018 0 -0.2559826395353394 0.061597363551489349 0 -0.235573003862763 0.062868961608618018 0 -0.24672703352553629 0.080158677613093823 0 -0.235573003862763 0.062868961608618018 0 -0.24672703352553629 0.080158677613093823 0 -0.2291931736768115 0.079240865998811236 0 -0.24672703352553629 0.080158677613093823 0 -0.2291931736768115 0.079240865998811236 0 -0.23621836434907981 0.095400964388867249 0 -0.25734245126200062 0.1014160866788785 0 -0.24672703352553629 0.080158677613093823 0 -0.23621836434907981 0.095400964388867249 0 -0.2291931736768115 0.079240865998811236 0 -0.21482055865464289 0.083254774020096164 0 -0.2224133943648228 0.095863443882093446 0 -0.2291931736768115 0.079240865998811236 0 -0.2224133943648228 0.095863443882093446 0 -0.23621836434907981 0.095400964388867249 0 -0.235573003862763 0.062868961608618018 0 -0.2291931736768115 0.079240865998811236 0 -0.2127216369241372 0.066942535097736622 0 -0.2291931736768115 0.079240865998811236 0 -0.2127216369241372 0.066942535097736622 0 -0.21482055865464289 0.083254774020096164 0 -0.2127216369241372 0.066942535097736622 0 -0.21482055865464289 0.083254774020096164 0 -0.203099952488771 0.082051867707200909 0 -0.2127216369241372 0.066942535097736622 0 -0.203099952488771 0.082051867707200909 0 -0.19612483249420401 0.068091746174319415 0 -0.21482055865464289 0.083254774020096164 0 -0.203099952488771 0.082051867707200909 0 -0.20375886312158339 0.098403164090322431 0 -0.21482055865464289 0.083254774020096164 0 -0.20375886312158339 0.098403164090322431 0 -0.2224133943648228 0.095863443882093446 0 -0.203099952488771 0.082051867707200909 0 -0.18871947576181089 0.093673214670465021 0 -0.19612483249420401 0.068091746174319415 0 -0.203099952488771 0.082051867707200909 0 -0.18871947576181089 0.093673214670465021 0 -0.20375886312158339 0.098403164090322431 0 -0.18871947576181089 0.093673214670465021 0 -0.19612483249420401 0.068091746174319415 0 -0.18131411902941769 0.11925468316661041 0 -0.19892457962824481 0.1205653340059829 0 -0.19516396372389291 0.10855896077987801 0 -0.19892457962824481 0.1205653340059829 0 -0.19516396372389291 0.10855896077987801 0 -0.2064149638336307 0.1103678524700213 0 -0.18131411902941769 0.11925468316661041 0 -0.18871947576181089 0.093673214670465021 0 -0.19516396372389291 0.10855896077987801 0 -0.18871947576181089 0.093673214670465021 0 -0.19516396372389291 0.10855896077987801 0 -0.20375886312158339 0.098403164090322431 0 -0.19516396372389291 0.10855896077987801 0 -0.20375886312158339 0.098403164090322431 0 -0.2064149638336307 0.1103678524700213 0 -0.20375886312158339 0.098403164090322431 0 -0.21522430961498251 0.1066047727861448 0 -0.2064149638336307 0.1103678524700213 0 -0.20375886312158339 0.098403164090322431 0 -0.21522430961498251 0.1066047727861448 0 -0.2224133943648228 0.095863443882093446 0 -0.19892457962824481 0.1205653340059829 0 -0.2064149638336307 0.1103678524700213 0 -0.22321710876218179 0.117732675170656 0 -0.19892457962824481 0.1205653340059829 0 -0.22321710876218179 0.117732675170656 0 -0.21198243415042209 0.1273270768851994 0 -0.19892457962824481 0.1205653340059829 0 -0.22321710876218179 0.117732675170656 0 -0.21522430961498251 0.1066047727861448 0 -0.2064149638336307 0.1103678524700213 0 -0.22321710876218179 0.117732675170656 0 -0.22321710876218179 0.117732675170656 0 -0.22699489982736379 0.11729216141517949 0 -0.22321710876218179 0.117732675170656 0 -0.22699489982736379 0.11729216141517949 0 -0.22407622611686431 0.1086811689817279 0 -0.21522430961498251 0.1066047727861448 0 -0.22321710876218179 0.117732675170656 0 -0.21522430961498251 0.1066047727861448 0 -0.22321710876218179 0.117732675170656 0 -0.22407622611686431 0.1086811689817279 0 -0.22699489982736379 0.11729216141517949 0 -0.22407622611686431 0.1086811689817279 0 -0.23779668997176759 0.1099640720218579 0 -0.21522430961498251 0.1066047727861448 0 -0.2224133943648228 0.095863443882093446 0 -0.22407622611686431 0.1086811689817279 0 -0.22407622611686431 0.1086811689817279 0 -0.23621836434907981 0.095400964388867249 0 -0.23779668997176759 0.1099640720218579 0 -0.2224133943648228 0.095863443882093446 0 -0.22407622611686431 0.1086811689817279 0 -0.23621836434907981 0.095400964388867249 0 -0.25734245126200062 0.1014160866788785 0 -0.23621836434907981 0.095400964388867249 0 -0.23779668997176759 0.1099640720218579 0 -0.25734245126200062 0.1014160866788785 0 -0.23779668997176759 0.1099640720218579 0 -0.24895710550971339 0.12165530893482571 0 -0.2385801137665676 0.122701518390659 0 -0.23779668997176759 0.1099640720218579 0 -0.24895710550971339 0.12165530893482571 0 -0.22699489982736379 0.11729216141517949 0 -0.2385801137665676 0.122701518390659 0 -0.23779668997176759 0.1099640720218579 0 -0.22699489982736379 0.11729216141517949 0 -0.2385801137665676 0.122701518390659 0 -0.2405717597574257 0.1418945311907728 0 -0.2385801137665676 0.122701518390659 0 -0.24895710550971339 0.12165530893482571 0 -0.2405717597574257 0.1418945311907728 0 -0.25608290515330878 0.14176455504424121 0 -0.24895710550971339 0.12165530893482571 0 -0.2405717597574257 0.1418945311907728 0 -0.24895710550971339 0.12165530893482571 0 -0.2405717597574257 0.1418945311907728 0 -0.22321710876218179 0.117732675170656 0 -0.22354757195218369 0.13155214617265881 0 -0.2405717597574257 0.1418945311907728 0 -0.22321710876218179 0.117732675170656 0 -0.22699489982736379 0.11729216141517949 0 -0.2405717597574257 0.1418945311907728 0 -0.22321710876218179 0.117732675170656 0 -0.2405717597574257 0.1418945311907728 0 -0.22354757195218369 0.13155214617265881 0 -0.22866128532361621 0.14153149423513051 0 -0.2405717597574257 0.1418945311907728 0 -0.21878746546912231 0.1392010645796998 0 -0.22354757195218369 0.13155214617265881 0 -0.22866128532361621 0.14153149423513051 0 -0.21878746546912231 0.1392010645796998 0 -0.22354757195218369 0.13155214617265881 0 -0.2159650745918322 0.13357921232561451 0 -0.22321710876218179 0.117732675170656 0 -0.22354757195218369 0.13155214617265881 0 -0.21198243415042209 0.1273270768851994 0 -0.22866128532361621 0.14153149423513051 0 -0.2405717597574257 0.1418945311907728 0 -0.23379856030635021 0.15824260950785349 0 -0.2220979066771098 0.14976549412664819 0 -0.22866128532361621 0.14153149423513051 0 -0.23379856030635021 0.15824260950785349 0 -0.2220979066771098 0.14976549412664819 0 -0.23379856030635021 0.15824260950785349 0 -0.21909321543322929 0.1606009590281276 0 -0.21878746546912231 0.1392010645796998 0 -0.2220979066771098 0.14976549412664819 0 -0.22866128532361621 0.14153149423513051 0 -0.25072842261960387 0.15603505327837411 0 -0.2405717597574257 0.1418945311907728 0 -0.23379856030635021 0.15824260950785349 0 -0.2405717597574257 0.1418945311907728 0 -0.23379856030635021 0.15824260950785349 0 -0.25072842261960387 0.15603505327837411 0 -0.25608290515330878 0.14176455504424121 0 -0.2405717597574257 0.1418945311907728 0 -0.25072842261960387 0.15603505327837411 0 -0.2405717597574257 0.1418945311907728 0 -0.24346313069296871 0.16633892637512099 0 -0.22702536085527411 0.17459068782493389 0 -0.23379856030635021 0.15824260950785349 0 -0.25072842261960387 0.15603505327837411 0 -0.24346313069296871 0.16633892637512099 0 -0.23379856030635021 0.15824260950785349 0 -0.24593749817207319 0.17922101447869401 0 -0.22702536085527411 0.17459068782493389 0 -0.23531355475386351 0.19206411553567329 0 -0.24346313069296871 0.16633892637512099 0 -0.24593749817207319 0.17922101447869401 0 -0.22702536085527411 0.17459068782493389 0 -0.22702536085527411 0.17459068782493389 0 -0.23531355475386351 0.19206411553567329 0 -0.21668486691279551 0.1896349297876268 0 -0.22702536085527411 0.17459068782493389 0 -0.21909321543322929 0.1606009590281276 0 -0.21078083849551829 0.1734645188772713 0 -0.22702536085527411 0.17459068782493389 0 -0.23379856030635021 0.15824260950785349 0 -0.22702536085527411 0.17459068782493389 0 -0.23379856030635021 0.15824260950785349 0 -0.21909321543322929 0.1606009590281276 0 -0.21909321543322929 0.1606009590281276 0 -0.20917883787537819 0.16210322782447459 0 -0.21014900685323101 0.14925134328242939 0 -0.21909321543322929 0.1606009590281276 0 -0.20917883787537819 0.16210322782447459 0 -0.21078083849551829 0.1734645188772713 0 -0.20917883787537819 0.16210322782447459 0 -0.21078083849551829 0.1734645188772713 0 -0.19690649474481761 0.16930016240990661 0 -0.22702536085527411 0.17459068782493389 0 -0.21078083849551829 0.1734645188772713 0 -0.21668486691279551 0.1896349297876268 0 -0.21078083849551829 0.1734645188772713 0 -0.21668486691279551 0.1896349297876268 0 -0.19675568901559279 0.189567439062066 0 -0.21078083849551829 0.1734645188772713 0 -0.19690649474481761 0.16930016240990661 0 -0.19675568901559279 0.189567439062066 0 -0.19690649474481761 0.16930016240990661 0 -0.19675568901559279 0.189567439062066 0 -0.1806498087268969 0.1809583004820513 0 -0.20917883787537819 0.16210322782447459 0 -0.20149615309500679 0.15718250099910261 0 -0.19690649474481761 0.16930016240990661 0 -0.20149615309500679 0.15718250099910261 0 -0.19690649474481761 0.16930016240990661 0 -0.1900737238031488 0.15648625425656729 0 -0.19690649474481761 0.16930016240990661 0 -0.1900737238031488 0.15648625425656729 0 -0.18329050548046091 0.16641049957591181 0 -0.1900737238031488 0.15648625425656729 0 -0.1892816596668532 0.14729824464464031 0 -0.18348409084234379 0.15060627553684849 0 -0.1900737238031488 0.15648625425656729 0 -0.19814782504055481 0.14911065488519101 0 -0.1892816596668532 0.14729824464464031 0 -0.20149615309500679 0.15718250099910261 0 -0.1900737238031488 0.15648625425656729 0 -0.19814782504055481 0.14911065488519101 0 -0.19814782504055481 0.14911065488519101 0 -0.2022681758196824 0.14167303138421811 0 -0.1943649823155553 0.141902467696427 0 -0.19814782504055481 0.14911065488519101 0 -0.1943649823155553 0.141902467696427 0 -0.1892816596668532 0.14729824464464031 0 -0.1943649823155553 0.141902467696427 0 -0.1892816596668532 0.14729824464464031 0 -0.18843187665971381 0.14117764216521481 0 -0.1943649823155553 0.141902467696427 0 -0.18843187665971381 0.14117764216521481 0 -0.1909929067815555 0.135001194222511 0 -0.18843187665971381 0.14117764216521481 0 -0.1909929067815555 0.135001194222511 0 -0.18421136551585299 0.13733957154214979 0 -0.19892457962824481 0.1205653340059829 0 -0.1909929067815555 0.135001194222511 0 -0.18530606321329801 0.12949084902847491 0 -0.19892457962824481 0.1205653340059829 0 -0.1909929067815555 0.135001194222511 0 -0.20124287374027899 0.13384974139548031 0 -0.2022681758196824 0.14167303138421811 0 -0.1943649823155553 0.141902467696427 0 -0.20124287374027899 0.13384974139548031 0 -0.1943649823155553 0.141902467696427 0 -0.1909929067815555 0.135001194222511 0 -0.20124287374027899 0.13384974139548031 0 -0.2022681758196824 0.14167303138421811 0 -0.20124287374027899 0.13384974139548031 0 -0.20954282679560091 0.1362365616649002 0 -0.20124287374027899 0.13384974139548031 0 -0.20954282679560091 0.1362365616649002 0 -0.21198243415042209 0.1273270768851994 0 -0.19892457962824481 0.1205653340059829 0 -0.20124287374027899 0.13384974139548031 0 -0.21198243415042209 0.1273270768851994 0 -0.22354757195218369 0.13155214617265881 0 -0.21198243415042209 0.1273270768851994 0 -0.2159650745918322 0.13357921232561451 0 -0.20954282679560091 0.1362365616649002 0 -0.21198243415042209 0.1273270768851994 0 -0.2159650745918322 0.13357921232561451 0 -0.21878746546912231 0.1392010645796998 0 -0.20954282679560091 0.1362365616649002 0 -0.2159650745918322 0.13357921232561451 0 -0.21878746546912231 0.1392010645796998 0 -0.2220979066771098 0.14976549412664819 0 -0.21014900685323101 0.14925134328242939 0 -0.21878746546912231 0.1392010645796998 0 -0.20954282679560091 0.1362365616649002 0 -0.21014900685323101 0.14925134328242939 0 -0.2220979066771098 0.14976549412664819 0 -0.21909321543322929 0.1606009590281276 0 -0.21014900685323101 0.14925134328242939 0 -0.20149615309500679 0.15718250099910261 0 -0.19814782504055481 0.14911065488519101 0 -0.21014900685323101 0.14925134328242939 0 -0.20917883787537819 0.16210322782447459 0 -0.20149615309500679 0.15718250099910261 0 -0.21014900685323101 0.14925134328242939 0 -0.19814782504055481 0.14911065488519101 0 -0.2022681758196824 0.14167303138421811 0 -0.21014900685323101 0.14925134328242939 0 -0.2022681758196824 0.14167303138421811 0 -0.20954282679560091 0.1362365616649002 0 -0.21014900685323101 0.14925134328242939 0 -0.2254770662958033 0.23770261769940551 0 -0.2355501434136231 0.2478522206023164 0 -0.23301571208005251 0.22631711136445781 0 -0.2254770662958033 0.23770261769940551 0 -0.21946187770755399 0.2272335662722752 0 -0.2144294763495698 0.23954399660221651 0 -0.22222104444170529 0.2467327462878163 0 -0.2254770662958033 0.23770261769940551 0 -0.2144294763495698 0.23954399660221651 0 -0.22222104444170529 0.2467327462878163 0 -0.2254770662958033 0.23770261769940551 0 -0.2355501434136231 0.2478522206023164 0 -0.25210514226647263 0.23555423440704959 0 -0.2355501434136231 0.2478522206023164 0 -0.2466801300010773 0.2452604621424746 0 -0.2355501434136231 0.2478522206023164 0 -0.248734035528067 0.22266264303674471 0 -0.25210514226647263 0.23555423440704959 0 -0.2355501434136231 0.2478522206023164 0 -0.248734035528067 0.22266264303674471 0 -0.23310158204141429 0.25640081827561029 0 -0.2355501434136231 0.2478522206023164 0 -0.2466801300010773 0.2452604621424746 0 -0.25210514226647263 0.23555423440704959 0 -0.2466801300010773 0.2452604621424746 0 -0.25054816238852479 0.24059870715785611 0 -0.25210514226647263 0.23555423440704959 0 -0.2466801300010773 0.2452604621424746 0 -0.25272816581491458 0.21503132644266379 0 -0.23589780562791721 0.22466705357138941 0 -0.2355501434136231 0.2478522206023164 0 -0.23589780562791721 0.22466705357138941 0 -0.23301571208005251 0.22631711136445781 0 -0.2355501434136231 0.2478522206023164 0 -0.248734035528067 0.22266264303674471 0 -0.23589780562791721 0.22466705357138941 0 -0.25272816581491458 0.21503132644266379 0 -0.248734035528067 0.22266264303674471 0 -0.23589780562791721 0.22466705357138941 0 -0.248734035528067 0.22266264303674471 0 -0.23589780562791721 0.22466705357138941 0 -0.23589780562791721 0.22466705357138941 0 -0.23301571208005251 0.22631711136445781 0 -0.23589780562791721 0.22466705357138941 0 -0.21946187770755399 0.2272335662722752 0 -0.225888155969557 0.21631124094479351 0 -0.23589780562791721 0.22466705357138941 0 -0.23301571208005251 0.22631711136445781 0 -0.21946187770755399 0.2272335662722752 0 -0.23589780562791721 0.22466705357138941 0 -0.21946187770755399 0.2272335662722752 0 -0.2254770662958033 0.23770261769940551 0 -0.23301571208005251 0.22631711136445781 0 -0.21946187770755399 0.2272335662722752 0 -0.21946187770755399 0.2272335662722752 0 -0.225888155969557 0.21631124094479351 0 -0.2147498456923036 0.21679580952784941 0 -0.225888155969557 0.21631124094479351 0 -0.2163983660951504 0.20664118688365379 0 -0.2147498456923036 0.21679580952784941 0 -0.225888155969557 0.21631124094479351 0 -0.22900898315534271 0.20498679461036609 0 -0.2163983660951504 0.20664118688365379 0 -0.225888155969557 0.21631124094479351 0 -0.22900898315534271 0.20498679461036609 0 -0.23632785610705401 0.21457891752941979 0 -0.23589780562791721 0.22466705357138941 0 -0.225888155969557 0.21631124094479351 0 -0.23632785610705401 0.21457891752941979 0 -0.25272816581491458 0.21503132644266379 0 -0.23632785610705401 0.21457891752941979 0 -0.24165148627456459 0.20791054123727601 0 -0.25272816581491458 0.21503132644266379 0 -0.23589780562791721 0.22466705357138941 0 -0.23632785610705401 0.21457891752941979 0 -0.25462413856064708 0.2114088186030785 0 -0.24165148627456459 0.20791054123727601 0 -0.23531355475386351 0.19206411553567329 0 -0.25272816581491458 0.21503132644266379 0 -0.25462413856064708 0.2114088186030785 0 -0.24165148627456459 0.20791054123727601 0 -0.22900898315534271 0.20498679461036609 0 -0.23632785610705401 0.21457891752941979 0 -0.24165148627456459 0.20791054123727601 0 -0.25193880530206408 0.19370481573741441 0 -0.24593749817207319 0.17922101447869401 0 -0.23531355475386351 0.19206411553567329 0 -0.25462413856064708 0.2114088186030785 0 -0.23531355475386351 0.19206411553567329 0 -0.25193880530206408 0.19370481573741441 0 -0.25462413856064708 0.2114088186030785 0 -0.23531355475386351 0.19206411553567329 0 -0.22900898315534271 0.20498679461036609 0 -0.24165148627456459 0.20791054123727601 0 -0.23531355475386351 0.19206411553567329 0 -0.22900898315534271 0.20498679461036609 0 -0.21668486691279551 0.1896349297876268 0 -0.2163983660951504 0.20664118688365379 0 -0.22900898315534271 0.20498679461036609 0 -0.23531355475386351 0.19206411553567329 0 -0.21668486691279551 0.1896349297876268 0 -0.21668486691279551 0.1896349297876268 0 -0.20588600075920099 0.20051631774142969 0 -0.2163983660951504 0.20664118688365379 0 -0.21668486691279551 0.1896349297876268 0 -0.20588600075920099 0.20051631774142969 0 -0.19675568901559279 0.189567439062066 0 -0.20588600075920099 0.20051631774142969 0 -0.19675568901559279 0.189567439062066 0 -0.1872373767624223 0.2114249087681892 0 -0.20588600075920099 0.20051631774142969 0 -0.203925412238775 0.2130566048024192 0 -0.1872373767624223 0.2114249087681892 0 -0.203925412238775 0.2130566048024192 0 -0.20302594978719091 0.22980007897316179 0 -0.1872373767624223 0.2114249087681892 0 -0.20588600075920099 0.20051631774142969 0 -0.203925412238775 0.2130566048024192 0 -0.2163983660951504 0.20664118688365379 0 -0.203925412238775 0.2130566048024192 0 -0.2163983660951504 0.20664118688365379 0 -0.2147498456923036 0.21679580952784941 0 -0.21946187770755399 0.2272335662722752 0 -0.20302594978719091 0.22980007897316179 0 -0.2144294763495698 0.23954399660221651 0 -0.21946187770755399 0.2272335662722752 0 -0.20302594978719091 0.22980007897316179 0 -0.21946187770755399 0.2272335662722752 0 -0.2147498456923036 0.21679580952784941 0 -0.20302594978719091 0.22980007897316179 0 -0.203925412238775 0.2130566048024192 0 -0.2147498456923036 0.21679580952784941 0 -0.20302594978719091 0.22980007897316179 0 -0.20302594978719091 0.22980007897316179 0 -0.1861179612628448 0.23220845709977719 0 -0.1872373767624223 0.2114249087681892 0 -0.18859670902218051 0.25052543551881717 0 -0.20132404028626799 0.2438270423260239 0 -0.1861179612628448 0.23220845709977719 0 -0.20302594978719091 0.22980007897316179 0 -0.20132404028626799 0.2438270423260239 0 -0.1861179612628448 0.23220845709977719 0 -0.21371201764358261 0.25214650866738469 0 -0.20132404028626799 0.2438270423260239 0 -0.2144294763495698 0.23954399660221651 0 -0.20302594978719091 0.22980007897316179 0 -0.20132404028626799 0.2438270423260239 0 -0.2144294763495698 0.23954399660221651 0 -0.21371201764358261 0.25214650866738469 0 -0.22222104444170529 0.2467327462878163 0 -0.2144294763495698 0.23954399660221651 0 -0.1613020889038615 0.23837444865205379 0 -0.1765110772481347 0.2431385849621667 0 -0.17254032084098081 0.22750047358122369 0 -0.1593990608277665 0.26226189644582071 0 -0.1613020889038615 0.23837444865205379 0 -0.1765110772481347 0.2431385849621667 0 -0.18859670902218051 0.25052543551881717 0 -0.1765110772481347 0.2431385849621667 0 -0.1861179612628448 0.23220845709977719 0 -0.17254032084098081 0.22750047358122369 0 -0.1861179612628448 0.23220845709977719 0 -0.1872373767624223 0.2114249087681892 0 -0.1765110772481347 0.2431385849621667 0 -0.17254032084098081 0.22750047358122369 0 -0.1861179612628448 0.23220845709977719 0 -0.1613020889038615 0.23837444865205379 0 -0.17254032084098081 0.22750047358122369 0 -0.16320511697995649 0.2144870008582867 0 -0.1613020889038615 0.23837444865205379 0 -0.16320511697995649 0.2144870008582867 0 -0.1529468832891846 0.22419885760078639 0 -0.1613020889038615 0.23837444865205379 0 -0.16320511697995649 0.2144870008582867 0 -0.16320511697995649 0.2144870008582867 0 -0.1872373767624223 0.2114249087681892 0 -0.17633970375998559 0.20030682361007979 0 -0.17254032084098081 0.22750047358122369 0 -0.16320511697995649 0.2144870008582867 0 -0.1872373767624223 0.2114249087681892 0 -0.19675568901559279 0.189567439062066 0 -0.17633970375998559 0.20030682361007979 0 -0.1806498087268969 0.1809583004820513 0 -0.19675568901559279 0.189567439062066 0 -0.1872373767624223 0.2114249087681892 0 -0.17633970375998559 0.20030682361007979 0 -0.17633970375998559 0.20030682361007979 0 -0.16510814505605159 0.19059955306451951 0 -0.1806498087268969 0.1809583004820513 0 -0.16320511697995649 0.2144870008582867 0 -0.16510814505605159 0.19059955306451951 0 -0.16320511697995649 0.2144870008582867 0 -0.17633970375998559 0.20030682361007979 0 -0.16510814505605159 0.19059955306451951 0 -0.16320511697995649 0.2144870008582867 0 -0.16510814505605159 0.19059955306451951 0 -0.15189646247486119 0.19678216421774269 0 -0.15189646247486119 0.19678216421774269 0 -0.1348313290251755 0.19391948141146001 0 -0.14981517013628179 0.1764661855652461 0 -0.15189646247486119 0.19678216421774269 0 -0.1348313290251755 0.19391948141146001 0 -0.1465225511768404 0.20843860018920141 0 -0.16510814505605159 0.19059955306451951 0 -0.15189646247486119 0.19678216421774269 0 -0.14981517013628179 0.1764661855652461 0 -0.1348313290251755 0.19391948141146001 0 -0.1252468427212147 0.2168953735999099 0 -0.1203089118816133 0.20055052938219861 0 -0.1348313290251755 0.19391948141146001 0 -0.1252468427212147 0.2168953735999099 0 -0.1465225511768404 0.20843860018920141 0 -0.16320511697995649 0.2144870008582867 0 -0.1465225511768404 0.20843860018920141 0 -0.1529468832891846 0.22419885760078639 0 -0.16320511697995649 0.2144870008582867 0 -0.15189646247486119 0.19678216421774269 0 -0.1465225511768404 0.20843860018920141 0 -0.1465225511768404 0.20843860018920141 0 -0.14075777609607981 0.2354953807036036 0 -0.1465225511768404 0.20843860018920141 0 -0.1529468832891846 0.22419885760078639 0 -0.14075777609607981 0.2354953807036036 0 -0.1613020889038615 0.23837444865205379 0 -0.1529468832891846 0.22419885760078639 0 -0.14075777609607981 0.2354953807036036 0 -0.1252468427212147 0.2168953735999099 0 -0.1465225511768404 0.20843860018920141 0 -0.14075777609607981 0.2354953807036036 0 -0.1252468427212147 0.2168953735999099 0 -0.14075777609607981 0.2354953807036036 0 -0.11832329044822951 0.24304604882281969 0 -0.1349930010153193 0.26255216121800568 0 -0.14075777609607981 0.2354953807036036 0 -0.1349930010153193 0.26255216121800568 0 -0.14075777609607981 0.2354953807036036 0 -0.11832329044822951 0.24304604882281969 0 -0.1349930010153193 0.26255216121800568 0 -0.14075777609607981 0.2354953807036036 0 -0.14911298171075679 0.24967097175487091 0 -0.1613020889038615 0.23837444865205379 0 -0.14075777609607981 0.2354953807036036 0 -0.14911298171075679 0.24967097175487091 0 -0.1662144153725649 0.14970975453020571 0 -0.1667765488875127 0.13812225091292091 0 -0.17427879965612819 0.14190030589397651 0 -0.1662144153725649 0.14970975453020571 0 -0.15453424001036289 0.15945434353378279 0 -0.15202557664741981 0.14720865995561999 0 -0.1662144153725649 0.14970975453020571 0 -0.15911751616331751 0.1391979048316449 0 -0.15202557664741981 0.14720865995561999 0 -0.1662144153725649 0.14970975453020571 0 -0.15911751616331751 0.1391979048316449 0 -0.1667765488875127 0.13812225091292091 0 -0.15911751616331751 0.1391979048316449 0 -0.1598554046101329 0.12512104095579701 0 -0.1667765488875127 0.13812225091292091 0 -0.15911751616331751 0.1391979048316449 0 -0.1598554046101329 0.12512104095579701 0 -0.1500033633973421 0.13584755301834109 0 -0.1598554046101329 0.12512104095579701 0 -0.1667765488875127 0.13812225091292091 0 -0.1744166086354216 0.1346822483529781 0 -0.17463205049430791 0.1233979928413103 0 -0.1598554046101329 0.12512104095579701 0 -0.1744166086354216 0.1346822483529781 0 -0.1598554046101329 0.12512104095579701 0 -0.1744166086354216 0.1346822483529781 0 -0.1667765488875127 0.13812225091292091 0 -0.1744166086354216 0.1346822483529781 0 -0.17427879965612819 0.14190030589397651 0 -0.1744166086354216 0.1346822483529781 0 -0.17427879965612819 0.14190030589397651 0 -0.1744166086354216 0.1346822483529781 0 -0.17777111929803571 0.13688489396563699 0 -0.17427879965612819 0.14190030589397651 0 -0.1744166086354216 0.1346822483529781 0 -0.17777111929803571 0.13688489396563699 0 -0.1744166086354216 0.1346822483529781 0 -0.17777111929803571 0.13688489396563699 0 -0.1798721579770142 0.13261044405125519 0 -0.17777111929803571 0.13688489396563699 0 -0.17908323016457489 0.14155253666455231 0 -0.17427879965612819 0.14190030589397651 0 -0.17463205049430791 0.1233979928413103 0 -0.1744166086354216 0.1346822483529781 0 -0.1798721579770142 0.13261044405125519 0 -0.17463205049430791 0.1233979928413103 0 -0.1744166086354216 0.1346822483529781 0 -0.17463205049430791 0.1233979928413103 0 -0.18530606321329801 0.12949084902847491 0 -0.1798721579770142 0.13261044405125519 0 -0.1909929067815555 0.135001194222511 0 -0.18530606321329801 0.12949084902847491 0 -0.18421136551585299 0.13733957154214979 0 -0.18530606321329801 0.12949084902847491 0 -0.1798721579770142 0.13261044405125519 0 -0.18421136551585299 0.13733957154214979 0 -0.17777111929803571 0.13688489396563699 0 -0.18421136551585299 0.13733957154214979 0 -0.17908323016457489 0.14155253666455231 0 -0.17777111929803571 0.13688489396563699 0 -0.1798721579770142 0.13261044405125519 0 -0.18421136551585299 0.13733957154214979 0 -0.1892816596668532 0.14729824464464031 0 -0.18843187665971381 0.14117764216521481 0 -0.183308469018752 0.14434673272034601 0 -0.18843187665971381 0.14117764216521481 0 -0.18421136551585299 0.13733957154214979 0 -0.183308469018752 0.14434673272034601 0 -0.1892816596668532 0.14729824464464031 0 -0.183308469018752 0.14434673272034601 0 -0.18348409084234379 0.15060627553684849 0 -0.183308469018752 0.14434673272034601 0 -0.1769770860414964 0.14813931566199959 0 -0.18348409084234379 0.15060627553684849 0 -0.183308469018752 0.14434673272034601 0 -0.17908323016457489 0.14155253666455231 0 -0.1769770860414964 0.14813931566199959 0 -0.18421136551585299 0.13733957154214979 0 -0.183308469018752 0.14434673272034601 0 -0.17908323016457489 0.14155253666455231 0 -0.1662144153725649 0.14970975453020571 0 -0.1769770860414964 0.14813931566199959 0 -0.17427879965612819 0.14190030589397651 0 -0.17908323016457489 0.14155253666455231 0 -0.1769770860414964 0.14813931566199959 0 -0.17427879965612819 0.14190030589397651 0 -0.1662144153725649 0.14970975453020571 0 -0.1769770860414964 0.14813931566199959 0 -0.17777951568146841 0.15676083040068911 0 -0.1769770860414964 0.14813931566199959 0 -0.18348409084234379 0.15060627553684849 0 -0.17777951568146841 0.15676083040068911 0 -0.1900737238031488 0.15648625425656729 0 -0.18348409084234379 0.15060627553684849 0 -0.17777951568146841 0.15676083040068911 0 -0.18329050548046091 0.16641049957591181 0 -0.1806498087268969 0.1809583004820513 0 -0.16701117313214661 0.16671210527075239 0 -0.18329050548046091 0.16641049957591181 0 -0.17777951568146841 0.15676083040068911 0 -0.16701117313214661 0.16671210527075239 0 -0.1900737238031488 0.15648625425656729 0 -0.18329050548046091 0.16641049957591181 0 -0.17777951568146841 0.15676083040068911 0 -0.19690649474481761 0.16930016240990661 0 -0.18329050548046091 0.16641049957591181 0 -0.1806498087268969 0.1809583004820513 0 -0.16510814505605159 0.19059955306451951 0 -0.16701117313214661 0.16671210527075239 0 -0.16510814505605159 0.19059955306451951 0 -0.1806498087268969 0.1809583004820513 0 -0.16701117313214661 0.16671210527075239 0 -0.16510814505605159 0.19059955306451951 0 -0.16701117313214661 0.16671210527075239 0 -0.14981517013628179 0.1764661855652461 0 -0.1662144153725649 0.14970975453020571 0 -0.16701117313214661 0.16671210527075239 0 -0.15453424001036289 0.15945434353378279 0 -0.1662144153725649 0.14970975453020571 0 -0.17777951568146841 0.15676083040068911 0 -0.16701117313214661 0.16671210527075239 0 -0.16701117313214661 0.16671210527075239 0 -0.15453424001036289 0.15945434353378279 0 -0.14981517013628179 0.1764661855652461 0 -0.14981517013628179 0.1764661855652461 0 -0.13268914273538329 0.1750509562650924 0 -0.1400456084615111 0.15909886324928099 0 -0.15453424001036289 0.15945434353378279 0 -0.14981517013628179 0.1764661855652461 0 -0.1400456084615111 0.15909886324928099 0 -0.1348313290251755 0.19391948141146001 0 -0.13268914273538329 0.1750509562650924 0 -0.1144809389531023 0.1869767666301351 0 -0.1348313290251755 0.19391948141146001 0 -0.14981517013628179 0.1764661855652461 0 -0.13268914273538329 0.1750509562650924 0 -0.1400456084615111 0.15909886324928099 0 -0.12711493411718411 0.1494661060528254 0 -0.1194513481457689 0.1635609988765839 0 -0.13268914273538329 0.1750509562650924 0 -0.1400456084615111 0.15909886324928099 0 -0.1194513481457689 0.1635609988765839 0 -0.1400456084615111 0.15909886324928099 0 -0.12711493411718411 0.1494661060528254 0 -0.1393467656979451 0.14225431360183649 0 -0.12711493411718411 0.1494661060528254 0 -0.1393467656979451 0.14225431360183649 0 -0.12653041952395039 0.1354161737842513 0 -0.1400456084615111 0.15909886324928099 0 -0.1393467656979451 0.14225431360183649 0 -0.15202557664741981 0.14720865995561999 0 -0.1393467656979451 0.14225431360183649 0 -0.15202557664741981 0.14720865995561999 0 -0.1500033633973421 0.13584755301834109 0 -0.15911751616331751 0.1391979048316449 0 -0.15202557664741981 0.14720865995561999 0 -0.1500033633973421 0.13584755301834109 0 -0.15453424001036289 0.15945434353378279 0 -0.1400456084615111 0.15909886324928099 0 -0.15202557664741981 0.14720865995561999 0 -0.1598554046101329 0.12512104095579701 0 -0.1500033633973421 0.13584755301834109 0 -0.13922952195075211 0.12752614618091959 0 -0.1598554046101329 0.12512104095579701 0 -0.13922952195075211 0.12752614618091959 0 -0.1393467656979451 0.14225431360183649 0 -0.1500033633973421 0.13584755301834109 0 -0.13922952195075211 0.12752614618091959 0 -0.13074244959953979 0.11946175785799951 0 -0.13922952195075211 0.12752614618091959 0 -0.12653041952395039 0.1354161737842513 0 -0.1393467656979451 0.14225431360183649 0 -0.13922952195075211 0.12752614618091959 0 -0.12653041952395039 0.1354161737842513 0 -0.12653041952395039 0.1354161737842513 0 -0.11549744085296181 0.12506595749432459 0 -0.1072514049253199 0.14872276151760261 0 -0.13074244959953979 0.11946175785799951 0 -0.12653041952395039 0.1354161737842513 0 -0.11549744085296181 0.12506595749432459 0 -0.11549744085296181 0.12506595749432459 0 -0.1072514049253199 0.14872276151760261 0 -0.11549744085296181 0.12506595749432459 0 -0.097351596905396909 0.1366011738647028 0 -0.095157466154961498 0.1222738246889692 0 -0.11549744085296181 0.12506595749432459 0 -0.097351596905396909 0.1366011738647028 0 -0.1072514049253199 0.14872276151760261 0 -0.097351596905396909 0.1366011738647028 0 -0.1072514049253199 0.14872276151760261 0 -0.095429287301162569 0.1538271060288352 0 -0.12711493411718411 0.1494661060528254 0 -0.12653041952395039 0.1354161737842513 0 -0.1072514049253199 0.14872276151760261 0 -0.12711493411718411 0.1494661060528254 0 -0.1072514049253199 0.14872276151760261 0 -0.1194513481457689 0.1635609988765839 0 -0.1194513481457689 0.1635609988765839 0 -0.1144809389531023 0.1869767666301351 0 -0.099005368997678006 0.1723795655408806 0 -0.13268914273538329 0.1750509562650924 0 -0.1194513481457689 0.1635609988765839 0 -0.1144809389531023 0.1869767666301351 0 -0.1144809389531023 0.1869767666301351 0 -0.099005368997678006 0.1723795655408806 0 -0.0907593330700361 0.19603636956415871 0 -0.099005368997678006 0.1723795655408806 0 -0.0907593330700361 0.19603636956415871 0 -0.1072514049253199 0.14872276151760261 0 -0.1194513481457689 0.1635609988765839 0 -0.099005368997678006 0.1723795655408806 0 -0.1072514049253199 0.14872276151760261 0 -0.095429287301162569 0.1538271060288352 0 -0.099005368997678006 0.1723795655408806 0 -0.1072514049253199 0.14872276151760261 0 -0.099005368997678006 0.1723795655408806 0 -0.095429287301162569 0.1538271060288352 0 -0.099005368997678006 0.1723795655408806 0 -0.089264976304947813 0.16305913715607981 0 -0.089264976304947813 0.16305913715607981 0 -0.078726297129264447 0.1568051313220773 0 -0.070728802668765189 0.16298784849958539 0 -0.099005368997678006 0.1723795655408806 0 -0.089264976304947813 0.16305913715607981 0 -0.083173158014857834 0.1819778711413477 0 -0.089264976304947813 0.16305913715607981 0 -0.083173158014857834 0.1819778711413477 0 -0.06435517074193417 0.179531982830265 0 -0.099005368997678006 0.1723795655408806 0 -0.083173158014857834 0.1819778711413477 0 -0.0907593330700361 0.19603636956415871 0 -0.083173158014857834 0.1819778711413477 0 -0.06435517074193417 0.179531982830265 0 -0.072480940959693013 0.1988823006153542 0 -0.089264976304947813 0.16305913715607981 0 -0.06435517074193417 0.179531982830265 0 -0.070728802668765189 0.16298784849958539 0 -0.089264976304947813 0.16305913715607981 0 -0.06435517074193417 0.179531982830265 0 -0.06435517074193417 0.179531982830265 0 -0.070728802668765189 0.16298784849958539 0 -0.060817304647522517 0.16063211997463811 0 -0.078726297129264447 0.1568051313220773 0 -0.070728802668765189 0.16298784849958539 0 -0.070638320170874583 0.15280064756773359 0 -0.070728802668765189 0.16298784849958539 0 -0.070638320170874583 0.15280064756773359 0 -0.060817304647522517 0.16063211997463811 0 -0.070638320170874583 0.15280064756773359 0 -0.06050925962069742 0.14933122419088271 0 -0.060817304647522517 0.16063211997463811 0 -0.078726297129264447 0.1568051313220773 0 -0.070638320170874583 0.15280064756773359 0 -0.084273089372470245 0.14837289206491031 0 -0.070638320170874583 0.15280064756773359 0 -0.073986689617270868 0.1403986132245284 0 -0.084273089372470245 0.14837289206491031 0 -0.073986689617270868 0.1403986132245284 0 -0.060395274942560528 0.13416549391068189 0 -0.06050925962069742 0.14933122419088271 0 -0.070638320170874583 0.15280064756773359 0 -0.073986689617270868 0.1403986132245284 0 -0.06050925962069742 0.14933122419088271 0 -0.073986689617270868 0.1403986132245284 0 -0.079964733767734122 0.12668506296934109 0 -0.060395274942560528 0.13416549391068189 0 -0.060395274942560528 0.13416549391068189 0 -0.068008023874607193 0.1194813826226566 0 -0.073986689617270868 0.1403986132245284 0 -0.085757333202322553 0.1342092020786384 0 -0.079964733767734122 0.12668506296934109 0 -0.097351596905396909 0.1366011738647028 0 -0.085757333202322553 0.1342092020786384 0 -0.095157466154961498 0.1222738246889692 0 -0.085757333202322553 0.1342092020786384 0 -0.079964733767734122 0.12668506296934109 0 -0.095157466154961498 0.1222738246889692 0 -0.097351596905396909 0.1366011738647028 0 -0.085757333202322553 0.1342092020786384 0 -0.084273089372470245 0.14837289206491031 0 -0.097351596905396909 0.1366011738647028 0 -0.095429287301162569 0.1538271060288352 0 -0.084273089372470245 0.14837289206491031 0 -0.095429287301162569 0.1538271060288352 0 -0.089264976304947813 0.16305913715607981 0 -0.084273089372470245 0.14837289206491031 0 -0.089264976304947813 0.16305913715607981 0 -0.078726297129264447 0.1568051313220773 0 -0.084273089372470245 0.14837289206491031 0 -0.073986689617270868 0.1403986132245284 0 -0.085757333202322553 0.1342092020786384 0 -0.084273089372470245 0.14837289206491031 0 -0.097135213821017974 0.2450179218164267 0 -0.11832329044822951 0.24304604882281969 0 -0.10188732904743091 0.22416775388930879 0 -0.1252468427212147 0.2168953735999099 0 -0.11832329044822951 0.24304604882281969 0 -0.10188732904743091 0.22416775388930879 0 -0.10188732904743091 0.22416775388930879 0 -0.10553645135762139 0.20639637139721009 0 -0.085647611720234704 0.211582202570961 0 -0.10553645135762139 0.20639637139721009 0 -0.0907593330700361 0.19603636956415871 0 -0.085647611720234704 0.211582202570961 0 -0.1252468427212147 0.2168953735999099 0 -0.10553645135762139 0.20639637139721009 0 -0.1203089118816133 0.20055052938219861 0 -0.1252468427212147 0.2168953735999099 0 -0.10188732904743091 0.22416775388930879 0 -0.10553645135762139 0.20639637139721009 0 -0.1144809389531023 0.1869767666301351 0 -0.10553645135762139 0.20639637139721009 0 -0.1203089118816133 0.20055052938219861 0 -0.1348313290251755 0.19391948141146001 0 -0.1144809389531023 0.1869767666301351 0 -0.1203089118816133 0.20055052938219861 0 -0.1144809389531023 0.1869767666301351 0 -0.10553645135762139 0.20639637139721009 0 -0.0907593330700361 0.19603636956415871 0 -0.083173158014857834 0.1819778711413477 0 -0.0907593330700361 0.19603636956415871 0 -0.072480940959693013 0.1988823006153542 0 -0.0907593330700361 0.19603636956415871 0 -0.072480940959693013 0.1988823006153542 0 -0.085647611720234704 0.211582202570961 0 -0.06435517074193417 0.179531982830265 0 -0.072480940959693013 0.1988823006153542 0 -0.057501641022342467 0.1963435114306189 0 -0.065516926835851183 0.21659017637723951 0 -0.085647611720234704 0.211582202570961 0 -0.078837631547527487 0.22646261886489361 0 -0.072480940959693013 0.1988823006153542 0 -0.065516926835851183 0.21659017637723951 0 -0.085647611720234704 0.211582202570961 0 -0.072480940959693013 0.1988823006153542 0 -0.065516926835851183 0.21659017637723951 0 -0.056774781747103042 0.20807563334730969 0 -0.097135213821017974 0.2450179218164267 0 -0.10188732904743091 0.22416775388930879 0 -0.078837631547527487 0.22646261886489361 0 -0.10188732904743091 0.22416775388930879 0 -0.078837631547527487 0.22646261886489361 0 -0.10188732904743091 0.22416775388930879 0 -0.085647611720234704 0.211582202570961 0 -0.078837631547527487 0.22646261886489361 0 -0.078837631547527487 0.22646261886489361 0 -0.055787934047623812 0.22875748384047651 0 -0.078837631547527487 0.22646261886489361 0 -0.074704152181801681 0.24701770632021169 0 -0.055787934047623812 0.22875748384047651 0 -0.065516926835851183 0.21659017637723951 0 -0.078837631547527487 0.22646261886489361 0 -0.055787934047623812 0.22875748384047651 0 -0.074704152181801681 0.24701770632021169 0 -0.055787934047623812 0.22875748384047651 0 -0.074704152181801681 0.24701770632021169 0 -0.057747386715908428 0.24463041023760571 0 -0.055787934047623812 0.22875748384047651 0 -0.097135213821017974 0.2450179218164267 0 -0.078837631547527487 0.22646261886489361 0 -0.074704152181801681 0.24701770632021169 0 -0.03189830216395443 0.24568919817845219 0 -0.04135776092400012 0.23809779795821551 0 -0.030614146685572802 0.23126382662090891 0 -0.04135776092400012 0.23809779795821551 0 -0.046594812073733123 0.24823599275617891 0 -0.049952252460554 0.2397627017524232 0 -0.03189830216395443 0.24568919817845219 0 -0.04135776092400012 0.23809779795821551 0 -0.046594812073733123 0.24823599275617891 0 -0.046594812073733123 0.24823599275617891 0 -0.057747386715908428 0.24463041023760571 0 -0.049952252460554 0.2397627017524232 0 -0.057747386715908428 0.24463041023760571 0 -0.049952252460554 0.2397627017524232 0 -0.055787934047623812 0.22875748384047651 0 -0.04135776092400012 0.23809779795821551 0 -0.049952252460554 0.2397627017524232 0 -0.055787934047623812 0.22875748384047651 0 -0.055787934047623812 0.22875748384047651 0 -0.052323738254648429 0.22541342291643321 0 -0.065516926835851183 0.21659017637723951 0 -0.055787934047623812 0.22875748384047651 0 -0.054616056031908368 0.21893633417385969 0 -0.055787934047623812 0.22875748384047651 0 -0.052323738254648429 0.22541342291643321 0 -0.042225130782071622 0.22351742659662871 0 -0.054616056031908368 0.21893633417385969 0 -0.052323738254648429 0.22541342291643321 0 -0.049046602241481829 0.2206752111693363 0 -0.052323738254648429 0.22541342291643321 0 -0.049046602241481829 0.2206752111693363 0 -0.042225130782071622 0.22351742659662871 0 -0.055787934047623812 0.22875748384047651 0 -0.054616056031908368 0.21893633417385969 0 -0.052323738254648429 0.22541342291643321 0 -0.055787934047623812 0.22875748384047651 0 -0.042225130782071622 0.22351742659662871 0 -0.030614146685572802 0.23126382662090891 0 -0.055787934047623812 0.22875748384047651 0 -0.030614146685572802 0.23126382662090891 0 -0.049046602241481829 0.2206752111693363 0 -0.042225130782071622 0.22351742659662871 0 -0.047021483897298919 0.2148336609904237 0 -0.04135776092400012 0.23809779795821551 0 -0.055787934047623812 0.22875748384047651 0 -0.030614146685572802 0.23126382662090891 0 -0.042225130782071622 0.22351742659662871 0 -0.035706106933987618 0.212040288753787 0 -0.024813853389476559 0.2211714782904188 0 -0.042225130782071622 0.22351742659662871 0 -0.024813853389476559 0.2211714782904188 0 -0.030614146685572802 0.23126382662090891 0 -0.035706106933987618 0.212040288753787 0 -0.047940973094851513 0.204892605264445 0 -0.039445365178920423 0.19600482850445031 0 -0.035706106933987618 0.212040288753787 0 -0.047021483897298919 0.2148336609904237 0 -0.047940973094851513 0.204892605264445 0 -0.042225130782071622 0.22351742659662871 0 -0.035706106933987618 0.212040288753787 0 -0.047021483897298919 0.2148336609904237 0 -0.054616056031908368 0.21893633417385969 0 -0.049046602241481829 0.2206752111693363 0 -0.047021483897298919 0.2148336609904237 0 -0.054616056031908368 0.21893633417385969 0 -0.047021483897298919 0.2148336609904237 0 -0.056774781747103042 0.20807563334730969 0 -0.065516926835851183 0.21659017637723951 0 -0.054616056031908368 0.21893633417385969 0 -0.056774781747103042 0.20807563334730969 0 -0.047021483897298919 0.2148336609904237 0 -0.056774781747103042 0.20807563334730969 0 -0.047940973094851513 0.204892605264445 0 -0.047940973094851513 0.204892605264445 0 -0.057501641022342467 0.1963435114306189 0 -0.039445365178920423 0.19600482850445031 0 -0.06435517074193417 0.179531982830265 0 -0.039445365178920423 0.19600482850445031 0 -0.072480940959693013 0.1988823006153542 0 -0.056774781747103042 0.20807563334730969 0 -0.057501641022342467 0.1963435114306189 0 -0.056774781747103042 0.20807563334730969 0 -0.047940973094851513 0.204892605264445 0 -0.057501641022342467 0.1963435114306189 0 -0.06435517074193417 0.179531982830265 0 -0.057501641022342467 0.1963435114306189 0 -0.039445365178920423 0.19600482850445031 0 -0.039445365178920423 0.19600482850445031 0 -0.027727343604313569 0.197178151178412 0 -0.038616654050395688 0.17617393208916859 0 -0.039445365178920423 0.19600482850445031 0 -0.027727343604313569 0.197178151178412 0 -0.014535559615906669 0.2124776741786355 0 -0.027727343604313569 0.197178151178412 0 -0.010915521324717001 0.1993315760592379 0 -0.014535559615906669 0.2124776741786355 0 -0.027727343604313569 0.197178151178412 0 -0.010915521324717001 0.1993315760592379 0 -0.020104729349334449 0.1840085448946619 0 -0.027727343604313569 0.197178151178412 0 -0.028750072776026619 0.18228756371234331 0 -0.020104729349334449 0.1840085448946619 0 -0.010915521324717001 0.1993315760592379 0 -0.0058150648891281392 0.18464487058732859 0 0.0047479160901643591 0.19966970600779571 0 -0.010915521324717001 0.1993315760592379 0 -0.020104729349334449 0.1840085448946619 0 -0.0058150648891281392 0.18464487058732859 0 -0.010915521324717001 0.1993315760592379 0 -0.001618838316679704 0.21186515805952549 0 -0.014535559615906669 0.2124776741786355 0 -0.010915521324717001 0.1993315760592379 0 -0.001618838316679704 0.21186515805952549 0 0.0047479160901643591 0.19966970600779571 0 -0.001618838316679704 0.21186515805952549 0 -0.010819744977475119 0.2201826338773481 0 0.0022205822065663882 0.22338098429998751 0 -0.001618838316679704 0.21186515805952549 0 -0.014535559615906669 0.2124776741786355 0 -0.010819744977475119 0.2201826338773481 0 -0.039445365178920423 0.19600482850445031 0 -0.014535559615906669 0.2124776741786355 0 -0.035706106933987618 0.212040288753787 0 -0.039445365178920423 0.19600482850445031 0 -0.014535559615906669 0.2124776741786355 0 -0.014535559615906669 0.2124776741786355 0 -0.024813853389476559 0.2211714782904188 0 -0.010819744977475119 0.2201826338773481 0 -0.035706106933987618 0.212040288753787 0 -0.014535559615906669 0.2124776741786355 0 -0.024813853389476559 0.2211714782904188 0 -0.030614146685572802 0.23126382662090891 0 -0.0054403593235216562 0.23377016940133941 0 -0.030614146685572802 0.23126382662090891 0 -0.0054403593235216562 0.23377016940133941 0 -0.01514813330815701 0.23061359466582701 0 -0.024813853389476559 0.2211714782904188 0 -0.030614146685572802 0.23126382662090891 0 -0.01514813330815701 0.23061359466582701 0 -0.024813853389476559 0.2211714782904188 0 -0.010819744977475119 0.2201826338773481 0 -0.01514813330815701 0.23061359466582701 0 -0.010819744977475119 0.2201826338773481 0 -0.01514813330815701 0.23061359466582701 0 0.0022205822065663882 0.22338098429998751 0 -0.01514813330815701 0.23061359466582701 0 0.0022205822065663882 0.22338098429998751 0 -0.0054403593235216562 0.23377016940133941 0 -0.01514813330815701 0.23061359466582701 0 0.0022205822065663882 0.22338098429998751 0 -0.004361582131907446 0.25012675423618741 0 -0.0054403593235216562 0.23377016940133941 0 0.0051881906427589239 0.2429023142665572 0 -0.004361582131907446 0.25012675423618741 0 -0.0054403593235216562 0.23377016940133941 0 -0.018506566158488919 0.2431339505957798 0 -0.020565667716041462 0.25572736355358933 0 -0.004361582131907446 0.25012675423618741 0 -0.018506566158488919 0.2431339505957798 0 -0.030614146685572802 0.23126382662090891 0 -0.0054403593235216562 0.23377016940133941 0 -0.018506566158488919 0.2431339505957798 0 -0.03189830216395443 0.24568919817845219 0 -0.030614146685572802 0.23126382662090891 0 -0.018506566158488919 0.2431339505957798 0 -0.020565667716041462 0.25572736355358933 0 -0.03189830216395443 0.24568919817845219 0 -0.018506566158488919 0.2431339505957798 0 -0.042460363287522958 0.14347988613362259 0 -0.044473419521311869 0.15297756029890641 0 -0.037891307588098999 0.15301779907060481 0 -0.044473419521311869 0.15297756029890641 0 -0.037891307588098999 0.15301779907060481 0 -0.031636506627965313 0.16150224911057051 0 -0.042460363287522958 0.14347988613362259 0 -0.035174347344809967 0.15001976644272921 0 -0.037891307588098999 0.15301779907060481 0 -0.035174347344809967 0.15001976644272921 0 -0.037891307588098999 0.15301779907060481 0 -0.033404653207921721 0.15507918068198209 0 -0.035174347344809967 0.15001976644272921 0 -0.033404653207921721 0.15507918068198209 0 -0.02776282729533102 0.15476173176141739 0 -0.035174347344809967 0.15001976644272921 0 -0.034180114506779158 0.14292432320853909 0 -0.02883591677782232 0.14796437992771719 0 -0.042460363287522958 0.14347988613362259 0 -0.035174347344809967 0.15001976644272921 0 -0.034180114506779158 0.14292432320853909 0 -0.042460363287522958 0.14347988613362259 0 -0.034180114506779158 0.14292432320853909 0 -0.038211226953362397 0.13781437243294631 0 -0.034180114506779158 0.14292432320853909 0 -0.032488323731578138 0.13717556183428281 0 -0.038211226953362397 0.13781437243294631 0 -0.034180114506779158 0.14292432320853909 0 -0.032488323731578138 0.13717556183428281 0 -0.027483842170251089 0.14162756103877569 0 -0.032488323731578138 0.13717556183428281 0 -0.035266368379565052 0.13009707587939279 0 -0.02667969692195489 0.13460984520473249 0 -0.032488323731578138 0.13717556183428281 0 -0.038211226953362397 0.13781437243294631 0 -0.035266368379565052 0.13009707587939279 0 -0.035266368379565052 0.13009707587939279 0 -0.046331318124510253 0.13174141938699169 0 -0.041763705598505362 0.11912362676530031 0 -0.038211226953362397 0.13781437243294631 0 -0.035266368379565052 0.13009707587939279 0 -0.046331318124510253 0.13174141938699169 0 -0.042460363287522958 0.14347988613362259 0 -0.038211226953362397 0.13781437243294631 0 -0.046331318124510253 0.13174141938699169 0 -0.042460363287522958 0.14347988613362259 0 -0.046331318124510253 0.13174141938699169 0 -0.060395274942560528 0.13416549391068189 0 -0.046331318124510253 0.13174141938699169 0 -0.060395274942560528 0.13416549391068189 0 -0.057376161549244957 0.12328487032798489 0 -0.060395274942560528 0.13416549391068189 0 -0.057376161549244957 0.12328487032798489 0 -0.068008023874607193 0.1194813826226566 0 -0.044473419521311869 0.15297756029890641 0 -0.060395274942560528 0.13416549391068189 0 -0.049505964496477838 0.1551697129999251 0 -0.060395274942560528 0.13416549391068189 0 -0.049505964496477838 0.1551697129999251 0 -0.060395274942560528 0.13416549391068189 0 -0.049505964496477838 0.1551697129999251 0 -0.06050925962069742 0.14933122419088271 0 -0.042460363287522958 0.14347988613362259 0 -0.044473419521311869 0.15297756029890641 0 -0.060395274942560528 0.13416549391068189 0 -0.044473419521311869 0.15297756029890641 0 -0.060395274942560528 0.13416549391068189 0 -0.06050925962069742 0.14933122419088271 0 -0.055951783244603238 0.15683636846341581 0 -0.060817304647522517 0.16063211997463811 0 -0.049505964496477838 0.1551697129999251 0 -0.06050925962069742 0.14933122419088271 0 -0.055951783244603238 0.15683636846341581 0 -0.06435517074193417 0.179531982830265 0 -0.060817304647522517 0.16063211997463811 0 -0.054190933413391887 0.1696376128955723 0 -0.055951783244603238 0.15683636846341581 0 -0.060817304647522517 0.16063211997463811 0 -0.051816527970478227 0.163689949284544 0 -0.060817304647522517 0.16063211997463811 0 -0.054190933413391887 0.1696376128955723 0 -0.051816527970478227 0.163689949284544 0 -0.054190933413391887 0.1696376128955723 0 -0.051816527970478227 0.163689949284544 0 -0.038616654050395688 0.17617393208916859 0 -0.049505964496477838 0.1551697129999251 0 -0.055951783244603238 0.15683636846341581 0 -0.051816527970478227 0.163689949284544 0 -0.06435517074193417 0.179531982830265 0 -0.039445365178920423 0.19600482850445031 0 -0.038616654050395688 0.17617393208916859 0 -0.06435517074193417 0.179531982830265 0 -0.054190933413391887 0.1696376128955723 0 -0.038616654050395688 0.17617393208916859 0 -0.027727343604313569 0.197178151178412 0 -0.038616654050395688 0.17617393208916859 0 -0.027727343604313569 0.197178151178412 0 -0.038616654050395688 0.17617393208916859 0 -0.028750072776026619 0.18228756371234331 0 -0.038616654050395688 0.17617393208916859 0 -0.028551564100062751 0.1717896266871306 0 -0.028750072776026619 0.18228756371234331 0 -0.044473419521311869 0.15297756029890641 0 -0.028551564100062751 0.1717896266871306 0 -0.049505964496477838 0.1551697129999251 0 -0.051816527970478227 0.163689949284544 0 -0.038616654050395688 0.17617393208916859 0 -0.044473419521311869 0.15297756029890641 0 -0.031636506627965313 0.16150224911057051 0 -0.028551564100062751 0.1717896266871306 0 -0.049505964496477838 0.1551697129999251 0 -0.038616654050395688 0.17617393208916859 0 -0.044473419521311869 0.15297756029890641 0 -0.049505964496477838 0.1551697129999251 0 -0.038616654050395688 0.17617393208916859 0 -0.044473419521311869 0.15297756029890641 0 -0.038616654050395688 0.17617393208916859 0 -0.028551564100062751 0.1717896266871306 0 -0.037891307588098999 0.15301779907060481 0 -0.033404653207921721 0.15507918068198209 0 -0.031636506627965313 0.16150224911057051 0 -0.031636506627965313 0.16150224911057051 0 -0.02253447650115362 0.1626338424728738 0 -0.02776282729533102 0.15476173176141739 0 -0.033404653207921721 0.15507918068198209 0 -0.031636506627965313 0.16150224911057051 0 -0.02776282729533102 0.15476173176141739 0 -0.031636506627965313 0.16150224911057051 0 -0.028551564100062751 0.1717896266871306 0 -0.02253447650115362 0.1626338424728738 0 -0.028551564100062751 0.1717896266871306 0 -0.02253447650115362 0.1626338424728738 0 -0.01498566762474032 0.1721399223420339 0 -0.02253447650115362 0.1626338424728738 0 -0.01498566762474032 0.1721399223420339 0 -0.012046897657486009 0.15973393686910059 0 -0.02253447650115362 0.1626338424728738 0 -0.012046897657486009 0.15973393686910059 0 -0.01974455104335017 0.1550417818637245 0 -0.02253447650115362 0.1626338424728738 0 -0.01974455104335017 0.1550417818637245 0 -0.02776282729533102 0.15476173176141739 0 -0.028551564100062751 0.1717896266871306 0 -0.028750072776026619 0.18228756371234331 0 -0.020104729349334449 0.1840085448946619 0 -0.028551564100062751 0.1717896266871306 0 -0.020104729349334449 0.1840085448946619 0 -0.01498566762474032 0.1721399223420339 0 -0.020104729349334449 0.1840085448946619 0 -0.01498566762474032 0.1721399223420339 0 -0.0058150648891281392 0.18464487058732859 0 -0.01498566762474032 0.1721399223420339 0 -0.0058150648891281392 0.18464487058732859 0 9.8439874396488518e-06 0.16909653965514321 0 -0.01498566762474032 0.1721399223420339 0 -0.012046897657486009 0.15973393686910059 0 9.8439874396488518e-06 0.16909653965514321 0 -0.012046897657486009 0.15973393686910059 0 -0.001399927819642065 0.15853034608675531 0 -0.0067216127360385028 0.15176017281181059 0 -0.012046897657486009 0.15973393686910059 0 -0.001399927819642065 0.15853034608675531 0 9.8439874396488518e-06 0.16909653965514321 0 -0.0067216127360385028 0.15176017281181059 0 -0.001932496299644968 0.1459540675981712 0 0.002037105597096525 0.15151695060409001 0 -0.001399927819642065 0.15853034608675531 0 -0.0067216127360385028 0.15176017281181059 0 0.002037105597096525 0.15151695060409001 0 -0.001932496299644968 0.1459540675981712 0 -0.0047871023855838284 0.14117591745817429 0 0.000228448927285114 0.14012311706009631 0 -0.0067216127360385028 0.15176017281181059 0 -0.001932496299644968 0.1459540675981712 0 -0.0088873299160877918 0.1454187600715697 0 -0.001932496299644968 0.1459540675981712 0 -0.0047871023855838284 0.14117591745817429 0 -0.0088873299160877918 0.1454187600715697 0 -0.0047871023855838284 0.14117591745817429 0 -0.0088873299160877918 0.1454187600715697 0 -0.010460643721398131 0.13913610184510419 0 -0.0088873299160877918 0.1454187600715697 0 -0.015535574841907601 0.14368344141407929 0 -0.010460643721398131 0.13913610184510419 0 -0.0088873299160877918 0.1454187600715697 0 -0.015535574841907601 0.14368344141407929 0 -0.014413369338275051 0.15020994658701309 0 -0.012046897657486009 0.15973393686910059 0 -0.014413369338275051 0.15020994658701309 0 -0.01974455104335017 0.1550417818637245 0 -0.012046897657486009 0.15973393686910059 0 -0.0067216127360385028 0.15176017281181059 0 -0.014413369338275051 0.15020994658701309 0 -0.0067216127360385028 0.15176017281181059 0 -0.0088873299160877918 0.1454187600715697 0 -0.014413369338275051 0.15020994658701309 0 -0.01974455104335017 0.1550417818637245 0 -0.021965184424505169 0.1478694516282176 0 -0.02776282729533102 0.15476173176141739 0 -0.014413369338275051 0.15020994658701309 0 -0.01974455104335017 0.1550417818637245 0 -0.021965184424505169 0.1478694516282176 0 -0.015535574841907601 0.14368344141407929 0 -0.014413369338275051 0.15020994658701309 0 -0.021965184424505169 0.1478694516282176 0 -0.015535574841907601 0.14368344141407929 0 -0.02085887518683055 0.14051112573817109 0 -0.01572570720539903 0.1386245228663322 0 -0.015535574841907601 0.14368344141407929 0 -0.021965184424505169 0.1478694516282176 0 -0.02085887518683055 0.14051112573817109 0 -0.021965184424505169 0.1478694516282176 0 -0.027483842170251089 0.14162756103877569 0 -0.02085887518683055 0.14051112573817109 0 -0.021965184424505169 0.1478694516282176 0 -0.027483842170251089 0.14162756103877569 0 -0.02883591677782232 0.14796437992771719 0 -0.034180114506779158 0.14292432320853909 0 -0.027483842170251089 0.14162756103877569 0 -0.02883591677782232 0.14796437992771719 0 -0.035174347344809967 0.15001976644272921 0 -0.02883591677782232 0.14796437992771719 0 -0.02776282729533102 0.15476173176141739 0 -0.021965184424505169 0.1478694516282176 0 -0.02883591677782232 0.14796437992771719 0 -0.02776282729533102 0.15476173176141739 0 -0.035266368379565052 0.13009707587939279 0 -0.02498016711913827 0.1241785180753891 0 -0.033110622576494379 0.1214386067867833 0 -0.02667969692195489 0.13460984520473249 0 -0.019000604944366228 0.13406922866238341 0 -0.02498016711913827 0.1241785180753891 0 -0.035266368379565052 0.13009707587939279 0 -0.02667969692195489 0.13460984520473249 0 -0.02498016711913827 0.1241785180753891 0 -0.032488323731578138 0.13717556183428281 0 -0.027483842170251089 0.14162756103877569 0 -0.02667969692195489 0.13460984520473249 0 -0.027483842170251089 0.14162756103877569 0 -0.02667969692195489 0.13460984520473249 0 -0.02085887518683055 0.14051112573817109 0 -0.02667969692195489 0.13460984520473249 0 -0.02085887518683055 0.14051112573817109 0 -0.019000604944366228 0.13406922866238341 0 -0.02085887518683055 0.14051112573817109 0 -0.01572570720539903 0.1386245228663322 0 -0.019000604944366228 0.13406922866238341 0 -0.019000604944366228 0.13406922866238341 0 -0.013108962008021981 0.1259178359004969 0 -0.02498016711913827 0.1241785180753891 0 -0.019000604944366228 0.13406922866238341 0 -0.013108962008021981 0.1259178359004969 0 -0.011245417678365909 0.1339710152718474 0 -0.013108962008021981 0.1259178359004969 0 -0.011245417678365909 0.1339710152718474 0 -0.0043823690024683438 0.12942386948176529 0 -0.015535574841907601 0.14368344141407929 0 -0.01572570720539903 0.1386245228663322 0 -0.010460643721398131 0.13913610184510419 0 -0.01572570720539903 0.1386245228663322 0 -0.011245417678365909 0.1339710152718474 0 -0.010460643721398131 0.13913610184510419 0 -0.01572570720539903 0.1386245228663322 0 -0.019000604944366228 0.13406922866238341 0 -0.011245417678365909 0.1339710152718474 0 -0.011245417678365909 0.1339710152718474 0 -0.010460643721398131 0.13913610184510419 0 -0.0049074646713017818 0.13634897063783119 0 -0.0047871023855838284 0.14117591745817429 0 -0.010460643721398131 0.13913610184510419 0 -0.0049074646713017818 0.13634897063783119 0 -0.011245417678365909 0.1339710152718474 0 -0.0049074646713017818 0.13634897063783119 0 -0.0043823690024683438 0.12942386948176529 0 -0.0049074646713017818 0.13634897063783119 0 -0.0043823690024683438 0.12942386948176529 0 0.0012022958327204049 0.13426380270999949 0 -0.0047871023855838284 0.14117591745817429 0 -0.0049074646713017818 0.13634897063783119 0 0.000228448927285114 0.14012311706009631 0 -0.0049074646713017818 0.13634897063783119 0 0.000228448927285114 0.14012311706009631 0 0.0012022958327204049 0.13426380270999949 0 -0.0043823690024683438 0.12942386948176529 0 -0.0015382865690094869 0.1195819360983075 0 0.0028297340199113529 0.12737786763030409 0 -0.0043823690024683438 0.12942386948176529 0 0.0028297340199113529 0.12737786763030409 0 0.0012022958327204049 0.13426380270999949 0 -0.013108962008021981 0.1259178359004969 0 -0.0015382865690094869 0.1195819360983075 0 -0.018013141318310021 0.1118215823196331 0 -0.0015382865690094869 0.1195819360983075 0 -0.0093267163156350585 0.10220622611456499 0 -0.018013141318310021 0.1118215823196331 0 -0.0015382865690094869 0.1195819360983075 0 -0.0093267163156350585 0.10220622611456499 0 0.0088418889268726004 0.1125261115153213 0 -0.013108962008021981 0.1259178359004969 0 -0.0043823690024683438 0.12942386948176529 0 -0.0015382865690094869 0.1195819360983075 0 -0.0093267163156350585 0.10220622611456499 0 -0.028384651446471159 0.094232735224306696 0 -0.028384651446471159 0.094232735224306696 0 -0.030432249208768851 0.112355206427051 0 -0.018013141318310021 0.1118215823196331 0 -0.0093267163156350585 0.10220622611456499 0 -0.028384651446471159 0.094232735224306696 0 -0.018013141318310021 0.1118215823196331 0 -0.030432249208768851 0.112355206427051 0 -0.02498016711913827 0.1241785180753891 0 -0.018013141318310021 0.1118215823196331 0 -0.030432249208768851 0.112355206427051 0 -0.02498016711913827 0.1241785180753891 0 -0.033110622576494379 0.1214386067867833 0 -0.013108962008021981 0.1259178359004969 0 -0.02498016711913827 0.1241785180753891 0 -0.018013141318310021 0.1118215823196331 0 -0.019815605255134251 0.077564307382831099 0 -0.01123722517146284 0.061714947321965113 0 0.0078113760670387236 0.068869370431613411 0 -0.019815605255134251 0.077564307382831099 0 0.0078113760670387236 0.068869370431613411 0 -0.0022168413230157229 0.085736250976024914 0 -0.019815605255134251 0.077564307382831099 0 0.0078113760670387236 0.068869370431613411 0 -0.0093267163156350585 0.10220622611456499 0 -0.0022168413230157229 0.085736250976024914 0 -0.019815605255134251 0.077564307382831099 0 -0.0093267163156350585 0.10220622611456499 0 -0.028384651446471159 0.094232735224306696 0 -0.019815605255134251 0.077564307382831099 0 -0.019815605255134251 0.077564307382831099 0 -0.02897814582929455 0.062873885781940531 0 -0.01123722517146284 0.061714947321965113 0 -0.019815605255134251 0.077564307382831099 0 -0.02897814582929455 0.062873885781940531 0 -0.037351726516990362 0.072256576054196331 0 -0.037351726516990362 0.072256576054196331 0 -0.04744258657730735 0.086259244334048468 0 -0.048521472395479701 0.069705355416953899 0 -0.042000822527735973 0.064880087355207783 0 -0.037351726516990362 0.072256576054196331 0 -0.048521472395479701 0.069705355416953899 0 -0.042000822527735973 0.064880087355207783 0 -0.048521472395479701 0.069705355416953899 0 -0.048543751051203898 0.057697742817346243 0 -0.02897814582929455 0.062873885781940531 0 -0.042000822527735973 0.064880087355207783 0 -0.037351726516990362 0.072256576054196331 0 -0.028384651446471159 0.094232735224306696 0 -0.048484368781985768 0.092953390863835139 0 -0.04744258657730735 0.086259244334048468 0 -0.019815605255134251 0.077564307382831099 0 -0.037351726516990362 0.072256576054196331 0 -0.04744258657730735 0.086259244334048468 0 -0.019815605255134251 0.077564307382831099 0 -0.04744258657730735 0.086259244334048468 0 -0.028384651446471159 0.094232735224306696 0 -0.04744258657730735 0.086259244334048468 0 -0.028384651446471159 0.094232735224306696 0 -0.019815605255134251 0.077564307382831099 0 -0.04744258657730735 0.086259244334048468 0 -0.04744258657730735 0.086259244334048468 0 -0.056352896539992578 0.082531333895216066 0 -0.048521472395479701 0.069705355416953899 0 -0.04744258657730735 0.086259244334048468 0 -0.055667229109567583 0.088847755450422561 0 -0.048484368781985768 0.092953390863835139 0 -0.04744258657730735 0.086259244334048468 0 -0.055667229109567583 0.088847755450422561 0 -0.055667229109567583 0.088847755450422561 0 -0.056352896539992578 0.082531333895216066 0 -0.055667229109567583 0.088847755450422561 0 -0.056352896539992578 0.082531333895216066 0 -0.068535421204038979 0.084669133357873919 0 -0.04744258657730735 0.086259244334048468 0 -0.055667229109567583 0.088847755450422561 0 -0.056352896539992578 0.082531333895216066 0 -0.04744258657730735 0.086259244334048468 0 -0.056352896539992578 0.082531333895216066 0 -0.056352896539992578 0.082531333895216066 0 -0.048521472395479701 0.069705355416953899 0 -0.059557339835071388 0.053011753697425897 0 -0.056352896539992578 0.082531333895216066 0 -0.065455038900646412 0.063135680861219914 0 -0.059557339835071388 0.053011753697425897 0 -0.056352896539992578 0.082531333895216066 0 -0.059557339835071388 0.053011753697425897 0 -0.041763705598505362 0.11912362676530031 0 -0.040355805924582322 0.10811297036328291 0 -0.053061720868948711 0.1128498994681193 0 -0.030432249208768851 0.112355206427051 0 -0.041763705598505362 0.11912362676530031 0 -0.033110622576494379 0.1214386067867833 0 -0.035266368379565052 0.13009707587939279 0 -0.041763705598505362 0.11912362676530031 0 -0.033110622576494379 0.1214386067867833 0 -0.030432249208768851 0.112355206427051 0 -0.041763705598505362 0.11912362676530031 0 -0.040355805924582322 0.10811297036328291 0 -0.028384651446471159 0.094232735224306696 0 -0.040355805924582322 0.10811297036328291 0 -0.047601570349403252 0.1001146928854318 0 -0.028384651446471159 0.094232735224306696 0 -0.048484368781985768 0.092953390863835139 0 -0.047601570349403252 0.1001146928854318 0 -0.028384651446471159 0.094232735224306696 0 -0.030432249208768851 0.112355206427051 0 -0.040355805924582322 0.10811297036328291 0 -0.055667229109567583 0.088847755450422561 0 -0.047601570349403252 0.1001146928854318 0 -0.053061720868948711 0.1128498994681193 0 -0.055667229109567583 0.088847755450422561 0 -0.053061720868948711 0.1128498994681193 0 -0.040355805924582322 0.10811297036328291 0 -0.047601570349403252 0.1001146928854318 0 -0.053061720868948711 0.1128498994681193 0 -0.055667229109567583 0.088847755450422561 0 -0.061317563763440802 0.10299561175118491 0 -0.053061720868948711 0.1128498994681193 0 -0.048484368781985768 0.092953390863835139 0 -0.055667229109567583 0.088847755450422561 0 -0.047601570349403252 0.1001146928854318 0 -0.055667229109567583 0.088847755450422561 0 -0.061317563763440802 0.10299561175118491 0 -0.06797342141030252 0.10030920148610591 0 -0.061317563763440802 0.10299561175118491 0 -0.053061720868948711 0.1128498994681193 0 -0.066574353573826517 0.1091611438734031 0 -0.046331318124510253 0.13174141938699169 0 -0.041763705598505362 0.11912362676530031 0 -0.057376161549244957 0.12328487032798489 0 -0.041763705598505362 0.11912362676530031 0 -0.053061720868948711 0.1128498994681193 0 -0.057376161549244957 0.12328487032798489 0 -0.053061720868948711 0.1128498994681193 0 -0.057376161549244957 0.12328487032798489 0 -0.068008023874607193 0.1194813826226566 0 -0.060395274942560528 0.13416549391068189 0 -0.068008023874607193 0.1194813826226566 0 -0.077957056184904241 0.1134158145620357 0 -0.060395274942560528 0.13416549391068189 0 -0.077957056184904241 0.1134158145620357 0 -0.079964733767734122 0.12668506296934109 0 -0.060395274942560528 0.13416549391068189 0 -0.077957056184904241 0.1134158145620357 0 -0.053061720868948711 0.1128498994681193 0 -0.068008023874607193 0.1194813826226566 0 -0.066574353573826517 0.1091611438734031 0 -0.068008023874607193 0.1194813826226566 0 -0.075620772806654399 0.1047972713346316 0 -0.066574353573826517 0.1091611438734031 0 -0.068008023874607193 0.1194813826226566 0 -0.077957056184904241 0.1134158145620357 0 -0.075620772806654399 0.1047972713346316 0 -0.068008023874607193 0.1194813826226566 0 -0.075620772806654399 0.1047972713346316 0 -0.079964733767734122 0.12668506296934109 0 -0.077957056184904241 0.1134158145620357 0 -0.086534582504385088 0.1156474293511931 0 -0.077957056184904241 0.1134158145620357 0 -0.086534582504385088 0.1156474293511931 0 -0.083947310206231279 0.1074935535689709 0 -0.086534582504385088 0.1156474293511931 0 -0.095157466154961498 0.1222738246889692 0 -0.093760682860616423 0.1071519620079809 0 -0.086534582504385088 0.1156474293511931 0 -0.083947310206231279 0.1074935535689709 0 -0.093760682860616423 0.1071519620079809 0 -0.079964733767734122 0.12668506296934109 0 -0.086534582504385088 0.1156474293511931 0 -0.095157466154961498 0.1222738246889692 0 -0.084868150004751591 0.098297010781769723 0 -0.085645907343274513 0.087820148674278453 0 -0.093949525724613639 0.096173232947952741 0 -0.084868150004751591 0.098297010781769723 0 -0.093760682860616423 0.1071519620079809 0 -0.093949525724613639 0.096173232947952741 0 -0.083947310206231279 0.1074935535689709 0 -0.084868150004751591 0.098297010781769723 0 -0.093760682860616423 0.1071519620079809 0 -0.083947310206231279 0.1074935535689709 0 -0.084868150004751591 0.098297010781769723 0 -0.075620772806654399 0.1047972713346316 0 -0.077957056184904241 0.1134158145620357 0 -0.083947310206231279 0.1074935535689709 0 -0.075620772806654399 0.1047972713346316 0 -0.084868150004751591 0.098297010781769723 0 -0.07416284546680918 0.094668811910581629 0 -0.075620772806654399 0.1047972713346316 0 -0.07416284546680918 0.094668811910581629 0 -0.075620772806654399 0.1047972713346316 0 -0.06797342141030252 0.10030920148610591 0 -0.055667229109567583 0.088847755450422561 0 -0.07416284546680918 0.094668811910581629 0 -0.06797342141030252 0.10030920148610591 0 -0.075620772806654399 0.1047972713346316 0 -0.066574353573826517 0.1091611438734031 0 -0.06797342141030252 0.10030920148610591 0 -0.061317563763440802 0.10299561175118491 0 -0.066574353573826517 0.1091611438734031 0 -0.06797342141030252 0.10030920148610591 0 -0.055667229109567583 0.088847755450422561 0 -0.07416284546680918 0.094668811910581629 0 -0.055667229109567583 0.088847755450422561 0 -0.07416284546680918 0.094668811910581629 0 -0.068535421204038979 0.084669133357873919 0 -0.056352896539992578 0.082531333895216066 0 -0.068535421204038979 0.084669133357873919 0 -0.079954973421325709 0.072656657351692189 0 -0.068535421204038979 0.084669133357873919 0 -0.077074786858862099 0.084953687823606544 0 -0.079954973421325709 0.072656657351692189 0 -0.07416284546680918 0.094668811910581629 0 -0.068535421204038979 0.084669133357873919 0 -0.077074786858862099 0.084953687823606544 0 -0.056352896539992578 0.082531333895216066 0 -0.079954973421325709 0.072656657351692189 0 -0.056352896539992578 0.082531333895216066 0 -0.065455038900646412 0.063135680861219914 0 -0.079954973421325709 0.072656657351692189 0 -0.065455038900646412 0.063135680861219914 0 -0.079954973421325709 0.072656657351692189 0 -0.065455038900646412 0.063135680861219914 0 -0.079954973421325709 0.072656657351692189 0 -0.076524839145482512 0.060394734624827362 0 -0.079954973421325709 0.072656657351692189 0 -0.093524594780215381 0.066979376389898315 0 -0.098442440583084309 0.07567796336267002 0 -0.079954973421325709 0.072656657351692189 0 -0.087851637875022454 0.059069255740853588 0 -0.076524839145482512 0.060394734624827362 0 -0.079954973421325709 0.072656657351692189 0 -0.093524594780215381 0.066979376389898315 0 -0.079954973421325709 0.072656657351692189 0 -0.093524594780215381 0.066979376389898315 0 -0.087851637875022454 0.059069255740853588 0 -0.079954973421325709 0.072656657351692189 0 -0.085645907343274513 0.087820148674278453 0 -0.1018492251009645 0.087032905411369765 0 -0.079954973421325709 0.072656657351692189 0 -0.1018492251009645 0.087032905411369765 0 -0.079954973421325709 0.072656657351692189 0 -0.1018492251009645 0.087032905411369765 0 -0.098442440583084309 0.07567796336267002 0 -0.084868150004751591 0.098297010781769723 0 -0.07416284546680918 0.094668811910581629 0 -0.085645907343274513 0.087820148674278453 0 -0.07416284546680918 0.094668811910581629 0 -0.077074786858862099 0.084953687823606544 0 -0.085645907343274513 0.087820148674278453 0 -0.077074786858862099 0.084953687823606544 0 -0.079954973421325709 0.072656657351692189 0 -0.085645907343274513 0.087820148674278453 0 -0.085645907343274513 0.087820148674278453 0 -0.1018492251009645 0.087032905411369765 0 -0.093949525724613639 0.096173232947952741 0 -0.1018492251009645 0.087032905411369765 0 -0.098442440583084309 0.07567796336267002 0 -0.1104905068726369 0.082990227197258584 0 -0.093524594780215381 0.066979376389898315 0 -0.106392902740279 0.068730650463131246 0 -0.095695867018895209 0.061386095523021718 0 -0.093524594780215381 0.066979376389898315 0 -0.098442440583084309 0.07567796336267002 0 -0.106392902740279 0.068730650463131246 0 -0.098442440583084309 0.07567796336267002 0 -0.106392902740279 0.068730650463131246 0 -0.1104905068726369 0.082990227197258584 0 -0.106392902740279 0.068730650463131246 0 -0.1143187324205953 0.061132814960732959 0 -0.1040003188276042 0.06051796656090451 0 -0.13471537800020611 0.069932196640817734 0 -0.1158200249735767 0.081810356583590621 0 -0.1143187324205953 0.061132814960732959 0 -0.1158200249735767 0.081810356583590621 0 -0.1143187324205953 0.061132814960732959 0 -0.106392902740279 0.068730650463131246 0 -0.1158200249735767 0.081810356583590621 0 -0.1143187324205953 0.061132814960732959 0 -0.106392902740279 0.068730650463131246 0 -0.1104905068726369 0.082990227197258584 0 -0.1158200249735767 0.081810356583590621 0 -0.106392902740279 0.068730650463131246 0 -0.1158200249735767 0.081810356583590621 0 -0.1104905068726369 0.082990227197258584 0 -0.1158200249735767 0.081810356583590621 0 -0.123743476780604 0.10140915347104661 0 -0.12576525993317081 0.095608920700106598 0 -0.1158200249735767 0.081810356583590621 0 -0.123743476780604 0.10140915347104661 0 -0.1018492251009645 0.087032905411369765 0 -0.1104905068726369 0.082990227197258584 0 -0.123743476780604 0.10140915347104661 0 -0.12576525993317081 0.095608920700106598 0 -0.1158200249735767 0.081810356583590621 0 -0.1018492251009645 0.087032905411369765 0 -0.123743476780604 0.10140915347104661 0 -0.10362366331346121 0.1005641378643648 0 -0.123743476780604 0.10140915347104661 0 -0.1048537663643479 0.1137288284916211 0 -0.10362366331346121 0.1005641378643648 0 -0.1018492251009645 0.087032905411369765 0 -0.123743476780604 0.10140915347104661 0 -0.12576525993317081 0.095608920700106598 0 -0.123743476780604 0.10140915347104661 0 -0.13074244959953979 0.11946175785799951 0 -0.11549744085296181 0.12506595749432459 0 -0.123743476780604 0.10140915347104661 0 -0.11549744085296181 0.12506595749432459 0 -0.123743476780604 0.10140915347104661 0 -0.1048537663643479 0.1137288284916211 0 -0.11549744085296181 0.12506595749432459 0 -0.123743476780604 0.10140915347104661 0 -0.11549744085296181 0.12506595749432459 0 -0.1048537663643479 0.1137288284916211 0 -0.095157466154961498 0.1222738246889692 0 -0.1048537663643479 0.1137288284916211 0 -0.095157466154961498 0.1222738246889692 0 -0.093760682860616423 0.1071519620079809 0 -0.1048537663643479 0.1137288284916211 0 -0.093760682860616423 0.1071519620079809 0 -0.10362366331346121 0.1005641378643648 0 -0.093760682860616423 0.1071519620079809 0 -0.093949525724613639 0.096173232947952741 0 -0.10362366331346121 0.1005641378643648 0 -0.1018492251009645 0.087032905411369765 0 -0.093949525724613639 0.096173232947952741 0 -0.10362366331346121 0.1005641378643648 0 -0.098111174817663571 0.029299933210101211 0 -0.11131614731463491 0.019777731715017489 0 -0.093270919285344131 0.021002023320940321 0 -0.099902477996615974 0.0097047614334804834 0 -0.11131614731463491 0.019777731715017489 0 -0.093270919285344131 0.021002023320940321 0 -0.098111174817663571 0.029299933210101211 0 -0.11131614731463491 0.019777731715017489 0 -0.1037154685123088 0.036850908914803658 0 -0.11131614731463491 0.019777731715017489 0 -0.1037154685123088 0.036850908914803658 0 -0.099902477996615974 0.0097047614334804834 0 -0.1099986790197032 0.001632030897992919 0 -0.11131614731463491 0.019777731715017489 0 -0.097318817554363779 -0.0057286893867275063 0 -0.099902477996615974 0.0097047614334804834 0 -0.087524390624848222 0.006688577221896419 0 -0.097318817554363779 -0.0057286893867275063 0 -0.099902477996615974 0.0097047614334804834 0 -0.1099986790197032 0.001632030897992919 0 -0.1236122261121546 -0.0078425818954372464 0 -0.13137048688310951 -0.003337023478303953 0 -0.11131614731463491 0.019777731715017489 0 -0.1099986790197032 0.001632030897992919 0 -0.11131614731463491 0.019777731715017489 0 -0.1236122261121546 -0.0078425818954372464 0 -0.1099986790197032 0.001632030897992919 0 -0.11131614731463491 0.019777731715017489 0 -0.1236122261121546 -0.0078425818954372464 0 -0.11131614731463491 0.019777731715017489 0 -0.1284208098020175 0.033179877632891097 0 -0.13460564055411489 0.01723703355858653 0 -0.11131614731463491 0.019777731715017489 0 -0.11131614731463491 0.019777731715017489 0 -0.1128174398676144 0.040455273337875242 0 -0.1284208098020175 0.033179877632891097 0 -0.11131614731463491 0.019777731715017489 0 -0.1128174398676144 0.040455273337875242 0 -0.12657932631233151 0.049909814768299969 0 -0.1284208098020175 0.033179877632891097 0 -0.1128174398676144 0.040455273337875242 0 -0.12657932631233151 0.049909814768299969 0 -0.1128174398676144 0.040455273337875242 0 -0.1143187324205953 0.061132814960732959 0 -0.1128174398676144 0.040455273337875242 0 -0.1143187324205953 0.061132814960732959 0 -0.1082223027228006 0.050485275180462093 0 -0.1128174398676144 0.040455273337875242 0 -0.1143187324205953 0.061132814960732959 0 -0.1143187324205953 0.061132814960732959 0 -0.10610639822075781 0.055771586811031351 0 -0.1082223027228006 0.050485275180462093 0 -0.1025152677102278 0.050750948389364392 0 -0.096114789709981496 0.053924086114589299 0 -0.1037154685123088 0.036850908914803658 0 -0.106392902740279 0.068730650463131246 0 -0.1040003188276042 0.06051796656090451 0 -0.096965780506980889 0.055650944342672051 0 -0.106392902740279 0.068730650463131246 0 -0.096965780506980889 0.055650944342672051 0 -0.1143187324205953 0.061132814960732959 0 -0.1040003188276042 0.06051796656090451 0 -0.10610639822075781 0.055771586811031351 0 -0.1040003188276042 0.06051796656090451 0 -0.10610639822075781 0.055771586811031351 0 -0.1014753694225613 0.055970928963692809 0 -0.10610639822075781 0.055771586811031351 0 -0.1025152677102278 0.050750948389364392 0 -0.1014753694225613 0.055970928963692809 0 -0.10610639822075781 0.055771586811031351 0 -0.1082223027228006 0.050485275180462093 0 -0.1025152677102278 0.050750948389364392 0 -0.1082223027228006 0.050485275180462093 0 -0.1025152677102278 0.050750948389364392 0 -0.1067356553623631 0.044178634216678392 0 -0.096408734094846682 0.047028599374544268 0 -0.094016665615900177 0.045027451179461733 0 -0.091788012541196298 0.052311951289322388 0 -0.096114789709981496 0.053924086114589299 0 -0.093744419191978248 0.056500250678553403 0 -0.091788012541196298 0.052311951289322388 0 -0.096408734094846682 0.047028599374544268 0 -0.096114789709981496 0.053924086114589299 0 -0.091788012541196298 0.052311951289322388 0 -0.096114789709981496 0.053924086114589299 0 -0.099124967027144822 0.054450492792824511 0 -0.096965780506980889 0.055650944342672051 0 -0.1025152677102278 0.050750948389364392 0 -0.096114789709981496 0.053924086114589299 0 -0.099124967027144822 0.054450492792824511 0 -0.1025152677102278 0.050750948389364392 0 -0.099124967027144822 0.054450492792824511 0 -0.1014753694225613 0.055970928963692809 0 -0.106392902740279 0.068730650463131246 0 -0.096965780506980889 0.055650944342672051 0 -0.095695867018895209 0.061386095523021718 0 -0.1040003188276042 0.06051796656090451 0 -0.1014753694225613 0.055970928963692809 0 -0.096965780506980889 0.055650944342672051 0 -0.099124967027144822 0.054450492792824511 0 -0.1014753694225613 0.055970928963692809 0 -0.096965780506980889 0.055650944342672051 0 -0.096965780506980889 0.055650944342672051 0 -0.095695867018895209 0.061386095523021718 0 -0.093744419191978248 0.056500250678553403 0 -0.096114789709981496 0.053924086114589299 0 -0.096965780506980889 0.055650944342672051 0 -0.093744419191978248 0.056500250678553403 0 -0.096408734094846682 0.047028599374544268 0 -0.096114789709981496 0.053924086114589299 0 -0.1037154685123088 0.036850908914803658 0 -0.11131614731463491 0.019777731715017489 0 -0.1128174398676144 0.040455273337875242 0 -0.1037154685123088 0.036850908914803658 0 -0.096114789709981496 0.053924086114589299 0 -0.1037154685123088 0.036850908914803658 0 -0.1128174398676144 0.040455273337875242 0 -0.1037154685123088 0.036850908914803658 0 -0.1067356553623631 0.044178634216678392 0 -0.1128174398676144 0.040455273337875242 0 -0.1082223027228006 0.050485275180462093 0 -0.1067356553623631 0.044178634216678392 0 -0.1025152677102278 0.050750948389364392 0 -0.1037154685123088 0.036850908914803658 0 -0.1067356553623631 0.044178634216678392 0 -0.096408734094846682 0.047028599374544268 0 -0.1037154685123088 0.036850908914803658 0 -0.094016665615900177 0.045027451179461733 0 -0.1037154685123088 0.036850908914803658 0 -0.094016665615900177 0.045027451179461733 0 -0.094491571965461013 0.037104767562455593 0 -0.098111174817663571 0.029299933210101211 0 -0.1037154685123088 0.036850908914803658 0 -0.094491571965461013 0.037104767562455593 0 -0.098111174817663571 0.029299933210101211 0 -0.094491571965461013 0.037104767562455593 0 -0.087647185425064736 0.031842659612238623 0 -0.087647185425064736 0.031842659612238623 0 -0.089854685869044451 0.040908764775179712 0 -0.081629424010395357 0.041419166804349421 0 -0.094491571965461013 0.037104767562455593 0 -0.087647185425064736 0.031842659612238623 0 -0.089854685869044451 0.040908764775179712 0 -0.089854685869044451 0.040908764775179712 0 -0.081629424010395357 0.041419166804349421 0 -0.086707275669269182 0.049908642651155542 0 -0.094016665615900177 0.045027451179461733 0 -0.089854685869044451 0.040908764775179712 0 -0.086707275669269182 0.049908642651155542 0 -0.094016665615900177 0.045027451179461733 0 -0.094491571965461013 0.037104767562455593 0 -0.089854685869044451 0.040908764775179712 0 -0.087647185425064736 0.031842659612238623 0 -0.081629424010395357 0.041419166804349421 0 -0.076164181077954182 0.032009494226678391 0 -0.095695867018895209 0.061386095523021718 0 -0.087851637875022454 0.059069255740853588 0 -0.093744419191978248 0.056500250678553403 0 -0.093524594780215381 0.066979376389898315 0 -0.095695867018895209 0.061386095523021718 0 -0.087851637875022454 0.059069255740853588 0 -0.087851637875022454 0.059069255740853588 0 -0.093744419191978248 0.056500250678553403 0 -0.091788012541196298 0.052311951289322388 0 -0.087851637875022454 0.059069255740853588 0 -0.091788012541196298 0.052311951289322388 0 -0.086707275669269182 0.049908642651155542 0 -0.094016665615900177 0.045027451179461733 0 -0.091788012541196298 0.052311951289322388 0 -0.086707275669269182 0.049908642651155542 0 -0.086707275669269182 0.049908642651155542 0 -0.081818850965788142 0.055238295402956307 0 -0.077896340682555187 0.050949615115596543 0 -0.081629424010395357 0.041419166804349421 0 -0.086707275669269182 0.049908642651155542 0 -0.077896340682555187 0.050949615115596543 0 -0.087851637875022454 0.059069255740853588 0 -0.086707275669269182 0.049908642651155542 0 -0.081818850965788142 0.055238295402956307 0 -0.081818850965788142 0.055238295402956307 0 -0.076524839145482512 0.060394734624827362 0 -0.077896340682555187 0.050949615115596543 0 -0.087851637875022454 0.059069255740853588 0 -0.081818850965788142 0.055238295402956307 0 -0.076524839145482512 0.060394734624827362 0 -0.076524839145482512 0.060394734624827362 0 -0.077896340682555187 0.050949615115596543 0 -0.069328576095109715 0.053744354209428961 0 -0.065455038900646412 0.063135680861219914 0 -0.076524839145482512 0.060394734624827362 0 -0.069328576095109715 0.053744354209428961 0 -0.077896340682555187 0.050949615115596543 0 -0.069328576095109715 0.053744354209428961 0 -0.071506875338484571 0.042895824445247768 0 -0.069328576095109715 0.053744354209428961 0 -0.071506875338484571 0.042895824445247768 0 -0.059557339835071388 0.053011753697425897 0 -0.065455038900646412 0.063135680861219914 0 -0.069328576095109715 0.053744354209428961 0 -0.059557339835071388 0.053011753697425897 0 -0.076164181077954182 0.032009494226678391 0 -0.071506875338484571 0.042895824445247768 0 -0.062761783130148519 0.02349217349963555 0 -0.071506875338484571 0.042895824445247768 0 -0.062761783130148519 0.02349217349963555 0 -0.059557339835071388 0.053011753697425897 0 -0.081629424010395357 0.041419166804349421 0 -0.076164181077954182 0.032009494226678391 0 -0.071506875338484571 0.042895824445247768 0 -0.081629424010395357 0.041419166804349421 0 -0.077896340682555187 0.050949615115596543 0 -0.071506875338484571 0.042895824445247768 0 -0.076164181077954182 0.032009494226678391 0 -0.062761783130148519 0.02349217349963555 0 -0.078304733749917463 0.018406078267593839 0 -0.087647185425064736 0.031842659612238623 0 -0.076164181077954182 0.032009494226678391 0 -0.078304733749917463 0.018406078267593839 0 -0.098111174817663571 0.029299933210101211 0 -0.087647185425064736 0.031842659612238623 0 -0.093270919285344131 0.021002023320940321 0 -0.087647185425064736 0.031842659612238623 0 -0.078304733749917463 0.018406078267593839 0 -0.093270919285344131 0.021002023320940321 0 -0.099902477996615974 0.0097047614334804834 0 -0.093270919285344131 0.021002023320940321 0 -0.087524390624848222 0.006688577221896419 0 -0.078304733749917463 0.018406078267593839 0 -0.093270919285344131 0.021002023320940321 0 -0.087524390624848222 0.006688577221896419 0 -0.065966226425225663 -0.0060274066981548767 0 -0.062761783130148519 0.02349217349963555 0 -0.078304733749917463 0.018406078267593839 0 -0.065966226425225663 -0.0060274066981548767 0 -0.078304733749917463 0.018406078267593839 0 -0.087524390624848222 0.006688577221896419 0 -0.065966226425225663 -0.0060274066981548767 0 -0.062761783130148519 0.02349217349963555 0 -0.065966226425225663 -0.0060274066981548767 0 -0.062761783130148519 0.02349217349963555 0 -0.041285176168578859 0.002941795093874656 0 -0.062761783130148519 0.02349217349963555 0 -0.036272784281526353 0.030700192342145501 0 -0.041285176168578859 0.002941795093874656 0 -0.036272784281526353 0.030700192342145501 0 -0.041285176168578859 0.002941795093874656 0 -0.01693898921702304 0.0117618500821222 0 -0.048521472395479701 0.069705355416953899 0 -0.048543751051203898 0.057697742817346243 0 -0.059557339835071388 0.053011753697425897 0 -0.048543751051203898 0.057697742817346243 0 -0.059557339835071388 0.053011753697425897 0 -0.04189961413571635 0.0481337511233643 0 -0.062761783130148519 0.02349217349963555 0 -0.059557339835071388 0.053011753697425897 0 -0.062761783130148519 0.02349217349963555 0 -0.036272784281526353 0.030700192342145501 0 -0.04189961413571635 0.0481337511233643 0 -0.062761783130148519 0.02349217349963555 0 -0.059557339835071388 0.053011753697425897 0 -0.04189961413571635 0.0481337511233643 0 -0.036272784281526353 0.030700192342145501 0 -0.04189961413571635 0.0481337511233643 0 -0.022255981323007819 0.049811798938199467 0 -0.042000822527735973 0.064880087355207783 0 -0.048543751051203898 0.057697742817346243 0 -0.04189961413571635 0.0481337511233643 0 -0.02897814582929455 0.062873885781940531 0 -0.042000822527735973 0.064880087355207783 0 -0.04189961413571635 0.0481337511233643 0 -0.02897814582929455 0.062873885781940531 0 -0.022255981323007819 0.049811798938199467 0 -0.01123722517146284 0.061714947321965113 0 -0.02897814582929455 0.062873885781940531 0 -0.04189961413571635 0.0481337511233643 0 -0.022255981323007819 0.049811798938199467 0 -0.036272784281526353 0.030700192342145501 0 -0.022255981323007819 0.049811798938199467 0 -0.01438021634244922 0.03170234610626791 0 -0.01438021634244922 0.03170234610626791 0 0.0022615025708572051 0.02103125876278546 0 0.0031430691038015031 0.043008717564808917 0 -0.022255981323007819 0.049811798938199467 0 -0.01438021634244922 0.03170234610626791 0 0.0031430691038015031 0.043008717564808917 0 -0.022255981323007819 0.049811798938199467 0 -0.01123722517146284 0.061714947321965113 0 0.0031430691038015031 0.043008717564808917 0 -0.01123722517146284 0.061714947321965113 0 0.0031430691038015031 0.043008717564808917 0 0.0078113760670387236 0.068869370431613411 0 -0.018090432812363919 -0.0051789454257338127 0 -0.041285176168578859 0.002941795093874656 0 -0.01693898921702304 0.0117618500821222 0 -0.036272784281526353 0.030700192342145501 0 -0.01693898921702304 0.0117618500821222 0 -0.036272784281526353 0.030700192342145501 0 -0.01438021634244922 0.03170234610626791 0 -0.01693898921702304 0.0117618500821222 0 -0.01438021634244922 0.03170234610626791 0 -0.01693898921702304 0.0117618500821222 0 0.0022615025708572051 0.02103125876278546 0 -0.01693898921702304 0.0117618500821222 0 0.002394805847480138 -0.0071764921779012506 0 -0.01693898921702304 0.0117618500821222 0 0.0022615025708572051 0.02103125876278546 0 0.002394805847480138 -0.0071764921779012506 0 0.0022615025708572051 0.02103125876278546 0 0.01988593924933146 0.01021281285273932 0 0.002394805847480138 -0.0071764921779012506 0 0.01988593924933146 0.01021281285273932 0 0.018044735406519189 -0.0027914786915071068 0 0.002394805847480138 -0.0071764921779012506 0 0.01988593924933146 0.01021281285273932 0 0.002394805847480138 -0.0071764921779012506 0 0.0022615025708572051 0.02103125876278546 0 0.01988593924933146 0.01021281285273932 0 0.01967507988536589 0.033248318378640847 0 0.01988593924933146 0.01021281285273932 0 0.037377072651182792 0.027602117883379889 0 0.01988593924933146 0.01021281285273932 0 0.01967507988536589 0.033248318378640847 0 0.037377072651182792 0.027602117883379889 0 0.01988593924933146 0.01021281285273932 0 0.035622497167505339 0.0063925700628825917 0 0.018044735406519189 -0.0027914786915071068 0 0.01988593924933146 0.01021281285273932 0 0.035622497167505339 0.0063925700628825917 0 0.037377072651182792 0.027602117883379889 0 0.0031430691038015031 0.043008717564808917 0 0.019783223174817739 0.050872415177661792 0 0.0078113760670387236 0.068869370431613411 0 0.0031430691038015031 0.043008717564808917 0 0.0078113760670387236 0.068869370431613411 0 0.0031430691038015031 0.043008717564808917 0 0.01967507988536589 0.033248318378640847 0 0.019783223174817739 0.050872415177661792 0 0.0022615025708572051 0.02103125876278546 0 0.0031430691038015031 0.043008717564808917 0 0.01967507988536589 0.033248318378640847 0 0.01967507988536589 0.033248318378640847 0 0.019783223174817739 0.050872415177661792 0 0.035662389103733989 0.047481221614176811 0 0.01967507988536589 0.033248318378640847 0 0.035662389103733989 0.047481221614176811 0 0.037377072651182792 0.027602117883379889 0 0.019783223174817739 0.050872415177661792 0 0.035662389103733989 0.047481221614176811 0 0.032141493454138102 0.060275729162332752 0 0.019783223174817739 0.050872415177661792 0 0.021142096610139102 0.064673842397447556 0 0.0078113760670387236 0.068869370431613411 0 0.019783223174817739 0.050872415177661792 0 0.032141493454138102 0.060275729162332752 0 0.021142096610139102 0.064673842397447556 0 0.035662389103733989 0.047481221614176811 0 0.032141493454138102 0.060275729162332752 0 0.049290572992936238 0.066355209737614357 0 0.035662389103733989 0.047481221614176811 0 0.054868206053034503 0.044991422914020113 0 0.049290572992936238 0.066355209737614357 0 0.054868206053034503 0.044991422914020113 0 0.037377072651182792 0.027602117883379889 0 0.035662389103733989 0.047481221614176811 0 0.054868206053034503 0.044991422914020113 0 0.037377072651182792 0.027602117883379889 0 0.054868206053034503 0.044991422914020113 0 0.037377072651182792 0.027602117883379889 0 0.059466454908930037 0.027378932586910581 0 0.054868206053034503 0.044991422914020113 0 0.059466454908930037 0.027378932586910581 0 0.054868206053034503 0.044991422914020113 0 0.049290572992936238 0.066355209737614357 0 0.054868206053034503 0.044991422914020113 0 0.067806688972275458 0.057854581689803772 0 0.049290572992936238 0.066355209737614357 0 0.054868206053034503 0.044991422914020113 0 0.067806688972275458 0.057854581689803772 0 0.035622497167505339 0.0063925700628825917 0 0.048661329883321183 0.016868832195515299 0 0.04884534130661923 0.0054823796607835363 0 0.035622497167505339 0.0063925700628825917 0 0.04884534130661923 0.0054823796607835363 0 0.045210290485040869 -0.0034719151203993228 0 0.035622497167505339 0.0063925700628825917 0 0.037377072651182792 0.027602117883379889 0 0.048661329883321183 0.016868832195515299 0 0.037377072651182792 0.027602117883379889 0 0.048661329883321183 0.016868832195515299 0 0.059466454908930037 0.027378932586910581 0 0.048661329883321183 0.016868832195515299 0 0.059466454908930037 0.027378932586910581 0 0.059551554903704583 0.012329945274186901 0 0.048661329883321183 0.016868832195515299 0 0.059551554903704583 0.012329945274186901 0 0.04884534130661923 0.0054823796607835363 0 0.04884534130661923 0.0054823796607835363 0 0.058196269712748661 -0.0010094984802769141 0 0.045210290485040869 -0.0034719151203993228 0 0.059551554903704583 0.012329945274186901 0 0.04884534130661923 0.0054823796607835363 0 0.058196269712748661 -0.0010094984802769141 0 0.059551554903704583 0.012329945274186901 0 0.070381517258247442 0.0054324954822656396 0 0.058196269712748661 -0.0010094984802769141 0 0.059551554903704583 0.012329945274186901 0 0.070381517258247442 0.0054324954822656396 0 0.071076364355982968 0.019572888861291889 0 0.070381517258247442 0.0054324954822656396 0 0.083131704911828669 0.010948624559543209 0 0.071076364355982968 0.019572888861291889 0 0.083131704911828669 0.010948624559543209 0 0.096167504599054904 0.0042442054759202954 0 0.09879577097810871 0.02017555683513389 0 0.070381517258247442 0.0054324954822656396 0 0.083131704911828669 0.010948624559543209 0 0.081717153665888317 -0.0025063239881197622 0 0.083131704911828669 0.010948624559543209 0 0.096167504599054904 0.0042442054759202954 0 0.081717153665888317 -0.0025063239881197622 0 0.083131704911828669 0.010948624559543209 0 0.084020254894405358 0.02481244236443322 0 0.09879577097810871 0.02017555683513389 0 0.084020254894405358 0.02481244236443322 0 0.089449236229465365 0.03685286092118592 0 0.09879577097810871 0.02017555683513389 0 0.083131704911828669 0.010948624559543209 0 0.084020254894405358 0.02481244236443322 0 0.071076364355982968 0.019572888861291889 0 0.084020254894405358 0.02481244236443322 0 0.071076364355982968 0.019572888861291889 0 0.073196751006103261 0.040000434485980937 0 0.059466454908930037 0.027378932586910581 0 0.071076364355982968 0.019572888861291889 0 0.073196751006103261 0.040000434485980937 0 0.059466454908930037 0.027378932586910581 0 0.059551554903704583 0.012329945274186901 0 0.071076364355982968 0.019572888861291889 0 0.054868206053034503 0.044991422914020113 0 0.059466454908930037 0.027378932586910581 0 0.073196751006103261 0.040000434485980937 0 0.073196751006103261 0.040000434485980937 0 0.067806688972275458 0.057854581689803772 0 0.092977810154944648 0.053070117425326267 0 0.054868206053034503 0.044991422914020113 0 0.073196751006103261 0.040000434485980937 0 0.067806688972275458 0.057854581689803772 0 0.092977810154944648 0.053070117425326267 0 0.080745171891517087 0.070717740465586792 0 0.067806688972275458 0.057854581689803772 0 0.092977810154944648 0.053070117425326267 0 0.080745171891517087 0.070717740465586792 0 0.084020254894405358 0.02481244236443322 0 0.073196751006103261 0.040000434485980937 0 0.089449236229465365 0.03685286092118592 0 0.073196751006103261 0.040000434485980937 0 0.092977810154944648 0.053070117425326267 0 0.089449236229465365 0.03685286092118592 0 0.092977810154944648 0.053070117425326267 0 0.10521044841837041 0.035422494385064417 0 0.092977810154944648 0.053070117425326267 0 0.089449236229465365 0.03685286092118592 0 0.10521044841837041 0.035422494385064417 0 0.092977810154944648 0.053070117425326267 0 0.1133392402374467 0.053204142399891047 0 0.1035655079248483 0.069632380985197889 0 0.092977810154944648 0.053070117425326267 0 0.10521044841837041 0.035422494385064417 0 0.1133392402374467 0.053204142399891047 0 0.1133392402374467 0.053204142399891047 0 0.1220245952479405 0.07004619687739172 0 0.13318341665519781 0.054736537254868822 0 0.1133392402374467 0.053204142399891047 0 0.12506256882025399 0.035699134337412737 0 0.13318341665519781 0.054736537254868822 0 0.10521044841837041 0.035422494385064417 0 0.1133392402374467 0.053204142399891047 0 0.12506256882025399 0.035699134337412737 0 0.10521044841837041 0.035422494385064417 0 0.11744308668179609 0.017774871344802521 0 0.12506256882025399 0.035699134337412737 0 0.10521044841837041 0.035422494385064417 0 0.11744308668179609 0.017774871344802521 0 0.10847276501169199 0.0092252325767439008 0 0.12681727907172599 0.0028609529651058472 0 0.11158832231026521 -0.002538519333972472 0 0.11744308668179609 0.017774871344802521 0 0.10847276501169199 0.0092252325767439008 0 0.12681727907172599 0.0028609529651058472 0 0.10847276501169199 0.0092252325767439008 0 0.096167504599054904 0.0042442054759202954 0 0.09879577097810871 0.02017555683513389 0 0.10847276501169199 0.0092252325767439008 0 0.096167504599054904 0.0042442054759202954 0 0.11158832231026521 -0.002538519333972472 0 0.10521044841837041 0.035422494385064417 0 0.11744308668179609 0.017774871344802521 0 0.09879577097810871 0.02017555683513389 0 0.089449236229465365 0.03685286092118592 0 0.10521044841837041 0.035422494385064417 0 0.09879577097810871 0.02017555683513389 0 0.11744308668179609 0.017774871344802521 0 0.10847276501169199 0.0092252325767439008 0 0.09879577097810871 0.02017555683513389 0 0.10882650996042049 0.098635597023528671 0 0.099321881767187231 0.10979448526446239 0 0.11057203073837581 0.10974959828000851 0 0.10882650996042049 0.098635597023528671 0 0.099321881767187231 0.10979448526446239 0 0.093532106097527157 0.097201512098380446 0 0.099321881767187231 0.10979448526446239 0 0.10718004060487731 0.1186919078288297 0 0.094925170845575335 0.12812185349131111 0 0.099321881767187231 0.10979448526446239 0 0.10718004060487731 0.1186919078288297 0 0.11057203073837581 0.10974959828000851 0 0.10718004060487731 0.1186919078288297 0 0.11057203073837581 0.10974959828000851 0 0.11923934643535521 0.1171320194813406 0 0.11923934643535521 0.1171320194813406 0 0.11184177323789279 0.12866158262702601 0 0.12877089149896251 0.12628235461406201 0 0.11057203073837581 0.10974959828000851 0 0.11923934643535521 0.1171320194813406 0 0.1204523462490521 0.10350528248164099 0 0.10718004060487731 0.1186919078288297 0 0.11923934643535521 0.1171320194813406 0 0.11184177323789279 0.12866158262702601 0 0.11923934643535521 0.1171320194813406 0 0.1204523462490521 0.10350528248164099 0 0.13278919984088661 0.11230677671938701 0 0.10882650996042049 0.098635597023528671 0 0.1204523462490521 0.10350528248164099 0 0.1175203890912727 0.086079419998433368 0 0.1204523462490521 0.10350528248164099 0 0.1175203890912727 0.086079419998433368 0 0.13376660142800201 0.097128283387147629 0 0.10882650996042049 0.098635597023528671 0 0.11057203073837581 0.10974959828000851 0 0.1204523462490521 0.10350528248164099 0 0.1175203890912727 0.086079419998433368 0 0.1220245952479405 0.07004619687739172 0 0.1035655079248483 0.069632380985197889 0 0.1133392402374467 0.053204142399891047 0 0.1220245952479405 0.07004619687739172 0 0.1035655079248483 0.069632380985197889 0 0.1175203890912727 0.086079419998433368 0 0.1035655079248483 0.069632380985197889 0 0.094785840925968687 0.084676668744557898 0 0.10882650996042049 0.098635597023528671 0 0.1175203890912727 0.086079419998433368 0 0.094785840925968687 0.084676668744557898 0 0.10882650996042049 0.098635597023528671 0 0.094785840925968687 0.084676668744557898 0 0.10882650996042049 0.098635597023528671 0 0.094785840925968687 0.084676668744557898 0 0.093532106097527157 0.097201512098380446 0 0.094785840925968687 0.084676668744557898 0 0.083309168386930019 0.090214104788044758 0 0.093532106097527157 0.097201512098380446 0 0.094785840925968687 0.084676668744557898 0 0.083309168386930019 0.090214104788044758 0 0.080745171891517087 0.070717740465586792 0 0.092977810154944648 0.053070117425326267 0 0.1035655079248483 0.069632380985197889 0 0.080745171891517087 0.070717740465586792 0 0.1035655079248483 0.069632380985197889 0 0.094785840925968687 0.084676668744557898 0 0.080745171891517087 0.070717740465586792 0 0.094785840925968687 0.084676668744557898 0 0.080745171891517087 0.070717740465586792 0 0.067806688972275458 0.057854581689803772 0 0.080745171891517087 0.070717740465586792 0 0.06101355018332804 0.07564509050647375 0 0.067806688972275458 0.057854581689803772 0 0.080745171891517087 0.070717740465586792 0 0.080745171891517087 0.070717740465586792 0 0.063512377127071362 0.095578924078155048 0 0.083309168386930019 0.090214104788044758 0 0.080745171891517087 0.070717740465586792 0 0.063512377127071362 0.095578924078155048 0 0.080745171891517087 0.070717740465586792 0 0.063512377127071362 0.095578924078155048 0 0.06101355018332804 0.07564509050647375 0 0.083309168386930019 0.090214104788044758 0 0.063512377127071362 0.095578924078155048 0 0.081417129447129324 0.1026867046713085 0 0.063512377127071362 0.095578924078155048 0 0.081417129447129324 0.1026867046713085 0 0.063512377127071362 0.095578924078155048 0 0.081417129447129324 0.1026867046713085 0 0.067817743154455989 0.1135840018968045 0 0.099321881767187231 0.10979448526446239 0 0.081417129447129324 0.1026867046713085 0 0.093532106097527157 0.097201512098380446 0 0.099321881767187231 0.10979448526446239 0 0.081417129447129324 0.1026867046713085 0 0.083309168386930019 0.090214104788044758 0 0.081417129447129324 0.1026867046713085 0 0.093532106097527157 0.097201512098380446 0 0.099321881767187231 0.10979448526446239 0 0.081417129447129324 0.1026867046713085 0 0.08262403040743542 0.1174427642681065 0 0.099321881767187231 0.10979448526446239 0 0.08262403040743542 0.1174427642681065 0 0.094925170845575335 0.12812185349131111 0 0.067817743154455989 0.1135840018968045 0 0.056785074219297037 0.123962922715022 0 0.069638226822829233 0.13302677601664631 0 0.08262403040743542 0.1174427642681065 0 0.067817743154455989 0.1135840018968045 0 0.069638226822829233 0.13302677601664631 0 0.081417129447129324 0.1026867046713085 0 0.08262403040743542 0.1174427642681065 0 0.067817743154455989 0.1135840018968045 0 0.067817743154455989 0.1135840018968045 0 0.056785074219297037 0.123962922715022 0 0.051472524226887043 0.11294842204475181 0 0.056785074219297037 0.123962922715022 0 0.051472524226887043 0.11294842204475181 0 0.045358146108277778 0.122235841909611 0 0.063512377127071362 0.095578924078155048 0 0.067817743154455989 0.1135840018968045 0 0.051472524226887043 0.11294842204475181 0 0.063512377127071362 0.095578924078155048 0 0.04894346805059932 0.099918275759685315 0 0.043712939932840048 0.087718996561209156 0 0.063512377127071362 0.095578924078155048 0 0.051472524226887043 0.11294842204475181 0 0.04894346805059932 0.099918275759685315 0 0.063512377127071362 0.095578924078155048 0 0.051472524226887043 0.11294842204475181 0 0.038417021745327531 0.1080037420749501 0 0.043712939932840048 0.087718996561209156 0 0.028330160343379221 0.096092512071592709 0 0.051472524226887043 0.11294842204475181 0 0.04894346805059932 0.099918275759685315 0 0.038417021745327531 0.1080037420749501 0 0.04894346805059932 0.099918275759685315 0 0.038417021745327531 0.1080037420749501 0 0.043712939932840048 0.087718996561209156 0 0.038417021745327531 0.1080037420749501 0 0.043712939932840048 0.087718996561209156 0 0.038417021745327531 0.1080037420749501 0 0.028403759718925791 0.1183090902513565 0 0.03312110355781811 0.12828848758869171 0 0.038417021745327531 0.1080037420749501 0 0.03312110355781811 0.12828848758869171 0 0.038417021745327531 0.1080037420749501 0 0.045358146108277778 0.122235841909611 0 0.03312110355781811 0.12828848758869171 0 0.051472524226887043 0.11294842204475181 0 0.038417021745327531 0.1080037420749501 0 0.045358146108277778 0.122235841909611 0 0.06101355018332804 0.07564509050647375 0 0.049290572992936238 0.066355209737614357 0 0.043712939932840048 0.087718996561209156 0 0.067806688972275458 0.057854581689803772 0 0.06101355018332804 0.07564509050647375 0 0.049290572992936238 0.066355209737614357 0 0.063512377127071362 0.095578924078155048 0 0.06101355018332804 0.07564509050647375 0 0.043712939932840048 0.087718996561209156 0 0.063512377127071362 0.095578924078155048 0 0.043712939932840048 0.087718996561209156 0 0.043712939932840048 0.087718996561209156 0 0.034829185389063419 0.071995956884763276 0 0.02079066235970875 0.078619372239532512 0 0.043712939932840048 0.087718996561209156 0 0.02079066235970875 0.078619372239532512 0 0.032141493454138102 0.060275729162332752 0 0.049290572992936238 0.066355209737614357 0 0.034829185389063419 0.071995956884763276 0 0.049290572992936238 0.066355209737614357 0 0.043712939932840048 0.087718996561209156 0 0.049290572992936238 0.066355209737614357 0 0.043712939932840048 0.087718996561209156 0 0.034829185389063419 0.071995956884763276 0 0.032141493454138102 0.060275729162332752 0 0.034829185389063419 0.071995956884763276 0 0.021142096610139102 0.064673842397447556 0 0.034829185389063419 0.071995956884763276 0 0.021142096610139102 0.064673842397447556 0 0.02079066235970875 0.078619372239532512 0 0.021142096610139102 0.064673842397447556 0 0.02079066235970875 0.078619372239532512 0 0.0078113760670387236 0.068869370431613411 0 0.043712939932840048 0.087718996561209156 0 0.02079066235970875 0.078619372239532512 0 0.028330160343379221 0.096092512071592709 0 0.02079066235970875 0.078619372239532512 0 0.028330160343379221 0.096092512071592709 0 0.013121597576430799 0.098285986815611973 0 -0.0022168413230157229 0.085736250976024914 0 0.0078113760670387236 0.068869370431613411 0 0.013121597576430799 0.098285986815611973 0 0.02079066235970875 0.078619372239532512 0 0.0078113760670387236 0.068869370431613411 0 0.013121597576430799 0.098285986815611973 0 0.0078113760670387236 0.068869370431613411 0 0.013121597576430799 0.098285986815611973 0 0.021142096610139102 0.064673842397447556 0 0.0078113760670387236 0.068869370431613411 0 0.013121597576430799 0.098285986815611973 0 0.018955942675363529 0.12769885014017149 0 0.018915766464259819 0.12208814763948179 0 0.025608580102588829 0.10783446266666021 0 0.013121597576430799 0.098285986815611973 0 0.018915766464259819 0.12208814763948179 0 0.013121597576430799 0.098285986815611973 0 0.018955942675363529 0.12769885014017149 0 0.018915766464259819 0.12208814763948179 0 0.018955942675363529 0.12769885014017149 0 0.028403759718925791 0.1183090902513565 0 0.025756287217072099 0.1254558848223972 0 0.03312110355781811 0.12828848758869171 0 0.018915766464259819 0.12208814763948179 0 0.028403759718925791 0.1183090902513565 0 0.025756287217072099 0.1254558848223972 0 0.038417021745327531 0.1080037420749501 0 0.028403759718925791 0.1183090902513565 0 0.025608580102588829 0.10783446266666021 0 0.018915766464259819 0.12208814763948179 0 0.028403759718925791 0.1183090902513565 0 0.025608580102588829 0.10783446266666021 0 0.038417021745327531 0.1080037420749501 0 0.025608580102588829 0.10783446266666021 0 0.028330160343379221 0.096092512071592709 0 0.025608580102588829 0.10783446266666021 0 0.028330160343379221 0.096092512071592709 0 0.013121597576430799 0.098285986815611973 0 -0.0093267163156350585 0.10220622611456499 0 -0.0022168413230157229 0.085736250976024914 0 0.013121597576430799 0.098285986815611973 0 -0.0093267163156350585 0.10220622611456499 0 0.013121597576430799 0.098285986815611973 0 0.0088418889268726004 0.1125261115153213 0 -0.0015382865690094869 0.1195819360983075 0 0.0088418889268726004 0.1125261115153213 0 0.0068357907514690393 0.1194307534492897 0 0.013121597576430799 0.098285986815611973 0 0.0088418889268726004 0.1125261115153213 0 0.018955942675363529 0.12769885014017149 0 0.01159030187937234 0.123800118292041 0 0.0068357907514690393 0.1194307534492897 0 0.0093864348306887096 0.12963523465885829 0 0.0088418889268726004 0.1125261115153213 0 0.01159030187937234 0.123800118292041 0 0.0068357907514690393 0.1194307534492897 0 0.0088418889268726004 0.1125261115153213 0 0.01159030187937234 0.123800118292041 0 0.018955942675363529 0.12769885014017149 0 -0.0015382865690094869 0.1195819360983075 0 0.0068357907514690393 0.1194307534492897 0 0.0028297340199113529 0.12737786763030409 0 0.0068357907514690393 0.1194307534492897 0 0.0028297340199113529 0.12737786763030409 0 0.0093864348306887096 0.12963523465885829 0 0.0028297340199113529 0.12737786763030409 0 0.0012022958327204049 0.13426380270999949 0 0.0063902301850321547 0.13414384741273511 0 0.0028297340199113529 0.12737786763030409 0 0.0063902301850321547 0.13414384741273511 0 0.0093864348306887096 0.12963523465885829 0 0.000228448927285114 0.14012311706009631 0 0.0012022958327204049 0.13426380270999949 0 0.0046739851119457828 0.13844047711548191 0 0.0012022958327204049 0.13426380270999949 0 0.0063902301850321547 0.13414384741273511 0 0.0046739851119457828 0.13844047711548191 0 0.0063902301850321547 0.13414384741273511 0 0.0046739851119457828 0.13844047711548191 0 0.0087417741184536643 0.13987837293796551 0 0.0063902301850321547 0.13414384741273511 0 0.0087417741184536643 0.13987837293796551 0 0.01188448664637911 0.13630481734698929 0 0.0087417741184536643 0.13987837293796551 0 0.01188448664637911 0.13630481734698929 0 0.01238480926519909 0.14086949425419931 0 0.0063902301850321547 0.13414384741273511 0 0.01188448664637911 0.13630481734698929 0 0.0093864348306887096 0.12963523465885829 0 0.01538181754864224 0.13462442671806851 0 0.01188448664637911 0.13630481734698929 0 0.01363814740762942 0.13063558522106289 0 0.01538181754864224 0.13462442671806851 0 0.01188448664637911 0.13630481734698929 0 0.014424460637306021 0.13832412831929569 0 0.01188448664637911 0.13630481734698929 0 0.014424460637306021 0.13832412831929569 0 0.01238480926519909 0.14086949425419931 0 0.014424460637306021 0.13832412831929569 0 0.01238480926519909 0.14086949425419931 0 0.015363480448823189 0.14129096320990631 0 0.01159030187937234 0.123800118292041 0 0.0093864348306887096 0.12963523465885829 0 0.01363814740762942 0.13063558522106289 0 0.01188448664637911 0.13630481734698929 0 0.0093864348306887096 0.12963523465885829 0 0.01363814740762942 0.13063558522106289 0 0.01159030187937234 0.123800118292041 0 0.01363814740762942 0.13063558522106289 0 0.018955942675363529 0.12769885014017149 0 0.018915766464259819 0.12208814763948179 0 0.018955942675363529 0.12769885014017149 0 0.022387711081268351 0.13069146168119281 0 0.025814451866404291 0.1323851931955756 0 0.019064338777337181 0.1428366210673169 0 0.044351282800083193 0.13793169854198151 0 0.018915766464259819 0.12208814763948179 0 0.022387711081268351 0.13069146168119281 0 0.025756287217072099 0.1254558848223972 0 0.01538181754864224 0.13462442671806851 0 0.01363814740762942 0.13063558522106289 0 0.018955942675363529 0.12769885014017149 0 0.022387711081268351 0.13069146168119281 0 0.025814451866404291 0.1323851931955756 0 0.019064338777337181 0.1428366210673169 0 0.01538181754864224 0.13462442671806851 0 0.018955942675363529 0.12769885014017149 0 0.01710770927748647 0.13853094006731531 0 0.018955942675363529 0.12769885014017149 0 0.01710770927748647 0.13853094006731531 0 0.019064338777337181 0.1428366210673169 0 0.018955942675363529 0.12769885014017149 0 0.019064338777337181 0.1428366210673169 0 0.018955942675363529 0.12769885014017149 0 0.022387711081268351 0.13069146168119281 0 0.019064338777337181 0.1428366210673169 0 0.01538181754864224 0.13462442671806851 0 0.014424460637306021 0.13832412831929569 0 0.01710770927748647 0.13853094006731531 0 0.014424460637306021 0.13832412831929569 0 0.01710770927748647 0.13853094006731531 0 0.015363480448823189 0.14129096320990631 0 0.01710770927748647 0.13853094006731531 0 0.017202595513394939 0.14154074390788901 0 0.015363480448823189 0.14129096320990631 0 0.025756287217072099 0.1254558848223972 0 0.025814451866404291 0.1323851931955756 0 0.03312110355781811 0.12828848758869171 0 0.022387711081268351 0.13069146168119281 0 0.025756287217072099 0.1254558848223972 0 0.025814451866404291 0.1323851931955756 0 0.019064338777337181 0.1428366210673169 0 0.01923932509198778 0.16727387202292701 0 0.034840635627581551 0.15270641195697809 0 0.019064338777337181 0.1428366210673169 0 0.01923932509198778 0.16727387202292701 0 0.01710770927748647 0.13853094006731531 0 0.019064338777337181 0.1428366210673169 0 0.017202595513394939 0.14154074390788901 0 0.019064338777337181 0.1428366210673169 0 0.017214352546369539 0.14319546392027949 0 0.017202595513394939 0.14154074390788901 0 0.019064338777337181 0.1428366210673169 0 0.017214352546369539 0.14319546392027949 0 0.017214352546369539 0.14319546392027949 0 0.017202595513394939 0.14154074390788901 0 0.015363480448823189 0.14129096320990631 0 0.019064338777337181 0.1428366210673169 0 0.010573304973877311 0.14810099588445341 0 0.0097219217107780143 0.1605441304936322 0 0.019064338777337181 0.1428366210673169 0 0.017214352546369539 0.14319546392027949 0 0.010573304973877311 0.14810099588445341 0 0.017214352546369539 0.14319546392027949 0 0.015363480448823189 0.14129096320990631 0 0.01311844662929992 0.14341517628664141 0 0.01238480926519909 0.14086949425419931 0 0.015363480448823189 0.14129096320990631 0 0.01311844662929992 0.14341517628664141 0 0.01238480926519909 0.14086949425419931 0 0.01311844662929992 0.14341517628664141 0 0.010056285912230499 0.14361896416436881 0 0.017214352546369539 0.14319546392027949 0 0.01311844662929992 0.14341517628664141 0 0.010573304973877311 0.14810099588445341 0 0.010573304973877311 0.14810099588445341 0 0.010056285912230499 0.14361896416436881 0 0.0052711451322874966 0.14430649706712931 0 0.01311844662929992 0.14341517628664141 0 0.010573304973877311 0.14810099588445341 0 0.010056285912230499 0.14361896416436881 0 0.0087417741184536643 0.13987837293796551 0 0.010056285912230499 0.14361896416436881 0 0.0052711451322874966 0.14430649706712931 0 0.0087417741184536643 0.13987837293796551 0 0.01238480926519909 0.14086949425419931 0 0.010056285912230499 0.14361896416436881 0 0.010573304973877311 0.14810099588445341 0 0.0052711451322874966 0.14430649706712931 0 0.002037105597096525 0.15151695060409001 0 0.0046739851119457828 0.13844047711548191 0 0.0087417741184536643 0.13987837293796551 0 0.0052711451322874966 0.14430649706712931 0 -0.001932496299644968 0.1459540675981712 0 0.0052711451322874966 0.14430649706712931 0 0.002037105597096525 0.15151695060409001 0 -0.001932496299644968 0.1459540675981712 0 0.000228448927285114 0.14012311706009631 0 0.0052711451322874966 0.14430649706712931 0 0.000228448927285114 0.14012311706009631 0 0.0046739851119457828 0.13844047711548191 0 0.0052711451322874966 0.14430649706712931 0 0.010573304973877311 0.14810099588445341 0 0.002037105597096525 0.15151695060409001 0 0.0097219217107780143 0.1605441304936322 0 -0.001399927819642065 0.15853034608675531 0 9.8439874396488518e-06 0.16909653965514321 0 0.0097219217107780143 0.1605441304936322 0 9.8439874396488518e-06 0.16909653965514321 0 0.0097219217107780143 0.1605441304936322 0 0.01923932509198778 0.16727387202292701 0 -0.001399927819642065 0.15853034608675531 0 0.002037105597096525 0.15151695060409001 0 0.0097219217107780143 0.1605441304936322 0 0.0075192663374202447 0.1824792222503463 0 0.01923932509198778 0.16727387202292701 0 0.019414311406637581 0.19171112297853721 0 9.8439874396488518e-06 0.16909653965514321 0 0.0075192663374202447 0.1824792222503463 0 0.01923932509198778 0.16727387202292701 0 -0.0058150648891281392 0.18464487058732859 0 9.8439874396488518e-06 0.16909653965514321 0 0.0075192663374202447 0.1824792222503463 0 0.01923932509198778 0.16727387202292701 0 0.019414311406637581 0.19171112297853721 0 0.01923932509198778 0.16727387202292701 0 0.041253151311174942 0.18351428487242299 0 0.019414311406637581 0.19171112297853721 0 0.019064338777337181 0.1428366210673169 0 0.0097219217107780143 0.1605441304936322 0 0.01923932509198778 0.16727387202292701 0 0.01923932509198778 0.16727387202292701 0 0.045192968381937218 0.16506141320240761 0 0.034840635627581551 0.15270641195697809 0 0.01923932509198778 0.16727387202292701 0 0.045192968381937218 0.16506141320240761 0 0.041253151311174942 0.18351428487242299 0 0.041253151311174942 0.18351428487242299 0 0.056495320393279057 0.1758938039325593 0 0.06399941055398814 0.19765529411200519 0 0.045192968381937218 0.16506141320240761 0 0.041253151311174942 0.18351428487242299 0 0.056495320393279057 0.1758938039325593 0 0.045192968381937218 0.16506141320240761 0 0.058418108920392182 0.16045602069262471 0 0.053913444208845418 0.15009958673064799 0 0.045192968381937218 0.16506141320240761 0 0.056495320393279057 0.1758938039325593 0 0.058418108920392182 0.16045602069262471 0 0.058418108920392182 0.16045602069262471 0 0.053913444208845418 0.15009958673064799 0 0.071039442700249214 0.1514151999732502 0 0.053913444208845418 0.15009958673064799 0 0.044351282800083193 0.13793169854198151 0 0.069638226822829233 0.13302677601664631 0 0.044351282800083193 0.13793169854198151 0 0.069638226822829233 0.13302677601664631 0 0.056785074219297037 0.123962922715022 0 0.045358146108277778 0.122235841909611 0 0.044351282800083193 0.13793169854198151 0 0.056785074219297037 0.123962922715022 0 0.044351282800083193 0.13793169854198151 0 0.069638226822829233 0.13302677601664631 0 0.025814451866404291 0.1323851931955756 0 0.044351282800083193 0.13793169854198151 0 0.03312110355781811 0.12828848758869171 0 0.045358146108277778 0.122235841909611 0 0.044351282800083193 0.13793169854198151 0 0.03312110355781811 0.12828848758869171 0 0.019064338777337181 0.1428366210673169 0 0.044351282800083193 0.13793169854198151 0 0.053913444208845418 0.15009958673064799 0 0.044351282800083193 0.13793169854198151 0 0.034840635627581551 0.15270641195697809 0 0.045192968381937218 0.16506141320240761 0 0.053913444208845418 0.15009958673064799 0 0.034840635627581551 0.15270641195697809 0 0.019064338777337181 0.1428366210673169 0 0.044351282800083193 0.13793169854198151 0 0.034840635627581551 0.15270641195697809 0 0.019733428038529611 0.23627651218177001 0 0.032395297456559217 0.24990448186487541 0 0.01992807415890703 0.26345930130890138 0 0.019733428038529611 0.23627651218177001 0 0.01992807415890703 0.26345930130890138 0 0.019733428038529611 0.23627651218177001 0 0.032900500049065431 0.23758744706011731 0 0.032395297456559217 0.24990448186487541 0 0.019733428038529611 0.23627651218177001 0 0.032900500049065431 0.23758744706011731 0 -0.0054403593235216562 0.23377016940133941 0 0.019733428038529611 0.23627651218177001 0 -0.0054403593235216562 0.23377016940133941 0 0.019733428038529611 0.23627651218177001 0 0.0051881906427589239 0.2429023142665572 0 0.019733428038529611 0.23627651218177001 0 0.0051881906427589239 0.2429023142665572 0 0.0108212759879371 0.25143582124693198 0 -0.004361582131907446 0.25012675423618741 0 0.0051881906427589239 0.2429023142665572 0 0.0108212759879371 0.25143582124693198 0 -0.0054403593235216562 0.23377016940133941 0 0.019733428038529611 0.23627651218177001 0 0.0022205822065663882 0.22338098429998751 0 0.0022205822065663882 0.22338098429998751 0 0.019589297721289551 0.2161483739341474 0 0.019733428038529611 0.23627651218177001 0 0.0022205822065663882 0.22338098429998751 0 0.019589297721289551 0.2161483739341474 0 0.019733428038529611 0.23627651218177001 0 0.019589297721289551 0.2161483739341474 0 0.034101449494264802 0.22244897456428839 0 0.019733428038529611 0.23627651218177001 0 0.019589297721289551 0.2161483739341474 0 0.019733428038529611 0.23627651218177001 0 0.034101449494264802 0.22244897456428839 0 0.032900500049065431 0.23758744706011731 0 0.019589297721289551 0.2161483739341474 0 0.019414311406637581 0.19171112297853721 0 0.041794354137638927 0.20690183402307669 0 0.019589297721289551 0.2161483739341474 0 0.041794354137638927 0.20690183402307669 0 0.019589297721289551 0.2161483739341474 0 0.019414311406637581 0.19171112297853721 0 -0.001618838316679704 0.21186515805952549 0 0.0022205822065663882 0.22338098429998751 0 0.019589297721289551 0.2161483739341474 0 -0.001618838316679704 0.21186515805952549 0 0.019589297721289551 0.2161483739341474 0 0.0047479160901643591 0.19966970600779571 0 0.0075192663374202447 0.1824792222503463 0 0.0047479160901643591 0.19966970600779571 0 0.019414311406637581 0.19171112297853721 0 0.019589297721289551 0.2161483739341474 0 0.0047479160901643591 0.19966970600779571 0 0.019414311406637581 0.19171112297853721 0 -0.0058150648891281392 0.18464487058732859 0 0.0075192663374202447 0.1824792222503463 0 0.0047479160901643591 0.19966970600779571 0 0.041253151311174942 0.18351428487242299 0 0.019414311406637581 0.19171112297853721 0 0.041794354137638927 0.20690183402307669 0 0.041253151311174942 0.18351428487242299 0 0.041794354137638927 0.20690183402307669 0 0.06399941055398814 0.19765529411200519 0 0.041794354137638927 0.20690183402307669 0 0.06399941055398814 0.19765529411200519 0 0.061093413050727782 0.21440081318481749 0 0.041794354137638927 0.20690183402307669 0 0.06399941055398814 0.19765529411200519 0 0.061093413050727782 0.21440081318481749 0 0.041794354137638927 0.20690183402307669 0 0.049967951794046297 0.22590254710105601 0 0.019589297721289551 0.2161483739341474 0 0.041794354137638927 0.20690183402307669 0 0.034101449494264802 0.22244897456428839 0 0.041794354137638927 0.20690183402307669 0 0.034101449494264802 0.22244897456428839 0 0.049967951794046297 0.22590254710105601 0 0.034101449494264802 0.22244897456428839 0 0.049967951794046297 0.22590254710105601 0 0.032900500049065431 0.23758744706011731 0 0.049967951794046297 0.22590254710105601 0 0.049298807743375681 0.24401567068345059 0 0.070152213389441304 0.23042254488525729 0 0.061093413050727782 0.21440081318481749 0 0.049967951794046297 0.22590254710105601 0 0.070152213389441304 0.23042254488525729 0 0.049298807743375681 0.24401567068345059 0 0.032900500049065431 0.23758744706011731 0 0.032395297456559217 0.24990448186487541 0 0.049967951794046297 0.22590254710105601 0 0.049298807743375681 0.24401567068345059 0 0.032900500049065431 0.23758744706011731 0 0.081494970558903312 0.2413152449973858 0 0.068539877812152941 0.25484826761588569 0 0.094153496178737847 0.25278652485753728 0 0.081494970558903312 0.2413152449973858 0 0.092408256837057293 0.22639029288367121 0 0.094153496178737847 0.25278652485753728 0 0.081494970558903312 0.2413152449973858 0 0.070152213389441304 0.23042254488525729 0 0.068539877812152941 0.25484826761588569 0 0.049298807743375681 0.24401567068345059 0 0.070152213389441304 0.23042254488525729 0 0.068539877812152941 0.25484826761588569 0 0.070152213389441304 0.23042254488525729 0 0.079553135378524209 0.21112184580269211 0 0.081494970558903312 0.2413152449973858 0 0.070152213389441304 0.23042254488525729 0 0.092408256837057293 0.22639029288367121 0 0.070152213389441304 0.23042254488525729 0 0.092408256837057293 0.22639029288367121 0 0.079553135378524209 0.21112184580269211 0 0.092408256837057293 0.22639029288367121 0 0.090685729118578778 0.2092827598877062 0 0.079553135378524209 0.21112184580269211 0 0.090685729118578778 0.2092827598877062 0 0.079553135378524209 0.21112184580269211 0 0.088954057367607559 0.19182114672012679 0 0.061093413050727782 0.21440081318481749 0 0.070152213389441304 0.23042254488525729 0 0.079553135378524209 0.21112184580269211 0 0.061093413050727782 0.21440081318481749 0 0.079553135378524209 0.21112184580269211 0 0.06399941055398814 0.19765529411200519 0 0.079553135378524209 0.21112184580269211 0 0.06399941055398814 0.19765529411200519 0 0.086204466970337151 0.18840875420093359 0 0.06399941055398814 0.19765529411200519 0 0.086204466970337151 0.18840875420093359 0 0.079553135378524209 0.21112184580269211 0 0.088954057367607559 0.19182114672012679 0 0.079553135378524209 0.21112184580269211 0 0.086204466970337151 0.18840875420093359 0 0.088954057367607559 0.19182114672012679 0 0.088954057367607559 0.19182114672012679 0 0.091738629482519291 0.1861042405989983 0 0.086204466970337151 0.18840875420093359 0 0.088954057367607559 0.19182114672012679 0 0.091738629482519291 0.1861042405989983 0 0.086204466970337151 0.18840875420093359 0 0.088954057367607559 0.19182114672012679 0 0.10188013338443321 0.1945805347119858 0 0.1223034951297057 0.2015047654836217 0 0.1018274668911264 0.2077977541443348 0 0.090685729118578778 0.2092827598877062 0 0.088954057367607559 0.19182114672012679 0 0.1018274668911264 0.2077977541443348 0 0.088954057367607559 0.19182114672012679 0 0.10188013338443321 0.1945805347119858 0 0.1018274668911264 0.2077977541443348 0 0.088954057367607559 0.19182114672012679 0 0.1018274668911264 0.2077977541443348 0 0.088954057367607559 0.19182114672012679 0 0.10188013338443321 0.1945805347119858 0 0.091738629482519291 0.1861042405989983 0 0.10188013338443321 0.1945805347119858 0 0.1223034951297057 0.2015047654836217 0 0.1143056367611561 0.17670697857169981 0 0.1223034951297057 0.2015047654836217 0 0.1018274668911264 0.2077977541443348 0 0.11470087641464451 0.22377436156854341 0 0.1223034951297057 0.2015047654836217 0 0.11470087641464451 0.22377436156854341 0 0.12985428442346111 0.22473904082679019 0 0.092408256837057293 0.22639029288367121 0 0.090685729118578778 0.2092827598877062 0 0.1018274668911264 0.2077977541443348 0 0.1018274668911264 0.2077977541443348 0 0.11470087641464451 0.22377436156854341 0 0.092408256837057293 0.22639029288367121 0 0.11470087641464451 0.22377436156854341 0 0.1077236677954151 0.23904346403323151 0 0.092408256837057293 0.22639029288367121 0 0.1018274668911264 0.2077977541443348 0 0.11470087641464451 0.22377436156854341 0 0.11470087641464451 0.22377436156854341 0 0.12757428593816261 0.239750968992752 0 0.11470087641464451 0.22377436156854341 0 0.1077236677954151 0.23904346403323151 0 0.12757428593816261 0.239750968992752 0 0.11470087641464451 0.22377436156854341 0 0.12757428593816261 0.239750968992752 0 0.12985428442346111 0.22473904082679019 0 0.1077236677954151 0.23904346403323151 0 0.12757428593816261 0.239750968992752 0 0.1197671145453226 0.2507247820991888 0 0.1077236677954151 0.23904346403323151 0 0.1197671145453226 0.2507247820991888 0 0.094153496178737847 0.25278652485753728 0 0.092408256837057293 0.22639029288367121 0 0.1077236677954151 0.23904346403323151 0 0.094153496178737847 0.25278652485753728 0 0.089241880289002096 0.14489141207420311 0 0.071039442700249214 0.1514151999732502 0 0.087740544640930687 0.16123122417456451 0 0.08262403040743542 0.1174427642681065 0 0.069638226822829233 0.13302677601664631 0 0.094925170845575335 0.12812185349131111 0 0.069638226822829233 0.13302677601664631 0 0.094925170845575335 0.12812185349131111 0 0.089241880289002096 0.14489141207420311 0 0.069638226822829233 0.13302677601664631 0 0.094925170845575335 0.12812185349131111 0 0.053913444208845418 0.15009958673064799 0 0.069638226822829233 0.13302677601664631 0 0.071039442700249214 0.1514151999732502 0 0.089241880289002096 0.14489141207420311 0 0.069638226822829233 0.13302677601664631 0 0.071039442700249214 0.1514151999732502 0 0.058418108920392182 0.16045602069262471 0 0.071039442700249214 0.1514151999732502 0 0.073612962798902823 0.17278200678333611 0 0.071039442700249214 0.1514151999732502 0 0.073612962798902823 0.17278200678333611 0 0.087740544640930687 0.16123122417456451 0 0.056495320393279057 0.1758938039325593 0 0.058418108920392182 0.16045602069262471 0 0.073612962798902823 0.17278200678333611 0 0.06399941055398814 0.19765529411200519 0 0.086204466970337151 0.18840875420093359 0 0.073612962798902823 0.17278200678333611 0 0.056495320393279057 0.1758938039325593 0 0.06399941055398814 0.19765529411200519 0 0.073612962798902823 0.17278200678333611 0 0.086204466970337151 0.18840875420093359 0 0.073612962798902823 0.17278200678333611 0 0.086204466970337151 0.18840875420093359 0 0.073612962798902823 0.17278200678333611 0 0.087615468279621078 0.1760345128920231 0 0.087615468279621078 0.1760345128920231 0 0.091738629482519291 0.1861042405989983 0 0.098780737505415703 0.17164633870228399 0 0.086204466970337151 0.18840875420093359 0 0.087615468279621078 0.1760345128920231 0 0.091738629482519291 0.1861042405989983 0 0.086204466970337151 0.18840875420093359 0 0.091738629482519291 0.1861042405989983 0 0.073612962798902823 0.17278200678333611 0 0.087615468279621078 0.1760345128920231 0 0.087740544640930687 0.16123122417456451 0 0.087615468279621078 0.1760345128920231 0 0.087740544640930687 0.16123122417456451 0 0.098780737505415703 0.17164633870228399 0 0.087740544640930687 0.16123122417456451 0 0.098780737505415703 0.17164633870228399 0 0.10582284552831139 0.15718843680556929 0 0.098780737505415703 0.17164633870228399 0 0.1143056367611561 0.17670697857169981 0 0.11439408025226031 0.1643128731168863 0 0.098780737505415703 0.17164633870228399 0 0.10582284552831139 0.15718843680556929 0 0.11439408025226031 0.1643128731168863 0 0.098780737505415703 0.17164633870228399 0 0.10582284552831139 0.15718843680556929 0 0.091738629482519291 0.1861042405989983 0 0.1143056367611561 0.17670697857169981 0 0.10188013338443321 0.1945805347119858 0 0.091738629482519291 0.1861042405989983 0 0.1143056367611561 0.17670697857169981 0 0.091738629482519291 0.1861042405989983 0 0.098780737505415703 0.17164633870228399 0 0.1143056367611561 0.17670697857169981 0 0.091738629482519291 0.1861042405989983 0 0.098780737505415703 0.17164633870228399 0 0.1223034951297057 0.2015047654836217 0 0.1143056367611561 0.17670697857169981 0 0.12984245568560021 0.18336402612102581 0 0.10582284552831139 0.15718843680556929 0 0.11439408025226031 0.1643128731168863 0 0.118827144549028 0.15045938834785799 0 0.1143056367611561 0.17670697857169981 0 0.11439408025226031 0.1643128731168863 0 0.1269873440417035 0.1621457976822499 0 0.11439408025226031 0.1643128731168863 0 0.118827144549028 0.15045938834785799 0 0.1269873440417035 0.1621457976822499 0 0.10582284552831139 0.15718843680556929 0 0.118827144549028 0.15045938834785799 0 0.1060715668831175 0.14085190817348309 0 0.118827144549028 0.15045938834785799 0 0.1060715668831175 0.14085190817348309 0 0.12165438094055341 0.1382202250837688 0 0.089241880289002096 0.14489141207420311 0 0.10582284552831139 0.15718843680556929 0 0.1060715668831175 0.14085190817348309 0 0.089241880289002096 0.14489141207420311 0 0.087740544640930687 0.16123122417456451 0 0.10582284552831139 0.15718843680556929 0 0.1060715668831175 0.14085190817348309 0 0.094925170845575335 0.12812185349131111 0 0.11184177323789279 0.12866158262702601 0 0.10718004060487731 0.1186919078288297 0 0.094925170845575335 0.12812185349131111 0 0.11184177323789279 0.12866158262702601 0 0.089241880289002096 0.14489141207420311 0 0.1060715668831175 0.14085190817348309 0 0.094925170845575335 0.12812185349131111 0 0.11184177323789279 0.12866158262702601 0 0.12165438094055341 0.1382202250837688 0 0.12877089149896251 0.12628235461406201 0 0.1060715668831175 0.14085190817348309 0 0.11184177323789279 0.12866158262702601 0 0.12165438094055341 0.1382202250837688 0 0.12877089149896251 0.12628235461406201 0 0.13720160688724839 0.13964518263404729 0 0.14559099576285081 0.1211645137464301 0 0.12165438094055341 0.1382202250837688 0 0.13720160688724839 0.13964518263404729 0 0.12165438094055341 0.1382202250837688 0 0.12877089149896251 0.12628235461406201 0 0.13720160688724839 0.13964518263404729 0 0.13720160688724839 0.13964518263404729 0 0.15632661280319129 0.13068902382275449 0 0.14559099576285081 0.1211645137464301 0 0.13720160688724839 0.13964518263404729 0 0.14559099576285081 0.1211645137464301 0 0.13720160688724839 0.13964518263404729 0 0.15632661280319129 0.13068902382275449 0 0.16429194695006341 0.14212810690262639 0 0.13720160688724839 0.13964518263404729 0 0.16429194695006341 0.14212810690262639 0 0.13720160688724839 0.13964518263404729 0 0.14941591407077959 0.14904867938194569 0 0.13673045112737631 0.1565089734740045 0 0.13720160688724839 0.13964518263404729 0 0.14941591407077959 0.14904867938194569 0 0.16429194695006341 0.14212810690262639 0 0.14941591407077959 0.14904867938194569 0 0.13673045112737631 0.1565089734740045 0 0.15943965131843141 0.15791245451710681 0 0.118827144549028 0.15045938834785799 0 0.13720160688724839 0.13964518263404729 0 0.1269873440417035 0.1621457976822499 0 0.13720160688724839 0.13964518263404729 0 0.1269873440417035 0.1621457976822499 0 0.13720160688724839 0.13964518263404729 0 0.1269873440417035 0.1621457976822499 0 0.13673045112737631 0.1565089734740045 0 0.118827144549028 0.15045938834785799 0 0.12165438094055341 0.1382202250837688 0 0.13720160688724839 0.13964518263404729 0 0.1143056367611561 0.17670697857169981 0 0.1269873440417035 0.1621457976822499 0 0.1368726440397933 0.1673097165444021 0 0.1269873440417035 0.1621457976822499 0 0.1368726440397933 0.1673097165444021 0 0.13673045112737631 0.1565089734740045 0 0.1143056367611561 0.17670697857169981 0 0.1368726440397933 0.1673097165444021 0 0.12984245568560021 0.18336402612102581 0 0.1143056367611561 0.17670697857169981 0 0.1368726440397933 0.1673097165444021 0 0.1368726440397933 0.1673097165444021 0 0.12984245568560021 0.18336402612102581 0 0.14395995749662011 0.19046676877908139 0 0.1368726440397933 0.1673097165444021 0 0.1557014301669345 0.17418450516490519 0 0.14395995749662011 0.19046676877908139 0 0.13673045112737631 0.1565089734740045 0 0.15943965131843141 0.15791245451710681 0 0.1368726440397933 0.1673097165444021 0 0.15943965131843141 0.15791245451710681 0 0.1368726440397933 0.1673097165444021 0 0.1557014301669345 0.17418450516490519 0 0.15943965131843141 0.15791245451710681 0 0.1368726440397933 0.1673097165444021 0 0.13673045112737631 0.1565089734740045 0 0.15943965131843141 0.15791245451710681 0 0.1557014301669345 0.17418450516490519 0 0.15943965131843141 0.15791245451710681 0 0.16838221510295989 0.1692040805085635 0 0.15943965131843141 0.15791245451710681 0 0.16838221510295989 0.1692040805085635 0 0.17970147406593759 0.15916468197935521 0 0.15943965131843141 0.15791245451710681 0 0.17970147406593759 0.15916468197935521 0 0.1557014301669345 0.17418450516490519 0 0.16985268287686869 0.18602950547537461 0 0.14395995749662011 0.19046676877908139 0 0.1557014301669345 0.17418450516490519 0 0.16838221510295989 0.1692040805085635 0 0.16985268287686869 0.18602950547537461 0 0.16985268287686869 0.18602950547537461 0 0.17776577537378679 0.1717491724038096 0 0.19009851561998109 0.17546705170333859 0 0.16985268287686869 0.18602950547537461 0 0.1921007491770006 0.19413511782623061 0 0.19009851561998109 0.17546705170333859 0 0.16838221510295989 0.1692040805085635 0 0.16985268287686869 0.18602950547537461 0 0.17776577537378679 0.1717491724038096 0 0.17776577537378679 0.1717491724038096 0 0.17970147406593759 0.15916468197935521 0 0.19009851561998109 0.17546705170333859 0 0.16838221510295989 0.1692040805085635 0 0.17776577537378679 0.1717491724038096 0 0.17970147406593759 0.15916468197935521 0 0.17970147406593759 0.15916468197935521 0 0.17541096916565421 0.151261742844153 0 0.19138228701287849 0.14461103117120311 0 0.17541096916565421 0.151261742844153 0 0.19138228701287849 0.14461103117120311 0 0.17541096916565421 0.151261742844153 0 0.16429194695006341 0.14212810690262639 0 0.19138228701287849 0.14461103117120311 0 0.16429194695006341 0.14212810690262639 0 0.19138228701287849 0.14461103117120311 0 0.1826996939178501 0.134395064982826 0 0.17014020092281509 0.1303647164313487 0 0.16429194695006341 0.14212810690262639 0 0.1826996939178501 0.134395064982826 0 0.16429194695006341 0.14212810690262639 0 0.19138228701287849 0.14461103117120311 0 0.1826996939178501 0.134395064982826 0 0.19400001601888209 0.1301444430180784 0 0.18282874988353909 0.12176719670840121 0 0.1826996939178501 0.134395064982826 0 0.17014020092281509 0.1303647164313487 0 0.18282874988353909 0.12176719670840121 0 0.17014020092281509 0.1303647164313487 0 0.15632661280319129 0.13068902382275449 0 0.1644083134929788 0.12014259939932 0 0.17014020092281509 0.1303647164313487 0 0.15632661280319129 0.13068902382275449 0 0.16429194695006341 0.14212810690262639 0 0.14941591407077959 0.14904867938194569 0 0.15943965131843141 0.15791245451710681 0 0.16429194695006341 0.14212810690262639 0 0.15943965131843141 0.15791245451710681 0 0.17970147406593759 0.15916468197935521 0 0.17541096916565421 0.151261742844153 0 0.15943965131843141 0.15791245451710681 0 0.17541096916565421 0.151261742844153 0 0.15943965131843141 0.15791245451710681 0 0.17541096916565421 0.151261742844153 0 0.16429194695006341 0.14212810690262639 0 0.15269041899089261 0.24018887904249059 0 0.1453807329119074 0.24866303934084041 0 0.15466915334416509 0.25190660019890743 0 0.15269041899089261 0.24018887904249059 0 0.1453807329119074 0.24866303934084041 0 0.14060451702156199 0.2357308345711725 0 0.1453807329119074 0.24866303934084041 0 0.12757428593816261 0.239750968992752 0 0.14060451702156199 0.2357308345711725 0 0.1453807329119074 0.24866303934084041 0 0.1197671145453226 0.2507247820991888 0 0.1453807329119074 0.24866303934084041 0 0.12757428593816261 0.239750968992752 0 0.1197671145453226 0.2507247820991888 0 0.14060451702156199 0.2357308345711725 0 0.12985428442346111 0.22473904082679019 0 0.14752286284338639 0.22531224465298941 0 0.12985428442346111 0.22473904082679019 0 0.14752286284338639 0.22531224465298941 0 0.1398831682024731 0.2101323370399282 0 0.12757428593816261 0.239750968992752 0 0.14060451702156199 0.2357308345711725 0 0.12985428442346111 0.22473904082679019 0 0.15269041899089261 0.24018887904249059 0 0.14752286284338639 0.22531224465298941 0 0.16513181717874489 0.22933158445530699 0 0.14752286284338639 0.22531224465298941 0 0.155775241119192 0.20863886545715829 0 0.16513181717874489 0.22933158445530699 0 0.15269041899089261 0.24018887904249059 0 0.14060451702156199 0.2357308345711725 0 0.14752286284338639 0.22531224465298941 0 0.14752286284338639 0.22531224465298941 0 0.155775241119192 0.20863886545715829 0 0.1398831682024731 0.2101323370399282 0 0.1223034951297057 0.2015047654836217 0 0.12985428442346111 0.22473904082679019 0 0.1398831682024731 0.2101323370399282 0 0.1223034951297057 0.2015047654836217 0 0.12984245568560021 0.18336402612102581 0 0.14395995749662011 0.19046676877908139 0 0.1223034951297057 0.2015047654836217 0 0.1398831682024731 0.2101323370399282 0 0.14395995749662011 0.19046676877908139 0 0.155775241119192 0.20863886545715829 0 0.1398831682024731 0.2101323370399282 0 0.14395995749662011 0.19046676877908139 0 0.16985268287686869 0.18602950547537461 0 0.155775241119192 0.20863886545715829 0 0.17615578699577941 0.211297655888005 0 0.16985268287686869 0.18602950547537461 0 0.155775241119192 0.20863886545715829 0 0.14395995749662011 0.19046676877908139 0 0.16985268287686869 0.18602950547537461 0 0.17615578699577941 0.211297655888005 0 0.1921007491770006 0.19413511782623061 0 0.155775241119192 0.20863886545715829 0 0.17615578699577941 0.211297655888005 0 0.16513181717874489 0.22933158445530699 0 0.17615578699577941 0.211297655888005 0 0.1832321526603185 0.22988712241990911 0 0.19922996910836269 0.2206298732412626 0 0.17615578699577941 0.211297655888005 0 0.16513181717874489 0.22933158445530699 0 0.1832321526603185 0.22988712241990911 0 0.1832321526603185 0.22988712241990911 0 0.17921266192405369 0.24485401564359771 0 0.19643052809465181 0.2433224828713732 0 0.16513181717874489 0.22933158445530699 0 0.1832321526603185 0.22988712241990911 0 0.17921266192405369 0.24485401564359771 0 0.17921266192405369 0.24485401564359771 0 0.19643052809465181 0.2433224828713732 0 0.18608903078984079 0.25995697105729071 0 0.17921266192405369 0.24485401564359771 0 0.1648484701696567 0.24744362212440471 0 0.17332134199895571 0.25758983019522791 0 0.15269041899089261 0.24018887904249059 0 0.16513181717874489 0.22933158445530699 0 0.1648484701696567 0.24744362212440471 0 0.16513181717874489 0.22933158445530699 0 0.17921266192405369 0.24485401564359771 0 0.1648484701696567 0.24744362212440471 0 0.15269041899089261 0.24018887904249059 0 0.1648484701696567 0.24744362212440471 0 0.15466915334416509 0.25190660019890743 0 0.21227379049082179 0.2367256787841478 0 0.19643052809465181 0.2433224828713732 0 0.21668623523937189 0.25273648673926968 0 0.21227379049082179 0.2367256787841478 0 0.19643052809465181 0.2433224828713732 0 0.19922996910836269 0.2206298732412626 0 0.1832321526603185 0.22988712241990911 0 0.19643052809465181 0.2433224828713732 0 0.19922996910836269 0.2206298732412626 0 0.21227379049082179 0.2367256787841478 0 0.19922996910836269 0.2206298732412626 0 0.219709047837161 0.22243828454522341 0 0.19922996910836269 0.2206298732412626 0 0.21843520523288221 0.2053181895842969 0 0.1921007491770006 0.19413511782623061 0 0.19922996910836269 0.2206298732412626 0 0.21843520523288221 0.2053181895842969 0 0.219709047837161 0.22243828454522341 0 0.17615578699577941 0.211297655888005 0 0.19922996910836269 0.2206298732412626 0 0.1921007491770006 0.19413511782623061 0 0.21843520523288221 0.2053181895842969 0 0.1921007491770006 0.19413511782623061 0 0.21508853132578909 0.18630480878971589 0 0.21843520523288221 0.2053181895842969 0 0.1921007491770006 0.19413511782623061 0 0.21843520523288221 0.2053181895842969 0 0.23255597692269961 0.1986700960591046 0 0.21508853132578909 0.18630480878971589 0 0.23255597692269961 0.1986700960591046 0 0.21508853132578909 0.18630480878971589 0 0.23658713197922801 0.1849604865578777 0 0.23255597692269961 0.1986700960591046 0 0.24443808169503289 0.19165573435540739 0 0.23658713197922801 0.1849604865578777 0 0.24443808169503289 0.19165573435540739 0 0.2445919001722652 0.2027793092260104 0 0.25672659357731442 0.18931439154619459 0 0.23255597692269961 0.1986700960591046 0 0.24443808169503289 0.19165573435540739 0 0.2445919001722652 0.2027793092260104 0 0.2445919001722652 0.2027793092260104 0 0.2447696612887639 0.21650126134236319 0 0.26045320274891359 0.2075872277184421 0 0.23255597692269961 0.1986700960591046 0 0.2445919001722652 0.2027793092260104 0 0.2447696612887639 0.21650126134236319 0 0.21843520523288221 0.2053181895842969 0 0.2447696612887639 0.21650126134236319 0 0.21843520523288221 0.2053181895842969 0 0.2447696612887639 0.21650126134236319 0 0.2325803478497725 0.22060216126394189 0 0.21843520523288221 0.2053181895842969 0 0.219709047837161 0.22243828454522341 0 0.2325803478497725 0.22060216126394189 0 0.21843520523288221 0.2053181895842969 0 0.23255597692269961 0.1986700960591046 0 0.2447696612887639 0.21650126134236319 0 0.219709047837161 0.22243828454522341 0 0.2325803478497725 0.22060216126394189 0 0.2358022310961575 0.23066856374322481 0 0.21227379049082179 0.2367256787841478 0 0.219709047837161 0.22243828454522341 0 0.2358022310961575 0.23066856374322481 0 0.2325803478497725 0.22060216126394189 0 0.24210869832250451 0.2249280049623063 0 0.2358022310961575 0.23066856374322481 0 0.2447696612887639 0.21650126134236319 0 0.2325803478497725 0.22060216126394189 0 0.24210869832250451 0.2249280049623063 0 0.2447696612887639 0.21650126134236319 0 0.24210869832250451 0.2249280049623063 0 0.24965972363503919 0.22122943443424911 0 0.24210869832250451 0.2249280049623063 0 0.24965972363503919 0.22122943443424911 0 0.2477315277427897 0.2356386040277525 0 0.24210869832250451 0.2249280049623063 0 0.2358022310961575 0.23066856374322481 0 0.2477315277427897 0.2356386040277525 0 0.2477315277427897 0.2356386040277525 0 0.24791323415382371 0.2458877298954085 0 0.23190300684591059 0.2469757189771403 0 0.2358022310961575 0.23066856374322481 0 0.2477315277427897 0.2356386040277525 0 0.23190300684591059 0.2469757189771403 0 0.21227379049082179 0.2367256787841478 0 0.23190300684591059 0.2469757189771403 0 0.21227379049082179 0.2367256787841478 0 0.23190300684591059 0.2469757189771403 0 0.21668623523937189 0.25273648673926968 0 0.21227379049082179 0.2367256787841478 0 0.2358022310961575 0.23066856374322481 0 0.23190300684591059 0.2469757189771403 0 0.20748271977021249 0.138902265540051 0 0.1939758213121906 0.1435310420930529 0 0.2197013820994709 0.14720657512863261 0 0.19138228701287849 0.14461103117120311 0 0.19996329681344399 0.160416909441601 0 0.2197013820994709 0.14720657512863261 0 0.19138228701287849 0.14461103117120311 0 0.2197013820994709 0.14720657512863261 0 0.2166933327952508 0.13146831334115849 0 0.20748271977021249 0.138902265540051 0 0.2197013820994709 0.14720657512863261 0 0.2166933327952508 0.13146831334115849 0 0.20603233854846789 0.12643210165642249 0 0.20748271977021249 0.138902265540051 0 0.20603233854846789 0.12643210165642249 0 0.20748271977021249 0.138902265540051 0 0.1992161984030385 0.13597632749908109 0 0.20748271977021249 0.138902265540051 0 0.1992161984030385 0.13597632749908109 0 0.1939758213121906 0.1435310420930529 0 0.20603233854846789 0.12643210165642249 0 0.1992161984030385 0.13597632749908109 0 0.19400001601888209 0.1301444430180784 0 0.20603233854846789 0.12643210165642249 0 0.19400001601888209 0.1301444430180784 0 0.19603586944622961 0.11914225126713909 0 0.1826996939178501 0.134395064982826 0 0.19400001601888209 0.1301444430180784 0 0.19225480333296779 0.137731581752848 0 0.1826996939178501 0.134395064982826 0 0.19225480333296779 0.137731581752848 0 0.19138228701287849 0.14461103117120311 0 0.1992161984030385 0.13597632749908109 0 0.19225480333296779 0.137731581752848 0 0.1939758213121906 0.1435310420930529 0 0.1992161984030385 0.13597632749908109 0 0.19400001601888209 0.1301444430180784 0 0.19225480333296779 0.137731581752848 0 0.17970147406593759 0.15916468197935521 0 0.19138228701287849 0.14461103117120311 0 0.19996329681344399 0.160416909441601 0 0.19138228701287849 0.14461103117120311 0 0.1939758213121906 0.1435310420930529 0 0.2197013820994709 0.14720657512863261 0 0.19225480333296779 0.137731581752848 0 0.19138228701287849 0.14461103117120311 0 0.1939758213121906 0.1435310420930529 0 0.19138228701287849 0.14461103117120311 0 0.1939758213121906 0.1435310420930529 0 0.17970147406593759 0.15916468197935521 0 0.19996329681344399 0.160416909441601 0 0.19009851561998109 0.17546705170333859 0 0.19996329681344399 0.160416909441601 0 0.19009851561998109 0.17546705170333859 0 0.20950303158443601 0.17060862998040069 0 0.17970147406593759 0.15916468197935521 0 0.19996329681344399 0.160416909441601 0 0.1921007491770006 0.19413511782623061 0 0.19009851561998109 0.17546705170333859 0 0.21508853132578909 0.18630480878971589 0 0.19009851561998109 0.17546705170333859 0 0.21508853132578909 0.18630480878971589 0 0.20950303158443601 0.17060862998040069 0 0.21508853132578909 0.18630480878971589 0 0.20950303158443601 0.17060862998040069 0 0.2262564526410854 0.1725101510884221 0 0.19996329681344399 0.160416909441601 0 0.22022511956095039 0.16166913690384679 0 0.2197013820994709 0.14720657512863261 0 0.19996329681344399 0.160416909441601 0 0.22022511956095039 0.16166913690384679 0 0.20950303158443601 0.17060862998040069 0 0.22022511956095039 0.16166913690384679 0 0.2262564526410854 0.1725101510884221 0 0.19996329681344399 0.160416909441601 0 0.20950303158443601 0.17060862998040069 0 0.22022511956095039 0.16166913690384679 0 0.22022511956095039 0.16166913690384679 0 0.23219216216083469 0.16070882341124321 0 0.2197013820994709 0.14720657512863261 0 0.23219216216083469 0.16070882341124321 0 0.2262564526410854 0.1725101510884221 0 0.24394273923527451 0.1708090208874482 0 0.22022511956095039 0.16166913690384679 0 0.23219216216083469 0.16070882341124321 0 0.2262564526410854 0.1725101510884221 0 0.21508853132578909 0.18630480878971589 0 0.2262564526410854 0.1725101510884221 0 0.23658713197922801 0.1849604865578777 0 0.2262564526410854 0.1725101510884221 0 0.23658713197922801 0.1849604865578777 0 0.24394273923527451 0.1708090208874482 0 0.23658713197922801 0.1849604865578777 0 0.24394273923527451 0.1708090208874482 0 0.25069145747160237 0.17986975870422739 0 0.24443808169503289 0.19165573435540739 0 0.23658713197922801 0.1849604865578777 0 0.25069145747160237 0.17986975870422739 0 0.23219216216083469 0.16070882341124321 0 0.24394273923527451 0.1708090208874482 0 0.24802047718606329 0.14980211908606039 0 0.24802047718606329 0.14980211908606039 0 0.2197013820994709 0.14720657512863261 0 0.23748423865396681 0.1372069433891186 0 0.24802047718606329 0.14980211908606039 0 0.23748423865396681 0.1372069433891186 0 0.23219216216083469 0.16070882341124321 0 0.24802047718606329 0.14980211908606039 0 0.2197013820994709 0.14720657512863261 0 0.24802047718606329 0.14980211908606039 0 0.2197013820994709 0.14720657512863261 0 0.2166933327952508 0.13146831334115849 0 0.23748423865396681 0.1372069433891186 0 0.2269480001218708 0.1246117676921763 0 0.2166933327952508 0.13146831334115849 0 0.2197013820994709 0.14720657512863261 0 0.23748423865396681 0.1372069433891186 0 0.23748423865396681 0.1372069433891186 0 0.2269480001218708 0.1246117676921763 0 0.23748423865396681 0.1372069433891186 0 0.23787758618680691 0.12376630322824581 0 0.2269480001218708 0.1246117676921763 0 0.24802047718606329 0.14980211908606039 0 0.23748423865396681 0.1372069433891186 0 0.25370366287882878 0.1241816415692342 0 0.23748423865396681 0.1372069433891186 0 0.23787758618680691 0.12376630322824581 0 0.25370366287882878 0.1241816415692342 0 0.24537668551697431 0.097277083683747018 0 0.23337444309256139 0.1090648602624541 0 0.25370366287882878 0.1241816415692342 0 0.24537668551697431 0.097277083683747018 0 0.25370366287882878 0.1241816415692342 0 0.23787758618680691 0.12376630322824581 0 0.23337444309256139 0.1090648602624541 0 0.25370366287882878 0.1241816415692342 0 0.24537668551697431 0.097277083683747018 0 0.23337444309256139 0.1090648602624541 0 0.22484289426170589 0.086614640480542404 0 0.23337444309256139 0.1090648602624541 0 0.21826071202707401 0.1016769895838342 0 0.22484289426170589 0.086614640480542404 0 0.23337444309256139 0.1090648602624541 0 0.21899261390952071 0.1157063141952675 0 0.21826071202707401 0.1016769895838342 0 0.2166933327952508 0.13146831334115849 0 0.2269480001218708 0.1246117676921763 0 0.21899261390952071 0.1157063141952675 0 0.23787758618680691 0.12376630322824581 0 0.23337444309256139 0.1090648602624541 0 0.2269480001218708 0.1246117676921763 0 0.23337444309256139 0.1090648602624541 0 0.2269480001218708 0.1246117676921763 0 0.21899261390952071 0.1157063141952675 0 0.20603233854846789 0.12643210165642249 0 0.21899261390952071 0.1157063141952675 0 0.20619401079708341 0.1103047766005421 0 0.2166933327952508 0.13146831334115849 0 0.20603233854846789 0.12643210165642249 0 0.21899261390952071 0.1157063141952675 0 0.20619401079708341 0.1103047766005421 0 0.20469956129863859 0.094216075576966402 0 0.21826071202707401 0.1016769895838342 0 0.21899261390952071 0.1157063141952675 0 0.20619401079708341 0.1103047766005421 0 0.21826071202707401 0.1016769895838342 0 0.20469956129863859 0.094216075576966402 0 0.21826071202707401 0.1016769895838342 0 0.22484289426170589 0.086614640480542404 0 0.20469956129863859 0.094216075576966402 0 0.1920226837756919 0.1062731432897658 0 0.18562998291260069 0.083724599791867624 0 0.20619401079708341 0.1103047766005421 0 0.20469956129863859 0.094216075576966402 0 0.1920226837756919 0.1062731432897658 0 0.1920226837756919 0.1062731432897658 0 0.19603586944622961 0.11914225126713909 0 0.18282874988353909 0.12176719670840121 0 0.20603233854846789 0.12643210165642249 0 0.20619401079708341 0.1103047766005421 0 0.19603586944622961 0.11914225126713909 0 0.19400001601888209 0.1301444430180784 0 0.19603586944622961 0.11914225126713909 0 0.18282874988353909 0.12176719670840121 0 0.20619401079708341 0.1103047766005421 0 0.1920226837756919 0.1062731432897658 0 0.19603586944622961 0.11914225126713909 0 0.19477888427106471 0.068028226971776184 0 0.20783404156105389 0.078077887697304768 0 0.18562998291260069 0.083724599791867624 0 0.20469956129863859 0.094216075576966402 0 0.20783404156105389 0.078077887697304768 0 0.18562998291260069 0.083724599791867624 0 0.20469956129863859 0.094216075576966402 0 0.20783404156105389 0.078077887697304768 0 0.22484289426170589 0.086614640480542404 0 0.20783404156105389 0.078077887697304768 0 0.2213202312424721 0.066581526905057059 0 0.20805697342917059 0.059178341543759817 0 0.20783404156105389 0.078077887697304768 0 0.2213202312424721 0.066581526905057059 0 0.22484289426170589 0.086614640480542404 0 0.19477888427106471 0.068028226971776184 0 0.20783404156105389 0.078077887697304768 0 0.20805697342917059 0.059178341543759817 0 0.2213202312424721 0.066581526905057059 0 0.23704970815511969 0.070372525798259866 0 0.2300545306497668 0.055557326715756347 0 0.2213202312424721 0.066581526905057059 0 0.22484289426170589 0.086614640480542404 0 0.23704970815511969 0.070372525798259866 0 0.24537668551697431 0.097277083683747018 0 0.22484289426170589 0.086614640480542404 0 0.23704970815511969 0.070372525798259866 0 0.24537668551697431 0.097277083683747018 0 0.23704970815511969 0.070372525798259866 0 0.25923100858263742 0.079351551944828513 0 0.24537668551697431 0.097277083683747018 0 0.23704970815511969 0.070372525798259866 0 0.23704970815511969 0.070372525798259866 0 0.24612717135886061 0.053158967820149818 0 0.25923100858263742 0.079351551944828513 0 0.23704970815511969 0.070372525798259866 0 0.24612717135886061 0.053158967820149818 0 0.2300545306497668 0.055557326715756347 0 0.24612717135886061 0.053158967820149818 0 0.22874243829254329 0.043439904086905012 0 0.2300545306497668 0.055557326715756347 0 0.24612717135886061 0.053158967820149818 0 0.24915942417082321 0.043562136642382059 0 0.25194780840825542 0.047502886957762752 0 0.24612717135886061 0.053158967820149818 0 0.2330233341350838 0.026966383695471149 0 0.24915942417082321 0.043562136642382059 0 0.24442705739527931 0.034620488068712277 0 0.25585841565974538 0.042233258010133973 0 0.24442705739527931 0.034620488068712277 0 0.2489069739425 0.021637400389674748 0 0.25585841565974538 0.042233258010133973 0 0.24612717135886061 0.053158967820149818 0 0.24442705739527931 0.034620488068712277 0 0.2330233341350838 0.026966383695471149 0 0.24612717135886061 0.053158967820149818 0 0.24915942417082321 0.043562136642382059 0 0.24442705739527931 0.034620488068712277 0 0.24612717135886061 0.053158967820149818 0 0.22874243829254329 0.043439904086905012 0 0.2330233341350838 0.026966383695471149 0 0.22874243829254329 0.043439904086905012 0 0.2330233341350838 0.026966383695471149 0 0.21578861999574539 0.032179983081358873 0 0.22874243829254329 0.043439904086905012 0 0.21871853532325961 0.049336859121788867 0 0.21578861999574539 0.032179983081358873 0 0.22874243829254329 0.043439904086905012 0 0.2300545306497668 0.055557326715756347 0 0.21871853532325961 0.049336859121788867 0 0.2213202312424721 0.066581526905057059 0 0.2300545306497668 0.055557326715756347 0 0.21871853532325961 0.049336859121788867 0 0.2489069739425 0.021637400389674748 0 0.2403210271001277 -0.0038011986657945939 0 0.2489069739425 0.021637400389674748 0 0.25900523844679291 0.0090906536209348996 0 0.2403210271001277 -0.0038011986657945939 0 0.23441323542690259 0.011205599980234709 0 0.2489069739425 0.021637400389674748 0 0.2403210271001277 -0.0038011986657945939 0 0.23441323542690259 0.011205599980234709 0 0.24019265022494121 0.023607468033523541 0 0.2330233341350838 0.026966383695471149 0 0.23441323542690259 0.011205599980234709 0 0.2489069739425 0.021637400389674748 0 0.23441323542690259 0.011205599980234709 0 0.2489069739425 0.021637400389674748 0 0.24019265022494121 0.023607468033523541 0 0.24442705739527931 0.034620488068712277 0 0.2489069739425 0.021637400389674748 0 0.24019265022494121 0.023607468033523541 0 0.24442705739527931 0.034620488068712277 0 0.24019265022494121 0.023607468033523541 0 0.2330233341350838 0.026966383695471149 0 0.2330233341350838 0.026966383695471149 0 0.2171386306806895 0.017395263111216398 0 0.21578861999574539 0.032179983081358873 0 0.23441323542690259 0.011205599980234709 0 0.2330233341350838 0.026966383695471149 0 0.21991949691130641 0.00077379957079282309 0 0.2330233341350838 0.026966383695471149 0 0.21991949691130641 0.00077379957079282309 0 0.2171386306806895 0.017395263111216398 0 0.2330233341350838 0.026966383695471149 0 0.21991949691130641 0.00077379957079282309 0 0.23441323542690259 0.011205599980234709 0 0.21991949691130641 0.00077379957079282309 0 0.2403210271001277 -0.0038011986657945939 0 0.23441323542690259 0.011205599980234709 0 0.21991949691130641 0.00077379957079282309 0 0.21991949691130641 0.00077379957079282309 0 0.21233724185039379 0.0083260795074358591 0 0.2171386306806895 0.017395263111216398 0 0.1913914811785945 0.0015479160267864781 0 0.21709144706251299 -0.0012616760615819459 0 0.21233724185039379 0.0083260795074358591 0 0.1913914811785945 0.0015479160267864781 0 0.21709144706251299 -0.0012616760615819459 0 0.21991949691130641 0.00077379957079282309 0 0.21233724185039379 0.0083260795074358591 0 0.21709144706251299 -0.0012616760615819459 0 0.21233724185039379 0.0083260795074358591 0 0.20462446051091829 0.018730069701022731 0 0.2171386306806895 0.017395263111216398 0 0.20462446051091829 0.018730069701022731 0 0.21578861999574539 0.032179983081358873 0 0.19600975553610309 0.033109727657073172 0 0.20462446051091829 0.018730069701022731 0 0.2171386306806895 0.017395263111216398 0 0.21578861999574539 0.032179983081358873 0 0.20462446051091829 0.018730069701022731 0 0.18949896143577891 0.016667400663256809 0 0.19600975553610309 0.033109727657073172 0 0.18949896143577891 0.016667400663256809 0 0.19600975553610309 0.033109727657073172 0 0.17707217964719771 0.025267716345226881 0 0.20462446051091829 0.018730069701022731 0 0.18949896143577891 0.016667400663256809 0 0.1913914811785945 0.0015479160267864781 0 0.21233724185039379 0.0083260795074358591 0 0.20462446051091829 0.018730069701022731 0 0.1913914811785945 0.0015479160267864781 0 0.2213202312424721 0.066581526905057059 0 0.20805697342917059 0.059178341543759817 0 0.21871853532325961 0.049336859121788867 0 0.20805697342917059 0.059178341543759817 0 0.2071731341036451 0.043988411023532258 0 0.1951942265281848 0.052365244609145413 0 0.20805697342917059 0.059178341543759817 0 0.21871853532325961 0.049336859121788867 0 0.2071731341036451 0.043988411023532258 0 0.21578861999574539 0.032179983081358873 0 0.2071731341036451 0.043988411023532258 0 0.19600975553610309 0.033109727657073172 0 0.21871853532325961 0.049336859121788867 0 0.21578861999574539 0.032179983081358873 0 0.2071731341036451 0.043988411023532258 0 0.19600975553610309 0.033109727657073172 0 0.1951942265281848 0.052365244609145413 0 0.18205947828297289 0.04260924739081328 0 0.2071731341036451 0.043988411023532258 0 0.19600975553610309 0.033109727657073172 0 0.1951942265281848 0.052365244609145413 0 0.19477888427106471 0.068028226971776184 0 0.20805697342917059 0.059178341543759817 0 0.1951942265281848 0.052365244609145413 0 0.19477888427106471 0.068028226971776184 0 0.1951942265281848 0.052365244609145413 0 0.1764837945120816 0.061910742511003793 0 0.1951942265281848 0.052365244609145413 0 0.1764837945120816 0.061910742511003793 0 0.18205947828297289 0.04260924739081328 0 0.1764837945120816 0.061910742511003793 0 0.18205947828297289 0.04260924739081328 0 0.16553743519129729 0.040392805831617133 0 0.18205947828297289 0.04260924739081328 0 0.16553743519129729 0.040392805831617133 0 0.17707217964719771 0.025267716345226881 0 0.19600975553610309 0.033109727657073172 0 0.18205947828297289 0.04260924739081328 0 0.17707217964719771 0.025267716345226881 0 0.16553743519129729 0.040392805831617133 0 0.1613139894326964 0.024121653580078981 0 0.1482006011997502 0.031747138067586222 0 0.1764837945120816 0.061910742511003793 0 0.16553743519129729 0.040392805831617133 0 0.15002216982279071 0.058334232048501217 0 0.177795833794237 0.0058736288592868176 0 0.17707217964719771 0.025267716345226881 0 0.16471785852727919 0.01090484445761932 0 0.18949896143577891 0.016667400663256809 0 0.1913914811785945 0.0015479160267864781 0 0.177795833794237 0.0058736288592868176 0 0.18949896143577891 0.016667400663256809 0 0.177795833794237 0.0058736288592868176 0 0.17707217964719771 0.025267716345226881 0 0.16553743519129729 0.040392805831617133 0 0.17707217964719771 0.025267716345226881 0 0.1613139894326964 0.024121653580078981 0 0.17707217964719771 0.025267716345226881 0 0.1613139894326964 0.024121653580078981 0 0.16471785852727919 0.01090484445761932 0 0.1613139894326964 0.024121653580078981 0 0.16471785852727919 0.01090484445761932 0 0.1510418725979574 0.012295763198345371 0 0.16471785852727919 0.01090484445761932 0 0.15628357420278671 0.003810722324721363 0 0.1510418725979574 0.012295763198345371 0 0.16471785852727919 0.01090484445761932 0 0.15628357420278671 0.003810722324721363 0 0.16638725000284621 -0.0041024332455818144 0 0.177795833794237 0.0058736288592868176 0 0.16471785852727919 0.01090484445761932 0 0.16638725000284621 -0.0041024332455818144 0 0.15628357420278671 0.003810722324721363 0 0.1463790325767105 0.0051600440866713393 0 0.1510418725979574 0.012295763198345371 0 0.15628357420278671 0.003810722324721363 0 0.1463790325767105 0.0051600440866713393 0 0.15462421245165581 -0.0058893527151400796 0 0.1463790325767105 0.0051600440866713393 0 0.1510418725979574 0.012295763198345371 0 0.1613139894326964 0.024121653580078981 0 0.1510418725979574 0.012295763198345371 0 0.1482006011997502 0.031747138067586222 0 0.1463790325767105 0.0051600440866713393 0 0.1482006011997502 0.031747138067586222 0 0.1463790325767105 0.0051600440866713393 0 0.1510418725979574 0.012295763198345371 0 0.1482006011997502 0.031747138067586222 0 0.1463790325767105 0.0051600440866713393 0 0.13437116548480091 0.018926778797625429 0 0.1482006011997502 0.031747138067586222 0 0.11744308668179609 0.017774871344802521 0 0.13437116548480091 0.018926778797625429 0 0.12506256882025399 0.035699134337412737 0 0.13437116548480091 0.018926778797625429 0 0.1482006011997502 0.031747138067586222 0 0.12506256882025399 0.035699134337412737 0 0.11744308668179609 0.017774871344802521 0 0.13437116548480091 0.018926778797625429 0 0.12681727907172599 0.0028609529651058472 0 0.1463790325767105 0.0051600440866713393 0 0.13437116548480091 0.018926778797625429 0 0.12681727907172599 0.0028609529651058472 0 0.15002216982279071 0.058334232048501217 0 0.1482006011997502 0.031747138067586222 0 0.13318341665519781 0.054736537254868822 0 0.16553743519129729 0.040392805831617133 0 0.15002216982279071 0.058334232048501217 0 0.1482006011997502 0.031747138067586222 0 0.15002216982279071 0.058334232048501217 0 0.1482006011997502 0.031747138067586222 0 0.1482006011997502 0.031747138067586222 0 0.12506256882025399 0.035699134337412737 0 0.13318341665519781 0.054736537254868822 0 0.1220245952479405 0.07004619687739172 0 0.13318341665519781 0.054736537254868822 0 0.140451324603005 0.079388379798429956 0 0.15002216982279071 0.058334232048501217 0 0.13318341665519781 0.054736537254868822 0 0.140451324603005 0.079388379798429956 0 0.15002216982279071 0.058334232048501217 0 0.140451324603005 0.079388379798429956 0 0.16236977351405571 0.08420317597119574 0 0.140451324603005 0.079388379798429956 0 0.13376660142800201 0.097128283387147629 0 0.1539803846384532 0.10268384485881291 0 0.140451324603005 0.079388379798429956 0 0.1539803846384532 0.10268384485881291 0 0.16236977351405571 0.08420317597119574 0 0.1175203890912727 0.086079419998433368 0 0.140451324603005 0.079388379798429956 0 0.13376660142800201 0.097128283387147629 0 0.1175203890912727 0.086079419998433368 0 0.1220245952479405 0.07004619687739172 0 0.140451324603005 0.079388379798429956 0 0.13376660142800201 0.097128283387147629 0 0.13278919984088661 0.11230677671938701 0 0.1539803846384532 0.10268384485881291 0 0.1204523462490521 0.10350528248164099 0 0.13376660142800201 0.097128283387147629 0 0.13278919984088661 0.11230677671938701 0 0.12877089149896251 0.12628235461406201 0 0.13278919984088661 0.11230677671938701 0 0.14559099576285081 0.1211645137464301 0 0.11923934643535521 0.1171320194813406 0 0.12877089149896251 0.12628235461406201 0 0.13278919984088661 0.11230677671938701 0 0.14559099576285081 0.1211645137464301 0 0.1539803846384532 0.10268384485881291 0 0.15632661280319129 0.13068902382275449 0 0.14559099576285081 0.1211645137464301 0 0.1644083134929788 0.12014259939932 0 0.13278919984088661 0.11230677671938701 0 0.14559099576285081 0.1211645137464301 0 0.1539803846384532 0.10268384485881291 0 0.14559099576285081 0.1211645137464301 0 0.1539803846384532 0.10268384485881291 0 0.1644083134929788 0.12014259939932 0 0.1539803846384532 0.10268384485881291 0 0.1644083134929788 0.12014259939932 0 0.1735399813695532 0.1031324266698939 0 0.1539803846384532 0.10268384485881291 0 0.1735399813695532 0.1031324266698939 0 0.16236977351405571 0.08420317597119574 0 0.1644083134929788 0.12014259939932 0 0.18282874988353909 0.12176719670840121 0 0.1735399813695532 0.1031324266698939 0 0.17014020092281509 0.1303647164313487 0 0.1644083134929788 0.12014259939932 0 0.18282874988353909 0.12176719670840121 0 0.1920226837756919 0.1062731432897658 0 0.18282874988353909 0.12176719670840121 0 0.1735399813695532 0.1031324266698939 0 0.1920226837756919 0.1062731432897658 0 0.1735399813695532 0.1031324266698939 0 0.18562998291260069 0.083724599791867624 0 0.1735399813695532 0.1031324266698939 0 0.18562998291260069 0.083724599791867624 0 0.16236977351405571 0.08420317597119574 0 0.1764837945120816 0.061910742511003793 0 0.18562998291260069 0.083724599791867624 0 0.16236977351405571 0.08420317597119574 0 0.19477888427106471 0.068028226971776184 0 0.1764837945120816 0.061910742511003793 0 0.18562998291260069 0.083724599791867624 0 0.1764837945120816 0.061910742511003793 0 0.15002216982279071 0.058334232048501217 0 0.16236977351405571 0.08420317597119574 0 0.1539803846384532 0.10268384485881291 0 0.16236977351405571 0.08420317597119574 0 0.1048222847563673 0.4786668097115272 0 0.091479988498646442 0.48354315307299939 0 0.09327677099031946 0.46903920507515112 0 0.1048222847563673 0.4786668097115272 0 0.10316008329641591 0.49260778903299252 0 0.092978519966910561 0.49654355170423659 0 0.1048222847563673 0.4786668097115272 0 0.092978519966910561 0.49654355170423659 0 0.1048222847563673 0.4786668097115272 0 0.091479988498646442 0.48354315307299939 0 0.092978519966910561 0.49654355170423659 0 0.10316008329641591 0.49260778903299252 0 0.10312521592474901 0.5 0 0.092978519966910561 0.49654355170423659 0 0.10316008329641591 0.49260778903299252 0 0.10312521592474901 0.5 0 0.1137569863567818 0.48891352741171218 0 0.1048222847563673 0.4786668097115272 0 0.10316008329641591 0.49260778903299252 0 0.1137569863567818 0.48891352741171218 0 0.1048222847563673 0.4786668097115272 0 0.10316008329641591 0.49260778903299252 0 0.1137569863567818 0.48891352741171218 0 0.12567845600013469 0.47929569400969452 0 0.1306299125622308 0.5 0 0.10312521592474901 0.5 0 0.1137569863567818 0.48891352741171218 0 0.1306299125622308 0.5 0 0.1048222847563673 0.4786668097115272 0 0.11648320602364499 0.46106604807885698 0 0.12567845600013469 0.47929569400969452 0 0.1048222847563673 0.4786668097115272 0 0.1137569863567818 0.48891352741171218 0 0.12567845600013469 0.47929569400969452 0 0.1048222847563673 0.4786668097115272 0 0.11648320602364499 0.46106604807885698 0 0.1048222847563673 0.4786668097115272 0 0.11648320602364499 0.46106604807885698 0 0.1073203574995146 0.45771532982499841 0 0.1119099515656637 0.4541769576285038 0 0.11648320602364499 0.46106604807885698 0 0.1073203574995146 0.45771532982499841 0 0.1119099515656637 0.4541769576285038 0 0.11648320602364499 0.46106604807885698 0 0.128144127290927 0.44346528644618949 0 0.1119099515656637 0.4541769576285038 0 0.1098184302426566 0.43676384993846878 0 0.128144127290927 0.44346528644618949 0 0.1119099515656637 0.4541769576285038 0 0.1073203574995146 0.45771532982499841 0 0.1098184302426566 0.43676384993846878 0 0.11648320602364499 0.46106604807885698 0 0.128144127290927 0.44346528644618949 0 0.1119099515656637 0.4541769576285038 0 0.1098184302426566 0.43676384993846878 0 0.1007171253458153 0.44820701469258212 0 0.1073203574995146 0.45771532982499841 0 0.1098184302426566 0.43676384993846878 0 0.1073203574995146 0.45771532982499841 0 0.1098184302426566 0.43676384993846878 0 0.1007171253458153 0.44820701469258212 0 0.097642268156116166 0.44157878137516282 0 0.1098184302426566 0.43676384993846878 0 0.097642268156116166 0.44157878137516282 0 0.1020591419526216 0.43422428691783338 0 0.1098184302426566 0.43676384993846878 0 0.097642268156116166 0.44157878137516282 0 0.1098184302426566 0.43676384993846878 0 0.09475968248970798 0.44694335582238792 0 0.1007171253458153 0.44820701469258212 0 0.092889002414179245 0.45276651635374332 0 0.1007171253458153 0.44820701469258212 0 0.096868601935243229 0.45789063626048049 0 0.092889002414179245 0.45276651635374332 0 0.09475968248970798 0.44694335582238792 0 0.1007171253458153 0.44820701469258212 0 0.097642268156116166 0.44157878137516282 0 0.09475968248970798 0.44694335582238792 0 0.097642268156116166 0.44157878137516282 0 0.088987703810336438 0.44500113512203671 0 0.1007171253458153 0.44820701469258212 0 0.097642268156116166 0.44157878137516282 0 0.1048222847563673 0.4786668097115272 0 0.1073203574995146 0.45771532982499841 0 0.09327677099031946 0.46903920507515112 0 0.1048222847563673 0.4786668097115272 0 0.1073203574995146 0.45771532982499841 0 0.1007171253458153 0.44820701469258212 0 0.1073203574995146 0.45771532982499841 0 0.096868601935243229 0.45789063626048049 0 0.1073203574995146 0.45771532982499841 0 0.096868601935243229 0.45789063626048049 0 0.09327677099031946 0.46903920507515112 0 0.090139753426387581 0.46172511535592747 0 0.079256630923375745 0.46616111205340521 0 0.09327677099031946 0.46903920507515112 0 0.096868601935243229 0.45789063626048049 0 0.090139753426387581 0.46172511535592747 0 0.09327677099031946 0.46903920507515112 0 0.090139753426387581 0.46172511535592747 0 0.092889002414179245 0.45276651635374332 0 0.081384578054001289 0.45283886102268139 0 0.096868601935243229 0.45789063626048049 0 0.090139753426387581 0.46172511535592747 0 0.092889002414179245 0.45276651635374332 0 0.090139753426387581 0.46172511535592747 0 0.079256630923375745 0.46616111205340521 0 0.081384578054001289 0.45283886102268139 0 0.088987703810336438 0.44500113512203671 0 0.082419728037930629 0.44071508101891732 0 0.08961571608665983 0.43565438773200948 0 0.097642268156116166 0.44157878137516282 0 0.088987703810336438 0.44500113512203671 0 0.097642268156116166 0.44157878137516282 0 0.088987703810336438 0.44500113512203671 0 0.08961571608665983 0.43565438773200948 0 0.088987703810336438 0.44500113512203671 0 0.092889002414179245 0.45276651635374332 0 0.081384578054001289 0.45283886102268139 0 0.09475968248970798 0.44694335582238792 0 0.088987703810336438 0.44500113512203671 0 0.092889002414179245 0.45276651635374332 0 0.088987703810336438 0.44500113512203671 0 0.081384578054001289 0.45283886102268139 0 0.082419728037930629 0.44071508101891732 0 0.067599685253138281 0.45287595272104653 0 0.081892131328371143 0.4314429342789402 0 0.067599685253138281 0.45287595272104653 0 0.066001473138610989 0.43632828312433408 0 0.081892131328371143 0.4314429342789402 0 0.082419728037930629 0.44071508101891732 0 0.067599685253138281 0.45287595272104653 0 0.081892131328371143 0.4314429342789402 0 0.081384578054001289 0.45283886102268139 0 0.082419728037930629 0.44071508101891732 0 0.067599685253138281 0.45287595272104653 0 0.079256630923375745 0.46616111205340521 0 0.067599685253138281 0.45287595272104653 0 0.069001794002684108 0.47224329730437981 0 0.067599685253138281 0.45287595272104653 0 0.069001794002684108 0.47224329730437981 0 0.053307239177905349 0.47430897116315313 0 0.079256630923375745 0.46616111205340521 0 0.081384578054001289 0.45283886102268139 0 0.067599685253138281 0.45287595272104653 0 0.069001794002684108 0.47224329730437981 0 0.079794243665170225 0.47979706117662119 0 0.065051170993830898 0.48807338940767292 0 0.079256630923375745 0.46616111205340521 0 0.069001794002684108 0.47224329730437981 0 0.079794243665170225 0.47979706117662119 0 0.079256630923375745 0.46616111205340521 0 0.079794243665170225 0.47979706117662119 0 0.09327677099031946 0.46903920507515112 0 0.079794243665170225 0.47979706117662119 0 0.091479988498646442 0.48354315307299939 0 0.09327677099031946 0.46903920507515112 0 0.092978519966910561 0.49654355170423659 0 0.084553660660575528 0.49009386622585083 0 0.075620519287267318 0.5 0 0.10312521592474901 0.5 0 0.092978519966910561 0.49654355170423659 0 0.075620519287267318 0.5 0 0.091479988498646442 0.48354315307299939 0 0.092978519966910561 0.49654355170423659 0 0.084553660660575528 0.49009386622585083 0 0.079794243665170225 0.47979706117662119 0 0.091479988498646442 0.48354315307299939 0 0.084553660660575528 0.49009386622585083 0 0.079794243665170225 0.47979706117662119 0 0.084553660660575528 0.49009386622585083 0 0.065051170993830898 0.48807338940767292 0 0.065051170993830898 0.48807338940767292 0 0.075620519287267318 0.5 0 0.048115822649785527 0.5 0 0.084553660660575528 0.49009386622585083 0 0.065051170993830898 0.48807338940767292 0 0.075620519287267318 0.5 0 0.065051170993830898 0.48807338940767292 0 0.048115822649785527 0.5 0 0.053307239177905349 0.47430897116315313 0 0.069001794002684108 0.47224329730437981 0 0.065051170993830898 0.48807338940767292 0 0.053307239177905349 0.47430897116315313 0 0.053307239177905349 0.47430897116315313 0 0.036467756559221701 0.47774208688151631 0 0.038707058205945111 0.46145460703462421 0 0.036467756559221701 0.47774208688151631 0 0.024551868698660679 0.47115282030446087 0 0.038707058205945111 0.46145460703462421 0 0.053307239177905349 0.47430897116315313 0 0.036467756559221701 0.47774208688151631 0 0.039014793102672522 0.49574198960525939 0 0.053307239177905349 0.47430897116315313 0 0.039014793102672522 0.49574198960525939 0 0.048115822649785527 0.5 0 0.053307239177905349 0.47430897116315313 0 0.039014793102672522 0.49574198960525939 0 0.048115822649785527 0.5 0 0.039014793102672522 0.49574198960525939 0 0.020611126012303801 0.5 0 0.036467756559221701 0.47774208688151631 0 0.039014793102672522 0.49574198960525939 0 0.026757823610924832 0.48605204630008392 0 0.039014793102672522 0.49574198960525939 0 0.020611126012303801 0.5 0 0.026757823610924832 0.48605204630008392 0 0.020611126012303801 0.5 0 0.026757823610924832 0.48605204630008392 0 0.01184792134048173 0.48364435332619582 0 0.036467756559221701 0.47774208688151631 0 0.026757823610924832 0.48605204630008392 0 0.024551868698660679 0.47115282030446087 0 0.024551868698660679 0.47115282030446087 0 0.01184792134048173 0.48364435332619582 0 0.0113986727330041 0.46548394976725249 0 0.026757823610924832 0.48605204630008392 0 0.024551868698660679 0.47115282030446087 0 0.01184792134048173 0.48364435332619582 0 -0.003089566724048357 0.47326761514296101 0 0.01184792134048173 0.48364435332619582 0 0.0113986727330041 0.46548394976725249 0 -0.0068935706251778139 0.5 0 -0.003089566724048357 0.47326761514296101 0 0.01184792134048173 0.48364435332619582 0 -0.0068935706251778139 0.5 0 0.020611126012303801 0.5 0 0.01184792134048173 0.48364435332619582 0 -0.0072392309157056894 0.43649428994281841 0 0.0026031304198410629 0.45131346537392758 0 0.017959463550051329 0.43401198815683267 0 0.0026031304198410629 0.45131346537392758 0 0.021372524407465811 0.45253342051953771 0 0.017959463550051329 0.43401198815683267 0 0.0026031304198410629 0.45131346537392758 0 0.0113986727330041 0.46548394976725249 0 0.021372524407465811 0.45253342051953771 0 -0.003089566724048357 0.47326761514296101 0 0.0026031304198410629 0.45131346537392758 0 0.0113986727330041 0.46548394976725249 0 0.024551868698660679 0.47115282030446087 0 0.0113986727330041 0.46548394976725249 0 0.021372524407465811 0.45253342051953771 0 0.024551868698660679 0.47115282030446087 0 0.021372524407465811 0.45253342051953771 0 0.038707058205945111 0.46145460703462421 0 0.021372524407465811 0.45253342051953771 0 0.037958531274121507 0.44366308696102769 0 0.017959463550051329 0.43401198815683267 0 0.037958531274121507 0.44366308696102769 0 0.05227214254911447 0.45021359508833869 0 0.050058868244965561 0.43265066952584708 0 0.021372524407465811 0.45253342051953771 0 0.037958531274121507 0.44366308696102769 0 0.038707058205945111 0.46145460703462421 0 0.037958531274121507 0.44366308696102769 0 0.038707058205945111 0.46145460703462421 0 0.05227214254911447 0.45021359508833869 0 0.067599685253138281 0.45287595272104653 0 0.053307239177905349 0.47430897116315313 0 0.053307239177905349 0.47430897116315313 0 0.038707058205945111 0.46145460703462421 0 0.05227214254911447 0.45021359508833869 0 0.067599685253138281 0.45287595272104653 0 0.053307239177905349 0.47430897116315313 0 0.05227214254911447 0.45021359508833869 0 0.05227214254911447 0.45021359508833869 0 0.050058868244965561 0.43265066952584708 0 0.066001473138610989 0.43632828312433408 0 0.067599685253138281 0.45287595272104653 0 0.05227214254911447 0.45021359508833869 0 0.066001473138610989 0.43632828312433408 0 0.050058868244965561 0.43265066952584708 0 0.068804754243522781 0.41994166461739918 0 0.066001473138610989 0.43632828312433408 0 0.050058868244965561 0.43265066952584708 0 0.048852687291388877 0.41459777654824598 0 0.068804754243522781 0.41994166461739918 0 0.048852687291388877 0.41459777654824598 0 0.061313779414970418 0.39987885693449271 0 0.068804754243522781 0.41994166461739918 0 0.048852687291388877 0.41459777654824598 0 0.068804754243522781 0.41994166461739918 0 0.048852687291388877 0.41459777654824598 0 0.036746034139956453 0.42683548193420928 0 0.028900620339254991 0.40925388847909272 0 0.048852687291388877 0.41459777654824598 0 0.028900620339254991 0.40925388847909272 0 0.048852687291388877 0.41459777654824598 0 0.028900620339254991 0.40925388847909272 0 0.042007131815748507 0.39655655075565333 0 0.050058868244965561 0.43265066952584708 0 0.048852687291388877 0.41459777654824598 0 0.036746034139956453 0.42683548193420928 0 0.037958531274121507 0.44366308696102769 0 0.050058868244965561 0.43265066952584708 0 0.036746034139956453 0.42683548193420928 0 0.037958531274121507 0.44366308696102769 0 0.036746034139956453 0.42683548193420928 0 0.017959463550051329 0.43401198815683267 0 0.036746034139956453 0.42683548193420928 0 0.017959463550051329 0.43401198815683267 0 0.028900620339254991 0.40925388847909272 0 0.017959463550051329 0.43401198815683267 0 0.028900620339254991 0.40925388847909272 0 0.0059488009041311612 0.41735624870114602 0 0.028900620339254991 0.40925388847909272 0 0.0059488009041311612 0.41735624870114602 0 0.0058412231562265226 0.39891749499975832 0 -0.0081246324890641812 0.40805065625530412 0 0.0059488009041311612 0.41735624870114602 0 0.0058412231562265226 0.39891749499975832 0 -0.0072392309157056894 0.43649428994281841 0 0.017959463550051329 0.43401198815683267 0 0.0059488009041311612 0.41735624870114602 0 -0.0036227877329230301 0.37947700469323042 0 0.0058412231562265226 0.39891749499975832 0 0.017841208666312069 0.37762534579018298 0 0.028900620339254991 0.40925388847909272 0 0.0058412231562265226 0.39891749499975832 0 0.024450360446550148 0.39274026509825583 0 0.024450360446550148 0.39274026509825583 0 0.017841208666312069 0.37762534579018298 0 0.035089121590226528 0.38253825820529852 0 0.0058412231562265226 0.39891749499975832 0 0.024450360446550148 0.39274026509825583 0 0.017841208666312069 0.37762534579018298 0 0.035089121590226528 0.38253825820529852 0 0.042007131815748507 0.39655655075565333 0 0.051605655867250001 0.38149668432143541 0 0.035089121590226528 0.38253825820529852 0 0.051605655867250001 0.38149668432143541 0 0.039541251155271878 0.36427244506096468 0 0.024450360446550148 0.39274026509825583 0 0.035089121590226528 0.38253825820529852 0 0.042007131815748507 0.39655655075565333 0 0.028900620339254991 0.40925388847909272 0 0.024450360446550148 0.39274026509825583 0 0.042007131815748507 0.39655655075565333 0 0.048852687291388877 0.41459777654824598 0 0.042007131815748507 0.39655655075565333 0 0.061313779414970418 0.39987885693449271 0 0.042007131815748507 0.39655655075565333 0 0.061313779414970418 0.39987885693449271 0 0.051605655867250001 0.38149668432143541 0 0.051605655867250001 0.38149668432143541 0 0.071205150989249344 0.38459031979425368 0 0.062117748859898458 0.36500130546073062 0 0.061313779414970418 0.39987885693449271 0 0.051605655867250001 0.38149668432143541 0 0.071205150989249344 0.38459031979425368 0 0.071205150989249344 0.38459031979425368 0 0.082619379705498486 0.3760424233717975 0 0.075022727430642186 0.36942391052545742 0 0.082619379705498486 0.3760424233717975 0 0.089989672908486834 0.38531380646189939 0 0.096111415589441723 0.36906918257109511 0 0.071205150989249344 0.38459031979425368 0 0.082619379705498486 0.3760424233717975 0 0.089989672908486834 0.38531380646189939 0 0.071205150989249344 0.38459031979425368 0 0.089989672908486834 0.38531380646189939 0 0.080292553118600216 0.40417933412777668 0 0.089989672908486834 0.38531380646189939 0 0.080292553118600216 0.40417933412777668 0 0.098794269534858231 0.4008464147916751 0 0.071205150989249344 0.38459031979425368 0 0.080292553118600216 0.40417933412777668 0 0.061313779414970418 0.39987885693449271 0 0.071205150989249344 0.38459031979425368 0 0.080292553118600216 0.40417933412777668 0 0.061313779414970418 0.39987885693449271 0 0.080292553118600216 0.40417933412777668 0 0.068804754243522781 0.41994166461739918 0 0.068804754243522781 0.41994166461739918 0 0.066001473138610989 0.43632828312433408 0 0.081892131328371143 0.4314429342789402 0 0.068804754243522781 0.41994166461739918 0 0.088756821195656727 0.42528555268655249 0 0.089379955247950782 0.42376834846129979 0 0.068804754243522781 0.41994166461739918 0 0.081892131328371143 0.4314429342789402 0 0.088756821195656727 0.42528555268655249 0 0.068804754243522781 0.41994166461739918 0 0.088756821195656727 0.42528555268655249 0 0.097642268156116166 0.44157878137516282 0 0.090272059233259302 0.42569138845737808 0 0.08961571608665983 0.43565438773200948 0 0.082419728037930629 0.44071508101891732 0 0.088756821195656727 0.42528555268655249 0 0.082419728037930629 0.44071508101891732 0 0.081892131328371143 0.4314429342789402 0 0.088756821195656727 0.42528555268655249 0 0.088756821195656727 0.42528555268655249 0 0.090272059233259302 0.42569138845737808 0 0.08961571608665983 0.43565438773200948 0 0.089379955247950782 0.42376834846129979 0 0.090272059233259302 0.42569138845737808 0 0.100849049247472 0.42323949502706593 0 0.088756821195656727 0.42528555268655249 0 0.089379955247950782 0.42376834846129979 0 0.090272059233259302 0.42569138845737808 0 0.088756821195656727 0.42528555268655249 0 0.090272059233259302 0.42569138845737808 0 0.089379955247950782 0.42376834846129979 0 0.090272059233259302 0.42569138845737808 0 0.088756821195656727 0.42528555268655249 0 0.089379955247950782 0.42376834846129979 0 0.082419728037930629 0.44071508101891732 0 0.088756821195656727 0.42528555268655249 0 0.08961571608665983 0.43565438773200948 0 0.080292553118600216 0.40417933412777668 0 0.089379955247950782 0.42376834846129979 0 0.080292553118600216 0.40417933412777668 0 0.068804754243522781 0.41994166461739918 0 0.089379955247950782 0.42376834846129979 0 0.080292553118600216 0.40417933412777668 0 0.089379955247950782 0.42376834846129979 0 0.098794269534858231 0.4008464147916751 0 0.089379955247950782 0.42376834846129979 0 0.10179294521624289 0.41380452076605601 0 0.098794269534858231 0.4008464147916751 0 0.089379955247950782 0.42376834846129979 0 0.098794269534858231 0.4008464147916751 0 0.10179294521624289 0.41380452076605601 0 0.1107041231999616 0.42933549212480232 0 0.10945635351086461 0.40362998662342647 0 0.089379955247950782 0.42376834846129979 0 0.10179294521624289 0.41380452076605601 0 0.100849049247472 0.42323949502706593 0 0.097642268156116166 0.44157878137516282 0 0.090272059233259302 0.42569138845737808 0 0.1020591419526216 0.43422428691783338 0 0.090272059233259302 0.42569138845737808 0 0.1020591419526216 0.43422428691783338 0 0.1093682320879097 0.430806037006286 0 0.090272059233259302 0.42569138845737808 0 0.1093682320879097 0.430806037006286 0 0.090272059233259302 0.42569138845737808 0 0.100849049247472 0.42323949502706593 0 0.1093682320879097 0.430806037006286 0 0.097642268156116166 0.44157878137516282 0 0.090272059233259302 0.42569138845737808 0 0.100849049247472 0.42323949502706593 0 0.1093682320879097 0.430806037006286 0 0.1107041231999616 0.42933549212480232 0 0.10179294521624289 0.41380452076605601 0 0.100849049247472 0.42323949502706593 0 0.1107041231999616 0.42933549212480232 0 0.1020591419526216 0.43422428691783338 0 0.1093682320879097 0.430806037006286 0 0.1103398931765668 0.43239031029619718 0 0.1020591419526216 0.43422428691783338 0 0.1098184302426566 0.43676384993846878 0 0.1103398931765668 0.43239031029619718 0 0.1020591419526216 0.43422428691783338 0 0.1103398931765668 0.43239031029619718 0 0.1103398931765668 0.43239031029619718 0 0.1206950902667107 0.42206632785564402 0 0.13429496844172059 0.42708486797366702 0 0.1098184302426566 0.43676384993846878 0 0.1103398931765668 0.43239031029619718 0 0.13429496844172059 0.42708486797366702 0 0.1098184302426566 0.43676384993846878 0 0.13429496844172059 0.42708486797366702 0 0.128144127290927 0.44346528644618949 0 0.1103398931765668 0.43239031029619718 0 0.13429496844172059 0.42708486797366702 0 0.1098184302426566 0.43676384993846878 0 0.13429496844172059 0.42708486797366702 0 0.1098184302426566 0.43676384993846878 0 0.1103398931765668 0.43239031029619718 0 0.1093682320879097 0.430806037006286 0 0.1103398931765668 0.43239031029619718 0 0.1107041231999616 0.42933549212480232 0 0.1103398931765668 0.43239031029619718 0 0.1107041231999616 0.42933549212480232 0 0.1103398931765668 0.43239031029619718 0 0.1107041231999616 0.42933549212480232 0 0.1206950902667107 0.42206632785564402 0 0.1107041231999616 0.42933549212480232 0 0.10945635351086461 0.40362998662342647 0 0.1107041231999616 0.42933549212480232 0 0.1127079119913361 0.41252960019287183 0 0.10945635351086461 0.40362998662342647 0 0.1107041231999616 0.42933549212480232 0 0.1206950902667107 0.42206632785564402 0 0.1127079119913361 0.41252960019287183 0 0.1107041231999616 0.42933549212480232 0 0.1127079119913361 0.41252960019287183 0 0.1127079119913361 0.41252960019287183 0 0.11966152561727041 0.40521647558469348 0 0.10945635351086461 0.40362998662342647 0 0.1206950902667107 0.42206632785564402 0 0.1127079119913361 0.41252960019287183 0 0.1238244133614653 0.41259348140785829 0 0.1127079119913361 0.41252960019287183 0 0.1238244133614653 0.41259348140785829 0 0.11966152561727041 0.40521647558469348 0 0.10945635351086461 0.40362998662342647 0 0.12302526621810631 0.39483339242702431 0 0.1082085838217669 0.37792448112205068 0 0.11966152561727041 0.40521647558469348 0 0.12302526621810631 0.39483339242702431 0 0.1317921164680903 0.40545952647836342 0 0.11966152561727041 0.40521647558469348 0 0.10945635351086461 0.40362998662342647 0 0.12302526621810631 0.39483339242702431 0 0.12302526621810631 0.39483339242702431 0 0.1082085838217669 0.37792448112205068 0 0.12936302614305781 0.3806702380723882 0 0.1082085838217669 0.37792448112205068 0 0.1269429757455281 0.3700741961410311 0 0.12936302614305781 0.3806702380723882 0 0.089989672908486834 0.38531380646189939 0 0.1082085838217669 0.37792448112205068 0 0.098794269534858231 0.4008464147916751 0 0.089989672908486834 0.38531380646189939 0 0.1082085838217669 0.37792448112205068 0 0.096111415589441723 0.36906918257109511 0 0.1082085838217669 0.37792448112205068 0 0.098794269534858231 0.4008464147916751 0 0.10945635351086461 0.40362998662342647 0 0.1082085838217669 0.37792448112205068 0 0.098794269534858231 0.4008464147916751 0 0.10945635351086461 0.40362998662342647 0 0.1082085838217669 0.37792448112205068 0 0.10179294521624289 0.41380452076605601 0 0.10945635351086461 0.40362998662342647 0 0.098794269534858231 0.4008464147916751 0 0.1071786794515654 0.3567072543489932 0 0.10614877508136331 0.33549002757593549 0 0.1071786794515654 0.3567072543489932 0 0.113306419652784 0.34577619835524942 0 0.10614877508136331 0.33549002757593549 0 0.1071786794515654 0.3567072543489932 0 0.095546341163152998 0.34721348103654748 0 0.10614877508136331 0.33549002757593549 0 0.1071786794515654 0.3567072543489932 0 0.095546341163152998 0.34721348103654748 0 0.095306363846323322 0.35760506086541671 0 0.1082085838217669 0.37792448112205068 0 0.1071786794515654 0.3567072543489932 0 0.096111415589441723 0.36906918257109511 0 0.1082085838217669 0.37792448112205068 0 0.1071786794515654 0.3567072543489932 0 0.1071786794515654 0.3567072543489932 0 0.095306363846323322 0.35760506086541671 0 0.096111415589441723 0.36906918257109511 0 0.1082085838217669 0.37792448112205068 0 0.1071786794515654 0.3567072543489932 0 0.1164276567709608 0.35791271614101089 0 0.1082085838217669 0.37792448112205068 0 0.1207019799918789 0.36117572882690419 0 0.1269429757455281 0.3700741961410311 0 0.1082085838217669 0.37792448112205068 0 0.1207019799918789 0.36117572882690419 0 0.1164276567709608 0.35791271614101089 0 0.1082085838217669 0.37792448112205068 0 0.1164276567709608 0.35791271614101089 0 0.1207019799918789 0.36117572882690419 0 0.12020614592151201 0.35183052892485178 0 0.1164276567709608 0.35791271614101089 0 0.1207019799918789 0.36117572882690419 0 0.12020614592151201 0.35183052892485178 0 0.1327104347709552 0.34833671648866182 0 0.1071786794515654 0.3567072543489932 0 0.1164276567709608 0.35791271614101089 0 0.1142797254492055 0.35305667444252631 0 0.1071786794515654 0.3567072543489932 0 0.1142797254492055 0.35305667444252631 0 0.113306419652784 0.34577619835524942 0 0.12020614592151201 0.35183052892485178 0 0.1164276567709608 0.35791271614101089 0 0.1142797254492055 0.35305667444252631 0 0.12020614592151201 0.35183052892485178 0 0.1142797254492055 0.35305667444252631 0 0.113306419652784 0.34577619835524942 0 0.12020614592151201 0.35183052892485178 0 0.113306419652784 0.34577619835524942 0 0.12565642337597641 0.34531162420386119 0 0.113306419652784 0.34577619835524942 0 0.10614877508136331 0.33549002757593549 0 0.12728204636342119 0.33264440370185788 0 0.113306419652784 0.34577619835524942 0 0.12728204636342119 0.33264440370185788 0 0.12565642337597641 0.34531162420386119 0 0.1046413786221535 0.32421374287331212 0 0.10614877508136331 0.33549002757593549 0 0.12728204636342119 0.33264440370185788 0 0.1046413786221535 0.32421374287331212 0 0.12728204636342119 0.33264440370185788 0 0.1167242617350734 0.31677866348064548 0 0.1046413786221535 0.32421374287331212 0 0.12728204636342119 0.33264440370185788 0 0.1167242617350734 0.31677866348064548 0 0.1046413786221535 0.32421374287331212 0 0.1046413786221535 0.32421374287331212 0 0.077692308094581719 0.31417877058986282 0 0.103629968386694 0.31192557858664272 0 0.1167242617350734 0.31677866348064548 0 0.1046413786221535 0.32421374287331212 0 0.103629968386694 0.31192557858664272 0 0.1046413786221535 0.32421374287331212 0 0.08294133613319174 0.33756664360252769 0 0.1046413786221535 0.32421374287331212 0 0.10614877508136331 0.33549002757593549 0 0.08294133613319174 0.33756664360252769 0 0.095546341163152998 0.34721348103654748 0 0.10614877508136331 0.33549002757593549 0 0.08294133613319174 0.33756664360252769 0 0.1046413786221535 0.32421374287331212 0 0.077692308094581719 0.31417877058986282 0 0.1046413786221535 0.32421374287331212 0 0.08294133613319174 0.33756664360252769 0 0.077692308094581719 0.31417877058986282 0 0.077692308094581719 0.31417877058986282 0 0.067976715374811009 0.32361441744144559 0 0.058789612577710128 0.31476722793512929 0 0.08294133613319174 0.33756664360252769 0 0.077692308094581719 0.31417877058986282 0 0.067976715374811009 0.32361441744144559 0 0.08294133613319174 0.33756664360252769 0 0.067976715374811009 0.32361441744144559 0 0.060135280265193262 0.33376627043538171 0 0.08294133613319174 0.33756664360252769 0 0.061241293644231747 0.35091954433174621 0 0.060135280265193262 0.33376627043538171 0 0.08294133613319174 0.33756664360252769 0 0.061241293644231747 0.35091954433174621 0 0.08294133613319174 0.33756664360252769 0 0.074215767858206258 0.35718016320722129 0 0.061241293644231747 0.35091954433174621 0 0.074215767858206258 0.35718016320722129 0 0.062117748859898458 0.36500130546073062 0 0.061241293644231747 0.35091954433174621 0 0.08294133613319174 0.33756664360252769 0 0.074215767858206258 0.35718016320722129 0 0.086887140600208246 0.35260595290123381 0 0.074215767858206258 0.35718016320722129 0 0.086887140600208246 0.35260595290123381 0 0.085272644414092907 0.36373677956425621 0 0.095546341163152998 0.34721348103654748 0 0.095306363846323322 0.35760506086541671 0 0.086887140600208246 0.35260595290123381 0 0.095306363846323322 0.35760506086541671 0 0.086887140600208246 0.35260595290123381 0 0.085272644414092907 0.36373677956425621 0 0.095546341163152998 0.34721348103654748 0 0.08294133613319174 0.33756664360252769 0 0.086887140600208246 0.35260595290123381 0 0.082619379705498486 0.3760424233717975 0 0.096111415589441723 0.36906918257109511 0 0.085272644414092907 0.36373677956425621 0 0.095306363846323322 0.35760506086541671 0 0.096111415589441723 0.36906918257109511 0 0.085272644414092907 0.36373677956425621 0 0.074215767858206258 0.35718016320722129 0 0.085272644414092907 0.36373677956425621 0 0.075022727430642186 0.36942391052545742 0 0.082619379705498486 0.3760424233717975 0 0.085272644414092907 0.36373677956425621 0 0.075022727430642186 0.36942391052545742 0 0.071205150989249344 0.38459031979425368 0 0.075022727430642186 0.36942391052545742 0 0.062117748859898458 0.36500130546073062 0 0.071205150989249344 0.38459031979425368 0 0.062117748859898458 0.36500130546073062 0 0.074215767858206258 0.35718016320722129 0 0.075022727430642186 0.36942391052545742 0 0.062117748859898458 0.36500130546073062 0 0.062117748859898458 0.36500130546073062 0 0.061241293644231747 0.35091954433174621 0 0.039541251155271878 0.36427244506096468 0 0.051605655867250001 0.38149668432143541 0 0.062117748859898458 0.36500130546073062 0 0.039541251155271878 0.36427244506096468 0 0.061241293644231747 0.35091954433174621 0 0.039541251155271878 0.36427244506096468 0 0.061241293644231747 0.35091954433174621 0 0.044784474582475392 0.34869393697364293 0 0.052607857505341568 0.34198871306916279 0 0.061241293644231747 0.35091954433174621 0 0.044784474582475392 0.34869393697364293 0 0.039541251155271878 0.36427244506096468 0 0.044784474582475392 0.34869393697364293 0 0.039541251155271878 0.36427244506096468 0 0.023969970644136189 0.34780247639640383 0 0.017841208666312069 0.37762534579018298 0 0.039541251155271878 0.36427244506096468 0 0.022364176625033282 0.36301365865426333 0 0.017841208666312069 0.37762534579018298 0 0.035089121590226528 0.38253825820529852 0 0.039541251155271878 0.36427244506096468 0 0.017841208666312069 0.37762534579018298 0 0.039541251155271878 0.36427244506096468 0 0.017841208666312069 0.37762534579018298 0 0.022364176625033282 0.36301365865426333 0 0.0070688581490178301 0.36290469613376197 0 0.022364176625033282 0.36301365865426333 0 0.023969970644136189 0.34780247639640383 0 0.0070688581490178301 0.36290469613376197 0 0.039541251155271878 0.36427244506096468 0 0.022364176625033282 0.36301365865426333 0 0.023969970644136189 0.34780247639640383 0 0.023969970644136189 0.34780247639640383 0 0.0070688581490178301 0.36290469613376197 0 0.010160838263171251 0.33572436441868259 0 -0.0072621374188671052 0.34147004492185079 0 0.0070688581490178301 0.36290469613376197 0 0.010160838263171251 0.33572436441868259 0 -0.0036227877329230301 0.37947700469323042 0 0.017841208666312069 0.37762534579018298 0 0.0070688581490178301 0.36290469613376197 0 -0.00017254440855824261 0.32560037032276101 0 0.010160838263171251 0.33572436441868259 0 0.020336227673690289 0.32045890090113183 0 -0.0025045175740335168 0.31031314766219981 0 -0.00017254440855824261 0.32560037032276101 0 0.020336227673690289 0.32045890090113183 0 -0.0072621374188671052 0.34147004492185079 0 -0.00017254440855824261 0.32560037032276101 0 0.010160838263171251 0.33572436441868259 0 0.023969970644136189 0.34780247639640383 0 0.010160838263171251 0.33572436441868259 0 0.020336227673690289 0.32045890090113183 0 0.023969970644136189 0.34780247639640383 0 0.020336227673690289 0.32045890090113183 0 0.041998086792626607 0.33406523967628299 0 0.04333949094528719 0.3160267531553359 0 0.041998086792626607 0.33406523967628299 0 0.052729264779742331 0.32427979797466039 0 0.020336227673690289 0.32045890090113183 0 0.04333949094528719 0.3160267531553359 0 0.041998086792626607 0.33406523967628299 0 0.044784474582475392 0.34869393697364293 0 0.023969970644136189 0.34780247639640383 0 0.041998086792626607 0.33406523967628299 0 0.044784474582475392 0.34869393697364293 0 0.041998086792626607 0.33406523967628299 0 0.052607857505341568 0.34198871306916279 0 0.061241293644231747 0.35091954433174621 0 0.052607857505341568 0.34198871306916279 0 0.060135280265193262 0.33376627043538171 0 0.041998086792626607 0.33406523967628299 0 0.060135280265193262 0.33376627043538171 0 0.052729264779742331 0.32427979797466039 0 0.041998086792626607 0.33406523967628299 0 0.052607857505341568 0.34198871306916279 0 0.060135280265193262 0.33376627043538171 0 0.04333949094528719 0.3160267531553359 0 0.052729264779742331 0.32427979797466039 0 0.058789612577710128 0.31476722793512929 0 0.067976715374811009 0.32361441744144559 0 0.052729264779742331 0.32427979797466039 0 0.058789612577710128 0.31476722793512929 0 0.067976715374811009 0.32361441744144559 0 0.060135280265193262 0.33376627043538171 0 0.052729264779742331 0.32427979797466039 0 0.058789612577710128 0.31476722793512929 0 0.050743237567011198 0.30414379830640997 0 0.077692308094581719 0.31417877058986282 0 0.058789612577710128 0.31476722793512929 0 0.050743237567011198 0.30414379830640997 0 0.04333949094528719 0.3160267531553359 0 0.058789612577710128 0.31476722793512929 0 0.050743237567011198 0.30414379830640997 0 0.050743237567011198 0.30414379830640997 0 0.057014991513141711 0.27962034081982778 0 0.068251428351683213 0.29416468787043332 0 0.050743237567011198 0.30414379830640997 0 0.035335655862959579 0.28380154980765537 0 0.057014991513141711 0.27962034081982778 0 0.050743237567011198 0.30414379830640997 0 0.035335655862959579 0.28380154980765537 0 0.050743237567011198 0.30414379830640997 0 0.035335655862959579 0.28380154980765537 0 0.035440516280943121 0.29844555413839979 0 0.020336227673690289 0.32045890090113183 0 0.04333949094528719 0.3160267531553359 0 0.035440516280943121 0.29844555413839979 0 0.04333949094528719 0.3160267531553359 0 0.050743237567011198 0.30414379830640997 0 0.035440516280943121 0.29844555413839979 0 0.050743237567011198 0.30414379830640997 0 0.035440516280943121 0.29844555413839979 0 0.020336227673690289 0.32045890090113183 0 0.035440516280943121 0.29844555413839979 0 0.020137794994874249 0.2927473099703915 0 0.020336227673690289 0.32045890090113183 0 0.020137794994874249 0.2927473099703915 0 0.020336227673690289 0.32045890090113183 0 0.020137794994874249 0.2927473099703915 0 0.010209922096268529 0.3014659822355169 0 0.035335655862959579 0.28380154980765537 0 0.035440516280943121 0.29844555413839979 0 0.020137794994874249 0.2927473099703915 0 0.035440516280943121 0.29844555413839979 0 0.020137794994874249 0.2927473099703915 0 0.020137794994874249 0.2927473099703915 0 0.014388475155295941 0.29060644707198668 0 0.01992807415890703 0.26345930130890138 0 0.020137794994874249 0.2927473099703915 0 0.014388475155295941 0.29060644707198668 0 0.020137794994874249 0.2927473099703915 0 0.014388475155295941 0.29060644707198668 0 0.010209922096268529 0.3014659822355169 0 -0.001308369768482999 0.29320410557187471 0 0.014388475155295941 0.29060644707198668 0 0.010209922096268529 0.3014659822355169 0 -0.001308369768482999 0.29320410557187471 0 0.014388475155295941 0.29060644707198668 0 0.0042686616650212863 0.27440264234540929 0 -0.0025045175740335168 0.31031314766219981 0 0.020336227673690289 0.32045890090113183 0 0.010209922096268529 0.3014659822355169 0 -0.0025045175740335168 0.31031314766219981 0 -0.001308369768482999 0.29320410557187471 0 0.010209922096268529 0.3014659822355169 0 0.0108212759879371 0.25143582124693198 0 0.0045166499774289158 0.26107549289106269 0 0.01992807415890703 0.26345930130890138 0 0.0108212759879371 0.25143582124693198 0 0.01992807415890703 0.26345930130890138 0 -0.004361582131907446 0.25012675423618741 0 0.0108212759879371 0.25143582124693198 0 0.0045166499774289158 0.26107549289106269 0 -0.0080731797928139601 0.26595294531788349 0 0.0045166499774289158 0.26107549289106269 0 0.0042686616650212863 0.27440264234540929 0 0.014388475155295941 0.29060644707198668 0 0.0042686616650212863 0.27440264234540929 0 0.01992807415890703 0.26345930130890138 0 0.0045166499774289158 0.26107549289106269 0 0.0042686616650212863 0.27440264234540929 0 0.01992807415890703 0.26345930130890138 0 0.020137794994874249 0.2927473099703915 0 0.01992807415890703 0.26345930130890138 0 0.035335655862959579 0.28380154980765537 0 0.020137794994874249 0.2927473099703915 0 0.01992807415890703 0.26345930130890138 0 0.035335655862959579 0.28380154980765537 0 0.01992807415890703 0.26345930130890138 0 0.019733428038529611 0.23627651218177001 0 0.0108212759879371 0.25143582124693198 0 0.01992807415890703 0.26345930130890138 0 0.032395297456559217 0.24990448186487541 0 0.01992807415890703 0.26345930130890138 0 0.043558334625058162 0.26267399305688549 0 0.049298807743375681 0.24401567068345059 0 0.032395297456559217 0.24990448186487541 0 0.043558334625058162 0.26267399305688549 0 0.035335655862959579 0.28380154980765537 0 0.01992807415890703 0.26345930130890138 0 0.043558334625058162 0.26267399305688549 0 0.035335655862959579 0.28380154980765537 0 0.043558334625058162 0.26267399305688549 0 0.057014991513141711 0.27962034081982778 0 0.043558334625058162 0.26267399305688549 0 0.057014991513141711 0.27962034081982778 0 0.068539877812152941 0.25484826761588569 0 0.049298807743375681 0.24401567068345059 0 0.043558334625058162 0.26267399305688549 0 0.068539877812152941 0.25484826761588569 0 0.068539877812152941 0.25484826761588569 0 0.094153496178737847 0.25278652485753728 0 0.068539877812152941 0.25484826761588569 0 0.094153496178737847 0.25278652485753728 0 0.094570315268327418 0.27155612350054997 0 0.076756394676448791 0.2775889904003081 0 0.087579642181032397 0.29054902922906578 0 0.094570315268327418 0.27155612350054997 0 0.068539877812152941 0.25484826761588569 0 0.076756394676448791 0.2775889904003081 0 0.094570315268327418 0.27155612350054997 0 0.057014991513141711 0.27962034081982778 0 0.068539877812152941 0.25484826761588569 0 0.076756394676448791 0.2775889904003081 0 0.076756394676448791 0.2775889904003081 0 0.068251428351683213 0.29416468787043332 0 0.087579642181032397 0.29054902922906578 0 0.057014991513141711 0.27962034081982778 0 0.076756394676448791 0.2775889904003081 0 0.068251428351683213 0.29416468787043332 0 0.077692308094581719 0.31417877058986282 0 0.050743237567011198 0.30414379830640997 0 0.068251428351683213 0.29416468787043332 0 0.077692308094581719 0.31417877058986282 0 0.050743237567011198 0.30414379830640997 0 0.077692308094581719 0.31417877058986282 0 0.068251428351683213 0.29416468787043332 0 0.087579642181032397 0.29054902922906578 0 0.077692308094581719 0.31417877058986282 0 0.087579642181032397 0.29054902922906578 0 0.1000908984509512 0.30112340397666981 0 0.087579642181032397 0.29054902922906578 0 0.1081165082442021 0.28468219903657133 0 0.1000908984509512 0.30112340397666981 0 0.1081165082442021 0.28468219903657133 0 0.1000908984509512 0.30112340397666981 0 0.1144297267004354 0.30168664743999352 0 0.087579642181032397 0.29054902922906578 0 0.1081165082442021 0.28468219903657133 0 0.094570315268327418 0.27155612350054997 0 0.077692308094581719 0.31417877058986282 0 0.1000908984509512 0.30112340397666981 0 0.103629968386694 0.31192557858664272 0 0.1000908984509512 0.30112340397666981 0 0.103629968386694 0.31192557858664272 0 0.1144297267004354 0.30168664743999352 0 0.1167242617350734 0.31677866348064548 0 0.1144297267004354 0.30168664743999352 0 0.13022117462186741 0.30154725623692402 0 0.1167242617350734 0.31677866348064548 0 0.103629968386694 0.31192557858664272 0 0.1144297267004354 0.30168664743999352 0 0.1081165082442021 0.28468219903657133 0 0.1144297267004354 0.30168664743999352 0 0.12390947864198219 0.28542069115612873 0 0.1144297267004354 0.30168664743999352 0 0.12390947864198219 0.28542069115612873 0 0.13022117462186741 0.30154725623692402 0 0.112671388523889 0.26641905049976811 0 0.123100174820058 0.26168293397560438 0 0.12910128816626559 0.2715879755468264 0 0.1081165082442021 0.28468219903657133 0 0.12390947864198219 0.28542069115612873 0 0.112671388523889 0.26641905049976811 0 0.12390947864198219 0.28542069115612873 0 0.112671388523889 0.26641905049976811 0 0.12910128816626559 0.2715879755468264 0 0.112671388523889 0.26641905049976811 0 0.123100174820058 0.26168293397560438 0 0.1197671145453226 0.2507247820991888 0 0.112671388523889 0.26641905049976811 0 0.1197671145453226 0.2507247820991888 0 0.094153496178737847 0.25278652485753728 0 0.112671388523889 0.26641905049976811 0 0.094153496178737847 0.25278652485753728 0 0.094570315268327418 0.27155612350054997 0 0.1197671145453226 0.2507247820991888 0 0.094153496178737847 0.25278652485753728 0 0.1081165082442021 0.28468219903657133 0 0.112671388523889 0.26641905049976811 0 0.094570315268327418 0.27155612350054997 0 0.1484138213405074 0.25936399499983281 0 0.14891678559523411 0.28660101817668943 0 0.16201232330786131 0.26387346548696822 0 0.1484138213405074 0.25936399499983281 0 0.1401857002278207 0.2693725498640136 0 0.14891678559523411 0.28660101817668943 0 0.1484138213405074 0.25936399499983281 0 0.14891678559523411 0.28660101817668943 0 0.15466915334416509 0.25190660019890743 0 0.1484138213405074 0.25936399499983281 0 0.16201232330786131 0.26387346548696822 0 0.1453807329119074 0.24866303934084041 0 0.15466915334416509 0.25190660019890743 0 0.1484138213405074 0.25936399499983281 0 0.1453807329119074 0.24866303934084041 0 0.1484138213405074 0.25936399499983281 0 0.13431090580927579 0.25993721073270593 0 0.1484138213405074 0.25936399499983281 0 0.13431090580927579 0.25993721073270593 0 0.1401857002278207 0.2693725498640136 0 0.1453807329119074 0.24866303934084041 0 0.1197671145453226 0.2507247820991888 0 0.13431090580927579 0.25993721073270593 0 0.123100174820058 0.26168293397560438 0 0.1197671145453226 0.2507247820991888 0 0.13431090580927579 0.25993721073270593 0 0.123100174820058 0.26168293397560438 0 0.13431090580927579 0.25993721073270593 0 0.12910128816626559 0.2715879755468264 0 0.12910128816626559 0.2715879755468264 0 0.1401857002278207 0.2693725498640136 0 0.14891678559523411 0.28660101817668943 0 0.12390947864198219 0.28542069115612873 0 0.12910128816626559 0.2715879755468264 0 0.14891678559523411 0.28660101817668943 0 0.13431090580927579 0.25993721073270593 0 0.12910128816626559 0.2715879755468264 0 0.1401857002278207 0.2693725498640136 0 0.12390947864198219 0.28542069115612873 0 0.13022117462186741 0.30154725623692402 0 0.14891678559523411 0.28660101817668943 0 0.13022117462186741 0.30154725623692402 0 0.1494197498499607 0.31383804135354598 0 0.13362732087883861 0.31825791726589631 0 0.1167242617350734 0.31677866348064548 0 0.13022117462186741 0.30154725623692402 0 0.13362732087883861 0.31825791726589631 0 0.14891678559523411 0.28660101817668943 0 0.16502192730860321 0.29833672799327199 0 0.1494197498499607 0.31383804135354598 0 0.14891678559523411 0.28660101817668943 0 0.1494197498499607 0.31383804135354598 0 0.13022117462186741 0.30154725623692402 0 0.14891678559523411 0.28660101817668943 0 0.1494197498499607 0.31383804135354598 0 0.14891678559523411 0.28660101817668943 0 0.16502192730860321 0.29833672799327199 0 0.17258825255407231 0.27567175281796641 0 0.16502192730860321 0.29833672799327199 0 0.17750724151807151 0.31691505049664243 0 0.1494197498499607 0.31383804135354598 0 0.16502192730860321 0.29833672799327199 0 0.18306544781706219 0.29535972807124689 0 0.17750724151807151 0.31691505049664243 0 0.18306544781706219 0.29535972807124689 0 0.19825331032735899 0.30649929221888439 0 0.17750724151807151 0.31691505049664243 0 0.16502192730860321 0.29833672799327199 0 0.18306544781706219 0.29535972807124689 0 0.17258825255407231 0.27567175281796641 0 0.18306544781706219 0.29535972807124689 0 0.17258825255407231 0.27567175281796641 0 0.19225514168233229 0.27637801024750158 0 0.17258825255407231 0.27567175281796641 0 0.18608903078984079 0.25995697105729071 0 0.19225514168233229 0.27637801024750158 0 0.17258825255407231 0.27567175281796641 0 0.16201232330786131 0.26387346548696822 0 0.17332134199895571 0.25758983019522791 0 0.14891678559523411 0.28660101817668943 0 0.17258825255407231 0.27567175281796641 0 0.16201232330786131 0.26387346548696822 0 0.1648484701696567 0.24744362212440471 0 0.15466915334416509 0.25190660019890743 0 0.16201232330786131 0.26387346548696822 0 0.1648484701696567 0.24744362212440471 0 0.16201232330786131 0.26387346548696822 0 0.17332134199895571 0.25758983019522791 0 0.17921266192405369 0.24485401564359771 0 0.17332134199895571 0.25758983019522791 0 0.18608903078984079 0.25995697105729071 0 0.17258825255407231 0.27567175281796641 0 0.17332134199895571 0.25758983019522791 0 0.18608903078984079 0.25995697105729071 0 0.19643052809465181 0.2433224828713732 0 0.18608903078984079 0.25995697105729071 0 0.20272625848497891 0.26192573456807738 0 0.18608903078984079 0.25995697105729071 0 0.20272625848497891 0.26192573456807738 0 0.19225514168233229 0.27637801024750158 0 0.19225514168233229 0.27637801024750158 0 0.20931999553351249 0.2747097540570328 0 0.20479240245397259 0.28930189362021808 0 0.20272625848497891 0.26192573456807738 0 0.19225514168233229 0.27637801024750158 0 0.20931999553351249 0.2747097540570328 0 0.20272625848497891 0.26192573456807738 0 0.20931999553351249 0.2747097540570328 0 0.22276706595432569 0.26722786124429282 0 0.19643052809465181 0.2433224828713732 0 0.20272625848497891 0.26192573456807738 0 0.21668623523937189 0.25273648673926968 0 0.20272625848497891 0.26192573456807738 0 0.21668623523937189 0.25273648673926968 0 0.22276706595432569 0.26722786124429282 0 0.23190300684591059 0.2469757189771403 0 0.21668623523937189 0.25273648673926968 0 0.2340167615655426 0.26024144399058702 0 0.21668623523937189 0.25273648673926968 0 0.2340167615655426 0.26024144399058702 0 0.22276706595432569 0.26722786124429282 0 0.20931999553351249 0.2747097540570328 0 0.22276706595432569 0.26722786124429282 0 0.23407023324957901 0.28358253799766081 0 0.22276706595432569 0.26722786124429282 0 0.2428012282252888 0.27040414858390061 0 0.23407023324957901 0.28358253799766081 0 0.2340167615655426 0.26024144399058702 0 0.22276706595432569 0.26722786124429282 0 0.2428012282252888 0.27040414858390061 0 0.2428012282252888 0.27040414858390061 0 0.23407023324957901 0.28358253799766081 0 0.25491758893057909 0.27951005592881761 0 0.2428012282252888 0.27040414858390061 0 0.23407023324957901 0.28358253799766081 0 0.2428012282252888 0.27040414858390061 0 0.25153222320099622 0.25722575917013901 0 0.25536006440587672 0.26878811273571068 0 0.2428012282252888 0.27040414858390061 0 0.25153222320099622 0.25722575917013901 0 0.2340167615655426 0.26024144399058702 0 0.2428012282252888 0.27040414858390061 0 0.25153222320099622 0.25722575917013901 0 0.24791323415382371 0.2458877298954085 0 0.23190300684591059 0.2469757189771403 0 0.25153222320099622 0.25722575917013901 0 0.23190300684591059 0.2469757189771403 0 0.2340167615655426 0.26024144399058702 0 0.25153222320099622 0.25722575917013901 0 0.23190300684591059 0.2469757189771403 0 0.25153222320099622 0.25722575917013901 0 0.24543399627141721 0.29887735901603257 0 0.2199905643657564 0.30483410896799212 0 0.2412863906095909 0.31706614216088019 0 0.24543399627141721 0.29887735901603257 0 0.2412863906095909 0.31706614216088019 0 0.26071219069447599 0.31197788889560879 0 0.24543399627141721 0.29887735901603257 0 0.23407023324957901 0.28358253799766081 0 0.25491758893057909 0.27951005592881761 0 0.23407023324957901 0.28358253799766081 0 0.25491758893057909 0.27951005592881761 0 0.23407023324957901 0.28358253799766081 0 0.2199905643657564 0.30483410896799212 0 0.20479240245397259 0.28930189362021808 0 0.24543399627141721 0.29887735901603257 0 0.23407023324957901 0.28358253799766081 0 0.2199905643657564 0.30483410896799212 0 0.23407023324957901 0.28358253799766081 0 0.20479240245397259 0.28930189362021808 0 0.23407023324957901 0.28358253799766081 0 0.2199905643657564 0.30483410896799212 0 0.2199905643657564 0.30483410896799212 0 0.19825331032735899 0.30649929221888439 0 0.20591089548193209 0.32608567993832238 0 0.2199905643657564 0.30483410896799212 0 0.20479240245397259 0.28930189362021808 0 0.19825331032735899 0.30649929221888439 0 0.20931999553351249 0.2747097540570328 0 0.23407023324957901 0.28358253799766081 0 0.20479240245397259 0.28930189362021808 0 0.18306544781706219 0.29535972807124689 0 0.19225514168233229 0.27637801024750158 0 0.20479240245397259 0.28930189362021808 0 0.18306544781706219 0.29535972807124689 0 0.20479240245397259 0.28930189362021808 0 0.19825331032735899 0.30649929221888439 0 0.19825331032735899 0.30649929221888439 0 0.20591089548193209 0.32608567993832238 0 0.17750724151807151 0.31691505049664243 0 0.20591089548193209 0.32608567993832238 0 0.1834453935528689 0.33477958080273051 0 0.17750724151807151 0.31691505049664243 0 0.20591089548193209 0.32608567993832238 0 0.1918312265981009 0.34733725090864831 0 0.1834453935528689 0.33477958080273051 0 0.20591089548193209 0.32608567993832238 0 0.1918312265981009 0.34733725090864831 0 0.2120062173118393 0.34341212619813682 0 0.20591089548193209 0.32608567993832238 0 0.2241124479696345 0.32285479690430968 0 0.2120062173118393 0.34341212619813682 0 0.20591089548193209 0.32608567993832238 0 0.1918312265981009 0.34733725090864831 0 0.2199905643657564 0.30483410896799212 0 0.20591089548193209 0.32608567993832238 0 0.2199905643657564 0.30483410896799212 0 0.20591089548193209 0.32608567993832238 0 0.2241124479696345 0.32285479690430968 0 0.2199905643657564 0.30483410896799212 0 0.2241124479696345 0.32285479690430968 0 0.2412863906095909 0.31706614216088019 0 0.2241124479696345 0.32285479690430968 0 0.23218120802557979 0.3394870014876365 0 0.2412863906095909 0.31706614216088019 0 0.2120062173118393 0.34341212619813682 0 0.2241124479696345 0.32285479690430968 0 0.23218120802557979 0.3394870014876365 0 0.2120062173118393 0.34341212619813682 0 0.23218120802557979 0.3394870014876365 0 0.23218120802557979 0.3394870014876365 0 0.2412863906095909 0.31706614216088019 0 0.25235619873932041 0.33556187677713623 0 0.23218120802557979 0.3394870014876365 0 0.25235619873932041 0.33556187677713623 0 0.23218120802557979 0.3394870014876365 0 0.2438273554430464 0.34812574592335249 0 0.25235619873932041 0.33556187677713623 0 0.2412863906095909 0.31706614216088019 0 0.25496362040665271 0.32267745764425643 0 0.25235619873932041 0.33556187677713623 0 0.2444030594993066 0.36261468031945582 0 0.22630598985240971 0.37543582988375418 0 0.247713784970646 0.38075050805242922 0 0.2444030594993066 0.36261468031945582 0 0.22630598985240971 0.37543582988375418 0 0.2444030594993066 0.36261468031945582 0 0.247713784970646 0.38075050805242922 0 0.25490457918629872 0.37507349251653871 0 0.2444030594993066 0.36261468031945582 0 0.2438273554430464 0.34812574592335249 0 0.25711451900508148 0.35258648987221092 0 0.23218120802557979 0.3394870014876365 0 0.2438273554430464 0.34812574592335249 0 0.2288636426087374 0.35578594420060722 0 0.2444030594993066 0.36261468031945582 0 0.2438273554430464 0.34812574592335249 0 0.2288636426087374 0.35578594420060722 0 0.2120062173118393 0.34341212619813682 0 0.23218120802557979 0.3394870014876365 0 0.2288636426087374 0.35578594420060722 0 0.2444030594993066 0.36261468031945582 0 0.2288636426087374 0.35578594420060722 0 0.22630598985240971 0.37543582988375418 0 0.2288636426087374 0.35578594420060722 0 0.21324276167256731 0.36206450472990792 0 0.22630598985240971 0.37543582988375418 0 0.21324276167256731 0.36206450472990792 0 0.19654986060048771 0.37047802484019998 0 0.20820892020551271 0.38825697944805271 0 0.2120062173118393 0.34341212619813682 0 0.2288636426087374 0.35578594420060722 0 0.21324276167256731 0.36206450472990792 0 0.2120062173118393 0.34341212619813682 0 0.21324276167256731 0.36206450472990792 0 0.1918312265981009 0.34733725090864831 0 0.2120062173118393 0.34341212619813682 0 0.1918312265981009 0.34733725090864831 0 0.1918312265981009 0.34733725090864831 0 0.19654986060048771 0.37047802484019998 0 0.1753588575145448 0.37220031576602253 0 0.21324276167256731 0.36206450472990792 0 0.1918312265981009 0.34733725090864831 0 0.19654986060048771 0.37047802484019998 0 0.1918312265981009 0.34733725090864831 0 0.1753588575145448 0.37220031576602253 0 0.1731188016947007 0.36781558424519839 0 0.1753588575145448 0.37220031576602253 0 0.1802318714797885 0.35236122573149797 0 0.1731188016947007 0.36781558424519839 0 0.167364966647951 0.35975083588178058 0 0.1802318714797885 0.35236122573149797 0 0.1731188016947007 0.36781558424519839 0 0.1753588575145448 0.37220031576602253 0 0.1731188016947007 0.36781558424519839 0 0.1753588575145448 0.37220031576602253 0 0.16523354001105911 0.37409983959611109 0 0.1731188016947007 0.36781558424519839 0 0.16523354001105911 0.37409983959611109 0 0.1662459251842697 0.36710584608423269 0 0.167364966647951 0.35975083588178058 0 0.15926639238336801 0.36675712461384091 0 0.15018796347142391 0.35543911342959528 0 0.167364966647951 0.35975083588178058 0 0.1662459251842697 0.36710584608423269 0 0.15926639238336801 0.36675712461384091 0 0.1731188016947007 0.36781558424519839 0 0.167364966647951 0.35975083588178058 0 0.1662459251842697 0.36710584608423269 0 0.16523354001105911 0.37409983959611109 0 0.15926639238336801 0.36675712461384091 0 0.15062115634747231 0.37889780715207888 0 0.16523354001105911 0.37409983959611109 0 0.1662459251842697 0.36710584608423269 0 0.15926639238336801 0.36675712461384091 0 0.1753506460241005 0.35054361342806389 0 0.14992271410468949 0.34107506453040248 0 0.167364966647951 0.35975083588178058 0 0.1753506460241005 0.35054361342806389 0 0.15018796347142391 0.35543911342959528 0 0.1753506460241005 0.35054361342806389 0 0.14992271410468949 0.34107506453040248 0 0.15018796347142391 0.35543911342959528 0 0.1753506460241005 0.35054361342806389 0 0.15018796347142391 0.35543911342959528 0 0.1918312265981009 0.34733725090864831 0 0.1753506460241005 0.35054361342806389 0 0.1918312265981009 0.34733725090864831 0 0.1753506460241005 0.35054361342806389 0 0.1834453935528689 0.33477958080273051 0 0.1918312265981009 0.34733725090864831 0 0.1753506460241005 0.35054361342806389 0 0.1802318714797885 0.35236122573149797 0 0.1918312265981009 0.34733725090864831 0 0.1753588575145448 0.37220031576602253 0 0.1802318714797885 0.35236122573149797 0 0.1753506460241005 0.35054361342806389 0 0.1802318714797885 0.35236122573149797 0 0.167364966647951 0.35975083588178058 0 0.1753506460241005 0.35054361342806389 0 0.1802318714797885 0.35236122573149797 0 0.1753506460241005 0.35054361342806389 0 0.1834453935528689 0.33477958080273051 0 0.1666269581421321 0.33301630924197367 0 0.1834453935528689 0.33477958080273051 0 0.17750724151807151 0.31691505049664243 0 0.1666269581421321 0.33301630924197367 0 0.17750724151807151 0.31691505049664243 0 0.1666269581421321 0.33301630924197367 0 0.1494197498499607 0.31383804135354598 0 0.1753506460241005 0.35054361342806389 0 0.1666269581421321 0.33301630924197367 0 0.14992271410468949 0.34107506453040248 0 0.1666269581421321 0.33301630924197367 0 0.14992271410468949 0.34107506453040248 0 0.1494197498499607 0.31383804135354598 0 0.14992271410468949 0.34107506453040248 0 0.1494197498499607 0.31383804135354598 0 0.14992271410468949 0.34107506453040248 0 0.1494197498499607 0.31383804135354598 0 0.13362732087883861 0.31825791726589631 0 0.1167242617350734 0.31677866348064548 0 0.13362732087883861 0.31825791726589631 0 0.12728204636342119 0.33264440370185788 0 0.14992271410468949 0.34107506453040248 0 0.13362732087883861 0.31825791726589631 0 0.12728204636342119 0.33264440370185788 0 0.14992271410468949 0.34107506453040248 0 0.12728204636342119 0.33264440370185788 0 0.1327104347709552 0.34833671648866182 0 0.14992271410468949 0.34107506453040248 0 0.12728204636342119 0.33264440370185788 0 0.12728204636342119 0.33264440370185788 0 0.12565642337597641 0.34531162420386119 0 0.1327104347709552 0.34833671648866182 0 0.1207019799918789 0.36117572882690419 0 0.1327104347709552 0.34833671648866182 0 0.15018796347142391 0.35543911342959528 0 0.12020614592151201 0.35183052892485178 0 0.12565642337597641 0.34531162420386119 0 0.1327104347709552 0.34833671648866182 0 0.1207019799918789 0.36117572882690419 0 0.15018796347142391 0.35543911342959528 0 0.1207019799918789 0.36117572882690419 0 0.13593835547877689 0.36822566204290602 0 0.15018796347142391 0.35543911342959528 0 0.1207019799918789 0.36117572882690419 0 0.1269429757455281 0.3700741961410311 0 0.13593835547877689 0.36822566204290602 0 0.1269429757455281 0.3700741961410311 0 0.13593835547877689 0.36822566204290602 0 0.12936302614305781 0.3806702380723882 0 0.13593835547877689 0.36822566204290602 0 0.15018796347142391 0.35543911342959528 0 0.15062115634747231 0.37889780715207888 0 0.15018796347142391 0.35543911342959528 0 0.15062115634747231 0.37889780715207888 0 0.15926639238336801 0.36675712461384091 0 0.15018796347142391 0.35543911342959528 0 0.15062115634747231 0.37889780715207888 0 0.14992271410468949 0.34107506453040248 0 0.1327104347709552 0.34833671648866182 0 0.15018796347142391 0.35543911342959528 0 0.14992271410468949 0.34107506453040248 0 0.15018796347142391 0.35543911342959528 0 0.14138495384440489 0.39322107909200571 0 0.1317921164680903 0.40545952647836342 0 0.15222999220591241 0.40711056306127658 0 0.14138495384440489 0.39322107909200571 0 0.15222999220591241 0.40711056306127658 0 0.16379442486022849 0.38965543941364961 0 0.14138495384440489 0.39322107909200571 0 0.15062115634747231 0.37889780715207888 0 0.16379442486022849 0.38965543941364961 0 0.13593835547877689 0.36822566204290602 0 0.15062115634747231 0.37889780715207888 0 0.12936302614305781 0.3806702380723882 0 0.14138495384440489 0.39322107909200571 0 0.15062115634747231 0.37889780715207888 0 0.12936302614305781 0.3806702380723882 0 0.12302526621810631 0.39483339242702431 0 0.14138495384440489 0.39322107909200571 0 0.12936302614305781 0.3806702380723882 0 0.12302526621810631 0.39483339242702431 0 0.14138495384440489 0.39322107909200571 0 0.1317921164680903 0.40545952647836342 0 0.1238244133614653 0.41259348140785829 0 0.11966152561727041 0.40521647558469348 0 0.1317921164680903 0.40545952647836342 0 0.1238244133614653 0.41259348140785829 0 0.1317921164680903 0.40545952647836342 0 0.13391702338258271 0.41648007558095218 0 0.1317921164680903 0.40545952647836342 0 0.13391702338258271 0.41648007558095218 0 0.15222999220591241 0.40711056306127658 0 0.1206950902667107 0.42206632785564402 0 0.1238244133614653 0.41259348140785829 0 0.13391702338258271 0.41648007558095218 0 0.14066555955159241 0.42456568670890099 0 0.128144127290927 0.44346528644618949 0 0.13429496844172059 0.42708486797366702 0 0.14066555955159241 0.42456568670890099 0 0.128144127290927 0.44346528644618949 0 0.14066555955159241 0.42456568670890099 0 0.1468621194973313 0.4432032004000479 0 0.128144127290927 0.44346528644618949 0 0.1206950902667107 0.42206632785564402 0 0.13391702338258271 0.41648007558095218 0 0.13429496844172059 0.42708486797366702 0 0.13391702338258271 0.41648007558095218 0 0.13429496844172059 0.42708486797366702 0 0.14066555955159241 0.42456568670890099 0 0.13429496844172059 0.42708486797366702 0 0.14066555955159241 0.42456568670890099 0 0.14066555955159241 0.42456568670890099 0 0.16808955766080291 0.41960022257260449 0 0.15915405200730839 0.43380743940711708 0 0.14066555955159241 0.42456568670890099 0 0.16808955766080291 0.41960022257260449 0 0.14066555955159241 0.42456568670890099 0 0.15915405200730839 0.43380743940711708 0 0.1468621194973313 0.4432032004000479 0 0.14066555955159241 0.42456568670890099 0 0.15222999220591241 0.40711056306127658 0 0.14066555955159241 0.42456568670890099 0 0.15222999220591241 0.40711056306127658 0 0.16201542307939579 0.41612311438285787 0 0.14066555955159241 0.42456568670890099 0 0.16201542307939579 0.41612311438285787 0 0.13391702338258271 0.41648007558095218 0 0.14066555955159241 0.42456568670890099 0 0.15222999220591241 0.40711056306127658 0 0.16201542307939579 0.41612311438285787 0 0.16941052998224071 0.40948279892878392 0 0.18336528660720119 0.40768054205682042 0 0.16808955766080291 0.41960022257260449 0 0.16201542307939579 0.41612311438285787 0 0.18336528660720119 0.40768054205682042 0 0.14066555955159241 0.42456568670890099 0 0.16808955766080291 0.41960022257260449 0 0.16201542307939579 0.41612311438285787 0 0.15222999220591241 0.40711056306127658 0 0.16201542307939579 0.41612311438285787 0 0.1623232745498161 0.40583988766108697 0 0.16201542307939579 0.41612311438285787 0 0.16941052998224071 0.40948279892878392 0 0.1623232745498161 0.40583988766108697 0 0.16808955766080291 0.41960022257260449 0 0.15915405200730839 0.43380743940711708 0 0.1766721112776041 0.43405941705504181 0 0.18398920852212189 0.42222731617319992 0 0.1766721112776041 0.43405941705504181 0 0.19310721835761019 0.42992761007563862 0 0.16808955766080291 0.41960022257260449 0 0.18398920852212189 0.42222731617319992 0 0.1766721112776041 0.43405941705504181 0 0.1766721112776041 0.43405941705504181 0 0.19310721835761019 0.42992761007563862 0 0.189468296445607 0.44161966517716561 0 0.16808955766080291 0.41960022257260449 0 0.18398920852212189 0.42222731617319992 0 0.19637406676339619 0.41333592033168631 0 0.16201542307939579 0.41612311438285787 0 0.18336528660720119 0.40768054205682042 0 0.16808955766080291 0.41960022257260449 0 0.19637406676339619 0.41333592033168631 0 0.16808955766080291 0.41960022257260449 0 0.18336528660720119 0.40768054205682042 0 0.19637406676339619 0.41333592033168631 0 0.16941052998224071 0.40948279892878392 0 0.18336528660720119 0.40768054205682042 0 0.18177969473327391 0.40698117398671069 0 0.16941052998224071 0.40948279892878392 0 0.18177969473327391 0.40698117398671069 0 0.17544170441619431 0.40324048585703531 0 0.17550339911694879 0.39641485139935639 0 0.16379442486022849 0.38965543941364961 0 0.18273535403657959 0.38663922238918558 0 0.18177969473327391 0.40698117398671069 0 0.18171278421578699 0.39924093208501849 0 0.19011185055861429 0.40107812901234902 0 0.18336528660720119 0.40768054205682042 0 0.18177969473327391 0.40698117398671069 0 0.19011185055861429 0.40107812901234902 0 0.18177969473327391 0.40698117398671069 0 0.19011185055861429 0.40107812901234902 0 0.18171278421578699 0.39924093208501849 0 0.17550339911694879 0.39641485139935639 0 0.18273535403657959 0.38663922238918558 0 0.18171278421578699 0.39924093208501849 0 0.18273535403657959 0.38663922238918558 0 0.19011185055861429 0.40107812901234902 0 0.18273535403657959 0.38663922238918558 0 0.19011185055861429 0.40107812901234902 0 0.18177969473327391 0.40698117398671069 0 0.18171278421578699 0.39924093208501849 0 0.17544170441619431 0.40324048585703531 0 0.18171278421578699 0.39924093208501849 0 0.17550339911694879 0.39641485139935639 0 0.17544170441619431 0.40324048585703531 0 0.17550339911694879 0.39641485139935639 0 0.17544170441619431 0.40324048585703531 0 0.1689722959232661 0.40169126431279728 0 0.16941052998224071 0.40948279892878392 0 0.17544170441619431 0.40324048585703531 0 0.1689722959232661 0.40169126431279728 0 0.1689722959232661 0.40169126431279728 0 0.1623232745498161 0.40583988766108697 0 0.16379442486022849 0.38965543941364961 0 0.15222999220591241 0.40711056306127658 0 0.1623232745498161 0.40583988766108697 0 0.16379442486022849 0.38965543941364961 0 0.15222999220591241 0.40711056306127658 0 0.16379442486022849 0.38965543941364961 0 0.16941052998224071 0.40948279892878392 0 0.1689722959232661 0.40169126431279728 0 0.1623232745498161 0.40583988766108697 0 0.17550339911694879 0.39641485139935639 0 0.1689722959232661 0.40169126431279728 0 0.16379442486022849 0.38965543941364961 0 0.1753588575145448 0.37220031576602253 0 0.16523354001105911 0.37409983959611109 0 0.16379442486022849 0.38965543941364961 0 0.1753588575145448 0.37220031576602253 0 0.16379442486022849 0.38965543941364961 0 0.16523354001105911 0.37409983959611109 0 0.15062115634747231 0.37889780715207888 0 0.16379442486022849 0.38965543941364961 0 0.1753588575145448 0.37220031576602253 0 0.18273535403657959 0.38663922238918558 0 0.1753588575145448 0.37220031576602253 0 0.16379442486022849 0.38965543941364961 0 0.18273535403657959 0.38663922238918558 0 0.19654986060048771 0.37047802484019998 0 0.1753588575145448 0.37220031576602253 0 0.18273535403657959 0.38663922238918558 0 0.19654986060048771 0.37047802484019998 0 0.18273535403657959 0.38663922238918558 0 0.20820892020551271 0.38825697944805271 0 0.19011185055861429 0.40107812901234902 0 0.20820892020551271 0.38825697944805271 0 0.19011185055861429 0.40107812901234902 0 0.20429538739721931 0.40183734425620671 0 0.20820892020551271 0.38825697944805271 0 0.18273535403657959 0.38663922238918558 0 0.19011185055861429 0.40107812901234902 0 0.20820892020551271 0.38825697944805271 0 0.19011185055861429 0.40107812901234902 0 0.20429538739721931 0.40183734425620671 0 0.19637406676339619 0.41333592033168631 0 0.20429538739721931 0.40183734425620671 0 0.20820892020551271 0.38825697944805271 0 0.2202735525657262 0.39552406566479109 0 0.20429538739721931 0.40183734425620671 0 0.2202735525657262 0.39552406566479109 0 0.2145024493426794 0.40932094283274068 0 0.21324276167256731 0.36206450472990792 0 0.20820892020551271 0.38825697944805271 0 0.22630598985240971 0.37543582988375418 0 0.20820892020551271 0.38825697944805271 0 0.22630598985240971 0.37543582988375418 0 0.20820892020551271 0.38825697944805271 0 0.22630598985240971 0.37543582988375418 0 0.2202735525657262 0.39552406566479109 0 0.22630598985240971 0.37543582988375418 0 0.2319341774640927 0.38940141535347877 0 0.2202735525657262 0.39552406566479109 0 0.2202735525657262 0.39552406566479109 0 0.23263083192196299 0.40530596533379709 0 0.2145024493426794 0.40932094283274068 0 0.2319341774640927 0.38940141535347877 0 0.2202735525657262 0.39552406566479109 0 0.23263083192196299 0.40530596533379709 0 0.2386671862694576 0.40396906576347452 0 0.24985329529781791 0.39990667252734718 0 0.247713784970646 0.38075050805242922 0 0.2319341774640927 0.38940141535347877 0 0.23263083192196299 0.40530596533379709 0 0.247713784970646 0.38075050805242922 0 0.23263083192196299 0.40530596533379709 0 0.247713784970646 0.38075050805242922 0 0.23263083192196299 0.40530596533379709 0 0.2386671862694576 0.40396906576347452 0 0.247713784970646 0.38075050805242922 0 0.23263083192196299 0.40530596533379709 0 0.2386671862694576 0.40396906576347452 0 0.23263083192196299 0.40530596533379709 0 0.2386671862694576 0.40396906576347452 0 0.23835521004243199 0.40923349084829558 0 0.2386671862694576 0.40396906576347452 0 0.24985329529781791 0.39990667252734718 0 0.23835521004243199 0.40923349084829558 0 0.22630598985240971 0.37543582988375418 0 0.2319341774640927 0.38940141535347877 0 0.247713784970646 0.38075050805242922 0 0.2385665307870003 0.42747740564887549 0 0.25702987725108101 0.42925349536772212 0 0.2385665307870003 0.42747740564887549 0 0.2488221034234695 0.4223051763495565 0 0.25702987725108101 0.42925349536772212 0 0.2385665307870003 0.42747740564887549 0 0.2448364132796593 0.44231000148378752 0 0.25702987725108101 0.42925349536772212 0 0.2385665307870003 0.42747740564887549 0 0.2406669044851476 0.42214558790778223 0 0.2368791315523423 0.42061341875551328 0 0.2385665307870003 0.42747740564887549 0 0.2406669044851476 0.42214558790778223 0 0.2488221034234695 0.4223051763495565 0 0.24985329529781791 0.39990667252734718 0 0.2383998521777784 0.41818635087718381 0 0.24985329529781791 0.39990667252734718 0 0.23835521004243199 0.40923349084829558 0 0.2383998521777784 0.41818635087718381 0 0.24985329529781791 0.39990667252734718 0 0.2383998521777784 0.41818635087718381 0 0.25380059083303341 0.40846212201461762 0 0.2406669044851476 0.42214558790778223 0 0.2488221034234695 0.4223051763495565 0 0.2383998521777784 0.41818635087718381 0 0.23835521004243199 0.40923349084829558 0 0.2350244704201927 0.41211241555610317 0 0.2383998521777784 0.41818635087718381 0 0.23263083192196299 0.40530596533379709 0 0.23835521004243199 0.40923349084829558 0 0.2350244704201927 0.41211241555610317 0 0.2406669044851476 0.42214558790778223 0 0.2383998521777784 0.41818635087718381 0 0.2368791315523423 0.42061341875551328 0 0.2350244704201927 0.41211241555610317 0 0.2383998521777784 0.41818635087718381 0 0.23071198753859651 0.41572385516513549 0 0.2383998521777784 0.41818635087718381 0 0.2368791315523423 0.42061341875551328 0 0.2383998521777784 0.41818635087718381 0 0.2368791315523423 0.42061341875551328 0 0.22312475613875049 0.42078211493492951 0 0.23263083192196299 0.40530596533379709 0 0.2145024493426794 0.40932094283274068 0 0.23263083192196299 0.40530596533379709 0 0.22312475613875049 0.42078211493492951 0 0.2145024493426794 0.40932094283274068 0 0.2383998521777784 0.41818635087718381 0 0.22312475613875049 0.42078211493492951 0 0.2383998521777784 0.41818635087718381 0 0.23071198753859651 0.41572385516513549 0 0.22312475613875049 0.42078211493492951 0 0.23263083192196299 0.40530596533379709 0 0.2350244704201927 0.41211241555610317 0 0.23071198753859651 0.41572385516513549 0 0.23263083192196299 0.40530596533379709 0 0.23071198753859651 0.41572385516513549 0 0.22312475613875049 0.42078211493492951 0 0.23263083192196299 0.40530596533379709 0 0.22312475613875049 0.42078211493492951 0 0.2385665307870003 0.42747740564887549 0 0.2201031843229195 0.42570131593002969 0 0.2201031843229195 0.42570131593002969 0 0.21059740683120351 0.44117697990449289 0 0.23005064234993169 0.44460645584696262 0 0.2385665307870003 0.42747740564887549 0 0.22312475613875049 0.42078211493492951 0 0.2201031843229195 0.42570131593002969 0 0.22312475613875049 0.42078211493492951 0 0.2201031843229195 0.42570131593002969 0 0.2385665307870003 0.42747740564887549 0 0.2201031843229195 0.42570131593002969 0 0.23005064234993169 0.44460645584696262 0 0.2385665307870003 0.42747740564887549 0 0.2368791315523423 0.42061341875551328 0 0.22312475613875049 0.42078211493492951 0 0.22312475613875049 0.42078211493492951 0 0.2201031843229195 0.42570131593002969 0 0.20354836167302259 0.42410881749736329 0 0.20096476004407141 0.4356284052502909 0 0.202011140198494 0.4243700442839049 0 0.21059740683120351 0.44117697990449289 0 0.20354836167302259 0.42410881749736329 0 0.202011140198494 0.4243700442839049 0 0.21059740683120351 0.44117697990449289 0 0.2201031843229195 0.42570131593002969 0 0.21059740683120351 0.44117697990449289 0 0.2201031843229195 0.42570131593002969 0 0.20354836167302259 0.42410881749736329 0 0.21059740683120351 0.44117697990449289 0 0.2201031843229195 0.42570131593002969 0 0.20354836167302259 0.42410881749736329 0 0.202011140198494 0.4243700442839049 0 0.21059740683120351 0.44117697990449289 0 0.22312475613875049 0.42078211493492951 0 0.20354836167302259 0.42410881749736329 0 0.2145024493426794 0.40932094283274068 0 0.19637406676339619 0.41333592033168631 0 0.22312475613875049 0.42078211493492951 0 0.20354836167302259 0.42410881749736329 0 0.2145024493426794 0.40932094283274068 0 0.20429538739721931 0.40183734425620671 0 0.2145024493426794 0.40932094283274068 0 0.19637406676339619 0.41333592033168631 0 0.20354836167302259 0.42410881749736329 0 0.2145024493426794 0.40932094283274068 0 0.19637406676339619 0.41333592033168631 0 0.18398920852212189 0.42222731617319992 0 0.19637406676339619 0.41333592033168631 0 0.202011140198494 0.4243700442839049 0 0.20354836167302259 0.42410881749736329 0 0.19637406676339619 0.41333592033168631 0 0.202011140198494 0.4243700442839049 0 0.19637406676339619 0.41333592033168631 0 0.202011140198494 0.4243700442839049 0 0.19011185055861429 0.40107812901234902 0 0.19637406676339619 0.41333592033168631 0 0.18336528660720119 0.40768054205682042 0 0.19011185055861429 0.40107812901234902 0 0.19637406676339619 0.41333592033168631 0 0.18398920852212189 0.42222731617319992 0 0.202011140198494 0.4243700442839049 0 0.19310721835761019 0.42992761007563862 0 0.18398920852212189 0.42222731617319992 0 0.202011140198494 0.4243700442839049 0 0.20096476004407141 0.4356284052502909 0 0.19931207414017729 0.42860996549168562 0 0.19310721835761019 0.42992761007563862 0 0.19931207414017729 0.42860996549168562 0 0.202011140198494 0.4243700442839049 0 0.19310721835761019 0.42992761007563862 0 0.20096476004407141 0.4356284052502909 0 0.19931207414017729 0.42860996549168562 0 0.202011140198494 0.4243700442839049 0 0.20354836167302259 0.42410881749736329 0 0.202011140198494 0.4243700442839049 0 0.20096476004407141 0.4356284052502909 0 0.19310721835761019 0.42992761007563862 0 0.189468296445607 0.44161966517716561 0 0.189468296445607 0.44161966517716561 0 0.19808345402660399 0.44429013419941671 0 0.18816718916202771 0.45764189265325561 0 0.19808345402660399 0.44429013419941671 0 0.18816718916202771 0.45764189265325561 0 0.20509446468425149 0.45013591920339668 0 0.20096476004407141 0.4356284052502909 0 0.189468296445607 0.44161966517716561 0 0.19808345402660399 0.44429013419941671 0 0.18816718916202771 0.45764189265325561 0 0.2005182123172754 0.46504183791057307 0 0.20509446468425149 0.45013591920339668 0 0.18816718916202771 0.45764189265325561 0 0.2005182123172754 0.46504183791057307 0 0.18719455148605621 0.47613314112345201 0 0.2103116034304838 0.4602104470792151 0 0.21059740683120351 0.44117697990449289 0 0.22229140550900001 0.46406705440744211 0 0.2103116034304838 0.4602104470792151 0 0.22229140550900001 0.46406705440744211 0 0.21058997783642669 0.48154513501692131 0 0.2005182123172754 0.46504183791057307 0 0.2103116034304838 0.4602104470792151 0 0.20509446468425149 0.45013591920339668 0 0.21059740683120351 0.44117697990449289 0 0.22229140550900001 0.46406705440744211 0 0.2103116034304838 0.4602104470792151 0 0.21059740683120351 0.44117697990449289 0 0.20509446468425149 0.45013591920339668 0 0.20096476004407141 0.4356284052502909 0 0.19808345402660399 0.44429013419941671 0 0.21059740683120351 0.44117697990449289 0 0.19808345402660399 0.44429013419941671 0 0.21059740683120351 0.44117697990449289 0 0.20509446468425149 0.45013591920339668 0 0.21059740683120351 0.44117697990449289 0 0.20509446468425149 0.45013591920339668 0 0.21059740683120351 0.44117697990449289 0 0.23005064234993169 0.44460645584696262 0 0.22229140550900001 0.46406705440744211 0 0.23005064234993169 0.44460645584696262 0 0.22229140550900001 0.46406705440744211 0 0.24184120684035099 0.4581976946154846 0 0.22229140550900001 0.46406705440744211 0 0.24184120684035099 0.4581976946154846 0 0.24193409961780649 0.47367643658526698 0 0.24184120684035099 0.4581976946154846 0 0.2448364132796593 0.44231000148378752 0 0.25709847220363119 0.45283566357848187 0 0.23005064234993169 0.44460645584696262 0 0.24184120684035099 0.4581976946154846 0 0.2448364132796593 0.44231000148378752 0 0.2385665307870003 0.42747740564887549 0 0.23005064234993169 0.44460645584696262 0 0.2448364132796593 0.44231000148378752 0 0.24064869911215761 0.50000000000000244 0 0.24324303354975521 0.48909866857844392 0 0.2572356621087325 0.50000000000000155 0 0.24324303354975521 0.48909866857844392 0 0.2339854041867972 0.48695712891039089 0 0.24064869911215761 0.50000000000000244 0 0.24324303354975521 0.48909866857844392 0 0.2339854041867972 0.48695712891039089 0 0.24064869911215761 0.50000000000000244 0 0.2339854041867972 0.48695712891039089 0 0.24184120684035099 0.4581976946154846 0 0.24193409961780649 0.47367643658526698 0 0.25716706715618193 0.47641783178924169 0 0.24324303354975521 0.48909866857844392 0 0.24193409961780649 0.47367643658526698 0 0.25716706715618193 0.47641783178924169 0 0.24324303354975521 0.48909866857844392 0 0.24193409961780649 0.47367643658526698 0 0.2339854041867972 0.48695712891039089 0 0.22229140550900001 0.46406705440744211 0 0.24193409961780649 0.47367643658526698 0 0.2339854041867972 0.48695712891039089 0 0.22229140550900001 0.46406705440744211 0 0.2339854041867972 0.48695712891039089 0 0.22229140550900001 0.46406705440744211 0 0.2339854041867972 0.48695712891039089 0 0.21058997783642669 0.48154513501692131 0 0.2339854041867972 0.48695712891039089 0 0.21058997783642669 0.48154513501692131 0 0.2339854041867972 0.48695712891039089 0 0.21314400247467591 0.5 0 0.21058997783642669 0.48154513501692131 0 0.24064869911215761 0.50000000000000244 0 0.2339854041867972 0.48695712891039089 0 0.21314400247467591 0.5 0 0.21314400247467591 0.5 0 0.21058997783642669 0.48154513501692131 0 0.19841687033665559 0.48922266484742172 0 0.2005182123172754 0.46504183791057307 0 0.2103116034304838 0.4602104470792151 0 0.21058997783642669 0.48154513501692131 0 0.21058997783642669 0.48154513501692131 0 0.18719455148605621 0.47613314112345201 0 0.21058997783642669 0.48154513501692131 0 0.19841687033665559 0.48922266484742172 0 0.18719455148605621 0.47613314112345201 0 0.2005182123172754 0.46504183791057307 0 0.21058997783642669 0.48154513501692131 0 0.18719455148605621 0.47613314112345201 0 0.21314400247467591 0.5 0 0.19841687033665559 0.48922266484742172 0 0.18563930583719421 0.5 0 0.19841687033665559 0.48922266484742172 0 0.18563930583719421 0.5 0 0.18719455148605621 0.47613314112345201 0 0.18563930583719421 0.5 0 0.17133697046385701 0.48683307990629038 0 0.18719455148605621 0.47613314112345201 0 0.17133697046385701 0.48683307990629038 0 0.15813460919971251 0.5 0 0.1479106042039405 0.48283460682922269 0 0.18563930583719421 0.5 0 0.17133697046385701 0.48683307990629038 0 0.15813460919971251 0.5 0 0.17133697046385701 0.48683307990629038 0 0.16379912513568581 0.47072114722998237 0 0.1479106042039405 0.48283460682922269 0 0.17133697046385701 0.48683307990629038 0 0.16379912513568581 0.47072114722998237 0 0.18719455148605621 0.47613314112345201 0 0.16379912513568581 0.47072114722998237 0 0.18719455148605621 0.47613314112345201 0 0.18816718916202771 0.45764189265325561 0 0.16379912513568581 0.47072114722998237 0 0.18719455148605621 0.47613314112345201 0 0.18816718916202771 0.45764189265325561 0 0.16379912513568581 0.47072114722998237 0 0.1764896290127039 0.45007039086196288 0 0.1766721112776041 0.43405941705504181 0 0.1764896290127039 0.45007039086196288 0 0.16434142304259489 0.44630983219436898 0 0.189468296445607 0.44161966517716561 0 0.18816718916202771 0.45764189265325561 0 0.1764896290127039 0.45007039086196288 0 0.1766721112776041 0.43405941705504181 0 0.189468296445607 0.44161966517716561 0 0.1764896290127039 0.45007039086196288 0 0.15915405200730839 0.43380743940711708 0 0.1766721112776041 0.43405941705504181 0 0.16434142304259489 0.44630983219436898 0 0.15915405200730839 0.43380743940711708 0 0.16434142304259489 0.44630983219436898 0 0.1468621194973313 0.4432032004000479 0 0.16379912513568581 0.47072114722998237 0 0.1764896290127039 0.45007039086196288 0 0.16434142304259489 0.44630983219436898 0 0.16379912513568581 0.47072114722998237 0 0.16434142304259489 0.44630983219436898 0 0.15386760244336481 0.45613183796281243 0 0.16379912513568581 0.47072114722998237 0 0.15386760244336481 0.45613183796281243 0 0.14046774209784721 0.46429317202685039 0 0.15386760244336481 0.45613183796281243 0 0.1468621194973313 0.4432032004000479 0 0.14046774209784721 0.46429317202685039 0 0.16434142304259489 0.44630983219436898 0 0.15386760244336481 0.45613183796281243 0 0.1468621194973313 0.4432032004000479 0 0.1468621194973313 0.4432032004000479 0 0.128144127290927 0.44346528644618949 0 0.14046774209784721 0.46429317202685039 0 0.11648320602364499 0.46106604807885698 0 0.128144127290927 0.44346528644618949 0 0.14046774209784721 0.46429317202685039 0 0.11648320602364499 0.46106604807885698 0 0.14046774209784721 0.46429317202685039 0 0.12567845600013469 0.47929569400969452 0 0.14046774209784721 0.46429317202685039 0 0.12567845600013469 0.47929569400969452 0 0.1479106042039405 0.48283460682922269 0 0.12567845600013469 0.47929569400969452 0 0.1306299125622308 0.5 0 0.1479106042039405 0.48283460682922269 0 0.15813460919971251 0.5 0 0.1306299125622308 0.5 0 0.1479106042039405 0.48283460682922269 0 0.16379912513568581 0.47072114722998237 0 0.14046774209784721 0.46429317202685039 0 0.1479106042039405 0.48283460682922269 0 0.34528538451660062 0.47773379418631268 0 0.36004097027348331 0.48461391470660581 0 0.33995603526071178 0.48633656933393699 0 0.3490806650621458 0.46922782941321262 0 0.36004097027348331 0.48461391470660581 0 0.36717500093372668 0.46757054210475929 0 0.3490806650621458 0.46922782941321262 0 0.36004097027348331 0.48461391470660581 0 0.3490806650621458 0.46922782941321262 0 0.34528538451660062 0.47773379418631268 0 0.36004097027348331 0.48461391470660581 0 0.34701069105550569 0.5 0 0.36004097027348331 0.48461391470660581 0 0.33995603526071178 0.48633656933393699 0 0.34701069105550569 0.5 0 0.36004097027348331 0.48461391470660581 0 0.37100127548482031 0.49999999999999922 0 0.36004097027348331 0.48461391470660581 0 0.37100127548482031 0.49999999999999922 0 0.37501723488010369 0.48021086780116401 0 0.36004097027348331 0.48461391470660581 0 0.37100127548482031 0.49999999999999922 0 0.36004097027348331 0.48461391470660581 0 0.36717500093372668 0.46757054210475929 0 0.37501723488010369 0.48021086780116401 0 0.37143629651032872 0.45720686114999193 0 0.36367632925015653 0.45252291112370391 0 0.35567836915472589 0.45678778088016703 0 0.36415499449082389 0.46121224231392488 0 0.37143629651032872 0.45720686114999193 0 0.38198070339643708 0.45705904394289942 0 0.36415499449082389 0.46121224231392488 0 0.37143629651032872 0.45720686114999193 0 0.35567836915472589 0.45678778088016703 0 0.36415499449082389 0.46121224231392488 0 0.36717500093372668 0.46757054210475929 0 0.38198070339643708 0.45705904394289942 0 0.36415499449082389 0.46121224231392488 0 0.38198070339643708 0.45705904394289942 0 0.3490806650621458 0.46922782941321262 0 0.36415499449082389 0.46121224231392488 0 0.36717500093372668 0.46757054210475929 0 0.37143629651032872 0.45720686114999193 0 0.35567836915472589 0.45678778088016703 0 0.37143629651032872 0.45720686114999193 0 0.36657482697318761 0.446748226791508 0 0.38198070339643708 0.45705904394289942 0 0.36657482697318761 0.446748226791508 0 0.37193014631584848 0.42999924720615068 0 0.38198070339643708 0.45705904394289942 0 0.37143629651032872 0.45720686114999193 0 0.36367632925015653 0.45252291112370391 0 0.36657482697318761 0.446748226791508 0 0.36367632925015653 0.45252291112370391 0 0.36657482697318761 0.446748226791508 0 0.3562845012834378 0.4482926986491193 0 0.34808057550305938 0.44600590612250468 0 0.35567836915472589 0.45678778088016703 0 0.33992044179912329 0.45636870061034079 0 0.36657482697318761 0.446748226791508 0 0.3562845012834378 0.4482926986491193 0 0.35414098508291708 0.43540859867718368 0 0.3562845012834378 0.4482926986491193 0 0.34808057550305938 0.44600590612250468 0 0.35414098508291708 0.43540859867718368 0 0.36367632925015653 0.45252291112370391 0 0.3562845012834378 0.4482926986491193 0 0.35567836915472589 0.45678778088016703 0 0.3562845012834378 0.4482926986491193 0 0.34808057550305938 0.44600590612250468 0 0.35567836915472589 0.45678778088016703 0 0.34808057550305938 0.44600590612250468 0 0.33961570140635172 0.4362099185178574 0 0.35414098508291708 0.43540859867718368 0 0.35567836915472589 0.45678778088016703 0 0.34632928558521042 0.46536544068494828 0 0.33992044179912329 0.45636870061034079 0 0.35567836915472589 0.45678778088016703 0 0.33992044179912329 0.45636870061034079 0 0.3490806650621458 0.46922782941321262 0 0.36415499449082389 0.46121224231392488 0 0.34632928558521042 0.46536544068494828 0 0.3490806650621458 0.46922782941321262 0 0.36717500093372668 0.46757054210475929 0 0.36415499449082389 0.46121224231392488 0 0.35567836915472589 0.45678778088016703 0 0.34632928558521042 0.46536544068494828 0 0.36415499449082389 0.46121224231392488 0 0.34632928558521042 0.46536544068494828 0 0.3490806650621458 0.46922782941321262 0 0.34632928558521042 0.46536544068494828 0 0.3490806650621458 0.46922782941321262 0 0.34632928558521042 0.46536544068494828 0 0.32696081697792789 0.47125381941113659 0 0.34632928558521042 0.46536544068494828 0 0.32521862645877231 0.47028399711148339 0 0.34632928558521042 0.46536544068494828 0 0.33992044179912329 0.45636870061034079 0 0.32521862645877231 0.47028399711148339 0 0.34632928558521042 0.46536544068494828 0 0.33992044179912329 0.45636870061034079 0 0.34808057550305938 0.44600590612250468 0 0.3323541236552271 0.44574709709892307 0 0.33961570140635172 0.4362099185178574 0 0.33992044179912329 0.45636870061034079 0 0.3323541236552271 0.44574709709892307 0 0.32253421818534123 0.44684829148095362 0 0.34808057550305938 0.44600590612250468 0 0.33992044179912329 0.45636870061034079 0 0.3323541236552271 0.44574709709892307 0 0.33992044179912329 0.45636870061034079 0 0.3323541236552271 0.44574709709892307 0 0.3323541236552271 0.44574709709892307 0 0.32610359684421192 0.43678193879044119 0 0.33961570140635172 0.4362099185178574 0 0.33992044179912329 0.45636870061034079 0 0.32253421818534123 0.44684829148095362 0 0.3152464127007425 0.45571249763777588 0 0.32253421818534123 0.44684829148095362 0 0.3152464127007425 0.45571249763777588 0 0.31209623941360759 0.43776564917250638 0 0.3152464127007425 0.45571249763777588 0 0.31209623941360759 0.43776564917250638 0 0.3323541236552271 0.44574709709892307 0 0.32253421818534123 0.44684829148095362 0 0.32610359684421192 0.43678193879044119 0 0.32253421818534123 0.44684829148095362 0 0.31209623941360759 0.43776564917250638 0 0.32610359684421192 0.43678193879044119 0 0.33992044179912329 0.45636870061034079 0 0.3152464127007425 0.45571249763777588 0 0.32521862645877231 0.47028399711148339 0 0.3152464127007425 0.45571249763777588 0 0.31913325966346701 0.47785624881888772 0 0.32521862645877231 0.47028399711148339 0 0.33992044179912329 0.45636870061034079 0 0.3152464127007425 0.45571249763777588 0 0.3152464127007425 0.45571249763777588 0 0.31913325966346701 0.47785624881888772 0 0.30420975952634299 0.46947331586472302 0 0.3152464127007425 0.45571249763777588 0 0.31913325966346701 0.47785624881888772 0 0.31913325966346701 0.47785624881888772 0 0.32591742888426312 0.47548348654552591 0 0.329001796240801 0.48161473987402198 0 0.32591742888426312 0.47548348654552591 0 0.32927264508034731 0.47640862751209928 0 0.329001796240801 0.48161473987402198 0 0.31913325966346701 0.47785624881888772 0 0.32591742888426312 0.47548348654552591 0 0.32521862645877231 0.47028399711148339 0 0.32591742888426312 0.47548348654552591 0 0.32696081697792789 0.47125381941113659 0 0.32927264508034731 0.47640862751209928 0 0.32591742888426312 0.47548348654552591 0 0.32521862645877231 0.47028399711148339 0 0.32696081697792789 0.47125381941113659 0 0.3490806650621458 0.46922782941321262 0 0.32696081697792789 0.47125381941113659 0 0.33647616413196407 0.47630837646213342 0 0.34632928558521042 0.46536544068494828 0 0.32521862645877231 0.47028399711148339 0 0.32696081697792789 0.47125381941113659 0 0.32696081697792789 0.47125381941113659 0 0.32927264508034731 0.47640862751209928 0 0.33647616413196407 0.47630837646213342 0 0.3490806650621458 0.46922782941321262 0 0.32696081697792789 0.47125381941113659 0 0.32927264508034731 0.47640862751209928 0 0.329001796240801 0.48161473987402198 0 0.33647616413196407 0.47630837646213342 0 0.329001796240801 0.48161473987402198 0 0.33647616413196407 0.47630837646213342 0 0.33995603526071178 0.48633656933393699 0 0.34528538451660062 0.47773379418631268 0 0.33647616413196407 0.47630837646213342 0 0.33995603526071178 0.48633656933393699 0 0.3490806650621458 0.46922782941321262 0 0.34528538451660062 0.47773379418631268 0 0.33647616413196407 0.47630837646213342 0 0.329001796240801 0.48161473987402198 0 0.33995603526071178 0.48633656933393699 0 0.32302010662619118 0.49999999999999961 0 0.34701069105550569 0.5 0 0.33995603526071178 0.48633656933393699 0 0.32302010662619118 0.49999999999999961 0 0.31913325966346701 0.47785624881888772 0 0.32302010662619118 0.49999999999999961 0 0.30499869470741492 0.48476163660817662 0 0.31913325966346701 0.47785624881888772 0 0.329001796240801 0.48161473987402198 0 0.32302010662619118 0.49999999999999961 0 0.31913325966346701 0.47785624881888772 0 0.32302010662619118 0.49999999999999961 0 0.30109195845370501 0.5 0 0.30499869470741492 0.48476163660817662 0 0.28958375731165181 0.48005255167767952 0 0.32302010662619118 0.49999999999999961 0 0.30109195845370501 0.5 0 0.30499869470741492 0.48476163660817662 0 0.31913325966346701 0.47785624881888772 0 0.30499869470741492 0.48476163660817662 0 0.30420975952634299 0.46947331586472302 0 0.30499869470741492 0.48476163660817662 0 0.30420975952634299 0.46947331586472302 0 0.28958375731165181 0.48005255167767952 0 0.30109195845370501 0.5 0 0.28958375731165181 0.48005255167767952 0 0.27916381028121873 0.5 0 0.27916381028121873 0.5 0 0.27240166341444522 0.48425749185169831 0 0.2572356621087325 0.50000000000000155 0 0.28958375731165181 0.48005255167767952 0 0.27916381028121873 0.5 0 0.27240166341444522 0.48425749185169831 0 0.27240166341444522 0.48425749185169831 0 0.25716706715618193 0.47641783178924169 0 0.27345808637904001 0.4661952126215072 0 0.28958375731165181 0.48005255167767952 0 0.27240166341444522 0.48425749185169831 0 0.27345808637904001 0.4661952126215072 0 0.25716706715618193 0.47641783178924169 0 0.2572356621087325 0.50000000000000155 0 0.24324303354975521 0.48909866857844392 0 0.25716706715618193 0.47641783178924169 0 0.2572356621087325 0.50000000000000155 0 0.27240166341444522 0.48425749185169831 0 0.25716706715618193 0.47641783178924169 0 0.2572356621087325 0.50000000000000155 0 0.25709847220363119 0.45283566357848187 0 0.25702987725108101 0.42925349536772212 0 0.25709847220363119 0.45283566357848187 0 0.25702987725108101 0.42925349536772212 0 0.25836746492245471 0.43174768403659147 0 0.25709847220363119 0.45283566357848187 0 0.2660695066302855 0.43871015010979147 0 0.25836746492245471 0.43174768403659147 0 0.2448364132796593 0.44231000148378752 0 0.25709847220363119 0.45283566357848187 0 0.25702987725108101 0.42925349536772212 0 0.25716706715618193 0.47641783178924169 0 0.25709847220363119 0.45283566357848187 0 0.25716706715618193 0.47641783178924169 0 0.25709847220363119 0.45283566357848187 0 0.27345808637904001 0.4661952126215072 0 0.24184120684035099 0.4581976946154846 0 0.25716706715618193 0.47641783178924169 0 0.25709847220363119 0.45283566357848187 0 0.27345808637904001 0.4661952126215072 0 0.27379346358837398 0.44854793932786308 0 0.29070409459995628 0.45505979750407899 0 0.25709847220363119 0.45283566357848187 0 0.27345808637904001 0.4661952126215072 0 0.27379346358837398 0.44854793932786308 0 0.25709847220363119 0.45283566357848187 0 0.27379346358837398 0.44854793932786308 0 0.2660695066302855 0.43871015010979147 0 0.27379346358837398 0.44854793932786308 0 0.2660695066302855 0.43871015010979147 0 0.27312045032292342 0.43870088492299869 0 0.27379346358837398 0.44854793932786308 0 0.27312045032292342 0.43870088492299869 0 0.28291697042830632 0.43588410089467061 0 0.27379346358837398 0.44854793932786308 0 0.29070409459995628 0.45505979750407899 0 0.28291697042830632 0.43588410089467061 0 0.29070409459995628 0.45505979750407899 0 0.29777872383227422 0.43475991775429229 0 0.28291697042830632 0.43588410089467061 0 0.28958375731165181 0.48005255167767952 0 0.27345808637904001 0.4661952126215072 0 0.29070409459995628 0.45505979750407899 0 0.30420975952634299 0.46947331586472302 0 0.28958375731165181 0.48005255167767952 0 0.29070409459995628 0.45505979750407899 0 0.3152464127007425 0.45571249763777588 0 0.30420975952634299 0.46947331586472302 0 0.29070409459995628 0.45505979750407899 0 0.3152464127007425 0.45571249763777588 0 0.29070409459995628 0.45505979750407899 0 0.3152464127007425 0.45571249763777588 0 0.29070409459995628 0.45505979750407899 0 0.31209623941360759 0.43776564917250638 0 0.29070409459995628 0.45505979750407899 0 0.31209623941360759 0.43776564917250638 0 0.29777872383227422 0.43475991775429229 0 0.29777872383227422 0.43475991775429229 0 0.28982240375417168 0.42299913491174501 0 0.31495791781995791 0.41600820478279921 0 0.31209623941360759 0.43776564917250638 0 0.29777872383227422 0.43475991775429229 0 0.31495791781995791 0.41600820478279921 0 0.28982240375417168 0.42299913491174501 0 0.31495791781995791 0.41600820478279921 0 0.28950248352475311 0.4095022566254774 0 0.28982240375417168 0.42299913491174501 0 0.31495791781995791 0.41600820478279921 0 0.28950248352475311 0.4095022566254774 0 0.29925209770985872 0.40107025153885512 0 0.31495791781995791 0.41600820478279921 0 0.28950248352475311 0.4095022566254774 0 0.28982240375417168 0.42299913491174501 0 0.27496603255160451 0.42014298348928741 0 0.29777872383227422 0.43475991775429229 0 0.28982240375417168 0.42299913491174501 0 0.28291697042830632 0.43588410089467061 0 0.28982240375417168 0.42299913491174501 0 0.26935029905594432 0.43043866375212297 0 0.26468688968838561 0.42999006504069143 0 0.27312045032292342 0.43870088492299869 0 0.28291697042830632 0.43588410089467061 0 0.26935029905594432 0.43043866375212297 0 0.28982240375417168 0.42299913491174501 0 0.26468688968838561 0.42999006504069143 0 0.28982240375417168 0.42299913491174501 0 0.28291697042830632 0.43588410089467061 0 0.26935029905594432 0.43043866375212297 0 0.28982240375417168 0.42299913491174501 0 0.27496603255160451 0.42014298348928741 0 0.26468688968838561 0.42999006504069143 0 0.2660695066302855 0.43871015010979147 0 0.26935029905594432 0.43043866375212297 0 0.26468688968838561 0.42999006504069143 0 0.2660695066302855 0.43871015010979147 0 0.27312045032292342 0.43870088492299869 0 0.26935029905594432 0.43043866375212297 0 0.26935029905594432 0.43043866375212297 0 0.26468688968838561 0.42999006504069143 0 0.27496603255160451 0.42014298348928741 0 0.26468688968838561 0.42999006504069143 0 0.2651281327625446 0.42188031555685962 0 0.28950248352475311 0.4095022566254774 0 0.26395116785126571 0.41384430375133069 0 0.28950248352475311 0.4095022566254774 0 0.27496603255160451 0.42014298348928741 0 0.26395116785126571 0.41384430375133069 0 0.28950248352475311 0.4095022566254774 0 0.26395116785126571 0.41384430375133069 0 0.27343145984221179 0.40601604463393609 0 0.26395116785126571 0.41384430375133069 0 0.26299804800527138 0.40191116090260848 0 0.27343145984221179 0.40601604463393609 0 0.27496603255160451 0.42014298348928741 0 0.26395116785126571 0.41384430375133069 0 0.2651281327625446 0.42188031555685962 0 0.26395116785126571 0.41384430375133069 0 0.25700903327720531 0.4220875730974884 0 0.2651281327625446 0.42188031555685962 0 0.2383998521777784 0.41818635087718381 0 0.26395116785126571 0.41384430375133069 0 0.25380059083303341 0.40846212201461762 0 0.2488221034234695 0.4223051763495565 0 0.2383998521777784 0.41818635087718381 0 0.26395116785126571 0.41384430375133069 0 0.2383998521777784 0.41818635087718381 0 0.26395116785126571 0.41384430375133069 0 0.26395116785126571 0.41384430375133069 0 0.25380059083303341 0.40846212201461762 0 0.26299804800527138 0.40191116090260848 0 0.2488221034234695 0.4223051763495565 0 0.26395116785126571 0.41384430375133069 0 0.25700903327720531 0.4220875730974884 0 0.2488221034234695 0.4223051763495565 0 0.25700903327720531 0.4220875730974884 0 0.25702987725108101 0.42925349536772212 0 0.25700903327720531 0.4220875730974884 0 0.25702987725108101 0.42925349536772212 0 0.25836746492245471 0.43174768403659147 0 0.26468688968838561 0.42999006504069143 0 0.25702987725108101 0.42925349536772212 0 0.25836746492245471 0.43174768403659147 0 0.26468688968838561 0.42999006504069143 0 0.2660695066302855 0.43871015010979147 0 0.25836746492245471 0.43174768403659147 0 0.26468688968838561 0.42999006504069143 0 0.25702987725108101 0.42925349536772212 0 0.26468688968838561 0.42999006504069143 0 0.2651281327625446 0.42188031555685962 0 0.25700903327720531 0.4220875730974884 0 0.25702987725108101 0.42925349536772212 0 0.2651281327625446 0.42188031555685962 0 0.25702987725108101 0.42925349536772212 0 0.26468688968838561 0.42999006504069143 0 0.24985329529781791 0.39990667252734718 0 0.247713784970646 0.38075050805242922 0 0.26130673841785779 0.38162699417751078 0 0.26130673841785779 0.38162699417751078 0 0.25751014003425049 0.39127202551525408 0 0.26130673841785779 0.38162699417751078 0 0.25751014003425049 0.39127202551525408 0 0.26555566989124457 0.39385691981445009 0 0.247713784970646 0.38075050805242922 0 0.26130673841785779 0.38162699417751078 0 0.25490457918629872 0.37507349251653871 0 0.24985329529781791 0.39990667252734718 0 0.26130673841785779 0.38162699417751078 0 0.24985329529781791 0.39990667252734718 0 0.26130673841785779 0.38162699417751078 0 0.25751014003425049 0.39127202551525408 0 0.24985329529781791 0.39990667252734718 0 0.25751014003425049 0.39127202551525408 0 0.26299804800527138 0.40191116090260848 0 0.24985329529781791 0.39990667252734718 0 0.25380059083303341 0.40846212201461762 0 0.26299804800527138 0.40191116090260848 0 0.25751014003425049 0.39127202551525408 0 0.26299804800527138 0.40191116090260848 0 0.26555566989124457 0.39385691981445009 0 0.26555566989124457 0.39385691981445009 0 0.27430006382294309 0.39784586166294189 0 0.27120134665021761 0.38756895009831732 0 0.26299804800527138 0.40191116090260848 0 0.26555566989124457 0.39385691981445009 0 0.27430006382294309 0.39784586166294189 0 0.26299804800527138 0.40191116090260848 0 0.27343145984221179 0.40601604463393609 0 0.27430006382294309 0.39784586166294189 0 0.27343145984221179 0.40601604463393609 0 0.28106797903805247 0.40257602375425933 0 0.27430006382294309 0.39784586166294189 0 0.28106797903805247 0.40257602375425933 0 0.27430006382294309 0.39784586166294189 0 0.28703790896230208 0.39693993209468148 0 0.27430006382294309 0.39784586166294189 0 0.27993136792368678 0.39059144184020128 0 0.27120134665021761 0.38756895009831732 0 0.27430006382294309 0.39784586166294189 0 0.27993136792368678 0.39059144184020128 0 0.28703790896230208 0.39693993209468148 0 0.27993136792368678 0.39059144184020128 0 0.27120134665021761 0.38756895009831732 0 0.27779903165459169 0.3822920493098666 0 0.26130673841785779 0.38162699417751078 0 0.26555566989124457 0.39385691981445009 0 0.27120134665021761 0.38756895009831732 0 0.27120134665021761 0.38756895009831732 0 0.27107463499663109 0.37851234507980008 0 0.27779903165459169 0.3822920493098666 0 0.26130673841785779 0.38162699417751078 0 0.27120134665021761 0.38756895009831732 0 0.27107463499663109 0.37851234507980008 0 0.27107463499663109 0.37851234507980008 0 0.27779903165459169 0.3822920493098666 0 0.2766490591355068 0.37433388147839908 0 0.27779903165459169 0.3822920493098666 0 0.28390095120816711 0.37562544504190132 0 0.2766490591355068 0.37433388147839908 0 0.28390095120816711 0.37562544504190132 0 0.28652318226166418 0.38492160690775928 0 0.29373006398809498 0.37700175091789651 0 0.27779903165459169 0.3822920493098666 0 0.28390095120816711 0.37562544504190132 0 0.28652318226166418 0.38492160690775928 0 0.27993136792368678 0.39059144184020128 0 0.27779903165459169 0.3822920493098666 0 0.28652318226166418 0.38492160690775928 0 0.28652318226166418 0.38492160690775928 0 0.29667622102462171 0.38885955313607279 0 0.28703790896230208 0.39693993209468148 0 0.28652318226166418 0.38492160690775928 0 0.29667622102462171 0.38885955313607279 0 0.29373006398809498 0.37700175091789651 0 0.28950248352475311 0.4095022566254774 0 0.27343145984221179 0.40601604463393609 0 0.28106797903805247 0.40257602375425933 0 0.28950248352475311 0.4095022566254774 0 0.28106797903805247 0.40257602375425933 0 0.28703790896230208 0.39693993209468148 0 0.27993136792368678 0.39059144184020128 0 0.28652318226166418 0.38492160690775928 0 0.28703790896230208 0.39693993209468148 0 0.29667622102462171 0.38885955313607279 0 0.28703790896230208 0.39693993209468148 0 0.29925209770985872 0.40107025153885512 0 0.28950248352475311 0.4095022566254774 0 0.28703790896230208 0.39693993209468148 0 0.29925209770985872 0.40107025153885512 0 0.29925209770985872 0.40107025153885512 0 0.30808595721765852 0.39404131105524431 0 0.31495791781995791 0.41600820478279921 0 0.29667622102462171 0.38885955313607279 0 0.29925209770985872 0.40107025153885512 0 0.30808595721765852 0.39404131105524431 0 0.29667622102462171 0.38885955313607279 0 0.29373006398809498 0.37700175091789651 0 0.30704607127102962 0.37874789135054893 0 0.29667622102462171 0.38885955313607279 0 0.30808595721765852 0.39404131105524431 0 0.30704607127102962 0.37874789135054893 0 0.30808595721765852 0.39404131105524431 0 0.30704607127102962 0.37874789135054893 0 0.32845424032326143 0.38484820442882378 0 0.32845424032326143 0.38484820442882378 0 0.35182903215467742 0.3758796537326512 0 0.34790646022865218 0.39538457505576469 0 0.32845424032326143 0.38484820442882378 0 0.35182903215467742 0.3758796537326512 0 0.33494999436834533 0.36683291921078343 0 0.32845424032326143 0.38484820442882378 0 0.34009343188574281 0.40901727465384918 0 0.34790646022865218 0.39538457505576469 0 0.32845424032326143 0.38484820442882378 0 0.34009343188574281 0.40901727465384918 0 0.32845424032326143 0.38484820442882378 0 0.31495791781995791 0.41600820478279921 0 0.34009343188574281 0.40901727465384918 0 0.30808595721765852 0.39404131105524431 0 0.32845424032326143 0.38484820442882378 0 0.31495791781995791 0.41600820478279921 0 0.31495791781995791 0.41600820478279921 0 0.32365546110746413 0.42694996431045568 0 0.33527312640506091 0.41934143736272778 0 0.31495791781995791 0.41600820478279921 0 0.34009343188574281 0.40901727465384918 0 0.31209623941360759 0.43776564917250638 0 0.31495791781995791 0.41600820478279921 0 0.32365546110746413 0.42694996431045568 0 0.32365546110746413 0.42694996431045568 0 0.32610359684421192 0.43678193879044119 0 0.33309445048640007 0.42842800460629599 0 0.31209623941360759 0.43776564917250638 0 0.32365546110746413 0.42694996431045568 0 0.32610359684421192 0.43678193879044119 0 0.32610359684421192 0.43678193879044119 0 0.33309445048640007 0.42842800460629599 0 0.33961570140635172 0.4362099185178574 0 0.32365546110746413 0.42694996431045568 0 0.33309445048640007 0.42842800460629599 0 0.33527312640506091 0.41934143736272778 0 0.33309445048640007 0.42842800460629599 0 0.33527312640506091 0.41934143736272778 0 0.34392047686629479 0.42488796581179539 0 0.33309445048640007 0.42842800460629599 0 0.33961570140635172 0.4362099185178574 0 0.34392047686629479 0.42488796581179539 0 0.31495791781995791 0.41600820478279921 0 0.33527312640506091 0.41934143736272778 0 0.34009343188574281 0.40901727465384918 0 0.33527312640506091 0.41934143736272778 0 0.34212939465805281 0.41814630590263291 0 0.34392047686629479 0.42488796581179539 0 0.33527312640506091 0.41934143736272778 0 0.34212939465805281 0.41814630590263291 0 0.34186442441667098 0.41269478460960501 0 0.34212939465805281 0.41814630590263291 0 0.34186442441667098 0.41269478460960501 0 0.34552380666320143 0.41323543455967687 0 0.34186442441667098 0.41269478460960501 0 0.34009343188574281 0.40901727465384918 0 0.34552380666320143 0.41323543455967687 0 0.33527312640506091 0.41934143736272778 0 0.34186442441667098 0.41269478460960501 0 0.34009343188574281 0.40901727465384918 0 0.34186442441667098 0.41269478460960501 0 0.34009343188574281 0.40901727465384918 0 0.34009343188574281 0.40901727465384918 0 0.35091829865975332 0.41092335925812529 0 0.35727600754431599 0.40423829199409889 0 0.34009343188574281 0.40901727465384918 0 0.35727600754431599 0.40423829199409889 0 0.34009343188574281 0.40901727465384918 0 0.35091829865975332 0.41092335925812529 0 0.34552380666320143 0.41323543455967687 0 0.35091829865975332 0.41092335925812529 0 0.34552380666320143 0.41323543455967687 0 0.34772672207850669 0.4169791994607831 0 0.34212939465805281 0.41814630590263291 0 0.34772672207850669 0.4169791994607831 0 0.34392047686629479 0.42488796581179539 0 0.34212939465805281 0.41814630590263291 0 0.34552380666320143 0.41323543455967687 0 0.34772672207850669 0.4169791994607831 0 0.34772672207850669 0.4169791994607831 0 0.35532758082363769 0.41783269502340331 0 0.34392047686629479 0.42488796581179539 0 0.35091829865975332 0.41092335925812529 0 0.34772672207850669 0.4169791994607831 0 0.35532758082363769 0.41783269502340331 0 0.35091829865975332 0.41092335925812529 0 0.35532758082363769 0.41783269502340331 0 0.35727600754431599 0.40423829199409889 0 0.35532758082363769 0.41783269502340331 0 0.36187958923526292 0.40293945046940088 0 0.35727600754431599 0.40423829199409889 0 0.35532758082363769 0.41783269502340331 0 0.34392047686629479 0.42488796581179539 0 0.35414098508291708 0.43540859867718368 0 0.33961570140635172 0.4362099185178574 0 0.34392047686629479 0.42488796581179539 0 0.35414098508291708 0.43540859867718368 0 0.35532758082363769 0.41783269502340331 0 0.35414098508291708 0.43540859867718368 0 0.37193014631584848 0.42999924720615068 0 0.36657482697318761 0.446748226791508 0 0.35414098508291708 0.43540859867718368 0 0.37193014631584848 0.42999924720615068 0 0.35532758082363769 0.41783269502340331 0 0.37193014631584848 0.42999924720615068 0 0.36187958923526292 0.40293945046940088 0 0.37193014631584848 0.42999924720615068 0 0.36187958923526292 0.40293945046940088 0 0.37193014631584848 0.42999924720615068 0 0.36187958923526292 0.40293945046940088 0 0.39091832328282361 0.41087193027100549 0 0.36187958923526292 0.40293945046940088 0 0.35182903215467742 0.3758796537326512 0 0.37807898130569972 0.38198010331448301 0 0.36187958923526292 0.40293945046940088 0 0.35182903215467742 0.3758796537326512 0 0.36187958923526292 0.40293945046940088 0 0.35182903215467742 0.3758796537326512 0 0.34790646022865218 0.39538457505576469 0 0.34009343188574281 0.40901727465384918 0 0.34790646022865218 0.39538457505576469 0 0.35727600754431599 0.40423829199409889 0 0.36187958923526292 0.40293945046940088 0 0.34790646022865218 0.39538457505576469 0 0.35727600754431599 0.40423829199409889 0 0.35182903215467742 0.3758796537326512 0 0.3722477765496085 0.35016695762591221 0 0.37807898130569972 0.38198010331448301 0 0.35182903215467742 0.3758796537326512 0 0.3722477765496085 0.35016695762591221 0 0.34177847507409181 0.34881985699590151 0 0.35182903215467742 0.3758796537326512 0 0.34177847507409181 0.34881985699590151 0 0.3722477765496085 0.35016695762591221 0 0.37069175466933912 0.32875176142968793 0 0.35660426620688718 0.33158813156598749 0 0.3722477765496085 0.35016695762591221 0 0.37069175466933912 0.32875176142968793 0 0.38018026091455548 0.33583017463534492 0 0.36908544359869788 0.31711993858565868 0 0.37552929986171052 0.31147094895867028 0 0.37512131353827649 0.31993777409944391 0 0.37069175466933912 0.32875176142968793 0 0.36908544359869788 0.31711993858565868 0 0.37512131353827649 0.31993777409944391 0 0.37069175466933912 0.32875176142968793 0 0.36908544359869788 0.31711993858565868 0 0.36227265828944472 0.32102596309161863 0 0.37069175466933912 0.32875176142968793 0 0.36227265828944472 0.32102596309161863 0 0.35660426620688718 0.33158813156598749 0 0.36908544359869788 0.31711993858565868 0 0.36216199407232552 0.31421251507807352 0 0.36873564116109159 0.30732066885645792 0 0.36908544359869788 0.31711993858565868 0 0.36227265828944472 0.32102596309161863 0 0.36216199407232552 0.31421251507807352 0 0.36227265828944472 0.32102596309161863 0 0.36216199407232552 0.31421251507807352 0 0.35548040964913802 0.3182867922552447 0 0.33172791799350532 0.32176006025915199 0 0.34669185149407039 0.31235854363774268 0 0.35483192959872478 0.30892549123100937 0 0.34679263072992478 0.32222161781041447 0 0.33172791799350532 0.32176006025915199 0 0.35483192959872478 0.30892549123100937 0 0.35548040964913802 0.3182867922552447 0 0.34679263072992478 0.32222161781041447 0 0.35483192959872478 0.30892549123100937 0 0.36216199407232552 0.31421251507807352 0 0.35548040964913802 0.3182867922552447 0 0.35483192959872478 0.30892549123100937 0 0.35548040964913802 0.3182867922552447 0 0.34679263072992478 0.32222161781041447 0 0.35660426620688718 0.33158813156598749 0 0.36227265828944472 0.32102596309161863 0 0.35548040964913802 0.3182867922552447 0 0.35660426620688718 0.33158813156598749 0 0.34679263072992478 0.32222161781041447 0 0.35660426620688718 0.33158813156598749 0 0.34177847507409181 0.34881985699590151 0 0.3722477765496085 0.35016695762591221 0 0.35660426620688718 0.33158813156598749 0 0.34177847507409181 0.34881985699590151 0 0.33172791799350532 0.32176006025915199 0 0.32481653016515311 0.34395618279456119 0 0.34177847507409181 0.34881985699590151 0 0.34679263072992478 0.32222161781041447 0 0.33172791799350532 0.32176006025915199 0 0.34177847507409181 0.34881985699590151 0 0.33172791799350532 0.32176006025915199 0 0.34177847507409181 0.34881985699590151 0 0.33172791799350532 0.32176006025915199 0 0.35483192959872478 0.30892549123100937 0 0.33172791799350532 0.32176006025915199 0 0.33433715661558527 0.30915126849091529 0 0.34669185149407039 0.31235854363774268 0 0.33172791799350532 0.32176006025915199 0 0.32649517228490349 0.30767158395733452 0 0.33433715661558527 0.30915126849091529 0 0.33172791799350532 0.32176006025915199 0 0.32649517228490349 0.30767158395733452 0 0.33172791799350532 0.32176006025915199 0 0.31845188759589887 0.32913506211895882 0 0.3124215414252603 0.31463851826348332 0 0.33172791799350532 0.32176006025915199 0 0.3124215414252603 0.31463851826348332 0 0.32649517228490349 0.30767158395733452 0 0.33172791799350532 0.32176006025915199 0 0.31845188759589887 0.32913506211895882 0 0.33172791799350532 0.32176006025915199 0 0.31845188759589887 0.32913506211895882 0 0.32481653016515311 0.34395618279456119 0 0.31845188759589887 0.32913506211895882 0 0.32481653016515311 0.34395618279456119 0 0.3051758571982971 0.3365100639787737 0 0.32481653016515311 0.34395618279456119 0 0.31681504876077932 0.36067913420379871 0 0.3051758571982971 0.3365100639787737 0 0.32481653016515311 0.34395618279456119 0 0.33494999436834533 0.36683291921078343 0 0.31681504876077932 0.36067913420379871 0 0.32481653016515311 0.34395618279456119 0 0.34177847507409181 0.34881985699590151 0 0.33494999436834533 0.36683291921078343 0 0.35182903215467742 0.3758796537326512 0 0.34177847507409181 0.34881985699590151 0 0.33494999436834533 0.36683291921078343 0 0.30704607127102962 0.37874789135054893 0 0.32845424032326143 0.38484820442882378 0 0.31681504876077932 0.36067913420379871 0 0.32845424032326143 0.38484820442882378 0 0.31681504876077932 0.36067913420379871 0 0.32845424032326143 0.38484820442882378 0 0.33494999436834533 0.36683291921078343 0 0.31681504876077932 0.36067913420379871 0 0.30704607127102962 0.37874789135054893 0 0.31681504876077932 0.36067913420379871 0 0.30062517624183088 0.36676896646786628 0 0.31681504876077932 0.36067913420379871 0 0.30062517624183088 0.36676896646786628 0 0.29985560249366611 0.35416009340586768 0 0.29373006398809498 0.37700175091789651 0 0.30704607127102962 0.37874789135054893 0 0.30062517624183088 0.36676896646786628 0 0.31681504876077932 0.36067913420379871 0 0.3051758571982971 0.3365100639787737 0 0.31681504876077932 0.36067913420379871 0 0.29985560249366611 0.35416009340586768 0 0.3051758571982971 0.3365100639787737 0 0.29985560249366611 0.35416009340586768 0 0.29642893485056382 0.34373170356788069 0 0.3051758571982971 0.3365100639787737 0 0.29156997961887149 0.34921014654590388 0 0.28547266882539629 0.3430582048410174 0 0.29642893485056382 0.34373170356788069 0 0.29985560249366611 0.35416009340586768 0 0.29156997961887149 0.34921014654590388 0 0.29642893485056382 0.34373170356788069 0 0.29985560249366611 0.35416009340586768 0 0.2845227123058599 0.35589058436884952 0 0.28847801066549428 0.36644572303251932 0 0.29985560249366611 0.35416009340586768 0 0.29156997961887149 0.34921014654590388 0 0.2845227123058599 0.35589058436884952 0 0.29156997961887149 0.34921014654590388 0 0.2845227123058599 0.35589058436884952 0 0.28547266882539629 0.3430582048410174 0 0.29373006398809498 0.37700175091789651 0 0.30062517624183088 0.36676896646786628 0 0.28847801066549428 0.36644572303251932 0 0.30062517624183088 0.36676896646786628 0 0.29985560249366611 0.35416009340586768 0 0.28847801066549428 0.36644572303251932 0 0.2845227123058599 0.35589058436884952 0 0.28170395393251652 0.36324765217496502 0 0.28847801066549428 0.36644572303251932 0 0.28170395393251652 0.36324765217496502 0 0.28847801066549428 0.36644572303251932 0 0.28042538913708492 0.36831170178922717 0 0.28390095120816711 0.37562544504190132 0 0.29373006398809498 0.37700175091789651 0 0.28847801066549428 0.36644572303251932 0 0.28390095120816711 0.37562544504190132 0 0.28847801066549428 0.36644572303251932 0 0.28042538913708492 0.36831170178922717 0 0.28042538913708492 0.36831170178922717 0 0.2766490591355068 0.37433388147839908 0 0.27338970362162712 0.36234259950926417 0 0.26130673841785779 0.38162699417751078 0 0.27338970362162712 0.36234259950926417 0 0.26130673841785779 0.38162699417751078 0 0.27338970362162712 0.36234259950926417 0 0.27075156819252399 0.35763296848608189 0 0.26130673841785779 0.38162699417751078 0 0.27107463499663109 0.37851234507980008 0 0.27338970362162712 0.36234259950926417 0 0.26130673841785779 0.38162699417751078 0 0.27075156819252399 0.35763296848608189 0 0.27107463499663109 0.37851234507980008 0 0.2766490591355068 0.37433388147839908 0 0.27338970362162712 0.36234259950926417 0 0.28390095120816711 0.37562544504190132 0 0.28042538913708492 0.36831170178922717 0 0.2766490591355068 0.37433388147839908 0 0.28170395393251652 0.36324765217496502 0 0.28042538913708492 0.36831170178922717 0 0.27338970362162712 0.36234259950926417 0 0.2845227123058599 0.35589058436884952 0 0.28170395393251652 0.36324765217496502 0 0.27338970362162712 0.36234259950926417 0 0.27075156819252399 0.35763296848608189 0 0.26558463596339632 0.34150625501184179 0 0.28019639796719031 0.33363894279465311 0 0.27075156819252399 0.35763296848608189 0 0.28019639796719031 0.33363894279465311 0 0.28547266882539629 0.3430582048410174 0 0.2845227123058599 0.35589058436884952 0 0.27338970362162712 0.36234259950926417 0 0.28547266882539629 0.3430582048410174 0 0.27075156819252399 0.35763296848608189 0 0.28019639796719031 0.33363894279465311 0 0.27338970362162712 0.36234259950926417 0 0.28547266882539629 0.3430582048410174 0 0.27338970362162712 0.36234259950926417 0 0.27075156819252399 0.35763296848608189 0 0.28547266882539629 0.3430582048410174 0 0.27075156819252399 0.35763296848608189 0 0.25711451900508148 0.35258648987221092 0 0.26558463596339632 0.34150625501184179 0 0.2438273554430464 0.34812574592335249 0 0.25711451900508148 0.35258648987221092 0 0.25235619873932041 0.33556187677713623 0 0.27075156819252399 0.35763296848608189 0 0.25711451900508148 0.35258648987221092 0 0.25830082874688443 0.36636652218621663 0 0.26130673841785779 0.38162699417751078 0 0.27075156819252399 0.35763296848608189 0 0.25830082874688443 0.36636652218621663 0 0.2444030594993066 0.36261468031945582 0 0.25711451900508148 0.35258648987221092 0 0.25830082874688443 0.36636652218621663 0 0.2444030594993066 0.36261468031945582 0 0.25490457918629872 0.37507349251653871 0 0.25830082874688443 0.36636652218621663 0 0.26130673841785779 0.38162699417751078 0 0.25490457918629872 0.37507349251653871 0 0.25830082874688443 0.36636652218621663 0 0.2412863906095909 0.31706614216088019 0 0.25496362040665271 0.32267745764425643 0 0.26071219069447599 0.31197788889560879 0 0.25496362040665271 0.32267745764425643 0 0.26589958482641279 0.32752631364072038 0 0.26071219069447599 0.31197788889560879 0 0.25496362040665271 0.32267745764425643 0 0.25235619873932041 0.33556187677713623 0 0.26589958482641279 0.32752631364072038 0 0.25711451900508148 0.35258648987221092 0 0.25235619873932041 0.33556187677713623 0 0.26558463596339632 0.34150625501184179 0 0.25235619873932041 0.33556187677713623 0 0.26558463596339632 0.34150625501184179 0 0.26589958482641279 0.32752631364072038 0 0.26558463596339632 0.34150625501184179 0 0.28019639796719031 0.33363894279465311 0 0.26589958482641279 0.32752631364072038 0 0.28019639796719031 0.33363894279465311 0 0.26589958482641279 0.32752631364072038 0 0.27489680020354851 0.31780650302536112 0 0.26589958482641279 0.32752631364072038 0 0.27489680020354851 0.31780650302536112 0 0.26071219069447599 0.31197788889560879 0 0.28019639796719031 0.33363894279465311 0 0.28964122774185652 0.30964491710322428 0 0.28019639796719031 0.33363894279465311 0 0.27489680020354851 0.31780650302536112 0 0.28964122774185652 0.30964491710322428 0 0.28019639796719031 0.33363894279465311 0 0.29537221966939131 0.31615256727250862 0 0.28964122774185652 0.30964491710322428 0 0.28019639796719031 0.33363894279465311 0 0.29537221966939131 0.31615256727250862 0 0.29755563402916552 0.32377381017277068 0 0.28019639796719031 0.33363894279465311 0 0.28547266882539629 0.3430582048410174 0 0.29755563402916552 0.32377381017277068 0 0.28547266882539629 0.3430582048410174 0 0.29755563402916552 0.32377381017277068 0 0.28547266882539629 0.3430582048410174 0 0.29642893485056382 0.34373170356788069 0 0.29755563402916552 0.32377381017277068 0 0.29642893485056382 0.34373170356788069 0 0.3051758571982971 0.3365100639787737 0 0.29755563402916552 0.32377381017277068 0 0.31845188759589887 0.32913506211895882 0 0.3051758571982971 0.3365100639787737 0 0.29537221966939131 0.31615256727250862 0 0.3051758571982971 0.3365100639787737 0 0.29755563402916552 0.32377381017277068 0 0.31845188759589887 0.32913506211895882 0 0.3051758571982971 0.3365100639787737 0 0.3124215414252603 0.31463851826348332 0 0.29537221966939131 0.31615256727250862 0 0.3051758571982971 0.3365100639787737 0 0.29537221966939131 0.31615256727250862 0 0.3051758571982971 0.3365100639787737 0 0.3124215414252603 0.31463851826348332 0 0.29537221966939131 0.31615256727250862 0 0.3064038210334884 0.30067388223127611 0 0.29780590900410991 0.29124285186599119 0 0.29537221966939131 0.31615256727250862 0 0.3124215414252603 0.31463851826348332 0 0.3064038210334884 0.30067388223127611 0 0.3124215414252603 0.31463851826348332 0 0.3064038210334884 0.30067388223127611 0 0.31797064105596812 0.29669460242380358 0 0.3064038210334884 0.30067388223127611 0 0.30706453001149392 0.28545611992336922 0 0.31797064105596812 0.29669460242380358 0 0.3064038210334884 0.30067388223127611 0 0.30706453001149392 0.28545611992336922 0 0.29780590900410991 0.29124285186599119 0 0.30706453001149392 0.28545611992336922 0 0.29780590900410991 0.29124285186599119 0 0.29516751126046797 0.28001135836836077 0 0.28556858214048553 0.29579507056624349 0 0.28351082165216779 0.2739244349354083 0 0.29516751126046797 0.28001135836836077 0 0.29780590900410991 0.29124285186599119 0 0.28556858214048553 0.29579507056624349 0 0.29516751126046797 0.28001135836836077 0 0.28556858214048553 0.29579507056624349 0 0.27576494461157991 0.27543757385997852 0 0.28351082165216779 0.2739244349354083 0 0.29537221966939131 0.31615256727250862 0 0.29780590900410991 0.29124285186599119 0 0.28556858214048553 0.29579507056624349 0 0.29537221966939131 0.31615256727250862 0 0.28556858214048553 0.29579507056624349 0 0.28964122774185652 0.30964491710322428 0 0.29537221966939131 0.31615256727250862 0 0.28556858214048553 0.29579507056624349 0 0.28556858214048553 0.29579507056624349 0 0.28964122774185652 0.30964491710322428 0 0.27438759942090191 0.30337842557507938 0 0.27489680020354851 0.31780650302536112 0 0.28964122774185652 0.30964491710322428 0 0.27438759942090191 0.30337842557507938 0 0.27489680020354851 0.31780650302536112 0 0.27438759942090191 0.30337842557507938 0 0.26071219069447599 0.31197788889560879 0 0.27248032494705132 0.28939396479480628 0 0.25491758893057909 0.27951005592881761 0 0.27576494461157991 0.27543757385997852 0 0.28556858214048553 0.29579507056624349 0 0.27576494461157991 0.27543757385997852 0 0.28556858214048553 0.29579507056624349 0 0.27248032494705132 0.28939396479480628 0 0.27576494461157991 0.27543757385997852 0 0.28556858214048553 0.29579507056624349 0 0.27438759942090191 0.30337842557507938 0 0.27248032494705132 0.28939396479480628 0 0.27438759942090191 0.30337842557507938 0 0.27248032494705132 0.28939396479480628 0 0.26162700977852021 0.29629342014523508 0 0.27248032494705132 0.28939396479480628 0 0.26162700977852021 0.29629342014523508 0 0.25491758893057909 0.27951005592881761 0 0.24543399627141721 0.29887735901603257 0 0.26162700977852021 0.29629342014523508 0 0.25491758893057909 0.27951005592881761 0 0.27438759942090191 0.30337842557507938 0 0.26162700977852021 0.29629342014523508 0 0.26071219069447599 0.31197788889560879 0 0.24543399627141721 0.29887735901603257 0 0.26162700977852021 0.29629342014523508 0 0.26071219069447599 0.31197788889560879 0 0.25153222320099622 0.25722575917013901 0 0.27218921726664158 0.26801248725998528 0 0.26048617882559622 0.24371083740660091 0 0.25153222320099622 0.25722575917013901 0 0.25536006440587672 0.26878811273571068 0 0.27218921726664158 0.26801248725998528 0 0.25153222320099622 0.25722575917013901 0 0.27218921726664158 0.26801248725998528 0 0.25153222320099622 0.25722575917013901 0 0.26048617882559622 0.24371083740660091 0 0.25491758893057909 0.27951005592881761 0 0.27576494461157991 0.27543757385997852 0 0.25536006440587672 0.26878811273571068 0 0.25491758893057909 0.27951005592881761 0 0.27218921726664158 0.26801248725998528 0 0.2428012282252888 0.27040414858390061 0 0.25536006440587672 0.26878811273571068 0 0.25491758893057909 0.27951005592881761 0 0.25491758893057909 0.27951005592881761 0 0.27218921726664158 0.26801248725998528 0 0.27576494461157991 0.27543757385997852 0 0.27576494461157991 0.27543757385997852 0 0.28351082165216779 0.2739244349354083 0 0.27218921726664158 0.26801248725998528 0 0.28351082165216779 0.2739244349354083 0 0.28241209558822961 0.26632916093747078 0 0.27218921726664158 0.26801248725998528 0 0.27576494461157991 0.27543757385997852 0 0.28351082165216779 0.2739244349354083 0 0.27218921726664158 0.26801248725998528 0 0.28351082165216779 0.2739244349354083 0 0.27218921726664158 0.26801248725998528 0 0.27576494461157991 0.27543757385997852 0 0.27218921726664158 0.26801248725998528 0 0.27691591880596222 0.25729022711116639 0 0.28241209558822961 0.26632916093747078 0 0.27218921726664158 0.26801248725998528 0 0.26048617882559622 0.24371083740660091 0 0.27218921726664158 0.26801248725998528 0 0.27691591880596222 0.25729022711116639 0 0.26048617882559622 0.24371083740660091 0 0.27691591880596222 0.25729022711116639 0 0.28359094229813148 0.25448793817281579 0 0.27685630599777589 0.2478154210616699 0 0.27691591880596222 0.25729022711116639 0 0.28359094229813148 0.25448793817281579 0 0.2851673007449898 0.26023557940088332 0 0.3039173510814423 0.25972757105281219 0 0.28965918427723281 0.24218391352450211 0 0.28359094229813148 0.25448793817281579 0 0.27685630599777589 0.2478154210616699 0 0.28494106210013392 0.2498489505319901 0 0.29345893722613059 0.25129825022350127 0 0.3039173510814423 0.25972757105281219 0 0.28965918427723281 0.24218391352450211 0 0.28868459035541499 0.25311981898255947 0 0.28494106210013392 0.2498489505319901 0 0.28892582916583598 0.2492018439528669 0 0.28868459035541499 0.25311981898255947 0 0.28359094229813148 0.25448793817281579 0 0.28494106210013392 0.2498489505319901 0 0.28868459035541499 0.25311981898255947 0 0.28687158554486092 0.25569243113247692 0 0.28359094229813148 0.25448793817281579 0 0.28687158554486092 0.25569243113247692 0 0.28359094229813148 0.25448793817281579 0 0.2851673007449898 0.26023557940088332 0 0.28687158554486092 0.25569243113247692 0 0.28807077596690611 0.2581880435182905 0 0.28931157611965458 0.25623197766376038 0 0.28868459035541499 0.25311981898255947 0 0.28687158554486092 0.25569243113247692 0 0.28931157611965458 0.25623197766376038 0 0.27691591880596222 0.25729022711116639 0 0.2851673007449898 0.26023557940088332 0 0.28241209558822961 0.26632916093747078 0 0.28612348479105743 0.26557280400170857 0 0.2851673007449898 0.26023557940088332 0 0.28241209558822961 0.26632916093747078 0 0.28612348479105743 0.26557280400170857 0 0.28820153575970392 0.26340271637493412 0 0.2851673007449898 0.26023557940088332 0 0.28612348479105743 0.26557280400170857 0 0.28820153575970392 0.26340271637493412 0 0.28928435291432292 0.26627202701476832 0 0.28820153575970392 0.26340271637493412 0 0.2851673007449898 0.26023557940088332 0 0.28910030818167282 0.2606462295185657 0 0.28687158554486092 0.25569243113247692 0 0.2851673007449898 0.26023557940088332 0 0.28807077596690611 0.2581880435182905 0 0.2851673007449898 0.26023557940088332 0 0.28807077596690611 0.2581880435182905 0 0.28910030818167282 0.2606462295185657 0 0.28807077596690611 0.2581880435182905 0 0.29012458656076978 0.25822105451885852 0 0.28910030818167282 0.2606462295185657 0 0.29012458656076978 0.25822105451885852 0 0.28910030818167282 0.2606462295185657 0 0.29181146649833112 0.25980397671080041 0 0.28910030818167282 0.2606462295185657 0 0.29181146649833112 0.25980397671080041 0 0.29208830856188789 0.26336840763512592 0 0.29012458656076978 0.25822105451885852 0 0.29181146649833112 0.25980397671080041 0 0.29232880603728451 0.25623504518287532 0 0.28820153575970392 0.26340271637493412 0 0.29208830856188789 0.26336840763512592 0 0.28928435291432292 0.26627202701476832 0 0.28820153575970392 0.26340271637493412 0 0.28910030818167282 0.2606462295185657 0 0.29208830856188789 0.26336840763512592 0 0.29208830856188789 0.26336840763512592 0 0.295861748010873 0.25998823260247511 0 0.29765944308527592 0.26593032899830249 0 0.29208830856188789 0.26336840763512592 0 0.29297695870925222 0.26738919668419731 0 0.29765944308527592 0.26593032899830249 0 0.29181146649833112 0.25980397671080041 0 0.29208830856188789 0.26336840763512592 0 0.295861748010873 0.25998823260247511 0 0.29181146649833112 0.25980397671080041 0 0.295861748010873 0.25998823260247511 0 0.29232880603728451 0.25623504518287532 0 0.295861748010873 0.25998823260247511 0 0.29345893722613059 0.25129825022350127 0 0.29232880603728451 0.25623504518287532 0 0.28868459035541499 0.25311981898255947 0 0.29345893722613059 0.25129825022350127 0 0.29232880603728451 0.25623504518287532 0 0.28868459035541499 0.25311981898255947 0 0.29345893722613059 0.25129825022350127 0 0.28892582916583598 0.2492018439528669 0 0.28868459035541499 0.25311981898255947 0 0.28931157611965458 0.25623197766376038 0 0.29232880603728451 0.25623504518287532 0 0.29012458656076978 0.25822105451885852 0 0.28931157611965458 0.25623197766376038 0 0.29232880603728451 0.25623504518287532 0 0.28807077596690611 0.2581880435182905 0 0.29012458656076978 0.25822105451885852 0 0.28931157611965458 0.25623197766376038 0 0.28351082165216779 0.2739244349354083 0 0.28733438825076368 0.27108796110478978 0 0.2907816862342732 0.27306575569366948 0 0.28733438825076368 0.27108796110478978 0 0.28661589797855402 0.26840505384568097 0 0.29024227766669058 0.26954619460490381 0 0.28733438825076368 0.27108796110478978 0 0.2848684593192698 0.27078404615639318 0 0.28661589797855402 0.26840505384568097 0 0.28351082165216779 0.2739244349354083 0 0.28733438825076368 0.27108796110478978 0 0.2848684593192698 0.27078404615639318 0 0.28351082165216779 0.2739244349354083 0 0.2848684593192698 0.27078404615639318 0 0.28241209558822961 0.26632916093747078 0 0.28612348479105743 0.26557280400170857 0 0.28241209558822961 0.26632916093747078 0 0.28661589797855402 0.26840505384568097 0 0.2848684593192698 0.27078404615639318 0 0.28241209558822961 0.26632916093747078 0 0.28661589797855402 0.26840505384568097 0 0.28661589797855402 0.26840505384568097 0 0.28928435291432292 0.26627202701476832 0 0.29024227766669058 0.26954619460490381 0 0.28612348479105743 0.26557280400170857 0 0.28661589797855402 0.26840505384568097 0 0.28928435291432292 0.26627202701476832 0 0.29208830856188789 0.26336840763512592 0 0.28928435291432292 0.26627202701476832 0 0.29297695870925222 0.26738919668419731 0 0.28928435291432292 0.26627202701476832 0 0.29297695870925222 0.26738919668419731 0 0.29024227766669058 0.26954619460490381 0 0.29297695870925222 0.26738919668419731 0 0.29576201226787813 0.27118247982537402 0 0.29024227766669058 0.26954619460490381 0 0.29297695870925222 0.26738919668419731 0 0.29576201226787813 0.27118247982537402 0 0.29765944308527592 0.26593032899830249 0 0.29576201226787813 0.27118247982537402 0 0.29024227766669058 0.26954619460490381 0 0.2907816862342732 0.27306575569366948 0 0.28733438825076368 0.27108796110478978 0 0.29024227766669058 0.26954619460490381 0 0.2907816862342732 0.27306575569366948 0 0.28351082165216779 0.2739244349354083 0 0.2907816862342732 0.27306575569366948 0 0.29516751126046797 0.28001135836836077 0 0.29576201226787813 0.27118247982537402 0 0.2907816862342732 0.27306575569366948 0 0.29516751126046797 0.28001135836836077 0 0.28351082165216779 0.2739244349354083 0 0.29516751126046797 0.28001135836836077 0 0.30323688172566321 0.27316773846810899 0 0.3039173510814423 0.25972757105281219 0 0.31817551788565168 0.27727122858112241 0 0.3039173510814423 0.25972757105281219 0 0.31817551788565168 0.27727122858112241 0 0.29576201226787813 0.27118247982537402 0 0.29516751126046797 0.28001135836836077 0 0.30323688172566321 0.27316773846810899 0 0.30706453001149392 0.28545611992336922 0 0.29516751126046797 0.28001135836836077 0 0.30323688172566321 0.27316773846810899 0 0.30323688172566321 0.27316773846810899 0 0.29765944308527592 0.26593032899830249 0 0.3039173510814423 0.25972757105281219 0 0.29576201226787813 0.27118247982537402 0 0.30323688172566321 0.27316773846810899 0 0.29765944308527592 0.26593032899830249 0 0.30706453001149392 0.28545611992336922 0 0.30323688172566321 0.27316773846810899 0 0.31817551788565168 0.27727122858112241 0 0.3039173510814423 0.25972757105281219 0 0.31246354634074469 0.25301562706991498 0 0.31817551788565168 0.27727122858112241 0 0.3039173510814423 0.25972757105281219 0 0.31246354634074469 0.25301562706991498 0 0.28965918427723281 0.24218391352450211 0 0.295861748010873 0.25998823260247511 0 0.29345893722613059 0.25129825022350127 0 0.3039173510814423 0.25972757105281219 0 0.295861748010873 0.25998823260247511 0 0.29765944308527592 0.26593032899830249 0 0.3039173510814423 0.25972757105281219 0 0.31246354634074469 0.25301562706991498 0 0.33526790840425669 0.26384734061532772 0 0.31246354634074469 0.25301562706991498 0 0.33526790840425669 0.26384734061532772 0 0.32643540241908581 0.2493154440826276 0 0.31246354634074469 0.25301562706991498 0 0.33526790840425669 0.26384734061532772 0 0.31817551788565168 0.27727122858112241 0 0.33526790840425669 0.26384734061532772 0 0.3379127634661398 0.24049180221066491 0 0.32643540241908581 0.2493154440826276 0 0.33526790840425669 0.26384734061532772 0 0.35634129443021012 0.25447852924978431 0 0.3379127634661398 0.24049180221066491 0 0.33526790840425669 0.26384734061532772 0 0.31817551788565168 0.27727122858112241 0 0.34172042880505471 0.28277804546335827 0 0.31817551788565168 0.27727122858112241 0 0.31797064105596812 0.29669460242380358 0 0.33243368468986112 0.29481488610943257 0 0.31817551788565168 0.27727122858112241 0 0.33243368468986112 0.29481488610943257 0 0.30706453001149392 0.28545611992336922 0 0.31817551788565168 0.27727122858112241 0 0.31797064105596812 0.29669460242380358 0 0.3124215414252603 0.31463851826348332 0 0.31797064105596812 0.29669460242380358 0 0.32649517228490349 0.30767158395733452 0 0.31797064105596812 0.29669460242380358 0 0.32649517228490349 0.30767158395733452 0 0.33243368468986112 0.29481488610943257 0 0.33433715661558527 0.30915126849091529 0 0.33243368468986112 0.29481488610943257 0 0.34669185149407039 0.31235854363774268 0 0.33243368468986112 0.29481488610943257 0 0.34669185149407039 0.31235854363774268 0 0.34568712778571031 0.29860929543060832 0 0.33243368468986112 0.29481488610943257 0 0.34669185149407039 0.31235854363774268 0 0.32649517228490349 0.30767158395733452 0 0.33433715661558527 0.30915126849091529 0 0.33243368468986112 0.29481488610943257 0 0.31817551788565168 0.27727122858112241 0 0.34172042880505471 0.28277804546335827 0 0.33243368468986112 0.29481488610943257 0 0.34172042880505471 0.28277804546335827 0 0.33243368468986112 0.29481488610943257 0 0.34568712778571031 0.29860929543060832 0 0.35199353865369548 0.28986078273705529 0 0.36153231744840347 0.2937746187606235 0 0.35807227046776868 0.27467905416074029 0 0.34172042880505471 0.28277804546335827 0 0.35199353865369548 0.28986078273705529 0 0.35807227046776868 0.27467905416074029 0 0.34172042880505471 0.28277804546335827 0 0.35199353865369548 0.28986078273705529 0 0.34568712778571031 0.29860929543060832 0 0.35199353865369548 0.28986078273705529 0 0.34568712778571031 0.29860929543060832 0 0.35295554876154028 0.29946289986994618 0 0.35199353865369548 0.28986078273705529 0 0.35295554876154028 0.29946289986994618 0 0.36153231744840347 0.2937746187606235 0 0.34669185149407039 0.31235854363774268 0 0.350707664864299 0.30502754758011252 0 0.35483192959872478 0.30892549123100937 0 0.34669185149407039 0.31235854363774268 0 0.350707664864299 0.30502754758011252 0 0.34568712778571031 0.29860929543060832 0 0.350707664864299 0.30502754758011252 0 0.34568712778571031 0.29860929543060832 0 0.35295554876154028 0.29946289986994618 0 0.35295554876154028 0.29946289986994618 0 0.35483192959872478 0.30892549123100937 0 0.36153231744840347 0.2937746187606235 0 0.350707664864299 0.30502754758011252 0 0.35295554876154028 0.29946289986994618 0 0.35483192959872478 0.30892549123100937 0 0.35483192959872478 0.30892549123100937 0 0.36873564116109159 0.30732066885645792 0 0.37793594120394791 0.29609092220287331 0 0.35483192959872478 0.30892549123100937 0 0.36153231744840347 0.2937746187606235 0 0.37793594120394791 0.29609092220287331 0 0.35483192959872478 0.30892549123100937 0 0.37793594120394791 0.29609092220287331 0 0.36216199407232552 0.31421251507807352 0 0.35483192959872478 0.30892549123100937 0 0.36873564116109159 0.30732066885645792 0 0.36873564116109159 0.30732066885645792 0 0.37793594120394791 0.29609092220287331 0 0.37618493526913999 0.30531787431980001 0 0.36908544359869788 0.31711993858565868 0 0.36873564116109159 0.30732066885645792 0 0.37552929986171052 0.31147094895867028 0 0.36873564116109159 0.30732066885645792 0 0.37552929986171052 0.31147094895867028 0 0.37618493526913999 0.30531787431980001 0 0.36153231744840347 0.2937746187606235 0 0.3696042904128502 0.28751384070759761 0 0.37793594120394791 0.29609092220287331 0 0.3696042904128502 0.28751384070759761 0 0.35807227046776868 0.27467905416074029 0 0.38087663253128068 0.28551076770615302 0 0.36153231744840347 0.2937746187606235 0 0.3696042904128502 0.28751384070759761 0 0.35807227046776868 0.27467905416074029 0 0.35807227046776868 0.27467905416074029 0 0.38087663253128068 0.28551076770615302 0 0.35807227046776868 0.27467905416074029 0 0.37543677279847171 0.26770278157766031 0 0.38087663253128068 0.28551076770615302 0 0.35634129443021012 0.25447852924978431 0 0.35807227046776868 0.27467905416074029 0 0.37543677279847171 0.26770278157766031 0 0.35634129443021012 0.25447852924978431 0 0.37543677279847171 0.26770278157766031 0 0.37588607332036628 0.2490878796733729 0 0.33526790840425669 0.26384734061532772 0 0.35634129443021012 0.25447852924978431 0 0.35807227046776868 0.27467905416074029 0 0.33526790840425669 0.26384734061532772 0 0.34172042880505471 0.28277804546335827 0 0.35807227046776868 0.27467905416074029 0 0.33526790840425669 0.26384734061532772 0 0.35807227046776868 0.27467905416074029 0 0.39392409312874033 0.26548119861246328 0 0.41196211293711438 0.28187451755155379 0 0.39392409312874033 0.26548119861246328 0 0.38745056937483863 0.27594374287878148 0 0.39653744276239639 0.28470199660397738 0 0.39392409312874033 0.26548119861246328 0 0.39653744276239639 0.28470199660397738 0 0.41196211293711438 0.28187451755155379 0 0.39392409312874033 0.26548119861246328 0 0.41530077718395331 0.26533492563787903 0 0.40933178642478668 0.24530746794650141 0 0.39392409312874033 0.26548119861246328 0 0.37543677279847171 0.26770278157766031 0 0.37588607332036628 0.2490878796733729 0 0.39392409312874033 0.26548119861246328 0 0.37588607332036628 0.2490878796733729 0 0.39392409312874033 0.26548119861246328 0 0.39103074677198191 0.2378645478919707 0 0.37588607332036628 0.2490878796733729 0 0.39392409312874033 0.26548119861246328 0 0.38745056937483863 0.27594374287878148 0 0.37543677279847171 0.26770278157766031 0 0.38745056937483863 0.27594374287878148 0 0.37543677279847171 0.26770278157766031 0 0.38087663253128068 0.28551076770615302 0 0.38087663253128068 0.28551076770615302 0 0.39129466819619951 0.29801807429951538 0 0.39653744276239639 0.28470199660397738 0 0.38745056937483863 0.27594374287878148 0 0.38087663253128068 0.28551076770615302 0 0.39653744276239639 0.28470199660397738 0 0.3696042904128502 0.28751384070759761 0 0.38087663253128068 0.28551076770615302 0 0.37793594120394791 0.29609092220287331 0 0.38087663253128068 0.28551076770615302 0 0.37793594120394791 0.29609092220287331 0 0.39129466819619951 0.29801807429951538 0 0.37552929986171052 0.31147094895867028 0 0.38253885884981009 0.30638895726119819 0 0.38253365066345929 0.31657150904984471 0 0.37552929986171052 0.31147094895867028 0 0.37618493526913999 0.30531787431980001 0 0.38253885884981009 0.30638895726119819 0 0.37793594120394791 0.29609092220287331 0 0.37618493526913999 0.30531787431980001 0 0.38253885884981009 0.30638895726119819 0 0.37793594120394791 0.29609092220287331 0 0.38253885884981009 0.30638895726119819 0 0.39129466819619951 0.29801807429951538 0 0.38253885884981009 0.30638895726119819 0 0.39212940840629362 0.31318847352025442 0 0.38253365066345929 0.31657150904984471 0 0.38253885884981009 0.30638895726119819 0 0.39129466819619951 0.29801807429951538 0 0.39212940840629362 0.31318847352025442 0 0.39129466819619951 0.29801807429951538 0 0.40057903262284272 0.30682002081122939 0 0.39212940840629362 0.31318847352025442 0 0.39129466819619951 0.29801807429951538 0 0.40479167519220871 0.29803551582379922 0 0.40057903262284272 0.30682002081122939 0 0.40057903262284272 0.30682002081122939 0 0.40276015360382211 0.3144041531339446 0 0.39212940840629362 0.31318847352025442 0 0.40479167519220871 0.29803551582379922 0 0.40057903262284272 0.30682002081122939 0 0.40860853726765339 0.309318938863758 0 0.40057903262284272 0.30682002081122939 0 0.40860853726765339 0.309318938863758 0 0.40276015360382211 0.3144041531339446 0 0.40479167519220871 0.29803551582379922 0 0.39653744276239639 0.28470199660397738 0 0.41196211293711438 0.28187451755155379 0 0.39129466819619951 0.29801807429951538 0 0.40479167519220871 0.29803551582379922 0 0.39653744276239639 0.28470199660397738 0 0.40479167519220871 0.29803551582379922 0 0.41196211293711438 0.28187451755155379 0 0.42604734048813458 0.28838989128274578 0 0.40479167519220871 0.29803551582379922 0 0.42604734048813458 0.28838989128274578 0 0.41196211293711438 0.28187451755155379 0 0.42604734048813458 0.28838989128274578 0 0.42096165520647338 0.27640965763746961 0 0.41751736358108449 0.30523346237375532 0 0.43213625579819431 0.30543734923285137 0 0.41316086399048302 0.31918962555795088 0 0.40479167519220871 0.29803551582379922 0 0.41751736358108449 0.30523346237375532 0 0.42604734048813458 0.28838989128274578 0 0.40860853726765339 0.309318938863758 0 0.41751736358108449 0.30523346237375532 0 0.41316086399048302 0.31918962555795088 0 0.40479167519220871 0.29803551582379922 0 0.40860853726765339 0.309318938863758 0 0.41751736358108449 0.30523346237375532 0 0.41751736358108449 0.30523346237375532 0 0.43213625579819431 0.30543734923285137 0 0.42604734048813458 0.28838989128274578 0 0.43213625579819431 0.30543734923285137 0 0.41316086399048302 0.31918962555795088 0 0.43213625579819431 0.30543734923285137 0 0.44422558879226298 0.30694386780845051 0 0.43154308657343537 0.31483265104709918 0 0.42604734048813458 0.28838989128274578 0 0.44730300578406051 0.27874426674169239 0 0.43914956241907371 0.29106414504126032 0 0.43213625579819431 0.30543734923285137 0 0.42604734048813458 0.28838989128274578 0 0.43914956241907371 0.29106414504126032 0 0.42604734048813458 0.28838989128274578 0 0.44730300578406051 0.27874426674169239 0 0.42604734048813458 0.28838989128274578 0 0.43053639021669149 0.27003929607769961 0 0.44730300578406051 0.27874426674169239 0 0.42604734048813458 0.28838989128274578 0 0.43053639021669149 0.27003929607769961 0 0.42096165520647338 0.27640965763746961 0 0.43053639021669149 0.27003929607769961 0 0.42096165520647338 0.27640965763746961 0 0.41530077718395331 0.26533492563787903 0 0.39392409312874033 0.26548119861246328 0 0.41196211293711438 0.28187451755155379 0 0.41530077718395331 0.26533492563787903 0 0.41196211293711438 0.28187451755155379 0 0.42096165520647338 0.27640965763746961 0 0.41530077718395331 0.26533492563787903 0 0.41530077718395331 0.26533492563787903 0 0.42507863072368701 0.2531856777568211 0 0.40933178642478668 0.24530746794650141 0 0.43053639021669149 0.27003929607769961 0 0.42507863072368701 0.2531856777568211 0 0.43671171400039921 0.25931077911745237 0 0.43053639021669149 0.27003929607769961 0 0.41530077718395331 0.26533492563787903 0 0.42507863072368701 0.2531856777568211 0 0.43053639021669149 0.27003929607769961 0 0.43671171400039921 0.25931077911745237 0 0.4433298154441227 0.26629613073356512 0 0.42507863072368701 0.2531856777568211 0 0.43671171400039921 0.25931077911745237 0 0.43876594592942619 0.2491002947533556 0 0.48930401013157893 0.26400543771054868 0 0.5 0.30014541135995981 0 0.50000000000000078 0.23475110787519651 0 0.43671171400039921 0.25931077911745237 0 0.44893917376128722 0.25670587451621701 0 0.43876594592942619 0.2491002947533556 0 0.43671171400039921 0.25931077911745237 0 0.44893917376128722 0.25670587451621701 0 0.4433298154441227 0.26629613073356512 0 0.44893917376128722 0.25670587451621701 0 0.4433298154441227 0.26629613073356512 0 0.45470448649478412 0.26606712633996182 0 0.43053639021669149 0.27003929607769961 0 0.4433298154441227 0.26629613073356512 0 0.44730300578406051 0.27874426674169239 0 0.4433298154441227 0.26629613073356512 0 0.44730300578406051 0.27874426674169239 0 0.45470448649478412 0.26606712633996182 0 0.44730300578406051 0.27874426674169239 0 0.45470448649478412 0.26606712633996182 0 0.46855867107998628 0.26909864220063873 0 0.44730300578406051 0.27874426674169239 0 0.46855867107998628 0.26909864220063873 0 0.47008703941361663 0.27793279658265219 0 0.44730300578406051 0.27874426674169239 0 0.46855867107998628 0.26909864220063873 0 0.44893917376128722 0.25670587451621701 0 0.4657425708042397 0.25282124097232528 0 0.45444189403291402 0.2411770147019261 0 0.46855867107998628 0.26909864220063873 0 0.4657425708042397 0.25282124097232528 0 0.45470448649478412 0.26606712633996182 0 0.46855867107998628 0.26909864220063873 0 0.4657425708042397 0.25282124097232528 0 0.44893917376128722 0.25670587451621701 0 0.45470448649478412 0.26606712633996182 0 0.4657425708042397 0.25282124097232528 0 0.4657425708042397 0.25282124097232528 0 0.48060284673389919 0.263633106558882 0 0.48319944748130261 0.24680576274814439 0 0.48060284673389919 0.263633106558882 0 0.48930401013157893 0.26400543771054868 0 0.48319944748130261 0.24680576274814439 0 0.46855867107998628 0.26909864220063873 0 0.4657425708042397 0.25282124097232528 0 0.48060284673389919 0.263633106558882 0 0.47008703941361663 0.27793279658265219 0 0.48930401013157893 0.26400543771054868 0 0.46855867107998628 0.26909864220063873 0 0.48060284673389919 0.263633106558882 0 0.48060284673389919 0.263633106558882 0 0.47008703941361663 0.27793279658265219 0 0.48930401013157893 0.26400543771054868 0 0.47008703941361663 0.27793279658265219 0 0.48006412771999057 0.27905949761247589 0 0.48930401013157893 0.26400543771054868 0 0.46855867107998628 0.26909864220063873 0 0.48060284673389919 0.263633106558882 0 0.47008703941361663 0.27793279658265219 0 0.46855867107998628 0.26909864220063873 0 0.47008703941361663 0.27793279658265219 0 0.48006412771999057 0.27905949761247589 0 0.48930401013157893 0.26400543771054868 0 0.48625483393177482 0.28246926535835643 0 0.48930401013157893 0.26400543771054868 0 0.5 0.30014541135995981 0 0.48625483393177482 0.28246926535835643 0 0.5 0.30014541135995981 0 0.48970041229178968 0.29406901354624332 0 0.4885492687023667 0.31475660787172299 0 0.5 0.30014541135995981 0 0.48625483393177482 0.28246926535835643 0 0.48970041229178968 0.29406901354624332 0 0.48625483393177482 0.28246926535835643 0 0.48970041229178968 0.29406901354624332 0 0.47848665946962488 0.28859017348115529 0 0.48970041229178968 0.29406901354624332 0 0.47848665946962488 0.28859017348115529 0 0.47416262890117539 0.30149019824985379 0 0.47008703941361663 0.27793279658265219 0 0.47416262890117539 0.30149019824985379 0 0.47008703941361663 0.27793279658265219 0 0.47848665946962488 0.28859017348115529 0 0.47416262890117539 0.30149019824985379 0 0.47008703941361663 0.27793279658265219 0 0.47416262890117539 0.30149019824985379 0 0.46463260069651119 0.29140132306620031 0 0.48006412771999057 0.27905949761247589 0 0.48625483393177482 0.28246926535835643 0 0.47848665946962488 0.28859017348115529 0 0.47008703941361663 0.27793279658265219 0 0.48006412771999057 0.27905949761247589 0 0.47848665946962488 0.28859017348115529 0 0.48970041229178968 0.29406901354624332 0 0.47416262890117539 0.30149019824985379 0 0.4885492687023667 0.31475660787172299 0 0.48970041229178968 0.29406901354624332 0 0.47416262890117539 0.30149019824985379 0 0.47416262890117539 0.30149019824985379 0 0.45853060084376801 0.29977374142415342 0 0.45560674310843452 0.3103528945782269 0 0.47416262890117539 0.30149019824985379 0 0.45560674310843452 0.3103528945782269 0 0.47416262890117539 0.30149019824985379 0 0.45853060084376801 0.29977374142415342 0 0.46463260069651119 0.29140132306620031 0 0.47008703941361663 0.27793279658265219 0 0.46463260069651119 0.29140132306620031 0 0.45111164760590539 0.29168507290775181 0 0.47008703941361663 0.27793279658265219 0 0.45111164760590539 0.29168507290775181 0 0.44730300578406051 0.27874426674169239 0 0.47008703941361663 0.27793279658265219 0 0.45111164760590539 0.29168507290775181 0 0.45853060084376801 0.29977374142415342 0 0.46463260069651119 0.29140132306620031 0 0.45111164760590539 0.29168507290775181 0 0.43213625579819431 0.30543734923285137 0 0.45111164760590539 0.29168507290775181 0 0.43914956241907371 0.29106414504126032 0 0.44730300578406051 0.27874426674169239 0 0.45111164760590539 0.29168507290775181 0 0.43914956241907371 0.29106414504126032 0 0.43213625579819431 0.30543734923285137 0 0.45111164760590539 0.29168507290775181 0 0.43213625579819431 0.30543734923285137 0 0.45111164760590539 0.29168507290775181 0 0.44422558879226298 0.30694386780845051 0 0.45560674310843452 0.3103528945782269 0 0.44422558879226298 0.30694386780845051 0 0.43842966418539248 0.31774810934188358 0 0.45853060084376801 0.29977374142415342 0 0.45560674310843452 0.3103528945782269 0 0.44422558879226298 0.30694386780845051 0 0.45853060084376801 0.29977374142415342 0 0.45111164760590539 0.29168507290775181 0 0.44422558879226298 0.30694386780845051 0 0.45560674310843452 0.3103528945782269 0 0.43705085731569332 0.31921559090659912 0 0.45560674310843452 0.3103528945782269 0 0.445574462909617 0.32293984437028 0 0.43705085731569332 0.31921559090659912 0 0.45560674310843452 0.3103528945782269 0 0.445574462909617 0.32293984437028 0 0.45356547482711718 0.33018117931006491 0 0.45560674310843452 0.3103528945782269 0 0.43842966418539248 0.31774810934188358 0 0.43705085731569332 0.31921559090659912 0 0.44422558879226298 0.30694386780845051 0 0.43842966418539248 0.31774810934188358 0 0.43154308657343537 0.31483265104709918 0 0.43842966418539248 0.31774810934188358 0 0.43705085731569332 0.31921559090659912 0 0.43892997145578388 0.32563168502311662 0 0.445574462909617 0.32293984437028 0 0.44083529419097978 0.33094373067874189 0 0.43892997145578388 0.32563168502311662 0 0.445574462909617 0.32293984437028 0 0.43705085731569332 0.31921559090659912 0 0.445574462909617 0.32293984437028 0 0.44083529419097978 0.33094373067874189 0 0.45356547482711718 0.33018117931006491 0 0.44165801472227312 0.34323984209273423 0 0.45356547482711718 0.33018117931006491 0 0.45850926574073331 0.34651392194864622 0 0.44165801472227312 0.34323984209273423 0 0.44083529419097978 0.33094373067874189 0 0.43166902790598161 0.33929201054700048 0 0.43892997145578388 0.32563168502311662 0 0.44083529419097978 0.33094373067874189 0 0.43317574323615998 0.33104402243960368 0 0.44165801472227312 0.34323984209273423 0 0.44083529419097978 0.33094373067874189 0 0.45356547482711718 0.33018117931006491 0 0.45356547482711718 0.33018117931006491 0 0.47888330231886822 0.32877626329145132 0 0.45850926574073331 0.34651392194864622 0 0.45560674310843452 0.3103528945782269 0 0.45356547482711718 0.33018117931006491 0 0.47888330231886822 0.32877626329145132 0 0.5 0.30014541135995981 0 0.4885492687023667 0.31475660787172299 0 0.5 0.34930215291110689 0 0.47888330231886822 0.32877626329145132 0 0.4885492687023667 0.31475660787172299 0 0.5 0.34930215291110689 0 0.47416262890117539 0.30149019824985379 0 0.45560674310843452 0.3103528945782269 0 0.47888330231886822 0.32877626329145132 0 0.47416262890117539 0.30149019824985379 0 0.47888330231886822 0.32877626329145132 0 0.4885492687023667 0.31475660787172299 0 0.47416262890117539 0.30149019824985379 0 0.47888330231886822 0.32877626329145132 0 0.47888330231886822 0.32877626329145132 0 0.47565767627723321 0.35367653303588131 0 0.45850926574073331 0.34651392194864622 0 0.5 0.34930215291110689 0 0.47565767627723321 0.35367653303588131 0 0.47781149018510388 0.37869427749857482 0 0.47888330231886822 0.32877626329145132 0 0.5 0.34930215291110689 0 0.47565767627723321 0.35367653303588131 0 0.47565767627723321 0.35367653303588131 0 0.45733288770108432 0.36201985544527537 0 0.47781149018510388 0.37869427749857482 0 0.47565767627723321 0.35367653303588131 0 0.45733288770108432 0.36201985544527537 0 0.45850926574073331 0.34651392194864622 0 0.44165801472227312 0.34323984209273423 0 0.45850926574073331 0.34651392194864622 0 0.4413887647347946 0.35929889092681982 0 0.45733288770108432 0.36201985544527537 0 0.45850926574073331 0.34651392194864622 0 0.4413887647347946 0.35929889092681982 0 0.45733288770108432 0.36201985544527537 0 0.4413887647347946 0.35929889092681982 0 0.44153901264778062 0.37343480580038879 0 0.45733288770108432 0.36201985544527537 0 0.44153901264778062 0.37343480580038879 0 0.45482676763662039 0.38809293299633429 0 0.42640845802995259 0.36892404556868708 0 0.41557269665981 0.35954071959013117 0 0.42852438312620561 0.35190461944610102 0 0.4413887647347946 0.35929889092681982 0 0.42640845802995259 0.36892404556868708 0 0.42852438312620561 0.35190461944610102 0 0.4413887647347946 0.35929889092681982 0 0.44153901264778062 0.37343480580038879 0 0.42640845802995259 0.36892404556868708 0 0.41557269665981 0.35954071959013117 0 0.39773627330903077 0.36105859917852151 0 0.40780080352149928 0.37567923871478631 0 0.42640845802995259 0.36892404556868708 0 0.41557269665981 0.35954071959013117 0 0.40780080352149928 0.37567923871478631 0 0.41557269665981 0.35954071959013117 0 0.42852438312620561 0.35190461944610102 0 0.41739356531236188 0.34013709504256018 0 0.41557269665981 0.35954071959013117 0 0.41739356531236188 0.34013709504256018 0 0.39773627330903077 0.36105859917852151 0 0.41739356531236188 0.34013709504256018 0 0.39773627330903077 0.36105859917852151 0 0.42852438312620561 0.35190461944610102 0 0.43166902790598161 0.33929201054700048 0 0.41739356531236188 0.34013709504256018 0 0.44165801472227312 0.34323984209273423 0 0.4413887647347946 0.35929889092681982 0 0.42852438312620561 0.35190461944610102 0 0.44165801472227312 0.34323984209273423 0 0.42852438312620561 0.35190461944610102 0 0.43166902790598161 0.33929201054700048 0 0.43705085731569332 0.31921559090659912 0 0.41739356531236188 0.34013709504256018 0 0.41544983039366512 0.32953271314637039 0 0.43705085731569332 0.31921559090659912 0 0.41739356531236188 0.34013709504256018 0 0.43317574323615998 0.33104402243960368 0 0.43705085731569332 0.31921559090659912 0 0.41739356531236188 0.34013709504256018 0 0.43166902790598161 0.33929201054700048 0 0.43317574323615998 0.33104402243960368 0 0.41739356531236188 0.34013709504256018 0 0.44083529419097978 0.33094373067874189 0 0.43166902790598161 0.33929201054700048 0 0.43317574323615998 0.33104402243960368 0 0.43213625579819431 0.30543734923285137 0 0.43154308657343537 0.31483265104709918 0 0.41316086399048302 0.31918962555795088 0 0.43705085731569332 0.31921559090659912 0 0.41544983039366512 0.32953271314637039 0 0.43705085731569332 0.31921559090659912 0 0.42444684759267981 0.32028615430654062 0 0.41544983039366512 0.32953271314637039 0 0.43154308657343537 0.31483265104709918 0 0.42444684759267981 0.32028615430654062 0 0.41316086399048302 0.31918962555795088 0 0.43154308657343537 0.31483265104709918 0 0.43705085731569332 0.31921559090659912 0 0.42444684759267981 0.32028615430654062 0 0.43842966418539248 0.31774810934188358 0 0.43154308657343537 0.31483265104709918 0 0.43705085731569332 0.31921559090659912 0 0.43892997145578388 0.32563168502311662 0 0.43317574323615998 0.33104402243960368 0 0.43705085731569332 0.31921559090659912 0 0.41316086399048302 0.31918962555795088 0 0.41544983039366512 0.32953271314637039 0 0.39418547218277172 0.33294190188305062 0 0.42444684759267981 0.32028615430654062 0 0.41316086399048302 0.31918962555795088 0 0.41544983039366512 0.32953271314637039 0 0.40860853726765339 0.309318938863758 0 0.41316086399048302 0.31918962555795088 0 0.40276015360382211 0.3144041531339446 0 0.41739356531236188 0.34013709504256018 0 0.41544983039366512 0.32953271314637039 0 0.39384880347163692 0.33984983538614127 0 0.41544983039366512 0.32953271314637039 0 0.39418547218277172 0.33294190188305062 0 0.39384880347163692 0.33984983538614127 0 0.41544983039366512 0.32953271314637039 0 0.39384880347163692 0.33984983538614127 0 0.39418547218277172 0.33294190188305062 0 0.39384880347163692 0.33984983538614127 0 0.38763626903965592 0.33142256612758492 0 0.39418547218277172 0.33294190188305062 0 0.39181849880786379 0.32717555703993689 0 0.38763626903965592 0.33142256612758492 0 0.41316086399048302 0.31918962555795088 0 0.39418547218277172 0.33294190188305062 0 0.39708961803314868 0.32200780813679419 0 0.41316086399048302 0.31918962555795088 0 0.40276015360382211 0.3144041531339446 0 0.39708961803314868 0.32200780813679419 0 0.41316086399048302 0.31918962555795088 0 0.39418547218277172 0.33294190188305062 0 0.39418547218277172 0.33294190188305062 0 0.39708961803314868 0.32200780813679419 0 0.39181849880786379 0.32717555703993689 0 0.39708961803314868 0.32200780813679419 0 0.39181849880786379 0.32717555703993689 0 0.38758066886242332 0.32336225559927501 0 0.39708961803314868 0.32200780813679419 0 0.39212940840629362 0.31318847352025442 0 0.38758066886242332 0.32336225559927501 0 0.40276015360382211 0.3144041531339446 0 0.39708961803314868 0.32200780813679419 0 0.39212940840629362 0.31318847352025442 0 0.39212940840629362 0.31318847352025442 0 0.38758066886242332 0.32336225559927501 0 0.38253365066345929 0.31657150904984471 0 0.38758066886242332 0.32336225559927501 0 0.37951212113643251 0.32682582922079478 0 0.38253365066345929 0.31657150904984471 0 0.39181849880786379 0.32717555703993689 0 0.38758066886242332 0.32336225559927501 0 0.38763626903965592 0.33142256612758492 0 0.38758066886242332 0.32336225559927501 0 0.37951212113643251 0.32682582922079478 0 0.38763626903965592 0.33142256612758492 0 0.37069175466933912 0.32875176142968793 0 0.37951212113643251 0.32682582922079478 0 0.37512131353827649 0.31993777409944391 0 0.37951212113643251 0.32682582922079478 0 0.38253365066345929 0.31657150904984471 0 0.37512131353827649 0.31993777409944391 0 0.37552929986171052 0.31147094895867028 0 0.38253365066345929 0.31657150904984471 0 0.37512131353827649 0.31993777409944391 0 0.3722477765496085 0.35016695762591221 0 0.39384880347163692 0.33984983538614127 0 0.38018026091455548 0.33583017463534492 0 0.39384880347163692 0.33984983538614127 0 0.38763626903965592 0.33142256612758492 0 0.38018026091455548 0.33583017463534492 0 0.37069175466933912 0.32875176142968793 0 0.37951212113643251 0.32682582922079478 0 0.38018026091455548 0.33583017463534492 0 0.37951212113643251 0.32682582922079478 0 0.38763626903965592 0.33142256612758492 0 0.38018026091455548 0.33583017463534492 0 0.3722477765496085 0.35016695762591221 0 0.39384880347163692 0.33984983538614127 0 0.3722477765496085 0.35016695762591221 0 0.39384880347163692 0.33984983538614127 0 0.38596182216836522 0.35527606173029752 0 0.3722477765496085 0.35016695762591221 0 0.38596182216836522 0.35527606173029752 0 0.37807898130569972 0.38198010331448301 0 0.38596182216836522 0.35527606173029752 0 0.39773627330903077 0.36105859917852151 0 0.37807898130569972 0.38198010331448301 0 0.39773627330903077 0.36105859917852151 0 0.37807898130569972 0.38198010331448301 0 0.39773627330903077 0.36105859917852151 0 0.37807898130569972 0.38198010331448301 0 0.40780080352149928 0.37567923871478631 0 0.41739356531236188 0.34013709504256018 0 0.39384880347163692 0.33984983538614127 0 0.39773627330903077 0.36105859917852151 0 0.39384880347163692 0.33984983538614127 0 0.38596182216836522 0.35527606173029752 0 0.39773627330903077 0.36105859917852151 0 0.40390821143883249 0.39309141821086863 0 0.37807898130569972 0.38198010331448301 0 0.39091832328282361 0.41087193027100549 0 0.40390821143883249 0.39309141821086863 0 0.39091832328282361 0.41087193027100549 0 0.41386422373874859 0.406371997932643 0 0.40390821143883249 0.39309141821086863 0 0.37807898130569972 0.38198010331448301 0 0.40780080352149928 0.37567923871478631 0 0.36187958923526292 0.40293945046940088 0 0.37807898130569972 0.38198010331448301 0 0.39091832328282361 0.41087193027100549 0 0.37193014631584848 0.42999924720615068 0 0.39355396721594382 0.43664913910555569 0 0.39091832328282361 0.41087193027100549 0 0.39355396721594382 0.43664913910555569 0 0.4086430402520686 0.43726383809014391 0 0.41286414250946218 0.42378426033622751 0 0.39355396721594382 0.43664913910555569 0 0.39091832328282361 0.41087193027100549 0 0.41286414250946218 0.42378426033622751 0 0.39091832328282361 0.41087193027100549 0 0.41386422373874859 0.406371997932643 0 0.41286414250946218 0.42378426033622751 0 0.41386422373874859 0.406371997932643 0 0.41286414250946218 0.42378426033622751 0 0.43221705047033082 0.4090921792360791 0 0.41286414250946218 0.42378426033622751 0 0.43133933500857929 0.43201167421733949 0 0.41892553910608071 0.43791135523627978 0 0.4086430402520686 0.43726383809014391 0 0.41286414250946218 0.42378426033622751 0 0.41892553910608071 0.43791135523627978 0 0.41286414250946218 0.42378426033622751 0 0.43133933500857929 0.43201167421733949 0 0.41286414250946218 0.42378426033622751 0 0.43133933500857929 0.43201167421733949 0 0.43221705047033082 0.4090921792360791 0 0.41386422373874859 0.406371997932643 0 0.43221705047033082 0.4090921792360791 0 0.42773818513645112 0.38883830406482728 0 0.40390821143883249 0.39309141821086863 0 0.41386422373874859 0.406371997932643 0 0.42773818513645112 0.38883830406482728 0 0.40390821143883249 0.39309141821086863 0 0.40780080352149928 0.37567923871478631 0 0.42773818513645112 0.38883830406482728 0 0.42640845802995259 0.36892404556868708 0 0.40780080352149928 0.37567923871478631 0 0.42773818513645112 0.38883830406482728 0 0.44153901264778062 0.37343480580038879 0 0.42640845802995259 0.36892404556868708 0 0.42773818513645112 0.38883830406482728 0 0.44153901264778062 0.37343480580038879 0 0.42773818513645112 0.38883830406482728 0 0.45482676763662039 0.38809293299633429 0 0.5 0.34930215291110689 0 0.47781149018510388 0.37869427749857482 0 0.5 0.41423412078117261 0 0.43221705047033082 0.4090921792360791 0 0.42773818513645112 0.38883830406482728 0 0.45482676763662039 0.38809293299633429 0 0.43221705047033082 0.4090921792360791 0 0.45482676763662039 0.38809293299633429 0 0.45232064757215651 0.41416601054739322 0 0.45482676763662039 0.38809293299633429 0 0.47121798163558132 0.40484318606820219 0 0.45232064757215651 0.41416601054739322 0 0.45482676763662039 0.38809293299633429 0 0.45232064757215651 0.41416601054739322 0 0.45733288770108432 0.36201985544527537 0 0.45482676763662039 0.38809293299633429 0 0.47781149018510388 0.37869427749857482 0 0.45482676763662039 0.38809293299633429 0 0.47781149018510388 0.37869427749857482 0 0.47121798163558132 0.40484318606820219 0 0.45733288770108432 0.36201985544527537 0 0.45482676763662039 0.38809293299633429 0 0.47781149018510388 0.37869427749857482 0 0.47121798163558132 0.40484318606820219 0 0.5 0.41423412078117261 0 0.5 0.41423412078117261 0 0.47113100278402542 0.42902858851753611 0 0.48237845739663598 0.45474052989964669 0 0.47121798163558132 0.40484318606820219 0 0.5 0.41423412078117261 0 0.47113100278402542 0.42902858851753611 0 0.47113100278402542 0.42902858851753611 0 0.45232064757215651 0.41416601054739322 0 0.44981452750769602 0.44023908809845258 0 0.47121798163558132 0.40484318606820219 0 0.47113100278402542 0.42902858851753611 0 0.45232064757215651 0.41416601054739322 0 0.43133933500857929 0.43201167421733949 0 0.43221705047033082 0.4090921792360791 0 0.45232064757215651 0.41416601054739322 0 0.43133933500857929 0.43201167421733949 0 0.44981452750769602 0.44023908809845258 0 0.45232064757215651 0.41416601054739322 0 0.44981452750769602 0.44023908809845258 0 0.43133933500857929 0.43201167421733949 0 0.45232064757215651 0.41416601054739322 0 0.44981452750769602 0.44023908809845258 0 0.43133933500857929 0.43201167421733949 0 0.44981452750769602 0.44023908809845258 0 0.43647632095713862 0.44436215142212632 0 0.44981452750769602 0.44023908809845258 0 0.44828887142136431 0.4561116514361514 0 0.43647632095713862 0.44436215142212632 0 0.5 0.41423412078117261 0 0.48237845739663598 0.45474052989964669 0 0.5 0.5 0 0.44981452750769602 0.44023908809845258 0 0.44828887142136431 0.4561116514361514 0 0.44828887142136431 0.4561116514361514 0 0.46262912319994498 0.4617517767316669 0 0.44676321533503599 0.47198421477385039 0 0.44828887142136431 0.4561116514361514 0 0.44676321533503599 0.47198421477385039 0 0.44828887142136431 0.4561116514361514 0 0.44676321533503599 0.47198421477385039 0 0.43105685511778941 0.46008286853249242 0 0.44828887142136431 0.4561116514361514 0 0.43105685511778941 0.46008286853249242 0 0.43647632095713862 0.44436215142212632 0 0.44828887142136431 0.4561116514361514 0 0.46262912319994498 0.4617517767316669 0 0.46609649245216622 0.44748980899904922 0 0.44981452750769602 0.44023908809845258 0 0.46609649245216622 0.44748980899904922 0 0.47113100278402542 0.42902858851753611 0 0.44981452750769602 0.44023908809845258 0 0.46609649245216622 0.44748980899904922 0 0.44981452750769602 0.44023908809845258 0 0.44828887142136431 0.4561116514361514 0 0.46609649245216622 0.44748980899904922 0 0.46609649245216622 0.44748980899904922 0 0.48237845739663598 0.45474052989964669 0 0.47113100278402542 0.42902858851753611 0 0.46609649245216622 0.44748980899904922 0 0.48237845739663598 0.45474052989964669 0 0.46262912319994498 0.4617517767316669 0 0.46609649245216622 0.44748980899904922 0 0.48237845739663598 0.45474052989964669 0 0.46262912319994498 0.4617517767316669 0 0.48237845739663598 0.45474052989964669 0 0.46961857939452217 0.47843267854963678 0 0.5 0.5 0 0.46961857939452217 0.47843267854963678 0 0.45695651283274419 0.5 0 0.48237845739663598 0.45474052989964669 0 0.5 0.5 0 0.46961857939452217 0.47843267854963678 0 0.46262912319994498 0.4617517767316669 0 0.46961857939452217 0.47843267854963678 0 0.44676321533503599 0.47198421477385039 0 0.46961857939452217 0.47843267854963678 0 0.45695651283274419 0.5 0 0.44676321533503599 0.47198421477385039 0 0.45695651283274419 0.5 0 0.44676321533503599 0.47198421477385039 0 0.42715067833807191 0.48563837301334373 0 0.45695651283274419 0.5 0 0.42715067833807191 0.48563837301334373 0 0.39792984500105372 0.49999999999999267 0 0.42715067833807191 0.48563837301334373 0 0.40953154044098622 0.4794767255128099 0 0.39792984500105372 0.49999999999999267 0 0.40953154044098622 0.4794767255128099 0 0.41525465208730261 0.46316685488367448 0 0.40032430733366781 0.47438196319643627 0 0.42715067833807191 0.48563837301334373 0 0.40953154044098622 0.4794767255128099 0 0.42565961132635199 0.47168315798381388 0 0.40953154044098622 0.4794767255128099 0 0.42565961132635199 0.47168315798381388 0 0.41525465208730261 0.46316685488367448 0 0.44676321533503599 0.47198421477385039 0 0.42715067833807191 0.48563837301334373 0 0.42565961132635199 0.47168315798381388 0 0.42565961132635199 0.47168315798381388 0 0.43105685511778941 0.46008286853249242 0 0.41525465208730261 0.46316685488367448 0 0.44676321533503599 0.47198421477385039 0 0.42565961132635199 0.47168315798381388 0 0.43105685511778941 0.46008286853249242 0 0.43647632095713862 0.44436215142212632 0 0.4092285121767878 0.4507105976825127 0 0.43133933500857929 0.43201167421733949 0 0.43647632095713862 0.44436215142212632 0 0.41892553910608071 0.43791135523627978 0 0.43105685511778941 0.46008286853249242 0 0.43647632095713862 0.44436215142212632 0 0.4092285121767878 0.4507105976825127 0 0.43647632095713862 0.44436215142212632 0 0.41892553910608071 0.43791135523627978 0 0.4092285121767878 0.4507105976825127 0 0.4086430402520686 0.43726383809014391 0 0.41892553910608071 0.43791135523627978 0 0.4092285121767878 0.4507105976825127 0 0.43105685511778941 0.46008286853249242 0 0.4092285121767878 0.4507105976825127 0 0.41525465208730261 0.46316685488367448 0 0.41525465208730261 0.46316685488367448 0 0.38526933680530762 0.46591325479630669 0 0.40032430733366781 0.47438196319643627 0 0.4092285121767878 0.4507105976825127 0 0.41525465208730261 0.46316685488367448 0 0.38526933680530762 0.46591325479630669 0 0.4092285121767878 0.4507105976825127 0 0.38526933680530762 0.46591325479630669 0 0.38198070339643708 0.45705904394289942 0 0.4092285121767878 0.4507105976825127 0 0.38198070339643708 0.45705904394289942 0 0.41525465208730261 0.46316685488367448 0 0.38526933680530762 0.46591325479630669 0 0.39355396721594382 0.43664913910555569 0 0.4086430402520686 0.43726383809014391 0 0.4092285121767878 0.4507105976825127 0 0.39355396721594382 0.43664913910555569 0 0.4092285121767878 0.4507105976825127 0 0.38198070339643708 0.45705904394289942 0 0.37193014631584848 0.42999924720615068 0 0.39355396721594382 0.43664913910555569 0 0.38198070339643708 0.45705904394289942 0 0.37193014631584848 0.42999924720615068 0 0.38198070339643708 0.45705904394289942 0 0.36717500093372668 0.46757054210475929 0 0.38526933680530762 0.46591325479630669 0 0.36717500093372668 0.46757054210475929 0 0.38526933680530762 0.46591325479630669 0 0.38198070339643708 0.45705904394289942 0 0.38526933680530762 0.46591325479630669 0 0.38198070339643708 0.45705904394289942 0 0.36717500093372668 0.46757054210475929 0 0.38526933680530762 0.46591325479630669 0 0.37501723488010369 0.48021086780116401 0 0.38526933680530762 0.46591325479630669 0 0.39159959090318019 0.48295662739814987 0 0.38526933680530762 0.46591325479630669 0 0.37501723488010369 0.48021086780116401 0 0.39159959090318019 0.48295662739814987 0 0.37100127548482031 0.49999999999999922 0 0.39792984500105372 0.49999999999999267 0 0.39159959090318019 0.48295662739814987 0 0.37100127548482031 0.49999999999999922 0 0.37501723488010369 0.48021086780116401 0 0.39159959090318019 0.48295662739814987 0 0.40953154044098622 0.4794767255128099 0 0.39792984500105372 0.49999999999999267 0 0.39159959090318019 0.48295662739814987 0 0.39792984500105372 0.49999999999999267 0 0.39159959090318019 0.48295662739814987 0 0.38526933680530762 0.46591325479630669 0 0.39159959090318019 0.48295662739814987 0 0.40032430733366781 0.47438196319643627 0 0.40953154044098622 0.4794767255128099 0 0.39159959090318019 0.48295662739814987 0 0.40032430733366781 0.47438196319643627 0 0.33044620589452839 0.087817198709655944 0 0.34171554996877818 0.096966806733087524 0 0.34881532063442522 0.082201530692034883 0 0.33044620589452839 0.087817198709655944 0 0.32566991147381341 0.070879840112157963 0 0.34881532063442522 0.082201530692034883 0 0.32566991147381341 0.070879840112157963 0 0.34881532063442522 0.082201530692034883 0 0.34230685448842202 0.061943355546023537 0 0.32566991147381341 0.070879840112157963 0 0.31072716300308328 0.059331554637136651 0 0.31153776068034922 0.089135316111794982 0 0.33044620589452839 0.087817198709655944 0 0.32806927392538099 0.098855845298032555 0 0.31153776068034922 0.089135316111794982 0 0.33044620589452839 0.087817198709655944 0 0.32566991147381341 0.070879840112157963 0 0.31153776068034922 0.089135316111794982 0 0.32260309590447922 0.1123122165003074 0 0.31153776068034922 0.089135316111794982 0 0.31234835835761571 0.11893907758645331 0 0.32806927392538099 0.098855845298032555 0 0.32260309590447922 0.1123122165003074 0 0.31153776068034922 0.089135316111794982 0 0.32260309590447922 0.1123122165003074 0 0.33019904407723683 0.1184739086744384 0 0.31234835835761571 0.11893907758645331 0 0.33019904407723683 0.1184739086744384 0 0.31234835835761571 0.11893907758645331 0 0.33442235067943221 0.13211305649348251 0 0.32260309590447922 0.1123122165003074 0 0.33019904407723683 0.1184739086744384 0 0.33404375717876961 0.1080476884353169 0 0.33404375717876961 0.1080476884353169 0 0.343988490580944 0.1176741160108202 0 0.33019904407723683 0.1184739086744384 0 0.33404375717876961 0.1080476884353169 0 0.343988490580944 0.1176741160108202 0 0.343988490580944 0.1176741160108202 0 0.33442235067943221 0.13211305649348251 0 0.33019904407723683 0.1184739086744384 0 0.343988490580944 0.1176741160108202 0 0.33442235067943221 0.13211305649348251 0 0.33404375717876961 0.1080476884353169 0 0.34171554996877818 0.096966806733087524 0 0.35392152912869879 0.10268138604034791 0 0.33044620589452839 0.087817198709655944 0 0.32806927392538099 0.098855845298032555 0 0.34171554996877818 0.096966806733087524 0 0.32806927392538099 0.098855845298032555 0 0.33404375717876961 0.1080476884353169 0 0.34171554996877818 0.096966806733087524 0 0.32806927392538099 0.098855845298032555 0 0.32260309590447922 0.1123122165003074 0 0.33404375717876961 0.1080476884353169 0 0.35392152912869879 0.10268138604034791 0 0.35491381869304151 0.1011836439930483 0 0.34881532063442522 0.082201530692034883 0 0.34171554996877818 0.096966806733087524 0 0.35392152912869879 0.10268138604034791 0 0.34881532063442522 0.082201530692034883 0 0.35392152912869879 0.10268138604034791 0 0.35546062987876292 0.1088543734464716 0 0.35491381869304151 0.1011836439930483 0 0.35392152912869879 0.10268138604034791 0 0.35491381869304151 0.1011836439930483 0 0.35392152912869879 0.10268138604034791 0 0.35546062987876292 0.1088543734464716 0 0.33404375717876961 0.1080476884353169 0 0.35392152912869879 0.10268138604034791 0 0.343988490580944 0.1176741160108202 0 0.35546062987876292 0.1088543734464716 0 0.35491381869304151 0.1011836439930483 0 0.36234477620530581 0.12431315491142481 0 0.35491381869304151 0.1011836439930483 0 0.36234477620530581 0.12431315491142481 0 0.343988490580944 0.1176741160108202 0 0.3557614600719885 0.1290702624504714 0 0.35392152912869879 0.10268138604034791 0 0.343988490580944 0.1176741160108202 0 0.35392152912869879 0.10268138604034791 0 0.35546062987876292 0.1088543734464716 0 0.343988490580944 0.1176741160108202 0 0.35546062987876292 0.1088543734464716 0 0.343988490580944 0.1176741160108202 0 0.35889290538618501 0.1204186727105461 0 0.343988490580944 0.1176741160108202 0 0.35889290538618501 0.1204186727105461 0 0.3557614600719885 0.1290702624504714 0 0.35546062987876292 0.1088543734464716 0 0.35889290538618501 0.1204186727105461 0 0.36234477620530581 0.12431315491142481 0 0.35889290538618501 0.1204186727105461 0 0.36234477620530581 0.12431315491142481 0 0.3557614600719885 0.1290702624504714 0 0.35491381869304151 0.1011836439930483 0 0.36234477620530581 0.12431315491142481 0 0.37533236417423199 0.11575217945856781 0 0.35889290538618501 0.1204186727105461 0 0.36234477620530581 0.12431315491142481 0 0.35491381869304151 0.1011836439930483 0 0.36864505415383159 0.080457991471440893 0 0.37989514383216261 0.1008811074142211 0 0.35491381869304151 0.1011836439930483 0 0.37989514383216261 0.1008811074142211 0 0.37533236417423199 0.11575217945856781 0 0.35491381869304151 0.1011836439930483 0 0.36864505415383159 0.080457991471440893 0 0.36864505415383159 0.080457991471440893 0 0.37194242117794668 0.076772614526931793 0 0.37989514383216261 0.1008811074142211 0 0.35491381869304151 0.1011836439930483 0 0.36864505415383159 0.080457991471440893 0 0.34881532063442522 0.082201530692034883 0 0.35491381869304151 0.1011836439930483 0 0.34881532063442522 0.082201530692034883 0 0.35392152912869879 0.10268138604034791 0 0.34881532063442522 0.082201530692034883 0 0.34881532063442522 0.082201530692034883 0 0.34230685448842202 0.061943355546023537 0 0.34881532063442522 0.082201530692034883 0 0.34385440331789768 0.06230440562327498 0 0.34881532063442522 0.082201530692034883 0 0.36113142589940772 0.067155945135465897 0 0.34385440331789768 0.06230440562327498 0 0.34881532063442522 0.082201530692034883 0 0.34385440331789768 0.06230440562327498 0 0.34230685448842202 0.061943355546023537 0 0.36864505415383159 0.080457991471440893 0 0.36113142589940772 0.067155945135465897 0 0.38237628961462611 0.059732338949836518 0 0.36864505415383159 0.080457991471440893 0 0.34881532063442522 0.082201530692034883 0 0.36113142589940772 0.067155945135465897 0 0.36864505415383159 0.080457991471440893 0 0.37194242117794668 0.076772614526931793 0 0.38237628961462611 0.059732338949836518 0 0.36113142589940772 0.067155945135465897 0 0.36196606177625779 0.051083458940742198 0 0.38237628961462611 0.059732338949836518 0 0.36196606177625779 0.051083458940742198 0 0.37923500638336632 0.043068186250585699 0 0.38237628961462611 0.059732338949836518 0 0.36196606177625779 0.051083458940742198 0 0.36321924137845568 0.02934286747329215 0 0.37923500638336632 0.043068186250585699 0 0.36196606177625779 0.051083458940742198 0 0.36321924137845568 0.02934286747329215 0 0.33889348600137009 0.042407280554515127 0 0.36321924137845568 0.02934286747329215 0 0.33393256868484111 0.02251015548575569 0 0.33889348600137009 0.042407280554515127 0 0.36113142589940772 0.067155945135465897 0 0.36196606177625779 0.051083458940742198 0 0.34385440331789768 0.06230440562327498 0 0.36196606177625779 0.051083458940742198 0 0.34385440331789768 0.06230440562327498 0 0.33889348600137009 0.042407280554515127 0 0.37357914744350779 0.002440479778912224 0 0.37424442014871812 0.021820824704299101 0 0.35598292622536432 0.0074660699477739154 0 0.37424442014871812 0.021820824704299101 0 0.35598292622536432 0.0074660699477739154 0 0.36321924137845568 0.02934286747329215 0 0.37424442014871812 0.021820824704299101 0 0.35598292622536432 0.0074660699477739154 0 0.36321924137845568 0.02934286747329215 0 0.34509322139385162 0.01518667904233665 0 0.33393256868484111 0.02251015548575569 0 0.36321924137845568 0.02934286747329215 0 0.33393256868484111 0.02251015548575569 0 0.36321924137845568 0.02934286747329215 0 0.35598292622536432 0.0074660699477739154 0 0.34509322139385162 0.01518667904233665 0 0.35598292622536432 0.0074660699477739154 0 0.33772143230201052 -0.0068886848087512803 0 0.35598292622536432 0.0074660699477739154 0 0.33877017139388149 0.0064718171092321003 0 0.33772143230201052 -0.0068886848087512803 0 0.35598292622536432 0.0074660699477739154 0 0.34509322139385162 0.01518667904233665 0 0.33877017139388149 0.0064718171092321003 0 0.33877017139388149 0.0064718171092321003 0 0.32325249182581611 0.0026349705202008129 0 0.33772143230201052 -0.0068886848087512803 0 0.33877017139388149 0.0064718171092321003 0 0.33180078522236511 0.01396005084460041 0 0.32325249182581611 0.0026349705202008129 0 0.34509322139385162 0.01518667904233665 0 0.33877017139388149 0.0064718171092321003 0 0.33180078522236511 0.01396005084460041 0 0.3292899221964134 0.021427005254001569 0 0.33393256868484111 0.02251015548575569 0 0.33579838834241882 0.04168518040001222 0 0.33180078522236511 0.01396005084460041 0 0.3292899221964134 0.021427005254001569 0 0.33393256868484111 0.02251015548575569 0 0.33180078522236511 0.01396005084460041 0 0.33393256868484111 0.02251015548575569 0 0.3292899221964134 0.021427005254001569 0 0.33393256868484111 0.02251015548575569 0 0.34509322139385162 0.01518667904233665 0 0.33180078522236511 0.01396005084460041 0 0.33393256868484111 0.02251015548575569 0 0.3292899221964134 0.021427005254001569 0 0.31293781791285569 0.017611986042758699 0 0.31923969929816981 0.035830495662194838 0 0.3292899221964134 0.021427005254001569 0 0.31293781791285569 0.017611986042758699 0 0.33180078522236511 0.01396005084460041 0 0.3292899221964134 0.021427005254001569 0 0.32325249182581611 0.0026349705202008129 0 0.3292899221964134 0.021427005254001569 0 0.31293781791285569 0.017611986042758699 0 0.32325249182581611 0.0026349705202008129 0 0.3292899221964134 0.021427005254001569 0 0.32325249182581611 0.0026349705202008129 0 0.31293781791285569 0.017611986042758699 0 0.32325249182581611 0.0026349705202008129 0 0.30690038754225768 -0.0011800486910433781 0 0.34230685448842202 0.061943355546023537 0 0.33579838834241882 0.04168518040001222 0 0.33889348600137009 0.042407280554515127 0 0.34385440331789768 0.06230440562327498 0 0.34230685448842202 0.061943355546023537 0 0.33889348600137009 0.042407280554515127 0 0.32566991147381341 0.070879840112157963 0 0.34230685448842202 0.061943355546023537 0 0.33579838834241882 0.04168518040001222 0 0.34230685448842202 0.061943355546023537 0 0.33579838834241882 0.04168518040001222 0 0.34385440331789768 0.06230440562327498 0 0.33889348600137009 0.042407280554515127 0 0.3292899221964134 0.021427005254001569 0 0.33579838834241882 0.04168518040001222 0 0.33393256868484111 0.02251015548575569 0 0.33889348600137009 0.042407280554515127 0 0.33393256868484111 0.02251015548575569 0 0.33579838834241882 0.04168518040001222 0 0.33889348600137009 0.042407280554515127 0 0.33579838834241882 0.04168518040001222 0 0.31923969929816981 0.035830495662194838 0 0.31072716300308328 0.059331554637136651 0 0.3292899221964134 0.021427005254001569 0 0.33579838834241882 0.04168518040001222 0 0.31923969929816981 0.035830495662194838 0 0.32566991147381341 0.070879840112157963 0 0.33579838834241882 0.04168518040001222 0 0.31072716300308328 0.059331554637136651 0 0.31072716300308328 0.059331554637136651 0 0.30691000426459791 0.042169890293137127 0 0.29424159478151202 0.042911142587019738 0 0.31923969929816981 0.035830495662194838 0 0.30691000426459791 0.042169890293137127 0 0.30060566889494089 0.02714657897289334 0 0.30691000426459791 0.042169890293137127 0 0.29424159478151202 0.042911142587019738 0 0.30060566889494089 0.02714657897289334 0 0.31923969929816981 0.035830495662194838 0 0.31072716300308328 0.059331554637136651 0 0.30691000426459791 0.042169890293137127 0 0.29424159478151202 0.042911142587019738 0 0.30060566889494089 0.02714657897289334 0 0.28762295502011598 0.027200489278051441 0 0.29424159478151202 0.042911142587019738 0 0.28762295502011598 0.027200489278051441 0 0.27805620151387522 0.042617420402232667 0 0.31072716300308328 0.059331554637136651 0 0.29424159478151202 0.042911142587019738 0 0.28127895804124392 0.05869653450612005 0 0.29424159478151202 0.042911142587019738 0 0.28127895804124392 0.05869653450612005 0 0.27805620151387522 0.042617420402232667 0 0.31293781791285569 0.017611986042758699 0 0.29658571362929892 0.01379696683151194 0 0.30690038754225768 -0.0011800486910433781 0 0.29658571362929892 0.01379696683151194 0 0.30050921735997521 -0.004605356182754896 0 0.30690038754225768 -0.0011800486910433781 0 0.29658571362929892 0.01379696683151194 0 0.30690038754225768 -0.0011800486910433781 0 0.31293781791285569 0.017611986042758699 0 0.30060566889494089 0.02714657897289334 0 0.29658571362929892 0.01379696683151194 0 0.31293781791285569 0.017611986042758699 0 0.31923969929816981 0.035830495662194838 0 0.30060566889494089 0.02714657897289334 0 0.31293781791285569 0.017611986042758699 0 0.29658571362929892 0.01379696683151194 0 0.30060566889494089 0.02714657897289334 0 0.29500274332330728 0.016095456443948788 0 0.29658571362929892 0.01379696683151194 0 0.30060566889494089 0.02714657897289334 0 0.28762295502011598 0.027200489278051441 0 0.29289454178864649 0.022456661223579269 0 0.28762295502011598 0.027200489278051441 0 0.28116395689077539 0.015207467567734259 0 0.27775173961206168 0.02941095978416057 0 0.28762295502011598 0.027200489278051441 0 0.28836526088227099 0.018465508051837269 0 0.28116395689077539 0.015207467567734259 0 0.28762295502011598 0.027200489278051441 0 0.28116395689077539 0.015207467567734259 0 0.30060566889494089 0.02714657897289334 0 0.29289454178864649 0.022456661223579269 0 0.29500274332330728 0.016095456443948788 0 0.28836526088227099 0.018465508051837269 0 0.29289454178864649 0.022456661223579269 0 0.29500274332330728 0.016095456443948788 0 0.28762295502011598 0.027200489278051441 0 0.28836526088227099 0.018465508051837269 0 0.29289454178864649 0.022456661223579269 0 0.28514691493175248 0.01112824383243886 0 0.30050921735997521 -0.004605356182754896 0 0.29658571362929892 0.01379696683151194 0 0.28514691493175248 0.01112824383243886 0 0.30050921735997521 -0.004605356182754896 0 0.28514691493175248 0.01112824383243886 0 0.27791710391185381 -0.0010379811687957271 0 0.28512431700806451 -0.0086992195202469716 0 0.29658571362929892 0.01379696683151194 0 0.28514691493175248 0.01112824383243886 0 0.28836526088227099 0.018465508051837269 0 0.29500274332330728 0.016095456443948788 0 0.28514691493175248 0.01112824383243886 0 0.29500274332330728 0.016095456443948788 0 0.29658571362929892 0.01379696683151194 0 0.28514691493175248 0.01112824383243886 0 0.29500274332330728 0.016095456443948788 0 0.29658571362929892 0.01379696683151194 0 0.28836526088227099 0.018465508051837269 0 0.28514691493175248 0.01112824383243886 0 0.28116395689077539 0.015207467567734259 0 0.28514691493175248 0.01112824383243886 0 0.27807895442698177 0.0094792569716416024 0 0.28116395689077539 0.015207467567734259 0 0.28514691493175248 0.01112824383243886 0 0.28116395689077539 0.015207467567734259 0 0.28514691493175248 0.01112824383243886 0 0.27807895442698177 0.0094792569716416024 0 0.27127393371108272 0.0054169343353159512 0 0.27807895442698177 0.0094792569716416024 0 0.2692248172919926 -0.0069610417805164738 0 0.27807895442698177 0.0094792569716416024 0 0.2692248172919926 -0.0069610417805164738 0 0.27807895442698177 0.0094792569716416024 0 0.2692248172919926 -0.0069610417805164738 0 0.27791710391185381 -0.0010379811687957271 0 0.26701986470523431 0.0028523954276382379 0 0.27127393371108272 0.0054169343353159512 0 0.2692248172919926 -0.0069610417805164738 0 0.26701986470523431 0.0028523954276382379 0 0.27127393371108272 0.0054169343353159512 0 0.26928034954363472 0.01099432455637152 0 0.28514691493175248 0.01112824383243886 0 0.27807895442698177 0.0094792569716416024 0 0.27791710391185381 -0.0010379811687957271 0 0.27807895442698177 0.0094792569716416024 0 0.27458783582826463 0.012565755321843329 0 0.27310560452179761 0.0095674853239665035 0 0.27127393371108272 0.0054169343353159512 0 0.27807895442698177 0.0094792569716416024 0 0.27310560452179761 0.0095674853239665035 0 0.27807895442698177 0.0094792569716416024 0 0.28116395689077539 0.015207467567734259 0 0.27807895442698177 0.0094792569716416024 0 0.28116395689077539 0.015207467567734259 0 0.27458783582826463 0.012565755321843329 0 0.27458783582826463 0.012565755321843329 0 0.26928034954363472 0.01099432455637152 0 0.26815911709364498 0.019514489362225031 0 0.27458783582826463 0.012565755321843329 0 0.27310560452179761 0.0095674853239665035 0 0.26928034954363472 0.01099432455637152 0 0.27127393371108272 0.0054169343353159512 0 0.27310560452179761 0.0095674853239665035 0 0.26928034954363472 0.01099432455637152 0 0.28116395689077539 0.015207467567734259 0 0.26416384502347939 0.032618461888623121 0 0.28116395689077539 0.015207467567734259 0 0.26815911709364498 0.019514489362225031 0 0.26416384502347939 0.032618461888623121 0 0.28116395689077539 0.015207467567734259 0 0.27775173961206168 0.02941095978416057 0 0.26416384502347939 0.032618461888623121 0 0.28116395689077539 0.015207467567734259 0 0.27458783582826463 0.012565755321843329 0 0.26815911709364498 0.019514489362225031 0 0.2489069739425 0.021637400389674748 0 0.25228035847618863 0.02688679106582054 0 0.25585841565974538 0.042233258010133973 0 0.26815911709364498 0.019514489362225031 0 0.25311855338379191 0.024668664965947041 0 0.26416384502347939 0.032618461888623121 0 0.25311855338379191 0.024668664965947041 0 0.26416384502347939 0.032618461888623121 0 0.25228035847618863 0.02688679106582054 0 0.25311855338379191 0.024668664965947041 0 0.26416384502347939 0.032618461888623121 0 0.2489069739425 0.021637400389674748 0 0.25228035847618863 0.02688679106582054 0 0.25311855338379191 0.024668664965947041 0 0.25228035847618863 0.02688679106582054 0 0.25311855338379191 0.024668664965947041 0 0.2489069739425 0.021637400389674748 0 0.25311855338379191 0.024668664965947041 0 0.25900523844679291 0.0090906536209348996 0 0.25311855338379191 0.024668664965947041 0 0.25900523844679291 0.0090906536209348996 0 0.2489069739425 0.021637400389674748 0 0.25311855338379191 0.024668664965947041 0 0.26815911709364498 0.019514489362225031 0 0.25311855338379191 0.024668664965947041 0 0.25900523844679291 0.0090906536209348996 0 0.26928034954363472 0.01099432455637152 0 0.26815911709364498 0.019514489362225031 0 0.25900523844679291 0.0090906536209348996 0 0.26701986470523431 0.0028523954276382379 0 0.26928034954363472 0.01099432455637152 0 0.25900523844679291 0.0090906536209348996 0 0.25900523844679291 0.0090906536209348996 0 0.26489192350979318 -0.0064873577240775106 0 0.26701986470523431 0.0028523954276382379 0 0.25900523844679291 0.0090906536209348996 0 0.26489192350979318 -0.0064873577240775106 0 0.28127895804124392 0.05869653450612005 0 0.26794279917258279 0.048584654113773551 0 0.27805620151387522 0.042617420402232667 0 0.28127895804124392 0.05869653450612005 0 0.26794279917258279 0.048584654113773551 0 0.26429652163301431 0.061701359010517647 0 0.26794279917258279 0.048584654113773551 0 0.27805620151387522 0.042617420402232667 0 0.26416384502347939 0.032618461888623121 0 0.28762295502011598 0.027200489278051441 0 0.27775173961206168 0.02941095978416057 0 0.27805620151387522 0.042617420402232667 0 0.27805620151387522 0.042617420402232667 0 0.26416384502347939 0.032618461888623121 0 0.27775173961206168 0.02941095978416057 0 0.27805620151387522 0.042617420402232667 0 0.26416384502347939 0.032618461888623121 0 0.26794279917258279 0.048584654113773551 0 0.2611959089814877 0.042898221548277563 0 0.26416384502347939 0.032618461888623121 0 0.2611959089814877 0.042898221548277563 0 0.25585841565974538 0.042233258010133973 0 0.25799090162224952 0.051667623778106117 0 0.2489069739425 0.021637400389674748 0 0.25585841565974538 0.042233258010133973 0 0.2611959089814877 0.042898221548277563 0 0.25868336492166327 0.038231401890038208 0 0.25585841565974538 0.042233258010133973 0 0.25228035847618863 0.02688679106582054 0 0.26416384502347939 0.032618461888623121 0 0.25868336492166327 0.038231401890038208 0 0.2611959089814877 0.042898221548277563 0 0.26416384502347939 0.032618461888623121 0 0.25868336492166327 0.038231401890038208 0 0.26416384502347939 0.032618461888623121 0 0.25868336492166327 0.038231401890038208 0 0.25228035847618863 0.02688679106582054 0 0.25868336492166327 0.038231401890038208 0 0.25585841565974538 0.042233258010133973 0 0.24915942417082321 0.043562136642382059 0 0.25585841565974538 0.042233258010133973 0 0.25194780840825542 0.047502886957762752 0 0.25585841565974538 0.042233258010133973 0 0.25194780840825542 0.047502886957762752 0 0.25799090162224952 0.051667623778106117 0 0.24612717135886061 0.053158967820149818 0 0.25194780840825542 0.047502886957762752 0 0.25799090162224952 0.051667623778106117 0 0.24612717135886061 0.053158967820149818 0 0.25799090162224952 0.051667623778106117 0 0.26429652163301431 0.061701359010517647 0 0.26794279917258279 0.048584654113773551 0 0.2611959089814877 0.042898221548277563 0 0.25799090162224952 0.051667623778106117 0 0.26794279917258279 0.048584654113773551 0 0.25799090162224952 0.051667623778106117 0 0.26429652163301431 0.061701359010517647 0 0.24612717135886061 0.053158967820149818 0 0.25923100858263742 0.079351551944828513 0 0.24612717135886061 0.053158967820149818 0 0.26429652163301431 0.061701359010517647 0 0.25923100858263742 0.079351551944828513 0 0.24537668551697431 0.097277083683747018 0 0.25923100858263742 0.079351551944828513 0 0.25922747002471352 0.097974378356717087 0 0.27555977218924488 0.077439952611008278 0 0.28759873658278978 0.090030408643589632 0 0.27101928807639453 0.09427347599549088 0 0.25923100858263742 0.079351551944828513 0 0.27555977218924488 0.077439952611008278 0 0.27101928807639453 0.09427347599549088 0 0.25923100858263742 0.079351551944828513 0 0.27101928807639453 0.09427347599549088 0 0.27233484580641432 0.1055441360695072 0 0.25923100858263742 0.079351551944828513 0 0.27233484580641432 0.1055441360695072 0 0.28127895804124392 0.05869653450612005 0 0.26429652163301431 0.061701359010517647 0 0.27555977218924488 0.077439952611008278 0 0.26429652163301431 0.061701359010517647 0 0.25923100858263742 0.079351551944828513 0 0.27555977218924488 0.077439952611008278 0 0.31072716300308328 0.059331554637136651 0 0.28127895804124392 0.05869653450612005 0 0.29303234378028109 0.075428628958087107 0 0.28127895804124392 0.05869653450612005 0 0.27555977218924488 0.077439952611008278 0 0.29303234378028109 0.075428628958087107 0 0.27555977218924488 0.077439952611008278 0 0.29303234378028109 0.075428628958087107 0 0.28759873658278978 0.090030408643589632 0 0.29303234378028109 0.075428628958087107 0 0.28759873658278978 0.090030408643589632 0 0.31153776068034922 0.089135316111794982 0 0.31072716300308328 0.059331554637136651 0 0.29303234378028109 0.075428628958087107 0 0.31153776068034922 0.089135316111794982 0 0.31072716300308328 0.059331554637136651 0 0.31153776068034922 0.089135316111794982 0 0.31234835835761571 0.11893907758645331 0 0.29168382321700531 0.1066062767909717 0 0.29960507646434792 0.12683409122409009 0 0.31234835835761571 0.11893907758645331 0 0.29168382321700531 0.1066062767909717 0 0.31153776068034922 0.089135316111794982 0 0.31234835835761571 0.11893907758645331 0 0.28759873658278978 0.090030408643589632 0 0.31153776068034922 0.089135316111794982 0 0.29168382321700531 0.1066062767909717 0 0.31153776068034922 0.089135316111794982 0 0.31234835835761571 0.11893907758645331 0 0.29168382321700531 0.1066062767909717 0 0.29168382321700531 0.1066062767909717 0 0.27101928807639453 0.09427347599549088 0 0.28759873658278978 0.090030408643589632 0 0.29168382321700531 0.1066062767909717 0 0.27101928807639453 0.09427347599549088 0 0.28726560712948962 0.11768030606968879 0 0.27233484580641432 0.1055441360695072 0 0.28543868303019121 0.131736720194186 0 0.29168382321700531 0.1066062767909717 0 0.28726560712948962 0.11768030606968879 0 0.29960507646434792 0.12683409122409009 0 0.29168382321700531 0.1066062767909717 0 0.28726560712948962 0.11768030606968879 0 0.27233484580641432 0.1055441360695072 0 0.2688255279836298 0.12262400996184721 0 0.27233484580641432 0.1055441360695072 0 0.28543868303019121 0.131736720194186 0 0.2688255279836298 0.12262400996184721 0 0.27233484580641432 0.1055441360695072 0 0.25996734019282808 0.1097247417287856 0 0.27233484580641432 0.1055441360695072 0 0.28543868303019121 0.131736720194186 0 0.29168382321700531 0.1066062767909717 0 0.27101928807639453 0.09427347599549088 0 0.27233484580641432 0.1055441360695072 0 0.25923100858263742 0.079351551944828513 0 0.27233484580641432 0.1055441360695072 0 0.25922747002471352 0.097974378356717087 0 0.27233484580641432 0.1055441360695072 0 0.25922747002471352 0.097974378356717087 0 0.25996734019282808 0.1097247417287856 0 0.24537668551697431 0.097277083683747018 0 0.25922747002471352 0.097974378356717087 0 0.25996734019282808 0.1097247417287856 0 0.24537668551697431 0.097277083683747018 0 0.25996734019282808 0.1097247417287856 0 0.25370366287882878 0.1241816415692342 0 0.2688255279836298 0.12262400996184721 0 0.25996734019282808 0.1097247417287856 0 0.25370366287882878 0.1241816415692342 0 0.25370366287882878 0.1241816415692342 0 0.26203064024068312 0.15108619945472171 0 0.2688255279836298 0.12262400996184721 0 0.25370366287882878 0.1241816415692342 0 0.27163016425534958 0.13738497633274069 0 0.25370366287882878 0.1241816415692342 0 0.27163016425534958 0.13738497633274069 0 0.26203064024068312 0.15108619945472171 0 0.2688255279836298 0.12262400996184721 0 0.27163016425534958 0.13738497633274069 0 0.28543868303019121 0.131736720194186 0 0.27163016425534958 0.13738497633274069 0 0.28543868303019121 0.131736720194186 0 0.2826446853024604 0.14124270427211749 0 0.27163016425534958 0.13738497633274069 0 0.27808704382392468 0.15255782491348299 0 0.26203064024068312 0.15108619945472171 0 0.27808704382392468 0.15255782491348299 0 0.26203064024068312 0.15108619945472171 0 0.26470071343822532 0.15971323610680241 0 0.27808704382392468 0.15255782491348299 0 0.26203064024068312 0.15108619945472171 0 0.27163016425534958 0.13738497633274069 0 0.27808704382392468 0.15255782491348299 0 0.2826446853024604 0.14124270427211749 0 0.27808704382392468 0.15255782491348299 0 0.26470071343822532 0.15971323610680241 0 0.24802047718606329 0.14980211908606039 0 0.25370366287882878 0.1241816415692342 0 0.26203064024068312 0.15108619945472171 0 0.26203064024068312 0.15108619945472171 0 0.26470071343822532 0.15971323610680241 0 0.26203064024068312 0.15108619945472171 0 0.25841385897244001 0.15585338151222791 0 0.26470071343822532 0.15971323610680241 0 0.24802047718606329 0.14980211908606039 0 0.25841385897244001 0.15585338151222791 0 0.25890360502478721 0.16281197140132819 0 0.24802047718606329 0.14980211908606039 0 0.26203064024068312 0.15108619945472171 0 0.24802047718606329 0.14980211908606039 0 0.26203064024068312 0.15108619945472171 0 0.25841385897244001 0.15585338151222791 0 0.26470071343822532 0.15971323610680241 0 0.25890360502478721 0.16281197140132819 0 0.26962736994955661 0.17563131892736969 0 0.24394273923527451 0.1708090208874482 0 0.25890360502478721 0.16281197140132819 0 0.25069145747160237 0.17986975870422739 0 0.24394273923527451 0.1708090208874482 0 0.24802047718606329 0.14980211908606039 0 0.25890360502478721 0.16281197140132819 0 0.24802047718606329 0.14980211908606039 0 0.25890360502478721 0.16281197140132819 0 0.24394273923527451 0.1708090208874482 0 0.25890360502478721 0.16281197140132819 0 0.25890360502478721 0.16281197140132819 0 0.26962736994955661 0.17563131892736969 0 0.26470071343822532 0.15971323610680241 0 0.25890360502478721 0.16281197140132819 0 0.25841385897244001 0.15585338151222791 0 0.26470071343822532 0.15971323610680241 0 0.25890360502478721 0.16281197140132819 0 0.25890360502478721 0.16281197140132819 0 0.25069145747160237 0.17986975870422739 0 0.2622875918713119 0.17871532590777511 0 0.25890360502478721 0.16281197140132819 0 0.2622875918713119 0.17871532590777511 0 0.26962736994955661 0.17563131892736969 0 0.24443808169503289 0.19165573435540739 0 0.25069145747160237 0.17986975870422739 0 0.25672659357731442 0.18931439154619459 0 0.25069145747160237 0.17986975870422739 0 0.2622875918713119 0.17871532590777511 0 0.25672659357731442 0.18931439154619459 0 0.2622875918713119 0.17871532590777511 0 0.2666871346110174 0.18721551203983949 0 0.25672659357731442 0.18931439154619459 0 0.2666871346110174 0.18721551203983949 0 0.2707313294469027 0.17919822452935469 0 0.28262567674856709 0.19158292471432059 0 0.2707313294469027 0.17919822452935469 0 0.26962736994955661 0.17563131892736969 0 0.28262567674856709 0.19158292471432059 0 0.26962736994955661 0.17563131892736969 0 0.28262567674856709 0.19158292471432059 0 0.26962736994955661 0.17563131892736969 0 0.28063414626850292 0.17836588696170111 0 0.28262567674856709 0.19158292471432059 0 0.2622875918713119 0.17871532590777511 0 0.2666871346110174 0.18721551203983949 0 0.2707313294469027 0.17919822452935469 0 0.2622875918713119 0.17871532590777511 0 0.2707313294469027 0.17919822452935469 0 0.26962736994955661 0.17563131892736969 0 0.2707313294469027 0.17919822452935469 0 0.26962736994955661 0.17563131892736969 0 0.26962736994955661 0.17563131892736969 0 0.28063414626850292 0.17836588696170111 0 0.27791551735799302 0.17228039079135241 0 0.26470071343822532 0.15971323610680241 0 0.26962736994955661 0.17563131892736969 0 0.26470071343822532 0.15971323610680241 0 0.26962736994955661 0.17563131892736969 0 0.27525802885731437 0.16516718346708009 0 0.27808704382392468 0.15255782491348299 0 0.26470071343822532 0.15971323610680241 0 0.27525802885731437 0.16516718346708009 0 0.26962736994955661 0.17563131892736969 0 0.27791551735799302 0.17228039079135241 0 0.27525802885731437 0.16516718346708009 0 0.27791551735799302 0.17228039079135241 0 0.27525802885731437 0.16516718346708009 0 0.28614252435659893 0.16995717380925851 0 0.27808704382392468 0.15255782491348299 0 0.27525802885731437 0.16516718346708009 0 0.28831271101088052 0.16150411312056051 0 0.27525802885731437 0.16516718346708009 0 0.28831271101088052 0.16150411312056051 0 0.28614252435659893 0.16995717380925851 0 0.28831271101088052 0.16150411312056051 0 0.28614252435659893 0.16995717380925851 0 0.2949765541501792 0.16654736560739511 0 0.28614252435659893 0.16995717380925851 0 0.2949765541501792 0.16654736560739511 0 0.2966990425067918 0.17398076245598329 0 0.28831271101088052 0.16150411312056051 0 0.2949765541501792 0.16654736560739511 0 0.29843684607612081 0.16152557188150271 0 0.28831271101088052 0.16150411312056051 0 0.29843684607612081 0.16152557188150271 0 0.2957188317017474 0.15417383984422159 0 0.28063414626850292 0.17836588696170111 0 0.28878787233227138 0.1800597202735717 0 0.28262567674856709 0.19158292471432059 0 0.28063414626850292 0.17836588696170111 0 0.28614252435659893 0.16995717380925851 0 0.28878787233227138 0.1800597202735717 0 0.28063414626850292 0.17836588696170111 0 0.27791551735799302 0.17228039079135241 0 0.28614252435659893 0.16995717380925851 0 0.28614252435659893 0.16995717380925851 0 0.28878787233227138 0.1800597202735717 0 0.2966990425067918 0.17398076245598329 0 0.28878787233227138 0.1800597202735717 0 0.2966990425067918 0.17398076245598329 0 0.29802567422580972 0.18704947290502161 0 0.28878787233227138 0.1800597202735717 0 0.29802567422580972 0.18704947290502161 0 0.28262567674856709 0.19158292471432059 0 0.29802567422580972 0.18704947290502161 0 0.32181551132831843 0.18004621980614391 0 0.2966990425067918 0.17398076245598329 0 0.29802567422580972 0.18704947290502161 0 0.31104746434799968 0.1673946430062502 0 0.29802567422580972 0.18704947290502161 0 0.31104746434799968 0.1673946430062502 0 0.29802567422580972 0.18704947290502161 0 0.31104746434799968 0.1673946430062502 0 0.32181551132831843 0.18004621980614391 0 0.30601579003330748 0.16116038764967211 0 0.2957188317017474 0.15417383984422159 0 0.31335061957957011 0.15578985477495891 0 0.29843684607612081 0.16152557188150271 0 0.30601579003330748 0.16116038764967211 0 0.2957188317017474 0.15417383984422159 0 0.29843684607612081 0.16152557188150271 0 0.3040416986791476 0.16682267597464789 0 0.30601579003330748 0.16116038764967211 0 0.2949765541501792 0.16654736560739511 0 0.2966990425067918 0.17398076245598329 0 0.3040416986791476 0.16682267597464789 0 0.2966990425067918 0.17398076245598329 0 0.3040416986791476 0.16682267597464789 0 0.31104746434799968 0.1673946430062502 0 0.2949765541501792 0.16654736560739511 0 0.29843684607612081 0.16152557188150271 0 0.3040416986791476 0.16682267597464789 0 0.3040416986791476 0.16682267597464789 0 0.31104746434799968 0.1673946430062502 0 0.30601579003330748 0.16116038764967211 0 0.3040416986791476 0.16682267597464789 0 0.31104746434799968 0.1673946430062502 0 0.31104746434799968 0.1673946430062502 0 0.30601579003330748 0.16116038764967211 0 0.31349927981525749 0.1612557404164488 0 0.30601579003330748 0.16116038764967211 0 0.31335061957957011 0.15578985477495891 0 0.31349927981525749 0.1612557404164488 0 0.30483300733717872 0.1478702823059759 0 0.29542285010037611 0.14329129564805981 0 0.31275865637682793 0.1340247663826373 0 0.30483300733717872 0.1478702823059759 0 0.31275865637682793 0.1340247663826373 0 0.31335061957957011 0.15578985477495891 0 0.30483300733717872 0.1478702823059759 0 0.2957188317017474 0.15417383984422159 0 0.31335061957957011 0.15578985477495891 0 0.2957188317017474 0.15417383984422159 0 0.31335061957957011 0.15578985477495891 0 0.30483300733717872 0.1478702823059759 0 0.2957188317017474 0.15417383984422159 0 0.29542285010037611 0.14329129564805981 0 0.29960507646434792 0.12683409122409009 0 0.29542285010037611 0.14329129564805981 0 0.31275865637682793 0.1340247663826373 0 0.29542285010037611 0.14329129564805981 0 0.31275865637682793 0.1340247663826373 0 0.31234835835761571 0.11893907758645331 0 0.29960507646434792 0.12683409122409009 0 0.31275865637682793 0.1340247663826373 0 0.29960507646434792 0.12683409122409009 0 0.28543868303019121 0.131736720194186 0 0.29542285010037611 0.14329129564805981 0 0.28726560712948962 0.11768030606968879 0 0.29960507646434792 0.12683409122409009 0 0.28543868303019121 0.131736720194186 0 0.28543868303019121 0.131736720194186 0 0.2826446853024604 0.14124270427211749 0 0.29542285010037611 0.14329129564805981 0 0.27808704382392468 0.15255782491348299 0 0.2826446853024604 0.14124270427211749 0 0.29542285010037611 0.14329129564805981 0 0.27808704382392468 0.15255782491348299 0 0.2957188317017474 0.15417383984422159 0 0.29542285010037611 0.14329129564805981 0 0.27808704382392468 0.15255782491348299 0 0.2957188317017474 0.15417383984422159 0 0.27808704382392468 0.15255782491348299 0 0.29542285010037611 0.14329129564805981 0 0.27808704382392468 0.15255782491348299 0 0.28831271101088052 0.16150411312056051 0 0.2957188317017474 0.15417383984422159 0 0.27685630599777589 0.2478154210616699 0 0.27299157826480569 0.23766007785357521 0 0.26048617882559622 0.24371083740660091 0 0.26048617882559622 0.24371083740660091 0 0.27110411734464762 0.2276843331004246 0 0.27299157826480569 0.23766007785357521 0 0.26048617882559622 0.24371083740660091 0 0.27110411734464762 0.2276843331004246 0 0.27691591880596222 0.25729022711116639 0 0.27685630599777589 0.2478154210616699 0 0.26048617882559622 0.24371083740660091 0 0.27685630599777589 0.2478154210616699 0 0.27901295757983852 0.24225897862297641 0 0.27299157826480569 0.23766007785357521 0 0.27685630599777589 0.2478154210616699 0 0.27901295757983852 0.24225897862297641 0 0.28234947844706793 0.24570967974740021 0 0.27901295757983852 0.24225897862297641 0 0.27719652076970691 0.235876877536806 0 0.2822644445936543 0.2387958425564555 0 0.27719652076970691 0.235876877536806 0 0.28215825558210461 0.2340236887935741 0 0.2822644445936543 0.2387958425564555 0 0.27901295757983852 0.24225897862297641 0 0.27719652076970691 0.235876877536806 0 0.27299157826480569 0.23766007785357521 0 0.24791323415382371 0.2458877298954085 0 0.25153222320099622 0.25722575917013901 0 0.26048617882559622 0.24371083740660091 0 0.2477315277427897 0.2356386040277525 0 0.24791323415382371 0.2458877298954085 0 0.26048617882559622 0.24371083740660091 0 0.24965972363503919 0.22122943443424911 0 0.26048617882559622 0.24371083740660091 0 0.27110411734464762 0.2276843331004246 0 0.2447696612887639 0.21650126134236319 0 0.24965972363503919 0.22122943443424911 0 0.27110411734464762 0.2276843331004246 0 0.24965972363503919 0.22122943443424911 0 0.26048617882559622 0.24371083740660091 0 0.2447696612887639 0.21650126134236319 0 0.27110411734464762 0.2276843331004246 0 0.2447696612887639 0.21650126134236319 0 0.27110411734464762 0.2276843331004246 0 0.2677963164460333 0.2150467959949465 0 0.24965972363503919 0.22122943443424911 0 0.2477315277427897 0.2356386040277525 0 0.26048617882559622 0.24371083740660091 0 0.27110411734464762 0.2276843331004246 0 0.28456489578522731 0.2073669030027222 0 0.2860351544522664 0.22291189892421159 0 0.27299157826480569 0.23766007785357521 0 0.27110411734464762 0.2276843331004246 0 0.27329338907126849 0.2286140193929726 0 0.27110411734464762 0.2276843331004246 0 0.27329338907126849 0.2286140193929726 0 0.27329338907126849 0.2286140193929726 0 0.27769713930278977 0.2310580429220736 0 0.28096010293809309 0.2280773344569369 0 0.27719652076970691 0.235876877536806 0 0.27299157826480569 0.23766007785357521 0 0.27329338907126849 0.2286140193929726 0 0.27110411734464762 0.2276843331004246 0 0.27329338907126849 0.2286140193929726 0 0.28096010293809309 0.2280773344569369 0 0.27719652076970691 0.235876877536806 0 0.27329338907126849 0.2286140193929726 0 0.27769713930278977 0.2310580429220736 0 0.27719652076970691 0.235876877536806 0 0.27769713930278977 0.2310580429220736 0 0.28215825558210461 0.2340236887935741 0 0.27769713930278977 0.2310580429220736 0 0.28096010293809309 0.2280773344569369 0 0.28215825558210461 0.2340236887935741 0 0.27110411734464762 0.2276843331004246 0 0.28096010293809309 0.2280773344569369 0 0.2860351544522664 0.22291189892421159 0 0.27110411734464762 0.2276843331004246 0 0.2677963164460333 0.2150467959949465 0 0.28456489578522731 0.2073669030027222 0 0.27110411734464762 0.2276843331004246 0 0.28456489578522731 0.2073669030027222 0 0.272670307474219 0.206747045740371 0 0.2677963164460333 0.2150467959949465 0 0.28456489578522731 0.2073669030027222 0 0.272670307474219 0.206747045740371 0 0.2677963164460333 0.2150467959949465 0 0.26045320274891359 0.2075872277184421 0 0.2447696612887639 0.21650126134236319 0 0.2677963164460333 0.2150467959949465 0 0.26045320274891359 0.2075872277184421 0 0.2445919001722652 0.2027793092260104 0 0.26045320274891359 0.2075872277184421 0 0.27130878719903789 0.19491439106551739 0 0.2445919001722652 0.2027793092260104 0 0.27130878719903789 0.19491439106551739 0 0.2445919001722652 0.2027793092260104 0 0.25672659357731442 0.18931439154619459 0 0.27130878719903789 0.19491439106551739 0 0.2666871346110174 0.18721551203983949 0 0.25672659357731442 0.18931439154619459 0 0.27130878719903789 0.19491439106551739 0 0.2666871346110174 0.18721551203983949 0 0.27130878719903789 0.19491439106551739 0 0.28262567674856709 0.19158292471432059 0 0.27130878719903789 0.19491439106551739 0 0.28262567674856709 0.19158292471432059 0 0.28456489578522731 0.2073669030027222 0 0.272670307474219 0.206747045740371 0 0.26045320274891359 0.2075872277184421 0 0.27130878719903789 0.19491439106551739 0 0.272670307474219 0.206747045740371 0 0.27130878719903789 0.19491439106551739 0 0.28456489578522731 0.2073669030027222 0 0.27130878719903789 0.19491439106551739 0 0.28262567674856709 0.19158292471432059 0 0.29802567422580972 0.18704947290502161 0 0.30459187314032082 0.20471057237354329 0 0.28456489578522731 0.2073669030027222 0 0.29802567422580972 0.18704947290502161 0 0.28456489578522731 0.2073669030027222 0 0.29802567422580972 0.18704947290502161 0 0.28262567674856709 0.19158292471432059 0 0.28456489578522731 0.2073669030027222 0 0.29802567422580972 0.18704947290502161 0 0.28262567674856709 0.19158292471432059 0 0.29802567422580972 0.18704947290502161 0 0.30459187314032082 0.20471057237354329 0 0.31598770299826118 0.19548598602398221 0 0.29802567422580972 0.18704947290502161 0 0.31598770299826118 0.19548598602398221 0 0.32181551132831843 0.18004621980614391 0 0.30459187314032082 0.20471057237354329 0 0.3112657248503683 0.22109255247881221 0 0.32160390274705047 0.2085142031879387 0 0.30459187314032082 0.20471057237354329 0 0.29694173849475131 0.21805006650638351 0 0.3112657248503683 0.22109255247881221 0 0.30459187314032082 0.20471057237354329 0 0.29694173849475131 0.21805006650638351 0 0.28456489578522731 0.2073669030027222 0 0.29694173849475131 0.21805006650638351 0 0.28456489578522731 0.2073669030027222 0 0.2860351544522664 0.22291189892421159 0 0.28096010293809309 0.2280773344569369 0 0.2860351544522664 0.22291189892421159 0 0.28751134043047888 0.23164143954930111 0 0.2860351544522664 0.22291189892421159 0 0.28751134043047888 0.23164143954930111 0 0.29310118177853489 0.2272447710257052 0 0.28096010293809309 0.2280773344569369 0 0.28215825558210461 0.2340236887935741 0 0.28751134043047888 0.23164143954930111 0 0.28215825558210461 0.2340236887935741 0 0.28751134043047888 0.23164143954930111 0 0.28579805486088677 0.2374330691078928 0 0.29310118177853489 0.2272447710257052 0 0.30108985200492661 0.22865112575325311 0 0.2939278235102516 0.23496932439537649 0 0.28751134043047888 0.23164143954930111 0 0.29310118177853489 0.2272447710257052 0 0.2939278235102516 0.23496932439537649 0 0.29694173849475131 0.21805006650638351 0 0.2860351544522664 0.22291189892421159 0 0.29310118177853489 0.2272447710257052 0 0.29694173849475131 0.21805006650638351 0 0.3112657248503683 0.22109255247881221 0 0.30108985200492661 0.22865112575325311 0 0.29694173849475131 0.21805006650638351 0 0.29310118177853489 0.2272447710257052 0 0.30108985200492661 0.22865112575325311 0 0.3112657248503683 0.22109255247881221 0 0.30108985200492661 0.22865112575325311 0 0.30814982578715833 0.23504095730125821 0 0.30108985200492661 0.22865112575325311 0 0.30079101833485439 0.23667575875814051 0 0.30814982578715833 0.23504095730125821 0 0.30108985200492661 0.22865112575325311 0 0.30079101833485439 0.23667575875814051 0 0.2939278235102516 0.23496932439537649 0 0.31246354634074469 0.25301562706991498 0 0.28965918427723281 0.24218391352450211 0 0.30079101833485439 0.23667575875814051 0 0.29637482176907359 0.2407438087058773 0 0.2939278235102516 0.23496932439537649 0 0.31246354634074469 0.25301562706991498 0 0.30301881801219099 0.2434786808704178 0 0.28965918427723281 0.24218391352450211 0 0.30079101833485439 0.23667575875814051 0 0.30814982578715833 0.23504095730125821 0 0.30301881801219099 0.2434786808704178 0 0.30079101833485439 0.23667575875814051 0 0.30301881801219099 0.2434786808704178 0 0.29637482176907359 0.2407438087058773 0 0.30814982578715833 0.23504095730125821 0 0.30301881801219099 0.2434786808704178 0 0.31261059057147461 0.2434248305083811 0 0.31246354634074469 0.25301562706991498 0 0.30301881801219099 0.2434786808704178 0 0.31261059057147461 0.2434248305083811 0 0.29345893722613059 0.25129825022350127 0 0.29035996411889098 0.24599513786664159 0 0.28965918427723281 0.24218391352450211 0 0.29345893722613059 0.25129825022350127 0 0.29035996411889098 0.24599513786664159 0 0.28892582916583598 0.2492018439528669 0 0.29035996411889098 0.24599513786664159 0 0.28965918427723281 0.24218391352450211 0 0.28783672664197268 0.24359463822150959 0 0.30301881801219099 0.2434786808704178 0 0.29637482176907359 0.2407438087058773 0 0.28965918427723281 0.24218391352450211 0 0.29637482176907359 0.2407438087058773 0 0.2939278235102516 0.23496932439537649 0 0.29248016532158921 0.23880015382188749 0 0.2939278235102516 0.23496932439537649 0 0.28995883172979869 0.23730356866179431 0 0.29248016532158921 0.23880015382188749 0 0.28751134043047888 0.23164143954930111 0 0.2939278235102516 0.23496932439537649 0 0.28995883172979869 0.23730356866179431 0 0.29637482176907359 0.2407438087058773 0 0.29248016532158921 0.23880015382188749 0 0.28965918427723281 0.24218391352450211 0 0.28995883172979869 0.23730356866179431 0 0.29248016532158921 0.23880015382188749 0 0.28965918427723281 0.24218391352450211 0 0.28995883172979869 0.23730356866179431 0 0.28965918427723281 0.24218391352450211 0 0.28579805486088677 0.2374330691078928 0 0.28965918427723281 0.24218391352450211 0 0.28777867495787518 0.24129070115530599 0 0.28579805486088677 0.2374330691078928 0 0.28965918427723281 0.24218391352450211 0 0.28777867495787518 0.24129070115530599 0 0.28965918427723281 0.24218391352450211 0 0.28579805486088677 0.2374330691078928 0 0.28777867495787518 0.24129070115530599 0 0.28579805486088677 0.2374330691078928 0 0.28505636658832489 0.24015885991938871 0 0.28777867495787518 0.24129070115530599 0 0.28505636658832489 0.24015885991938871 0 0.28397084752209928 0.24268433257024799 0 0.28751134043047888 0.23164143954930111 0 0.28995883172979869 0.23730356866179431 0 0.28579805486088677 0.2374330691078928 0 0.28215825558210461 0.2340236887935741 0 0.28579805486088677 0.2374330691078928 0 0.2822644445936543 0.2387958425564555 0 0.27901295757983852 0.24225897862297641 0 0.2822644445936543 0.2387958425564555 0 0.28397084752209928 0.24268433257024799 0 0.28505636658832489 0.24015885991938871 0 0.2822644445936543 0.2387958425564555 0 0.28397084752209928 0.24268433257024799 0 0.28579805486088677 0.2374330691078928 0 0.28505636658832489 0.24015885991938871 0 0.2822644445936543 0.2387958425564555 0 0.27901295757983852 0.24225897862297641 0 0.28234947844706793 0.24570967974740021 0 0.28397084752209928 0.24268433257024799 0 0.27685630599777589 0.2478154210616699 0 0.28234947844706793 0.24570967974740021 0 0.28494106210013392 0.2498489505319901 0 0.28234947844706793 0.24570967974740021 0 0.28397084752209928 0.24268433257024799 0 0.2869662190354918 0.2459407159501166 0 0.28234947844706793 0.24570967974740021 0 0.28494106210013392 0.2498489505319901 0 0.2869662190354918 0.2459407159501166 0 0.28494106210013392 0.2498489505319901 0 0.28892582916583598 0.2492018439528669 0 0.2869662190354918 0.2459407159501166 0 0.29035996411889098 0.24599513786664159 0 0.28892582916583598 0.2492018439528669 0 0.2869662190354918 0.2459407159501166 0 0.29035996411889098 0.24599513786664159 0 0.28783672664197268 0.24359463822150959 0 0.2869662190354918 0.2459407159501166 0 0.28965918427723281 0.24218391352450211 0 0.28777867495787518 0.24129070115530599 0 0.28783672664197268 0.24359463822150959 0 0.28397084752209928 0.24268433257024799 0 0.28783672664197268 0.24359463822150959 0 0.2869662190354918 0.2459407159501166 0 0.28777867495787518 0.24129070115530599 0 0.28397084752209928 0.24268433257024799 0 0.28783672664197268 0.24359463822150959 0 0.3379127634661398 0.24049180221066491 0 0.32643540241908581 0.2493154440826276 0 0.31942597565379999 0.2366753470562844 0 0.31246354634074469 0.25301562706991498 0 0.32643540241908581 0.2493154440826276 0 0.31261059057147461 0.2434248305083811 0 0.32643540241908581 0.2493154440826276 0 0.31261059057147461 0.2434248305083811 0 0.31942597565379999 0.2366753470562844 0 0.30814982578715833 0.23504095730125821 0 0.31261059057147461 0.2434248305083811 0 0.31942597565379999 0.2366753470562844 0 0.3379127634661398 0.24049180221066491 0 0.31942597565379999 0.2366753470562844 0 0.32600368008419539 0.22461502934577851 0 0.3112657248503683 0.22109255247881221 0 0.30814982578715833 0.23504095730125821 0 0.31942597565379999 0.2366753470562844 0 0.3112657248503683 0.22109255247881221 0 0.31942597565379999 0.2366753470562844 0 0.32600368008419539 0.22461502934577851 0 0.3379127634661398 0.24049180221066491 0 0.32600368008419539 0.22461502934577851 0 0.3398100337036184 0.2163012417951922 0 0.3398100337036184 0.2163012417951922 0 0.32160390274705047 0.2085142031879387 0 0.33063695298837592 0.19682719513420929 0 0.32600368008419539 0.22461502934577851 0 0.3398100337036184 0.2163012417951922 0 0.32160390274705047 0.2085142031879387 0 0.3112657248503683 0.22109255247881221 0 0.32600368008419539 0.22461502934577851 0 0.32160390274705047 0.2085142031879387 0 0.30459187314032082 0.20471057237354329 0 0.32160390274705047 0.2085142031879387 0 0.31598770299826118 0.19548598602398221 0 0.32160390274705047 0.2085142031879387 0 0.31598770299826118 0.19548598602398221 0 0.33063695298837592 0.19682719513420929 0 0.31598770299826118 0.19548598602398221 0 0.33063695298837592 0.19682719513420929 0 0.32181551132831843 0.18004621980614391 0 0.3398100337036184 0.2163012417951922 0 0.33063695298837592 0.19682719513420929 0 0.34652165966209031 0.1951830619424908 0 0.33063695298837592 0.19682719513420929 0 0.34652165966209031 0.1951830619424908 0 0.33808290749091702 0.1854324580495085 0 0.34652165966209031 0.1951830619424908 0 0.33808290749091702 0.1854324580495085 0 0.34805963641287802 0.18313381139210541 0 0.34652165966209031 0.1951830619424908 0 0.35834447101042982 0.1885307986193322 0 0.34805963641287802 0.18313381139210541 0 0.34652165966209031 0.1951830619424908 0 0.35697604229412883 0.20282503597125329 0 0.35834447101042982 0.1885307986193322 0 0.35834447101042982 0.1885307986193322 0 0.36867711819290189 0.19558193609178909 0 0.37211726383392318 0.18243968588977941 0 0.36867711819290189 0.19558193609178909 0 0.37211726383392318 0.18243968588977941 0 0.37959621891343998 0.18888004806970329 0 0.35697604229412883 0.20282503597125329 0 0.35834447101042982 0.1885307986193322 0 0.36867711819290189 0.19558193609178909 0 0.35697604229412883 0.20282503597125329 0 0.36867711819290189 0.19558193609178909 0 0.36464593244806109 0.2145418940701225 0 0.36867711819290189 0.19558193609178909 0 0.36464593244806109 0.2145418940701225 0 0.38262777372413942 0.20056577775977211 0 0.3398100337036184 0.2163012417951922 0 0.35697604229412883 0.20282503597125329 0 0.36464593244806109 0.2145418940701225 0 0.3398100337036184 0.2163012417951922 0 0.34652165966209031 0.1951830619424908 0 0.35697604229412883 0.20282503597125329 0 0.3379127634661398 0.24049180221066491 0 0.3398100337036184 0.2163012417951922 0 0.35784805351199239 0.2326945607342826 0 0.3398100337036184 0.2163012417951922 0 0.36464593244806109 0.2145418940701225 0 0.35784805351199239 0.2326945607342826 0 0.3398100337036184 0.2163012417951922 0 0.35784805351199239 0.2326945607342826 0 0.36464593244806109 0.2145418940701225 0 0.35784805351199239 0.2326945607342826 0 0.37504625414522869 0.2303727958758012 0 0.35784805351199239 0.2326945607342826 0 0.37588607332036628 0.2490878796733729 0 0.35784805351199239 0.2326945607342826 0 0.37588607332036628 0.2490878796733729 0 0.37504625414522869 0.2303727958758012 0 0.35634129443021012 0.25447852924978431 0 0.35784805351199239 0.2326945607342826 0 0.37588607332036628 0.2490878796733729 0 0.35634129443021012 0.25447852924978431 0 0.3379127634661398 0.24049180221066491 0 0.35784805351199239 0.2326945607342826 0 0.33844782525489081 0.14552375979656301 0 0.33442235067943221 0.13211305649348251 0 0.31842762243075678 0.15625517981560311 0 0.33844782525489081 0.14552375979656301 0 0.31842762243075678 0.15625517981560311 0 0.3463391887874393 0.1588133723418115 0 0.343988490580944 0.1176741160108202 0 0.33926610740018709 0.13500385884312699 0 0.33442235067943221 0.13211305649348251 0 0.33844782525489081 0.14552375979656301 0 0.33926610740018709 0.13500385884312699 0 0.33442235067943221 0.13211305649348251 0 0.33926610740018709 0.13500385884312699 0 0.33442235067943221 0.13211305649348251 0 0.31234835835761571 0.11893907758645331 0 0.33442235067943221 0.13211305649348251 0 0.31795714297393313 0.13124601312364301 0 0.33442235067943221 0.13211305649348251 0 0.31795714297393313 0.13124601312364301 0 0.31842762243075678 0.15625517981560311 0 0.31795714297393313 0.13124601312364301 0 0.31275865637682793 0.1340247663826373 0 0.31842762243075678 0.15625517981560311 0 0.31234835835761571 0.11893907758645331 0 0.33442235067943221 0.13211305649348251 0 0.31234835835761571 0.11893907758645331 0 0.31795714297393313 0.13124601312364301 0 0.31275865637682793 0.1340247663826373 0 0.31234835835761571 0.11893907758645331 0 0.31275865637682793 0.1340247663826373 0 0.31795714297393313 0.13124601312364301 0 0.31275865637682793 0.1340247663826373 0 0.31275865637682793 0.1340247663826373 0 0.31335061957957011 0.15578985477495891 0 0.31275865637682793 0.1340247663826373 0 0.31335061957957011 0.15578985477495891 0 0.31842762243075678 0.15625517981560311 0 0.33442235067943221 0.13211305649348251 0 0.31842762243075678 0.15625517981560311 0 0.31335061957957011 0.15578985477495891 0 0.31842762243075678 0.15625517981560311 0 0.31104746434799968 0.1673946430062502 0 0.31842762243075678 0.15625517981560311 0 0.33486110727476232 0.16933884429702981 0 0.31104746434799968 0.1673946430062502 0 0.31842762243075678 0.15625517981560311 0 0.31349927981525749 0.1612557404164488 0 0.31335061957957011 0.15578985477495891 0 0.31349927981525749 0.1612557404164488 0 0.31104746434799968 0.1673946430062502 0 0.33486110727476232 0.16933884429702981 0 0.31104746434799968 0.1673946430062502 0 0.31842762243075678 0.15625517981560311 0 0.31335061957957011 0.15578985477495891 0 0.31842762243075678 0.15625517981560311 0 0.31349927981525749 0.1612557404164488 0 0.31104746434799968 0.1673946430062502 0 0.32181551132831843 0.18004621980614391 0 0.33486110727476232 0.16933884429702981 0 0.32181551132831843 0.18004621980614391 0 0.33808290749091702 0.1854324580495085 0 0.34560534843082608 0.17304296670726349 0 0.33063695298837592 0.19682719513420929 0 0.32181551132831843 0.18004621980614391 0 0.33808290749091702 0.1854324580495085 0 0.32181551132831843 0.18004621980614391 0 0.33486110727476232 0.16933884429702981 0 0.34560534843082608 0.17304296670726349 0 0.32181551132831843 0.18004621980614391 0 0.34560534843082608 0.17304296670726349 0 0.31842762243075678 0.15625517981560311 0 0.33486110727476232 0.16933884429702981 0 0.3463391887874393 0.1588133723418115 0 0.31842762243075678 0.15625517981560311 0 0.3463391887874393 0.1588133723418115 0 0.33486110727476232 0.16933884429702981 0 0.35867475020152417 0.1712830455878149 0 0.33486110727476232 0.16933884429702981 0 0.3463391887874393 0.1588133723418115 0 0.35867475020152417 0.1712830455878149 0 0.33486110727476232 0.16933884429702981 0 0.35867475020152417 0.1712830455878149 0 0.34560534843082608 0.17304296670726349 0 0.35834447101042982 0.1885307986193322 0 0.35867475020152417 0.1712830455878149 0 0.34805963641287802 0.18313381139210541 0 0.33808290749091702 0.1854324580495085 0 0.34805963641287802 0.18313381139210541 0 0.34560534843082608 0.17304296670726349 0 0.35867475020152417 0.1712830455878149 0 0.34805963641287802 0.18313381139210541 0 0.34560534843082608 0.17304296670726349 0 0.35834447101042982 0.1885307986193322 0 0.35867475020152417 0.1712830455878149 0 0.37211726383392318 0.18243968588977941 0 0.35867475020152417 0.1712830455878149 0 0.37211726383392318 0.18243968588977941 0 0.38248839312828642 0.17322724687860011 0 0.35867475020152417 0.1712830455878149 0 0.38248839312828642 0.17322724687860011 0 0.3463391887874393 0.1588133723418115 0 0.35867475020152417 0.1712830455878149 0 0.37425075514412182 0.1613715648680196 0 0.35867475020152417 0.1712830455878149 0 0.37425075514412182 0.1613715648680196 0 0.38248839312828642 0.17322724687860011 0 0.3463391887874393 0.1588133723418115 0 0.37425075514412182 0.1613715648680196 0 0.37425075514412182 0.1613715648680196 0 0.36753442956304122 0.14046640889011411 0 0.37911076050976511 0.15167221068913639 0 0.37425075514412182 0.1613715648680196 0 0.35378385697663972 0.14543333148879159 0 0.36753442956304122 0.14046640889011411 0 0.37425075514412182 0.1613715648680196 0 0.36753442956304122 0.14046640889011411 0 0.36753442956304122 0.14046640889011411 0 0.37911076050976511 0.15167221068913639 0 0.3463391887874393 0.1588133723418115 0 0.37425075514412182 0.1613715648680196 0 0.35378385697663972 0.14543333148879159 0 0.33844782525489081 0.14552375979656301 0 0.33926610740018709 0.13500385884312699 0 0.35378385697663972 0.14543333148879159 0 0.33844782525489081 0.14552375979656301 0 0.3463391887874393 0.1588133723418115 0 0.35378385697663972 0.14543333148879159 0 0.343988490580944 0.1176741160108202 0 0.33926610740018709 0.13500385884312699 0 0.3557614600719885 0.1290702624504714 0 0.35378385697663972 0.14543333148879159 0 0.3557614600719885 0.1290702624504714 0 0.36753442956304122 0.14046640889011411 0 0.33926610740018709 0.13500385884312699 0 0.35378385697663972 0.14543333148879159 0 0.3557614600719885 0.1290702624504714 0 0.36234477620530581 0.12431315491142481 0 0.38206466283770479 0.146561596848436 0 0.36234477620530581 0.12431315491142481 0 0.36753442956304122 0.14046640889011411 0 0.38206466283770479 0.146561596848436 0 0.36234477620530581 0.12431315491142481 0 0.3557614600719885 0.1290702624504714 0 0.36753442956304122 0.14046640889011411 0 0.36234477620530581 0.12431315491142481 0 0.36753442956304122 0.14046640889011411 0 0.3557614600719885 0.1290702624504714 0 0.36753442956304122 0.14046640889011411 0 0.36234477620530581 0.12431315491142481 0 0.38206466283770479 0.146561596848436 0 0.38784786648637848 0.12498960030151041 0 0.39580058914059452 0.1490980931887998 0 0.38206466283770479 0.146561596848436 0 0.38784786648637848 0.12498960030151041 0 0.39580058914059452 0.1490980931887998 0 0.38784786648637848 0.12498960030151041 0 0.39497711538788383 0.13620291539220281 0 0.38784786648637848 0.12498960030151041 0 0.40536034682354632 0.12481683740862159 0 0.39497711538788383 0.13620291539220281 0 0.40981053908925419 0.14123984962813549 0 0.40536034682354632 0.12481683740862159 0 0.39497711538788383 0.13620291539220281 0 0.39580058914059452 0.1490980931887998 0 0.38784786648637848 0.12498960030151041 0 0.39497711538788383 0.13620291539220281 0 0.40981053908925419 0.14123984962813549 0 0.39580058914059452 0.1490980931887998 0 0.38206466283770479 0.146561596848436 0 0.39687031602956763 0.16326568453002829 0 0.39580058914059452 0.1490980931887998 0 0.40981053908925419 0.14123984962813549 0 0.41018078742555969 0.15504633733473569 0 0.39497711538788383 0.13620291539220281 0 0.39580058914059452 0.1490980931887998 0 0.40981053908925419 0.14123984962813549 0 0.38206466283770479 0.146561596848436 0 0.37911076050976511 0.15167221068913639 0 0.39068709145648911 0.16287801248815861 0 0.38206466283770479 0.146561596848436 0 0.39687031602956763 0.16326568453002829 0 0.36753442956304122 0.14046640889011411 0 0.38206466283770479 0.146561596848436 0 0.37911076050976511 0.15167221068913639 0 0.37425075514412182 0.1613715648680196 0 0.37911076050976511 0.15167221068913639 0 0.39068709145648911 0.16287801248815861 0 0.38206466283770479 0.146561596848436 0 0.39687031602956763 0.16326568453002829 0 0.39068709145648911 0.16287801248815861 0 0.37425075514412182 0.1613715648680196 0 0.39068709145648911 0.16287801248815861 0 0.37425075514412182 0.1613715648680196 0 0.38248839312828642 0.17322724687860011 0 0.39068709145648911 0.16287801248815861 0 0.38248839312828642 0.17322724687860011 0 0.39068709145648911 0.16287801248815861 0 0.39173266295372422 0.1703821586821625 0 0.37911076050976511 0.15167221068913639 0 0.39068709145648911 0.16287801248815861 0 0.37211726383392318 0.18243968588977941 0 0.38456142671463689 0.18119341109058101 0 0.37959621891343998 0.18888004806970329 0 0.37211726383392318 0.18243968588977941 0 0.38248839312828642 0.17322724687860011 0 0.38456142671463689 0.18119341109058101 0 0.38248839312828642 0.17322724687860011 0 0.39015071041641458 0.1752968202883449 0 0.38456142671463689 0.18119341109058101 0 0.39015071041641458 0.1752968202883449 0 0.38456142671463689 0.18119341109058101 0 0.3936647719149563 0.17997510126181099 0 0.38248839312828642 0.17322724687860011 0 0.39015071041641458 0.1752968202883449 0 0.39173266295372422 0.1703821586821625 0 0.38935120208080087 0.18734156415524739 0 0.38456142671463689 0.18119341109058101 0 0.37959621891343998 0.18888004806970329 0 0.38935120208080087 0.18734156415524739 0 0.38456142671463689 0.18119341109058101 0 0.3936647719149563 0.17997510126181099 0 0.40402992335265742 0.18295193175906091 0 0.40178454947010472 0.1688100387854462 0 0.4113280318459675 0.18796372784287679 0 0.38935120208080087 0.18734156415524739 0 0.39769522389517081 0.18613352877741379 0 0.3936647719149563 0.17997510126181099 0 0.39769522389517081 0.18613352877741379 0 0.3936647719149563 0.17997510126181099 0 0.39874070762402308 0.17719757549675871 0 0.3936647719149563 0.17997510126181099 0 0.39444527572727123 0.17454960687581639 0 0.39874070762402308 0.17719757549675871 0 0.39015071041641458 0.1752968202883449 0 0.3936647719149563 0.17997510126181099 0 0.39444527572727123 0.17454960687581639 0 0.39015071041641458 0.1752968202883449 0 0.39444527572727123 0.17454960687581639 0 0.39173266295372422 0.1703821586821625 0 0.39444527572727123 0.17454960687581639 0 0.39874070762402308 0.17719757549675871 0 0.39793752572723801 0.16989637865000479 0 0.39874070762402308 0.17719757549675871 0 0.40402992335265742 0.18295193175906091 0 0.40178454947010472 0.1688100387854462 0 0.39874070762402308 0.17719757549675871 0 0.39793752572723801 0.16989637865000479 0 0.40178454947010472 0.1688100387854462 0 0.39769522389517081 0.18613352877741379 0 0.39874070762402308 0.17719757549675871 0 0.40402992335265742 0.18295193175906091 0 0.39580058914059452 0.1490980931887998 0 0.39687031602956763 0.16326568453002829 0 0.40178454947010472 0.1688100387854462 0 0.39580058914059452 0.1490980931887998 0 0.40178454947010472 0.1688100387854462 0 0.41018078742555969 0.15504633733473569 0 0.39687031602956763 0.16326568453002829 0 0.39068709145648911 0.16287801248815861 0 0.39068709145648911 0.16287801248815861 0 0.39793752572723801 0.16989637865000479 0 0.39068709145648911 0.16287801248815861 0 0.39173266295372422 0.1703821586821625 0 0.39793752572723801 0.16989637865000479 0 0.39444527572727123 0.17454960687581639 0 0.39173266295372422 0.1703821586821625 0 0.39793752572723801 0.16989637865000479 0 0.39687031602956763 0.16326568453002829 0 0.39068709145648911 0.16287801248815861 0 0.39793752572723801 0.16989637865000479 0 0.39687031602956763 0.16326568453002829 0 0.40178454947010472 0.1688100387854462 0 0.39687031602956763 0.16326568453002829 0 0.39793752572723801 0.16989637865000479 0 0.40178454947010472 0.1688100387854462 0 0.42156831075211598 0.1680848541833582 0 0.42464396279062439 0.14627678386406909 0 0.41018078742555969 0.15504633733473569 0 0.40178454947010472 0.1688100387854462 0 0.42156831075211598 0.1680848541833582 0 0.41018078742555969 0.15504633733473569 0 0.40178454947010472 0.1688100387854462 0 0.4113280318459675 0.18796372784287679 0 0.42150443610250471 0.1910584807224564 0 0.40178454947010472 0.1688100387854462 0 0.42150443610250471 0.1910584807224564 0 0.40178454947010472 0.1688100387854462 0 0.42156831075211598 0.1680848541833582 0 0.42150443610250471 0.1910584807224564 0 0.42156831075211598 0.1680848541833582 0 0.43118451961009657 0.17908750652768421 0 0.42150443610250471 0.1910584807224564 0 0.43118451961009657 0.17908750652768421 0 0.42150443610250471 0.1910584807224564 0 0.44066350929549042 0.1899546779532231 0 0.42156831075211598 0.1680848541833582 0 0.43118451961009657 0.17908750652768421 0 0.44223327263954998 0.1675638295240294 0 0.42156831075211598 0.1680848541833582 0 0.42464396279062439 0.14627678386406909 0 0.44223327263954998 0.1675638295240294 0 0.42464396279062439 0.14627678386406909 0 0.44223327263954998 0.1675638295240294 0 0.42464396279062439 0.14627678386406909 0 0.44100510488797162 0.1518324801367677 0 0.42464396279062439 0.14627678386406909 0 0.43171131441089522 0.13754306829591861 0 0.44100510488797162 0.1518324801367677 0 0.43731578770263868 0.15311191614552969 0 0.42464396279062439 0.14627678386406909 0 0.44100510488797162 0.1518324801367677 0 0.43731578770263868 0.15311191614552969 0 0.42464396279062439 0.14627678386406909 0 0.44223327263954998 0.1675638295240294 0 0.43171131441089522 0.13754306829591861 0 0.41885098875887777 0.13391820237067861 0 0.42338535559027479 0.1205090768914225 0 0.43171131441089522 0.13754306829591861 0 0.44201491538503751 0.1221884416046867 0 0.42338535559027479 0.1205090768914225 0 0.42464396279062439 0.14627678386406909 0 0.43171131441089522 0.13754306829591861 0 0.41885098875887777 0.13391820237067861 0 0.41885098875887777 0.13391820237067861 0 0.40981053908925419 0.14123984962813549 0 0.40536034682354632 0.12481683740862159 0 0.41885098875887777 0.13391820237067861 0 0.42338535559027479 0.1205090768914225 0 0.40536034682354632 0.12481683740862159 0 0.42464396279062439 0.14627678386406909 0 0.41885098875887777 0.13391820237067861 0 0.40981053908925419 0.14123984962813549 0 0.42464396279062439 0.14627678386406909 0 0.40981053908925419 0.14123984962813549 0 0.42464396279062439 0.14627678386406909 0 0.40981053908925419 0.14123984962813549 0 0.41018078742555969 0.15504633733473569 0 0.39103074677198191 0.2378645478919707 0 0.40699913865084292 0.2200073724427305 0 0.40933178642478668 0.24530746794650141 0 0.39392409312874033 0.26548119861246328 0 0.39103074677198191 0.2378645478919707 0 0.40933178642478668 0.24530746794650141 0 0.39103074677198191 0.2378645478919707 0 0.37588607332036628 0.2490878796733729 0 0.37504625414522869 0.2303727958758012 0 0.39103074677198191 0.2378645478919707 0 0.37504625414522869 0.2303727958758012 0 0.38582046467374198 0.21767509700925741 0 0.36464593244806109 0.2145418940701225 0 0.37504625414522869 0.2303727958758012 0 0.38582046467374198 0.21767509700925741 0 0.39103074677198191 0.2378645478919707 0 0.38582046467374198 0.21767509700925741 0 0.40699913865084292 0.2200073724427305 0 0.39535308900850558 0.20493870697966851 0 0.38582046467374198 0.21767509700925741 0 0.40699913865084292 0.2200073724427305 0 0.39535308900850558 0.20493870697966851 0 0.40736650267529367 0.20534760411496161 0 0.40699913865084292 0.2200073724427305 0 0.36464593244806109 0.2145418940701225 0 0.38582046467374198 0.21767509700925741 0 0.38262777372413942 0.20056577775977211 0 0.39535308900850558 0.20493870697966851 0 0.38582046467374198 0.21767509700925741 0 0.38262777372413942 0.20056577775977211 0 0.36867711819290189 0.19558193609178909 0 0.38262777372413942 0.20056577775977211 0 0.37959621891343998 0.18888004806970329 0 0.38935120208080087 0.18734156415524739 0 0.38262777372413942 0.20056577775977211 0 0.37959621891343998 0.18888004806970329 0 0.38935120208080087 0.18734156415524739 0 0.38262777372413942 0.20056577775977211 0 0.39495039075152383 0.19500119794261639 0 0.38935120208080087 0.18734156415524739 0 0.39769522389517081 0.18613352877741379 0 0.39495039075152383 0.19500119794261639 0 0.39535308900850558 0.20493870697966851 0 0.38262777372413942 0.20056577775977211 0 0.39495039075152383 0.19500119794261639 0 0.39535308900850558 0.20493870697966851 0 0.40543434764706382 0.19433380204898831 0 0.40736650267529367 0.20534760411496161 0 0.39535308900850558 0.20493870697966851 0 0.39495039075152383 0.19500119794261639 0 0.40543434764706382 0.19433380204898831 0 0.39769522389517081 0.18613352877741379 0 0.39495039075152383 0.19500119794261639 0 0.40543434764706382 0.19433380204898831 0 0.39769522389517081 0.18613352877741379 0 0.40402992335265742 0.18295193175906091 0 0.40543434764706382 0.19433380204898831 0 0.41405593538476537 0.1978098369375659 0 0.42150443610250471 0.1910584807224564 0 0.41932031768340311 0.20743549227764799 0 0.40543434764706382 0.19433380204898831 0 0.4113280318459675 0.18796372784287679 0 0.41405593538476537 0.1978098369375659 0 0.40402992335265742 0.18295193175906091 0 0.40543434764706382 0.19433380204898831 0 0.4113280318459675 0.18796372784287679 0 0.40543434764706382 0.19433380204898831 0 0.41405593538476537 0.1978098369375659 0 0.40736650267529367 0.20534760411496161 0 0.4113280318459675 0.18796372784287679 0 0.41405593538476537 0.1978098369375659 0 0.41800374937960327 0.1912601641577685 0 0.4113280318459675 0.18796372784287679 0 0.41800374937960327 0.1912601641577685 0 0.42150443610250471 0.1910584807224564 0 0.41405593538476537 0.1978098369375659 0 0.41800374937960327 0.1912601641577685 0 0.42150443610250471 0.1910584807224564 0 0.41800374937960327 0.1912601641577685 0 0.42150443610250471 0.1910584807224564 0 0.42150443610250471 0.1910584807224564 0 0.43964605568812892 0.21152628449425559 0 0.44066350929549042 0.1899546779532231 0 0.42150443610250471 0.1910584807224564 0 0.44066350929549042 0.1899546779532231 0 0.42150443610250471 0.1910584807224564 0 0.43964605568812892 0.21152628449425559 0 0.42692227912344938 0.2185749218571387 0 0.41932031768340311 0.20743549227764799 0 0.43964605568812892 0.21152628449425559 0 0.42150443610250471 0.1910584807224564 0 0.41932031768340311 0.20743549227764799 0 0.43964605568812892 0.21152628449425559 0 0.42692227912344938 0.2185749218571387 0 0.41932031768340311 0.20743549227764799 0 0.40699913865084292 0.2200073724427305 0 0.41932031768340311 0.20743549227764799 0 0.40736650267529367 0.20534760411496161 0 0.40699913865084292 0.2200073724427305 0 0.41405593538476537 0.1978098369375659 0 0.41932031768340311 0.20743549227764799 0 0.40736650267529367 0.20534760411496161 0 0.40699913865084292 0.2200073724427305 0 0.42791060214005622 0.23524578657545639 0 0.40933178642478668 0.24530746794650141 0 0.42692227912344938 0.2185749218571387 0 0.40699913865084292 0.2200073724427305 0 0.42791060214005622 0.23524578657545639 0 0.42692227912344938 0.2185749218571387 0 0.42791060214005622 0.23524578657545639 0 0.44687549402799981 0.2240274878755969 0 0.42507863072368701 0.2531856777568211 0 0.42791060214005622 0.23524578657545639 0 0.43876594592942619 0.2491002947533556 0 0.42791060214005622 0.23524578657545639 0 0.43876594592942619 0.2491002947533556 0 0.44210509291822658 0.23713285843962781 0 0.42507863072368701 0.2531856777568211 0 0.42791060214005622 0.23524578657545639 0 0.40933178642478668 0.24530746794650141 0 0.4657425708042397 0.25282124097232528 0 0.45444189403291402 0.2411770147019261 0 0.46902648610557401 0.23978031661179641 0 0.45444189403291402 0.2411770147019261 0 0.46153812927118693 0.22769678494989409 0 0.46902648610557401 0.23978031661179641 0 0.44893917376128722 0.25670587451621701 0 0.45444189403291402 0.2411770147019261 0 0.43876594592942619 0.2491002947533556 0 0.45444189403291402 0.2411770147019261 0 0.43876594592942619 0.2491002947533556 0 0.44210509291822658 0.23713285843962781 0 0.42791060214005622 0.23524578657545639 0 0.44210509291822658 0.23713285843962781 0 0.44687549402799981 0.2240274878755969 0 0.45444189403291402 0.2411770147019261 0 0.44210509291822658 0.23713285843962781 0 0.44687549402799981 0.2240274878755969 0 0.45444189403291402 0.2411770147019261 0 0.44687549402799981 0.2240274878755969 0 0.46153812927118693 0.22769678494989409 0 0.44687549402799981 0.2240274878755969 0 0.46153812927118693 0.22769678494989409 0 0.45434831412809351 0.2169717754240589 0 0.46153812927118693 0.22769678494989409 0 0.46788422009904918 0.21602458295004651 0 0.45434831412809351 0.2169717754240589 0 0.46788422009904918 0.21602458295004651 0 0.45579767155410239 0.20558373685050119 0 0.47298928242684912 0.20478556194466599 0 0.46788422009904918 0.21602458295004651 0 0.45579767155410239 0.20558373685050119 0 0.45434831412809351 0.2169717754240589 0 0.45579767155410239 0.20558373685050119 0 0.45434831412809351 0.2169717754240589 0 0.43964605568812892 0.21152628449425559 0 0.45579767155410239 0.20558373685050119 0 0.43964605568812892 0.21152628449425559 0 0.44944268158891898 0.19797959918788341 0 0.42692227912344938 0.2185749218571387 0 0.44687549402799981 0.2240274878755969 0 0.43964605568812892 0.21152628449425559 0 0.44687549402799981 0.2240274878755969 0 0.45434831412809351 0.2169717754240589 0 0.43964605568812892 0.21152628449425559 0 0.43964605568812892 0.21152628449425559 0 0.44944268158891898 0.19797959918788341 0 0.44066350929549042 0.1899546779532231 0 0.44066350929549042 0.1899546779532231 0 0.45982258248847607 0.18885087518398949 0 0.44944268158891898 0.19797959918788341 0 0.44066350929549042 0.1899546779532231 0 0.45982258248847607 0.18885087518398949 0 0.45579767155410239 0.20558373685050119 0 0.44944268158891898 0.19797959918788341 0 0.45982258248847607 0.18885087518398949 0 0.45982258248847607 0.18885087518398949 0 0.47298928242684912 0.20478556194466599 0 0.45579767155410239 0.20558373685050119 0 0.45982258248847607 0.18885087518398949 0 0.47298928242684912 0.20478556194466599 0 0.45982258248847607 0.18885087518398949 0 0.46246267395613577 0.18869877282268771 0 0.47298928242684912 0.20478556194466599 0 0.45982258248847607 0.18885087518398949 0 0.46246267395613577 0.18869877282268771 0 0.48123133697806858 0.18761746257298201 0 0.49061566848903448 0.19913054633610969 0 0.48123133697806791 0.21172494034894249 0 0.46246267395613577 0.18869877282268771 0 0.48123133697806791 0.21172494034894249 0 0.47298928242684912 0.20478556194466599 0 0.46246267395613577 0.18869877282268771 0 0.48123133697806791 0.21172494034894249 0 0.46246267395613577 0.18869877282268771 0 0.48123133697806858 0.18761746257298201 0 0.48123133697806791 0.21172494034894249 0 0.46246267395613577 0.18869877282268771 0 0.48123133697806858 0.18761746257298201 0 0.49061566848903448 0.19913054633610969 0 0.5 0.21064363009923689 0 0.50000000000000144 0.18653615232327739 0 0.48123133697806858 0.18761746257298201 0 0.49061566848903448 0.19913054633610969 0 0.50000000000000144 0.18653615232327739 0 0.49061566848903448 0.19913054633610969 0 0.5 0.21064363009923689 0 0.48123133697806791 0.21172494034894249 0 0.46788422009904918 0.21602458295004651 0 0.48123133697806791 0.21172494034894249 0 0.47298928242684912 0.20478556194466599 0 0.46153812927118693 0.22769678494989409 0 0.47761079907368659 0.22975513346519441 0 0.46902648610557401 0.23978031661179641 0 0.46153812927118693 0.22769678494989409 0 0.46788422009904918 0.21602458295004651 0 0.47761079907368659 0.22975513346519441 0 0.46788422009904918 0.21602458295004651 0 0.48123133697806791 0.21172494034894249 0 0.47761079907368659 0.22975513346519441 0 0.48123133697806791 0.21172494034894249 0 0.50000000000000078 0.23475110787519651 0 0.48123133697806791 0.21172494034894249 0 0.47761079907368659 0.22975513346519441 0 0.50000000000000078 0.23475110787519651 0 0.5 0.21064363009923689 0 0.48123133697806791 0.21172494034894249 0 0.50000000000000078 0.23475110787519651 0 0.47761079907368659 0.22975513346519441 0 0.50000000000000078 0.23475110787519651 0 0.48319944748130261 0.24680576274814439 0 0.48930401013157893 0.26400543771054868 0 0.50000000000000078 0.23475110787519651 0 0.48319944748130261 0.24680576274814439 0 0.47761079907368659 0.22975513346519441 0 0.48319944748130261 0.24680576274814439 0 0.46902648610557401 0.23978031661179641 0 0.4657425708042397 0.25282124097232528 0 0.48319944748130261 0.24680576274814439 0 0.46902648610557401 0.23978031661179641 0 0.46067006992531578 0.14501277255513739 0 0.44100510488797162 0.1518324801367677 0 0.45842061247378069 0.15774620364127601 0 0.46067006992531578 0.14501277255513739 0 0.45842061247378069 0.15774620364127601 0 0.47181417780450058 0.15130991192119209 0 0.46067006992531578 0.14501277255513739 0 0.44779797982522251 0.13591138282507809 0 0.46358849451689271 0.12298015153287919 0 0.46067006992531578 0.14501277255513739 0 0.48033503496266028 0.13819306497350831 0 0.46358849451689271 0.12298015153287919 0 0.44779797982522251 0.13591138282507809 0 0.46358849451689271 0.12298015153287919 0 0.44201491538503751 0.1221884416046867 0 0.43171131441089522 0.13754306829591861 0 0.44779797982522251 0.13591138282507809 0 0.44201491538503751 0.1221884416046867 0 0.46067006992531578 0.14501277255513739 0 0.44100510488797162 0.1518324801367677 0 0.43171131441089522 0.13754306829591861 0 0.44779797982522251 0.13591138282507809 0 0.44100510488797162 0.1518324801367677 0 0.44100510488797162 0.1518324801367677 0 0.45842061247378069 0.15774620364127601 0 0.46067006992531578 0.14501277255513739 0 0.44779797982522251 0.13591138282507809 0 0.44100510488797162 0.1518324801367677 0 0.43731578770263868 0.15311191614552969 0 0.44100510488797162 0.1518324801367677 0 0.43731578770263868 0.15311191614552969 0 0.44100510488797162 0.1518324801367677 0 0.44223327263954998 0.1675638295240294 0 0.44100510488797162 0.1518324801367677 0 0.44223327263954998 0.1675638295240294 0 0.45064745071206469 0.16407050785850311 0 0.44100510488797162 0.1518324801367677 0 0.45064745071206469 0.16407050785850311 0 0.45842061247378069 0.15774620364127601 0 0.44223327263954998 0.1675638295240294 0 0.45064745071206469 0.16407050785850311 0 0.45252365300287162 0.17650517324400131 0 0.44066350929549042 0.1899546779532231 0 0.45982258248847607 0.18885087518398949 0 0.44223327263954998 0.1675638295240294 0 0.45982258248847607 0.18885087518398949 0 0.44223327263954998 0.1675638295240294 0 0.45982258248847607 0.18885087518398949 0 0.44223327263954998 0.1675638295240294 0 0.45252365300287162 0.17650517324400131 0 0.43118451961009657 0.17908750652768421 0 0.44066350929549042 0.1899546779532231 0 0.44223327263954998 0.1675638295240294 0 0.45252365300287162 0.17650517324400131 0 0.46852950543390098 0.17564223008125701 0 0.45888445054831062 0.16819836462120771 0 0.46246267395613577 0.18869877282268771 0 0.45252365300287162 0.17650517324400131 0 0.46852950543390098 0.17564223008125701 0 0.46246267395613577 0.18869877282268771 0 0.45252365300287162 0.17650517324400131 0 0.45982258248847607 0.18885087518398949 0 0.46246267395613577 0.18869877282268771 0 0.45252365300287162 0.17650517324400131 0 0.45842061247378069 0.15774620364127601 0 0.4758361200595902 0.1636599271457834 0 0.47181417780450058 0.15130991192119209 0 0.45842061247378069 0.15774620364127601 0 0.4758361200595902 0.1636599271457834 0 0.45842061247378069 0.15774620364127601 0 0.45888445054831062 0.16819836462120771 0 0.4758361200595902 0.1636599271457834 0 0.46852950543390098 0.17564223008125701 0 0.45888445054831062 0.16819836462120771 0 0.4758361200595902 0.1636599271457834 0 0.45064745071206469 0.16407050785850311 0 0.45842061247378069 0.15774620364127601 0 0.45888445054831062 0.16819836462120771 0 0.45064745071206469 0.16407050785850311 0 0.45252365300287162 0.17650517324400131 0 0.45888445054831062 0.16819836462120771 0 0.4758361200595902 0.1636599271457834 0 0.48630368258704137 0.17140311931871249 0 0.48517032610197292 0.15232670889348399 0 0.46852950543390098 0.17564223008125701 0 0.4758361200595902 0.1636599271457834 0 0.48630368258704137 0.17140311931871249 0 0.46246267395613577 0.18869877282268771 0 0.48123133697806858 0.18761746257298201 0 0.46852950543390098 0.17564223008125701 0 0.48123133697806858 0.18761746257298201 0 0.46852950543390098 0.17564223008125701 0 0.48630368258704137 0.17140311931871249 0 0.48123133697806858 0.18761746257298201 0 0.50000000000000144 0.18653615232327739 0 0.48123133697806858 0.18761746257298201 0 0.50000000000000144 0.18653615232327739 0 0.48630368258704137 0.17140311931871249 0 0.50000000000000144 0.18653615232327739 0 0.48630368258704137 0.17140311931871249 0 0.5 0.15895475485757751 0 0.48630368258704137 0.17140311931871249 0 0.5 0.15895475485757751 0 0.48517032610197292 0.15232670889348399 0 0.48517032610197292 0.15232670889348399 0 0.48033503496266028 0.13819306497350831 0 0.50000000000000444 0.13137335739187769 0 0.5 0.15895475485757751 0 0.48517032610197292 0.15232670889348399 0 0.50000000000000444 0.13137335739187769 0 0.46067006992531578 0.14501277255513739 0 0.47181417780450058 0.15130991192119209 0 0.48033503496266028 0.13819306497350831 0 0.46067006992531578 0.14501277255513739 0 0.48033503496266028 0.13819306497350831 0 0.4758361200595902 0.1636599271457834 0 0.48517032610197292 0.15232670889348399 0 0.47181417780450058 0.15130991192119209 0 0.48517032610197292 0.15232670889348399 0 0.47181417780450058 0.15130991192119209 0 0.48033503496266028 0.13819306497350831 0 0.48033503496266028 0.13819306497350831 0 0.48287207193790682 0.119833017198512 0 0.46358849451689271 0.12298015153287919 0 0.48033503496266028 0.13819306497350831 0 0.50000000000000444 0.13137335739187769 0 0.48287207193790682 0.119833017198512 0 0.48033503496266028 0.13819306497350831 0 0.50000000000000444 0.13137335739187769 0 0.50000000000000444 0.13137335739187769 0 0.5 0.112750504140729 0 0.48287207193790682 0.119833017198512 0 0.5 0.112750504140729 0 0.47708970494047592 0.096547162644013557 0 0.48287207193790682 0.119833017198512 0 0.5 0.112750504140729 0 0.49999999999999811 0.094127650889580305 0 0.47708970494047592 0.096547162644013557 0 0.49999999999999811 0.094127650889580305 0 0.47708970494047592 0.096547162644013557 0 0.47708970494047592 0.096547162644013557 0 0.48287207193790682 0.119833017198512 0 0.46358849451689271 0.12298015153287919 0 0.49999999999999811 0.094127650889580305 0 0.5 0.065085683867034727 0 0.49030416231355511 0.073256317384286063 0 0.49030416231355511 0.073256317384286063 0 0.47714578073418512 0.066537383845565096 0 0.49228297291204992 0.059454014438704107 0 0.5 0.065085683867034727 0 0.49030416231355511 0.073256317384286063 0 0.49228297291204992 0.059454014438704107 0 0.49999999999999811 0.094127650889580305 0 0.47708970494047592 0.096547162644013557 0 0.48209205792154058 0.081076853880546043 0 0.49999999999999811 0.094127650889580305 0 0.49030416231355511 0.073256317384286063 0 0.48209205792154058 0.081076853880546043 0 0.47708970494047592 0.096547162644013557 0 0.48209205792154058 0.081076853880546043 0 0.46573084566111861 0.080721753047445138 0 0.48209205792154058 0.081076853880546043 0 0.47714578073418512 0.066537383845565096 0 0.46573084566111861 0.080721753047445138 0 0.49030416231355511 0.073256317384286063 0 0.48209205792154058 0.081076853880546043 0 0.47714578073418512 0.066537383845565096 0 0.45650324214529259 0.065280330615496637 0 0.46573084566111861 0.080721753047445138 0 0.4463318017969411 0.077534016390637867 0 0.47714578073418512 0.066537383845565096 0 0.45650324214529259 0.065280330615496637 0 0.46573084566111861 0.080721753047445138 0 0.46573084566111861 0.080721753047445138 0 0.4463318017969411 0.077534016390637867 0 0.45417940988095362 0.098966674398447016 0 0.47708970494047592 0.096547162644013557 0 0.46573084566111861 0.080721753047445138 0 0.45417940988095362 0.098966674398447016 0 0.4463318017969411 0.077534016390637867 0 0.45417940988095362 0.098966674398447016 0 0.43319821241535611 0.085947639564665793 0 0.4463318017969411 0.077534016390637867 0 0.44127530461137909 0.064432497562673663 0 0.4323056194460711 0.072068218276874901 0 0.45650324214529259 0.065280330615496637 0 0.4463318017969411 0.077534016390637867 0 0.44127530461137909 0.064432497562673663 0 0.46358849451689271 0.12298015153287919 0 0.45417940988095362 0.098966674398447016 0 0.44201491538503751 0.1221884416046867 0 0.47708970494047592 0.096547162644013557 0 0.46358849451689271 0.12298015153287919 0 0.45417940988095362 0.098966674398447016 0 0.47708970494047592 0.096547162644013557 0 0.45417940988095362 0.098966674398447016 0 0.45417940988095362 0.098966674398447016 0 0.43126911482143138 0.1013861861528805 0 0.43319821241535611 0.085947639564665793 0 0.45417940988095362 0.098966674398447016 0 0.43126911482143138 0.1013861861528805 0 0.45417940988095362 0.098966674398447016 0 0.44201491538503751 0.1221884416046867 0 0.43126911482143138 0.1013861861528805 0 0.44201491538503751 0.1221884416046867 0 0.42338535559027479 0.1205090768914225 0 0.43126911482143138 0.1013861861528805 0 0.42338535559027479 0.1205090768914225 0 0.40835881976190908 0.10380569790731391 0 0.40536034682354632 0.12481683740862159 0 0.40835881976190908 0.10380569790731391 0 0.43126911482143138 0.1013861861528805 0 0.42338535559027479 0.1205090768914225 0 0.40835881976190908 0.10380569790731391 0 0.43126911482143138 0.1013861861528805 0 0.40835881976190908 0.10380569790731391 0 0.43126911482143138 0.1013861861528805 0 0.41935522763475591 0.089699073352522835 0 0.4463318017969411 0.077534016390637867 0 0.43319821241535611 0.085947639564665793 0 0.4323056194460711 0.072068218276874901 0 0.43319821241535611 0.085947639564665793 0 0.41924297708616731 0.074654461475880396 0 0.41935522763475591 0.089699073352522835 0 0.43126911482143138 0.1013861861528805 0 0.43319821241535611 0.085947639564665793 0 0.41935522763475591 0.089699073352522835 0 0.4323056194460711 0.072068218276874901 0 0.41924297708616731 0.074654461475880396 0 0.42690609811089331 0.059013607202760512 0 0.44127530461137909 0.064432497562673663 0 0.4323056194460711 0.072068218276874901 0 0.42690609811089331 0.059013607202760512 0 0.43319821241535611 0.085947639564665793 0 0.4323056194460711 0.072068218276874901 0 0.41924297708616731 0.074654461475880396 0 0.41924297708616731 0.074654461475880396 0 0.41572401702962131 0.06154942829698281 0 0.42690609811089331 0.059013607202760512 0 0.41924297708616731 0.074654461475880396 0 0.40863285456409321 0.067745049984629005 0 0.41572401702962131 0.06154942829698281 0 0.41924297708616731 0.074654461475880396 0 0.40863285456409321 0.067745049984629005 0 0.40581890464532883 0.082285452545517224 0 0.40835881976190908 0.10380569790731391 0 0.41935522763475591 0.089699073352522835 0 0.40581890464532883 0.082285452545517224 0 0.41924297708616731 0.074654461475880396 0 0.41935522763475591 0.089699073352522835 0 0.40581890464532883 0.082285452545517224 0 0.40581890464532883 0.082285452545517224 0 0.39175039171038772 0.087168104040655559 0 0.39624558431573131 0.06624045880030964 0 0.40835881976190908 0.10380569790731391 0 0.40581890464532883 0.082285452545517224 0 0.39175039171038772 0.087168104040655559 0 0.39175039171038772 0.087168104040655559 0 0.39624558431573131 0.06624045880030964 0 0.38418619936747078 0.072555057714184676 0 0.40863285456409321 0.067745049984629005 0 0.40581890464532883 0.082285452545517224 0 0.39624558431573131 0.06624045880030964 0 0.40863285456409321 0.067745049984629005 0 0.39624558431573131 0.06624045880030964 0 0.40829937009812589 0.05445646228617778 0 0.37194242117794668 0.076772614526931793 0 0.38418619936747078 0.072555057714184676 0 0.38237628961462611 0.059732338949836518 0 0.36864505415383159 0.080457991471440893 0 0.38237628961462611 0.059732338949836518 0 0.39624558431573131 0.06624045880030964 0 0.38418619936747078 0.072555057714184676 0 0.38237628961462611 0.059732338949836518 0 0.37194242117794668 0.076772614526931793 0 0.38418619936747078 0.072555057714184676 0 0.38194353902199202 0.084344220923998292 0 0.39175039171038772 0.087168104040655559 0 0.38194353902199202 0.084344220923998292 0 0.37989514383216261 0.1008811074142211 0 0.37194242117794668 0.076772614526931793 0 0.37989514383216261 0.1008811074142211 0 0.37194242117794668 0.076772614526931793 0 0.38194353902199202 0.084344220923998292 0 0.37989514383216261 0.1008811074142211 0 0.39175039171038772 0.087168104040655559 0 0.38418619936747078 0.072555057714184676 0 0.38194353902199202 0.084344220923998292 0 0.39175039171038772 0.087168104040655559 0 0.37989514383216261 0.1008811074142211 0 0.39428450139263399 0.1099935163928351 0 0.37989514383216261 0.1008811074142211 0 0.38784786648637848 0.12498960030151041 0 0.37989514383216261 0.1008811074142211 0 0.38784786648637848 0.12498960030151041 0 0.39428450139263399 0.1099935163928351 0 0.37989514383216261 0.1008811074142211 0 0.38784786648637848 0.12498960030151041 0 0.37533236417423199 0.11575217945856781 0 0.36234477620530581 0.12431315491142481 0 0.38784786648637848 0.12498960030151041 0 0.37533236417423199 0.11575217945856781 0 0.38784786648637848 0.12498960030151041 0 0.39428450139263399 0.1099935163928351 0 0.40536034682354632 0.12481683740862159 0 0.40835881976190908 0.10380569790731391 0 0.39428450139263399 0.1099935163928351 0 0.40536034682354632 0.12481683740862159 0 0.40835881976190908 0.10380569790731391 0 0.39175039171038772 0.087168104040655559 0 0.39428450139263399 0.1099935163928351 0 0.4022109480673669 0.029794301680725051 0 0.39903054770448521 0.019764345079569041 0 0.38956197386376129 0.02112761593547402 0 0.4022109480673669 0.029794301680725051 0 0.38956197386376129 0.02112761593547402 0 0.39250591407207142 0.036175579460824843 0 0.4022109480673669 0.029794301680725051 0 0.39903054770448521 0.019764345079569041 0 0.40715192280340562 0.01462234732060084 0 0.3939873043738738 0.005606014803845533 0 0.40715192280340562 0.01462234732060084 0 0.41629264407573002 -0.006850845090226044 0 0.39903054770448521 0.019764345079569041 0 0.3939873043738738 0.005606014803845533 0 0.40715192280340562 0.01462234732060084 0 0.39903054770448521 0.019764345079569041 0 0.3939873043738738 0.005606014803845533 0 0.38956197386376129 0.02112761593547402 0 0.3939873043738738 0.005606014803845533 0 0.38284321145746519 0.01274873380563272 0 0.38956197386376129 0.02112761593547402 0 0.37357914744350779 0.002440479778912224 0 0.37424442014871812 0.021820824704299101 0 0.38284321145746519 0.01274873380563272 0 0.37357914744350779 0.002440479778912224 0 0.3939873043738738 0.005606014803845533 0 0.38284321145746519 0.01274873380563272 0 0.37424442014871812 0.021820824704299101 0 0.39250591407207142 0.036175579460824843 0 0.36321924137845568 0.02934286747329215 0 0.37424442014871812 0.021820824704299101 0 0.39250591407207142 0.036175579460824843 0 0.37424442014871812 0.021820824704299101 0 0.38956197386376129 0.02112761593547402 0 0.39250591407207142 0.036175579460824843 0 0.37424442014871812 0.021820824704299101 0 0.38284321145746519 0.01274873380563272 0 0.38956197386376129 0.02112761593547402 0 0.36321924137845568 0.02934286747329215 0 0.37923500638336632 0.043068186250585699 0 0.39250591407207142 0.036175579460824843 0 0.36321924137845568 0.02934286747329215 0 0.39250591407207142 0.036175579460824843 0 0.37923500638336632 0.043068186250585699 0 0.39610752507542107 0.039006686428232497 0 0.39250591407207142 0.036175579460824843 0 0.37923500638336632 0.043068186250585699 0 0.38237628961462611 0.059732338949836518 0 0.39610752507542107 0.039006686428232497 0 0.38237628961462611 0.059732338949836518 0 0.39610752507542107 0.039006686428232497 0 0.38237628961462611 0.059732338949836518 0 0.39498436831919048 0.053995491217328308 0 0.39610752507542107 0.039006686428232497 0 0.39624558431573131 0.06624045880030964 0 0.38237628961462611 0.059732338949836518 0 0.39498436831919048 0.053995491217328308 0 0.39624558431573131 0.06624045880030964 0 0.39498436831919048 0.053995491217328308 0 0.40127216254757908 0.052142880950221668 0 0.39498436831919048 0.053995491217328308 0 0.40127216254757908 0.052142880950221668 0 0.39610752507542107 0.039006686428232497 0 0.40127216254757908 0.052142880950221668 0 0.40829937009812589 0.05445646228617778 0 0.40647643562697111 0.047157343142538291 0 0.39624558431573131 0.06624045880030964 0 0.40127216254757908 0.052142880950221668 0 0.40829937009812589 0.05445646228617778 0 0.39624558431573131 0.06624045880030964 0 0.40829937009812589 0.05445646228617778 0 0.4022109480673669 0.029794301680725051 0 0.39724992059935432 0.037282377443883637 0 0.39250591407207142 0.036175579460824843 0 0.39724992059935432 0.037282377443883637 0 0.39250591407207142 0.036175579460824843 0 0.39610752507542107 0.039006686428232497 0 0.39724992059935432 0.037282377443883637 0 0.39250591407207142 0.036175579460824843 0 0.39610752507542107 0.039006686428232497 0 0.39724992059935432 0.037282377443883637 0 0.39610752507542107 0.039006686428232497 0 0.39250591407207142 0.036175579460824843 0 0.39610752507542107 0.039006686428232497 0 0.40647643562697111 0.047157343142538291 0 0.40127216254757908 0.052142880950221668 0 0.39610752507542107 0.039006686428232497 0 0.40647643562697111 0.047157343142538291 0 0.39610752507542107 0.039006686428232497 0 0.39724992059935432 0.037282377443883637 0 0.40647643562697111 0.047157343142538291 0 0.4022109480673669 0.029794301680725051 0 0.39724992059935432 0.037282377443883637 0 0.41056521822753728 0.033900572446116307 0 0.4022109480673669 0.029794301680725051 0 0.39724992059935432 0.037282377443883637 0 0.39724992059935432 0.037282377443883637 0 0.42035315588052052 0.042672465772045823 0 0.39724992059935432 0.037282377443883637 0 0.41056521822753728 0.033900572446116307 0 0.42035315588052052 0.042672465772045823 0 0.39724992059935432 0.037282377443883637 0 0.42035315588052052 0.042672465772045823 0 0.40647643562697111 0.047157343142538291 0 0.41056521822753728 0.033900572446116307 0 0.42035315588052052 0.042672465772045823 0 0.41918056088687422 0.025106301550984179 0 0.42035315588052052 0.042672465772045823 0 0.41807260402200452 0.053616349792940499 0 0.42690609811089331 0.059013607202760512 0 0.40863285456409321 0.067745049984629005 0 0.40829937009812589 0.05445646228617778 0 0.41572401702962131 0.06154942829698281 0 0.40829937009812589 0.05445646228617778 0 0.41807260402200452 0.053616349792940499 0 0.41572401702962131 0.06154942829698281 0 0.42035315588052052 0.042672465772045823 0 0.40829937009812589 0.05445646228617778 0 0.40647643562697111 0.047157343142538291 0 0.42035315588052052 0.042672465772045823 0 0.40829937009812589 0.05445646228617778 0 0.42035315588052052 0.042672465772045823 0 0.40829937009812589 0.05445646228617778 0 0.41807260402200452 0.053616349792940499 0 0.41807260402200452 0.053616349792940499 0 0.41572401702962131 0.06154942829698281 0 0.42690609811089331 0.059013607202760512 0 0.42035315588052052 0.042672465772045823 0 0.42690609811089331 0.059013607202760512 0 0.44432976155769699 0.048266315327598383 0 0.42035315588052052 0.042672465772045823 0 0.43671568676264189 0.026676163003921921 0 0.42035315588052052 0.042672465772045823 0 0.43671568676264189 0.026676163003921921 0 0.44432976155769699 0.048266315327598383 0 0.42035315588052052 0.042672465772045823 0 0.44432976155769699 0.048266315327598383 0 0.42035315588052052 0.042672465772045823 0 0.43671568676264189 0.026676163003921921 0 0.41918056088687422 0.025106301550984179 0 0.43671568676264189 0.026676163003921921 0 0.41918056088687422 0.025106301550984179 0 0.43085411213296282 0.0071934808399317304 0 0.4022109480673669 0.029794301680725051 0 0.41918056088687422 0.025106301550984179 0 0.40715192280340562 0.01462234732060084 0 0.41918056088687422 0.025106301550984179 0 0.40715192280340562 0.01462234732060084 0 0.43085411213296282 0.0071934808399317304 0 0.4022109480673669 0.029794301680725051 0 0.41056521822753728 0.033900572446116307 0 0.41918056088687422 0.025106301550984179 0 0.40715192280340562 0.01462234732060084 0 0.43085411213296282 0.0071934808399317304 0 0.41629264407573002 -0.006850845090226044 0 0.43085411213296282 0.0071934808399317304 0 0.45307821764476319 0.010679860235798 0 0.45275060893296981 -0.0060266252809792519 0 0.43671568676264189 0.026676163003921921 0 0.43085411213296282 0.0071934808399317304 0 0.45307821764476319 0.010679860235798 0 0.43671568676264189 0.026676163003921921 0 0.45307821764476319 0.010679860235798 0 0.45536773125663488 0.033055304065500078 0 0.43671568676264189 0.026676163003921921 0 0.45307821764476319 0.010679860235798 0 0.45307821764476319 0.010679860235798 0 0.45536773125663488 0.033055304065500078 0 0.4743220131113518 0.027463297392627269 0 0.45307821764476319 0.010679860235798 0 0.47441986059974051 0.002164373494884166 0 0.4743220131113518 0.027463297392627269 0 0.45307821764476319 0.010679860235798 0 0.47441986059974051 0.002164373494884166 0 0.45275060893296981 -0.0060266252809792519 0 0.45650324214529259 0.065280330615496637 0 0.44127530461137909 0.064432497562673663 0 0.44432976155769699 0.048266315327598383 0 0.44127530461137909 0.064432497562673663 0 0.42690609811089331 0.059013607202760512 0 0.44432976155769699 0.048266315327598383 0 0.43671568676264189 0.026676163003921921 0 0.44432976155769699 0.048266315327598383 0 0.45536773125663488 0.033055304065500078 0 0.45536773125663488 0.033055304065500078 0 0.4683063672348734 0.053860164883151249 0 0.4743220131113518 0.027463297392627269 0 0.44432976155769699 0.048266315327598383 0 0.45536773125663488 0.033055304065500078 0 0.4683063672348734 0.053860164883151249 0 0.44432976155769699 0.048266315327598383 0 0.4683063672348734 0.053860164883151249 0 0.45650324214529259 0.065280330615496637 0 0.44432976155769699 0.048266315327598383 0 0.4683063672348734 0.053860164883151249 0 0.47714578073418512 0.066537383845565096 0 0.45650324214529259 0.065280330615496637 0 0.4683063672348734 0.053860164883151249 0 0.47714578073418512 0.066537383845565096 0 0.4683063672348734 0.053860164883151249 0 0.49228297291204992 0.059454014438704107 0 0.4683063672348734 0.053860164883151249 0 0.48335627184046892 0.043534316590418197 0 0.49228297291204992 0.059454014438704107 0 0.4683063672348734 0.053860164883151249 0 0.49228297291204992 0.059454014438704107 0 0.4683063672348734 0.053860164883151249 0 0.48335627184046892 0.043534316590418197 0 0.4743220131113518 0.027463297392627269 0 0.48335627184046892 0.043534316590418197 0 0.5 0.03604371684448926 0 0.4743220131113518 0.027463297392627269 0 0.48335627184046892 0.043534316590418197 0 0.5 0.03604371684448926 0 0.49228297291204992 0.059454014438704107 0 0.5 0.065085683867034727 0 0.5 0.03604371684448926 0 0.49228297291204992 0.059454014438704107 0 0.47441986059974051 0.002164373494884166 0 0.4743220131113518 0.027463297392627269 0 0.5 0.0070017498219436813 0 0.5 0.03604371684448926 0 0.4743220131113518 0.027463297392627269 0 0.5 0.0070017498219436813 0 0.47441986059974051 0.002164373494884166 0 0.5 0.0070017498219436813 0 0.48435038112254591 -0.01295811459108822 0 0.5 0.0070017498219436813 0 0.48435038112254591 -0.01295811459108822 0 0.5 -0.022040217200601949 0 0.47441986059974051 0.002164373494884166 0 0.48435038112254591 -0.01295811459108822 0 0.46567746476080879 -0.018036067265790781 0 0.48165458025218022 -0.033880411805876212 0 0.46055892944421639 -0.034826981934293802 0 0.46567746476080879 -0.018036067265790781 0 0.48435038112254591 -0.01295811459108822 0 0.48165458025218022 -0.033880411805876212 0 0.46567746476080879 -0.018036067265790781 0 0.48435038112254591 -0.01295811459108822 0 0.5 -0.022040217200601949 0 0.48165458025218022 -0.033880411805876212 0 0.5 -0.051082184223147482 0 0.48331950433178789 -0.05028970193443566 0 0.48165458025218022 -0.033880411805876212 0 0.5 -0.022040217200601949 0 0.5 -0.051082184223147482 0 0.48165458025218022 -0.033880411805876212 0 0.5 -0.051082184223147482 0 0.48331950433178789 -0.05028970193443566 0 0.48351099524096458 -0.065188187078006596 0 0.46811244183400691 -0.051008024630712363 0 0.48351099524096458 -0.065188187078006596 0 0.46325174163611299 -0.065085723760132191 0 0.48331950433178789 -0.05028970193443566 0 0.46811244183400691 -0.051008024630712363 0 0.48351099524096458 -0.065188187078006596 0 0.48331950433178789 -0.05028970193443566 0 0.48165458025218022 -0.033880411805876212 0 0.46811244183400691 -0.051008024630712363 0 0.48165458025218022 -0.033880411805876212 0 0.46055892944421639 -0.034826981934293802 0 0.46811244183400691 -0.051008024630712363 0 0.46055892944421639 -0.034826981934293802 0 0.46811244183400691 -0.051008024630712363 0 0.44580381826440463 -0.044156532015693237 0 0.46811244183400691 -0.051008024630712363 0 0.44580381826440463 -0.044156532015693237 0 0.46325174163611299 -0.065085723760132191 0 0.44580381826440463 -0.044156532015693237 0 0.46325174163611299 -0.065085723760132191 0 0.46811244183400691 -0.051008024630712363 0 0.46325174163611299 -0.065085723760132191 0 0.44420654965085082 -0.062216100931960373 0 0.44580381826440463 -0.044156532015693237 0 0.42712667170951002 -0.058909162300086547 0 0.44420654965085082 -0.062216100931960373 0 0.44580381826440463 -0.044156532015693237 0 0.46325174163611299 -0.065085723760132191 0 0.46055892944421639 -0.034826981934293802 0 0.44580381826440463 -0.044156532015693237 0 0.43960160651246799 -0.018737423931294579 0 0.43960160651246799 -0.018737423931294579 0 0.45275060893296981 -0.0060266252809792519 0 0.46567746476080879 -0.018036067265790781 0 0.43085411213296282 0.0071934808399317304 0 0.43960160651246799 -0.018737423931294579 0 0.45275060893296981 -0.0060266252809792519 0 0.47441986059974051 0.002164373494884166 0 0.45275060893296981 -0.0060266252809792519 0 0.46567746476080879 -0.018036067265790781 0 0.46055892944421639 -0.034826981934293802 0 0.43960160651246799 -0.018737423931294579 0 0.46567746476080879 -0.018036067265790781 0 0.47818452339587708 -0.1165119508780514 0 0.50000000000000278 -0.1091661182682386 0 0.5 -0.13347981615570359 0 0.50000000000000278 -0.1091661182682386 0 0.48162587081805858 -0.087125921014184843 0 0.47818452339587708 -0.1165119508780514 0 0.50000000000000278 -0.1091661182682386 0 0.47745756082527618 -0.1021495788090297 0 0.50000000000000278 -0.1091661182682386 0 0.47745756082527618 -0.1021495788090297 0 0.48162587081805858 -0.087125921014184843 0 0.47818452339587708 -0.1165119508780514 0 0.47745756082527618 -0.1021495788090297 0 0.45929027747438272 -0.10448110762161331 0 0.47745756082527618 -0.1021495788090297 0 0.48162587081805858 -0.087125921014184843 0 0.46818713243806243 -0.093462796263060144 0 0.48162587081805858 -0.087125921014184843 0 0.46325174163611299 -0.065085723760132191 0 0.46656747462136422 -0.083363997574371698 0 0.48162587081805858 -0.087125921014184843 0 0.46656747462136422 -0.083363997574371698 0 0.46818713243806243 -0.093462796263060144 0 0.50000000000000278 -0.1091661182682386 0 0.48162587081805858 -0.087125921014184843 0 0.5 -0.080124151245693054 0 0.48162587081805858 -0.087125921014184843 0 0.5 -0.080124151245693054 0 0.48351099524096458 -0.065188187078006596 0 0.5 -0.051082184223147482 0 0.5 -0.080124151245693054 0 0.48351099524096458 -0.065188187078006596 0 0.48162587081805858 -0.087125921014184843 0 0.48351099524096458 -0.065188187078006596 0 0.46325174163611299 -0.065085723760132191 0 0.48162587081805858 -0.087125921014184843 0 0.46325174163611299 -0.065085723760132191 0 0.46325174163611299 -0.065085723760132191 0 0.44779547222269012 -0.07571174360441861 0 0.4542230721705241 -0.091234814858292518 0 0.44420654965085082 -0.062216100931960373 0 0.46325174163611299 -0.065085723760132191 0 0.44779547222269012 -0.07571174360441861 0 0.44420654965085082 -0.062216100931960373 0 0.44779547222269012 -0.07571174360441861 0 0.43605259790445722 -0.074801038719200894 0 0.44779547222269012 -0.07571174360441861 0 0.441034556727114 -0.086800976364950752 0 0.4542230721705241 -0.091234814858292518 0 0.44779547222269012 -0.07571174360441861 0 0.441034556727114 -0.086800976364950752 0 0.43605259790445722 -0.074801038719200894 0 0.441034556727114 -0.086800976364950752 0 0.4542230721705241 -0.091234814858292518 0 0.44037425786955031 -0.1001430447449046 0 0.46325174163611299 -0.065085723760132191 0 0.4542230721705241 -0.091234814858292518 0 0.46325174163611299 -0.065085723760132191 0 0.4542230721705241 -0.091234814858292518 0 0.46656747462136422 -0.083363997574371698 0 0.4542230721705241 -0.091234814858292518 0 0.46656747462136422 -0.083363997574371698 0 0.46818713243806243 -0.093462796263060144 0 0.47745756082527618 -0.1021495788090297 0 0.46818713243806243 -0.093462796263060144 0 0.45929027747438272 -0.10448110762161331 0 0.4542230721705241 -0.091234814858292518 0 0.46818713243806243 -0.093462796263060144 0 0.45929027747438272 -0.10448110762161331 0 0.4542230721705241 -0.091234814858292518 0 0.45929027747438272 -0.10448110762161331 0 0.44519440270493238 -0.1173839059564518 0 0.4542230721705241 -0.091234814858292518 0 0.44519440270493238 -0.1173839059564518 0 0.4542230721705241 -0.091234814858292518 0 0.44037425786955031 -0.1001430447449046 0 0.44519440270493238 -0.1173839059564518 0 0.45929027747438272 -0.10448110762161331 0 0.44519440270493238 -0.1173839059564518 0 0.44037425786955031 -0.1001430447449046 0 0.44519440270493238 -0.1173839059564518 0 0.43733469804818831 -0.11156713863760261 0 0.44519440270493238 -0.1173839059564518 0 0.43583674875745881 -0.11887614197332121 0 0.43733469804818831 -0.11156713863760261 0 0.44519440270493238 -0.1173839059564518 0 0.44103349219651622 -0.1294348541443999 0 0.44519440270493238 -0.1173839059564518 0 0.43473286131254663 -0.1269599813022704 0 0.44519440270493238 -0.1173839059564518 0 0.43652399803370612 -0.1266503843383173 0 0.44103349219651622 -0.1294348541443999 0 0.44519440270493238 -0.1173839059564518 0 0.43473286131254663 -0.1269599813022704 0 0.43652399803370612 -0.1266503843383173 0 0.44519440270493238 -0.1173839059564518 0 0.43583674875745881 -0.11887614197332121 0 0.43473286131254663 -0.1269599813022704 0 0.44519440270493238 -0.1173839059564518 0 0.4507048422038758 -0.1254569291466279 0 0.44103349219651622 -0.1294348541443999 0 0.44519440270493238 -0.1173839059564518 0 0.45845740270007618 -0.1179768520576317 0 0.4507048422038758 -0.1254569291466279 0 0.47818452339587708 -0.1165119508780514 0 0.45929027747438272 -0.10448110762161331 0 0.45845740270007618 -0.1179768520576317 0 0.45845740270007618 -0.1179768520576317 0 0.46233294642030121 -0.13029577410444981 0 0.4507048422038758 -0.1254569291466279 0 0.47818452339587708 -0.1165119508780514 0 0.45845740270007618 -0.1179768520576317 0 0.46233294642030121 -0.13029577410444981 0 0.45929027747438272 -0.10448110762161331 0 0.44519440270493238 -0.1173839059564518 0 0.45845740270007618 -0.1179768520576317 0 0.40724277249555002 -0.1192463337858536 0 0.41884687315735308 -0.1196411488000769 0 0.41208161927757919 -0.13087523561031761 0 0.40724277249555002 -0.1192463337858536 0 0.41698364908723728 -0.1130169343472482 0 0.41068457829189181 -0.1070723437572161 0 0.41698364908723728 -0.1130169343472482 0 0.4250766521847687 -0.1135111272305598 0 0.42274743771597889 -0.1059915359454271 0 0.41698364908723728 -0.1130169343472482 0 0.41884687315735308 -0.1196411488000769 0 0.4250766521847687 -0.1135111272305598 0 0.40724277249555002 -0.1192463337858536 0 0.41698364908723728 -0.1130169343472482 0 0.41884687315735308 -0.1196411488000769 0 0.41884687315735308 -0.1196411488000769 0 0.42661387223904329 -0.12098454377727109 0 0.41208161927757919 -0.13087523561031761 0 0.41884687315735308 -0.1196411488000769 0 0.42661387223904329 -0.12098454377727109 0 0.4250766521847687 -0.1135111272305598 0 0.42661387223904329 -0.12098454377727109 0 0.43583674875745881 -0.11887614197332121 0 0.43473286131254663 -0.1269599813022704 0 0.42661387223904329 -0.12098454377727109 0 0.43583674875745881 -0.11887614197332121 0 0.43287065052056112 -0.1145040342651165 0 0.43733469804818831 -0.11156713863760261 0 0.43287065052056112 -0.1145040342651165 0 0.43239743038843881 -0.106928566248219 0 0.43583674875745881 -0.11887614197332121 0 0.43733469804818831 -0.11156713863760261 0 0.43287065052056112 -0.1145040342651165 0 0.43287065052056112 -0.1145040342651165 0 0.4250766521847687 -0.1135111272305598 0 0.43239743038843881 -0.106928566248219 0 0.42661387223904329 -0.12098454377727109 0 0.43287065052056112 -0.1145040342651165 0 0.4250766521847687 -0.1135111272305598 0 0.4250766521847687 -0.1135111272305598 0 0.42274743771597889 -0.1059915359454271 0 0.43239743038843881 -0.106928566248219 0 0.42274743771597889 -0.1059915359454271 0 0.43239743038843881 -0.106928566248219 0 0.42854124961890733 -0.099856724000988273 0 0.44037425786955031 -0.1001430447449046 0 0.43239743038843881 -0.106928566248219 0 0.42854124961890733 -0.099856724000988273 0 0.44037425786955031 -0.1001430447449046 0 0.43733469804818831 -0.11156713863760261 0 0.43239743038843881 -0.106928566248219 0 0.44037425786955031 -0.1001430447449046 0 0.42854124961890733 -0.099856724000988273 0 0.42870758522811919 -0.089164076341860632 0 0.42274743771597889 -0.1059915359454271 0 0.42854124961890733 -0.099856724000988273 0 0.41847953689244971 -0.097056396724529995 0 0.42854124961890733 -0.099856724000988273 0 0.41847953689244971 -0.097056396724529995 0 0.42870758522811919 -0.089164076341860632 0 0.42274743771597889 -0.1059915359454271 0 0.41847953689244971 -0.097056396724529995 0 0.41068457829189181 -0.1070723437572161 0 0.41698364908723728 -0.1130169343472482 0 0.42274743771597889 -0.1059915359454271 0 0.41068457829189181 -0.1070723437572161 0 0.41847953689244971 -0.097056396724529995 0 0.41068457829189181 -0.1070723437572161 0 0.40440998182912408 -0.094196755676502056 0 0.40751187940595462 -0.08478461483936342 0 0.41476450049512009 -0.087087396641621656 0 0.40440998182912408 -0.094196755676502056 0 0.41847953689244971 -0.097056396724529995 0 0.41476450049512009 -0.087087396641621656 0 0.40440998182912408 -0.094196755676502056 0 0.40751187940595462 -0.08478461483936342 0 0.41476450049512009 -0.087087396641621656 0 0.40927176781453312 -0.077086569868640542 0 0.40751187940595462 -0.08478461483936342 0 0.40927176781453312 -0.077086569868640542 0 0.40237588567979138 -0.081472047511817525 0 0.41476450049512009 -0.087087396641621656 0 0.42870758522811919 -0.089164076341860632 0 0.42122478008006597 -0.0757594802833121 0 0.41476450049512009 -0.087087396641621656 0 0.42122478008006597 -0.0757594802833121 0 0.40927176781453312 -0.077086569868640542 0 0.41847953689244971 -0.097056396724529995 0 0.41476450049512009 -0.087087396641621656 0 0.42870758522811919 -0.089164076341860632 0 0.441034556727114 -0.086800976364950752 0 0.44037425786955031 -0.1001430447449046 0 0.42870758522811919 -0.089164076341860632 0 0.441034556727114 -0.086800976364950752 0 0.42870758522811919 -0.089164076341860632 0 0.43605259790445722 -0.074801038719200894 0 0.42870758522811919 -0.089164076341860632 0 0.43605259790445722 -0.074801038719200894 0 0.42122478008006597 -0.0757594802833121 0 0.43605259790445722 -0.074801038719200894 0 0.42122478008006597 -0.0757594802833121 0 0.42712667170951002 -0.058909162300086547 0 0.44420654965085082 -0.062216100931960373 0 0.43605259790445722 -0.074801038719200894 0 0.42712667170951002 -0.058909162300086547 0 0.42122478008006597 -0.0757594802833121 0 0.4114316245373863 -0.068167670275121897 0 0.42712667170951002 -0.058909162300086547 0 0.40927176781453312 -0.077086569868640542 0 0.4114316245373863 -0.068167670275121897 0 0.39842538017083612 -0.076484449263173909 0 0.42122478008006597 -0.0757594802833121 0 0.40927176781453312 -0.077086569868640542 0 0.4114316245373863 -0.068167670275121897 0 0.4114316245373863 -0.068167670275121897 0 0.39842538017083612 -0.076484449263173909 0 0.40640664480004829 -0.052123305293471443 0 0.39842538017083612 -0.076484449263173909 0 0.38906844471504909 -0.048791226331097663 0 0.4114316245373863 -0.068167670275121897 0 0.39842538017083612 -0.076484449263173909 0 0.39842538017083612 -0.076484449263173909 0 0.38333741963197843 -0.065496938221855289 0 0.38906844471504909 -0.048791226331097663 0 0.39842538017083612 -0.076484449263173909 0 0.38333741963197843 -0.065496938221855289 0 0.37036238702559748 -0.076146834841134659 0 0.39842538017083612 -0.076484449263173909 0 0.373127492796404 -0.092661058915291472 0 0.39842538017083612 -0.076484449263173909 0 0.37036238702559748 -0.076146834841134659 0 0.373127492796404 -0.092661058915291472 0 0.39842538017083612 -0.076484449263173909 0 0.3905434538793735 -0.094168622203984975 0 0.373127492796404 -0.092661058915291472 0 0.39842538017083612 -0.076484449263173909 0 0.40142869859064212 -0.08537321064543299 0 0.3905434538793735 -0.094168622203984975 0 0.39842538017083612 -0.076484449263173909 0 0.40142869859064212 -0.08537321064543299 0 0.40237588567979138 -0.081472047511817525 0 0.40927176781453312 -0.077086569868640542 0 0.39842538017083612 -0.076484449263173909 0 0.40237588567979138 -0.081472047511817525 0 0.39842538017083612 -0.076484449263173909 0 0.40142869859064212 -0.08537321064543299 0 0.40142869859064212 -0.08537321064543299 0 0.40237588567979138 -0.081472047511817525 0 0.40751187940595462 -0.08478461483936342 0 0.40142869859064212 -0.08537321064543299 0 0.40237588567979138 -0.081472047511817525 0 0.40751187940595462 -0.08478461483936342 0 0.40142869859064212 -0.08537321064543299 0 0.40440998182912408 -0.094196755676502056 0 0.40142869859064212 -0.08537321064543299 0 0.40440998182912408 -0.094196755676502056 0 0.40142869859064212 -0.08537321064543299 0 0.39542953791662688 -0.1100818502818986 0 0.40142869859064212 -0.08537321064543299 0 0.3905434538793735 -0.094168622203984975 0 0.39542953791662688 -0.1100818502818986 0 0.40142869859064212 -0.08537321064543299 0 0.40440998182912408 -0.094196755676502056 0 0.39542953791662688 -0.1100818502818986 0 0.41068457829189181 -0.1070723437572161 0 0.40440998182912408 -0.094196755676502056 0 0.39542953791662688 -0.1100818502818986 0 0.3905434538793735 -0.094168622203984975 0 0.38430615992235861 -0.10624254191412789 0 0.373127492796404 -0.092661058915291472 0 0.3905434538793735 -0.094168622203984975 0 0.38430615992235861 -0.10624254191412789 0 0.39542953791662688 -0.1100818502818986 0 0.38430615992235861 -0.10624254191412789 0 0.373127492796404 -0.092661058915291472 0 0.37262698081820339 -0.10985920037046069 0 0.38430615992235861 -0.10624254191412789 0 0.37980885755413418 -0.11928611433555709 0 0.39542953791662688 -0.1100818502818986 0 0.37980885755413418 -0.11928611433555709 0 0.39542953791662688 -0.1100818502818986 0 0.38943037724261159 -0.1347904899183642 0 0.38430615992235861 -0.10624254191412789 0 0.37980885755413418 -0.11928611433555709 0 0.37262698081820339 -0.10985920037046069 0 0.40724277249555002 -0.1192463337858536 0 0.39542953791662688 -0.1100818502818986 0 0.38943037724261159 -0.1347904899183642 0 0.39542953791662688 -0.1100818502818986 0 0.38943037724261159 -0.1347904899183642 0 0.40724277249555002 -0.1192463337858536 0 0.41068457829189181 -0.1070723437572161 0 0.39542953791662688 -0.1100818502818986 0 0.41629264407573002 -0.006850845090226044 0 0.42276864855888052 -0.033584784942844392 0 0.40125875037878711 -0.026146768788422061 0 0.43085411213296282 0.0071934808399317304 0 0.43960160651246799 -0.018737423931294579 0 0.41629264407573002 -0.006850845090226044 0 0.43960160651246799 -0.018737423931294579 0 0.41629264407573002 -0.006850845090226044 0 0.42276864855888052 -0.033584784942844392 0 0.44580381826440463 -0.044156532015693237 0 0.42276864855888052 -0.033584784942844392 0 0.42712667170951002 -0.058909162300086547 0 0.44580381826440463 -0.044156532015693237 0 0.43960160651246799 -0.018737423931294579 0 0.42276864855888052 -0.033584784942844392 0 0.4114316245373863 -0.068167670275121897 0 0.42712667170951002 -0.058909162300086547 0 0.40640664480004829 -0.052123305293471443 0 0.42276864855888052 -0.033584784942844392 0 0.42712667170951002 -0.058909162300086547 0 0.40640664480004829 -0.052123305293471443 0 0.42276864855888052 -0.033584784942844392 0 0.40640664480004829 -0.052123305293471443 0 0.40125875037878711 -0.026146768788422061 0 0.40640664480004829 -0.052123305293471443 0 0.38906844471504909 -0.048791226331097663 0 0.40125875037878711 -0.026146768788422061 0 0.39842538017083612 -0.076484449263173909 0 0.40640664480004829 -0.052123305293471443 0 0.38906844471504909 -0.048791226331097663 0 0.38906844471504909 -0.048791226331097663 0 0.36552082236990341 -0.042261935088275922 0 0.37096486530484057 -0.058236420929508259 0 0.38333741963197843 -0.065496938221855289 0 0.38906844471504909 -0.048791226331097663 0 0.37096486530484057 -0.058236420929508259 0 0.38906844471504909 -0.048791226331097663 0 0.37971150925926189 -0.0210980033990215 0 0.40125875037878711 -0.026146768788422061 0 0.38906844471504909 -0.048791226331097663 0 0.37971150925926189 -0.0210980033990215 0 0.36552082236990341 -0.042261935088275922 0 0.38906844471504909 -0.048791226331097663 0 0.37971150925926189 -0.0210980033990215 0 0.3939873043738738 0.005606014803845533 0 0.37971150925926189 -0.0210980033990215 0 0.40125875037878711 -0.026146768788422061 0 0.3939873043738738 0.005606014803845533 0 0.41629264407573002 -0.006850845090226044 0 0.40125875037878711 -0.026146768788422061 0 0.37357914744350779 0.002440479778912224 0 0.3939873043738738 0.005606014803845533 0 0.37971150925926189 -0.0210980033990215 0 0.37357914744350779 0.002440479778912224 0 0.35598292622536432 0.0074660699477739154 0 0.35747226134953669 -0.011539359516293059 0 0.37357914744350779 0.002440479778912224 0 0.37971150925926189 -0.0210980033990215 0 0.35747226134953669 -0.011539359516293059 0 0.37971150925926189 -0.0210980033990215 0 0.3567572465296398 -0.028300240308235611 0 0.35747226134953669 -0.011539359516293059 0 0.37971150925926189 -0.0210980033990215 0 0.3567572465296398 -0.028300240308235611 0 0.36552082236990341 -0.042261935088275922 0 0.3567572465296398 -0.028300240308235611 0 0.34108130633743572 -0.022855778308436141 0 0.34876980709143918 -0.036804132634757111 0 0.3567572465296398 -0.028300240308235611 0 0.35747226134953669 -0.011539359516293059 0 0.34108130633743572 -0.022855778308436141 0 0.35598292622536432 0.0074660699477739154 0 0.35747226134953669 -0.011539359516293059 0 0.33772143230201052 -0.0068886848087512803 0 0.35747226134953669 -0.011539359516293059 0 0.33772143230201052 -0.0068886848087512803 0 0.34108130633743572 -0.022855778308436141 0 0.33772143230201052 -0.0068886848087512803 0 0.34108130633743572 -0.022855778308436141 0 0.317215061455216 -0.016157064213598971 0 0.34108130633743572 -0.022855778308436141 0 0.317215061455216 -0.016157064213598971 0 0.33020564447161199 -0.035019528032180489 0 0.317215061455216 -0.016157064213598971 0 0.33020564447161199 -0.035019528032180489 0 0.317215061455216 -0.016157064213598971 0 0.31587151978819911 -0.020338956197947448 0 0.33020564447161199 -0.035019528032180489 0 0.31587151978819911 -0.020338956197947448 0 0.33020564447161199 -0.035019528032180489 0 0.317215061455216 -0.016157064213598971 0 0.31587151978819911 -0.020338956197947448 0 0.32325249182581611 0.0026349705202008129 0 0.317215061455216 -0.016157064213598971 0 0.32325249182581611 0.0026349705202008129 0 0.33772143230201052 -0.0068886848087512803 0 0.317215061455216 -0.016157064213598971 0 0.32325249182581611 0.0026349705202008129 0 0.317215061455216 -0.016157064213598971 0 0.30690038754225768 -0.0011800486910433781 0 0.32587161445787949 -0.051186402763021513 0 0.31829608624605688 -0.065472752473192938 0 0.30886460616181383 -0.042148593106558697 0 0.32587161445787949 -0.051186402763021513 0 0.33198766712898281 -0.064044197254424853 0 0.31829608624605688 -0.065472752473192938 0 0.31587151978819911 -0.020338956197947448 0 0.33020564447161199 -0.035019528032180489 0 0.30886460616181383 -0.042148593106558697 0 0.32587161445787949 -0.051186402763021513 0 0.33020564447161199 -0.035019528032180489 0 0.30886460616181383 -0.042148593106558697 0 0.34108130633743572 -0.022855778308436141 0 0.33020564447161199 -0.035019528032180489 0 0.34876980709143918 -0.036804132634757111 0 0.32587161445787949 -0.051186402763021513 0 0.33020564447161199 -0.035019528032180489 0 0.34000406828093183 -0.049246942948750677 0 0.33020564447161199 -0.035019528032180489 0 0.3502840157486049 -0.055583181436657553 0 0.33020564447161199 -0.035019528032180489 0 0.34000406828093183 -0.049246942948750677 0 0.33020564447161199 -0.035019528032180489 0 0.34000406828093183 -0.049246942948750677 0 0.3502840157486049 -0.055583181436657553 0 0.33020564447161199 -0.035019528032180489 0 0.3502840157486049 -0.055583181436657553 0 0.34876980709143918 -0.036804132634757111 0 0.34000406828093183 -0.049246942948750677 0 0.33198766712898281 -0.064044197254424853 0 0.34180884154053498 -0.065879049105621951 0 0.32587161445787949 -0.051186402763021513 0 0.34000406828093183 -0.049246942948750677 0 0.33198766712898281 -0.064044197254424853 0 0.34000406828093183 -0.049246942948750677 0 0.34980249209025183 -0.063474357865320699 0 0.34000406828093183 -0.049246942948750677 0 0.34980249209025183 -0.063474357865320699 0 0.34180884154053498 -0.065879049105621951 0 0.34000406828093183 -0.049246942948750677 0 0.3502840157486049 -0.055583181436657553 0 0.34980249209025183 -0.063474357865320699 0 0.3502840157486049 -0.055583181436657553 0 0.34980249209025183 -0.063474357865320699 0 0.35472253155892502 -0.068395270968063401 0 0.3502840157486049 -0.055583181436657553 0 0.34876980709143918 -0.036804132634757111 0 0.36552082236990341 -0.042261935088275922 0 0.3567572465296398 -0.028300240308235611 0 0.34876980709143918 -0.036804132634757111 0 0.36552082236990341 -0.042261935088275922 0 0.3502840157486049 -0.055583181436657553 0 0.36552082236990341 -0.042261935088275922 0 0.37096486530484057 -0.058236420929508259 0 0.3502840157486049 -0.055583181436657553 0 0.37096486530484057 -0.058236420929508259 0 0.37036238702559748 -0.076146834841134659 0 0.38333741963197843 -0.065496938221855289 0 0.37096486530484057 -0.058236420929508259 0 0.37036238702559748 -0.076146834841134659 0 0.3502840157486049 -0.055583181436657553 0 0.37036238702559748 -0.076146834841134659 0 0.37036238702559748 -0.076146834841134659 0 0.35472253155892502 -0.068395270968063401 0 0.35439705838588692 -0.077054866778644621 0 0.37036238702559748 -0.076146834841134659 0 0.36026598055858428 -0.086219317086442732 0 0.35439705838588692 -0.077054866778644621 0 0.37036238702559748 -0.076146834841134659 0 0.373127492796404 -0.092661058915291472 0 0.36026598055858428 -0.086219317086442732 0 0.373127492796404 -0.092661058915291472 0 0.36026598055858428 -0.086219317086442732 0 0.35442896873054819 -0.093899165736773108 0 0.36026598055858428 -0.086219317086442732 0 0.34819406691839527 -0.085912356067407769 0 0.35439705838588692 -0.077054866778644621 0 0.36026598055858428 -0.086219317086442732 0 0.34819406691839527 -0.085912356067407769 0 0.35442896873054819 -0.093899165736773108 0 0.34819406691839527 -0.085912356067407769 0 0.35442896873054819 -0.093899165736773108 0 0.34250823495700278 -0.096843945418323016 0 0.34819406691839527 -0.085912356067407769 0 0.35439705838588692 -0.077054866778644621 0 0.34213718893203959 -0.07422010281979162 0 0.3502840157486049 -0.055583181436657553 0 0.37036238702559748 -0.076146834841134659 0 0.35472253155892502 -0.068395270968063401 0 0.34876670454428399 -0.06971711391855949 0 0.35439705838588692 -0.077054866778644621 0 0.34213718893203959 -0.07422010281979162 0 0.34980249209025183 -0.063474357865320699 0 0.34876670454428399 -0.06971711391855949 0 0.34180884154053498 -0.065879049105621951 0 0.34876670454428399 -0.06971711391855949 0 0.34180884154053498 -0.065879049105621951 0 0.34213718893203959 -0.07422010281979162 0 0.34980249209025183 -0.063474357865320699 0 0.34876670454428399 -0.06971711391855949 0 0.35472253155892502 -0.068395270968063401 0 0.34876670454428399 -0.06971711391855949 0 0.35472253155892502 -0.068395270968063401 0 0.35439705838588692 -0.077054866778644621 0 0.36703358201424818 -0.1205643964158449 0 0.35968204517414459 -0.1107584800748472 0 0.35606369033391522 -0.1259709067163762 0 0.37980885755413418 -0.11928611433555709 0 0.36703358201424818 -0.1205643964158449 0 0.37262698081820339 -0.10985920037046069 0 0.36703358201424818 -0.1205643964158449 0 0.37262698081820339 -0.10985920037046069 0 0.35968204517414459 -0.1107584800748472 0 0.373127492796404 -0.092661058915291472 0 0.3478296054219725 -0.1088376685674099 0 0.373127492796404 -0.092661058915291472 0 0.37262698081820339 -0.10985920037046069 0 0.35968204517414459 -0.1107584800748472 0 0.373127492796404 -0.092661058915291472 0 0.35968204517414459 -0.1107584800748472 0 0.3478296054219725 -0.1088376685674099 0 0.373127492796404 -0.092661058915291472 0 0.35442896873054819 -0.093899165736773108 0 0.3478296054219725 -0.1088376685674099 0 0.35442896873054819 -0.093899165736773108 0 0.3478296054219725 -0.1088376685674099 0 0.34250823495700278 -0.096843945418323016 0 0.3478296054219725 -0.1088376685674099 0 0.34004518790650529 -0.12527848050574 0 0.35606369033391522 -0.1259709067163762 0 0.35968204517414459 -0.1107584800748472 0 0.3478296054219725 -0.1088376685674099 0 0.35606369033391522 -0.1259709067163762 0 0.35968204517414459 -0.1107584800748472 0 0.35606369033391522 -0.1259709067163762 0 0.3478296054219725 -0.1088376685674099 0 0.3336003219875231 -0.1076211020920432 0 0.32253171804754088 -0.12501427821952829 0 0.3478296054219725 -0.1088376685674099 0 0.32253171804754088 -0.12501427821952829 0 0.34004518790650529 -0.12527848050574 0 0.3478296054219725 -0.1088376685674099 0 0.32253171804754088 -0.12501427821952829 0 0.3336003219875231 -0.1076211020920432 0 0.3322859580981179 -0.098725703467523684 0 0.32284609341298121 -0.10868391478743129 0 0.3478296054219725 -0.1088376685674099 0 0.3336003219875231 -0.1076211020920432 0 0.34250823495700278 -0.096843945418323016 0 0.3336003219875231 -0.1076211020920432 0 0.34250823495700278 -0.096843945418323016 0 0.3322859580981179 -0.098725703467523684 0 0.34250823495700278 -0.096843945418323016 0 0.3322859580981179 -0.098725703467523684 0 0.33540967344911948 -0.088036983583798772 0 0.32220919005921328 -0.094454801116449272 0 0.31258915767766499 -0.1029799685902579 0 0.31246538712165289 -0.087003597160487944 0 0.3322859580981179 -0.098725703467523684 0 0.32220919005921328 -0.094454801116449272 0 0.32284609341298121 -0.10868391478743129 0 0.32220919005921328 -0.094454801116449272 0 0.31258915767766499 -0.1029799685902579 0 0.32284609341298121 -0.10868391478743129 0 0.31258915767766499 -0.1029799685902579 0 0.32284609341298121 -0.10868391478743129 0 0.30701266551867318 -0.11795202584412939 0 0.3336003219875231 -0.1076211020920432 0 0.32284609341298121 -0.10868391478743129 0 0.32253171804754088 -0.12501427821952829 0 0.32284609341298121 -0.10868391478743129 0 0.30701266551867318 -0.11795202584412939 0 0.32253171804754088 -0.12501427821952829 0 0.33198766712898281 -0.064044197254424853 0 0.34213718893203959 -0.07422010281979162 0 0.32642601186692399 -0.078569743361430744 0 0.33198766712898281 -0.064044197254424853 0 0.34180884154053498 -0.065879049105621951 0 0.34213718893203959 -0.07422010281979162 0 0.34213718893203959 -0.07422010281979162 0 0.33540967344911948 -0.088036983583798772 0 0.32642601186692399 -0.078569743361430744 0 0.34819406691839527 -0.085912356067407769 0 0.34213718893203959 -0.07422010281979162 0 0.33540967344911948 -0.088036983583798772 0 0.34819406691839527 -0.085912356067407769 0 0.34250823495700278 -0.096843945418323016 0 0.33540967344911948 -0.088036983583798772 0 0.3322859580981179 -0.098725703467523684 0 0.32220919005921328 -0.094454801116449272 0 0.33540967344911948 -0.088036983583798772 0 0.32220919005921328 -0.094454801116449272 0 0.33540967344911948 -0.088036983583798772 0 0.32642601186692399 -0.078569743361430744 0 0.32220919005921328 -0.094454801116449272 0 0.32642601186692399 -0.078569743361430744 0 0.31246538712165289 -0.087003597160487944 0 0.32642601186692399 -0.078569743361430744 0 0.31246538712165289 -0.087003597160487944 0 0.32642601186692399 -0.078569743361430744 0 0.31829608624605688 -0.065472752473192938 0 0.31246538712165289 -0.087003597160487944 0 0.33198766712898281 -0.064044197254424853 0 0.32642601186692399 -0.078569743361430744 0 0.31829608624605688 -0.065472752473192938 0 0.31829608624605688 -0.065472752473192938 0 0.30185769253542699 -0.063958230015169509 0 0.31246538712165289 -0.087003597160487944 0 0.30185769253542699 -0.063958230015169509 0 0.29485077890903838 -0.08576786692377969 0 0.31246538712165289 -0.087003597160487944 0 0.29485077890903838 -0.08576786692377969 0 0.29850476237638052 -0.095437450959542897 0 0.30185769253542699 -0.063958230015169509 0 0.31246538712165289 -0.087003597160487944 0 0.29485077890903838 -0.08576786692377969 0 0.31246538712165289 -0.087003597160487944 0 0.29850476237638052 -0.095437450959542897 0 0.29485077890903838 -0.08576786692377969 0 0.29011601486440819 -0.10050523777883651 0 0.27233191485367331 -0.086662364145387083 0 0.29485077890903838 -0.08576786692377969 0 0.29850476237638052 -0.095437450959542897 0 0.29485077890903838 -0.08576786692377969 0 0.29011601486440819 -0.10050523777883651 0 0.30185769253542699 -0.063958230015169509 0 0.29485077890903838 -0.08576786692377969 0 0.28549509337792828 -0.061009794462930381 0 0.29485077890903838 -0.08576786692377969 0 0.27233191485367331 -0.086662364145387083 0 0.28549509337792828 -0.061009794462930381 0 0.29485077890903838 -0.08576786692377969 0 0.28549509337792828 -0.061009794462930381 0 0.30701266551867318 -0.11795202584412939 0 0.29478762612759141 -0.11288625738249181 0 0.29867666688697703 -0.1272849549211697 0 0.30701266551867318 -0.11795202584412939 0 0.29850476237638052 -0.095437450959542897 0 0.29478762612759141 -0.11288625738249181 0 0.31258915767766499 -0.1029799685902579 0 0.30701266551867318 -0.11795202584412939 0 0.29850476237638052 -0.095437450959542897 0 0.30701266551867318 -0.11795202584412939 0 0.29850476237638052 -0.095437450959542897 0 0.31258915767766499 -0.1029799685902579 0 0.31246538712165289 -0.087003597160487944 0 0.29850476237638052 -0.095437450959542897 0 0.29850476237638052 -0.095437450959542897 0 0.29011601486440819 -0.10050523777883651 0 0.29478762612759141 -0.11288625738249181 0 0.29850476237638052 -0.095437450959542897 0 0.29011601486440819 -0.10050523777883651 0 0.29485077890903838 -0.08576786692377969 0 0.29850476237638052 -0.095437450959542897 0 0.29011601486440819 -0.10050523777883651 0 0.29011601486440819 -0.10050523777883651 0 0.27631136395687561 -0.10884486509677729 0 0.29011601486440819 -0.10050523777883651 0 0.28377904751550082 -0.12022960778689511 0 0.29011601486440819 -0.10050523777883651 0 0.28377904751550082 -0.12022960778689511 0 0.27631136395687561 -0.10884486509677729 0 0.29011601486440819 -0.10050523777883651 0 0.29478762612759141 -0.11288625738249181 0 0.28377904751550082 -0.12022960778689511 0 0.29478762612759141 -0.11288625738249181 0 0.28377904751550082 -0.12022960778689511 0 0.29867666688697703 -0.1272849549211697 0 0.28377904751550082 -0.12022960778689511 0 0.27500980117207829 -0.12155323577333579 0 0.27631136395687561 -0.10884486509677729 0 0.27631136395687561 -0.10884486509677729 0 0.26250671304934198 -0.1171844924147165 0 0.27500980117207829 -0.12155323577333579 0 0.27631136395687561 -0.10884486509677729 0 0.26250671304934198 -0.1171844924147165 0 0.29011601486440819 -0.10050523777883651 0 0.27631136395687561 -0.10884486509677729 0 0.27233191485367331 -0.086662364145387083 0 0.27631136395687561 -0.10884486509677729 0 0.26480060580106352 -0.1019600400236301 0 0.27233191485367331 -0.086662364145387083 0 0.27631136395687561 -0.10884486509677729 0 0.26480060580106352 -0.1019600400236301 0 0.26250671304934198 -0.1171844924147165 0 0.26480060580106352 -0.1019600400236301 0 0.27233191485367331 -0.086662364145387083 0 0.248052431344363 -0.095148438437639593 0 0.26480060580106352 -0.1019600400236301 0 0.26250671304934198 -0.1171844924147165 0 0.248052431344363 -0.095148438437639593 0 0.26250671304934198 -0.1171844924147165 0 0.248052431344363 -0.095148438437639593 0 0.26250671304934198 -0.1171844924147165 0 0.248052431344363 -0.095148438437639593 0 0.24260121657943401 -0.11258968035378961 0 0.26250671304934198 -0.1171844924147165 0 0.2441250445765018 -0.1282891748563233 0 0.27233191485367331 -0.086662364145387083 0 0.25578894406637898 -0.071814983055159112 0 0.28549509337792828 -0.061009794462930381 0 0.27233191485367331 -0.086662364145387083 0 0.25578894406637898 -0.071814983055159112 0 0.248052431344363 -0.095148438437639593 0 0.25578894406637898 -0.071814983055159112 0 0.26356106344924501 -0.050736506704392427 0 0.24466000719816181 -0.052572806154117767 0 0.27613940784681967 -0.036251722002080641 0 0.28549509337792828 -0.061009794462930381 0 0.26356106344924501 -0.050736506704392427 0 0.27613940784681967 -0.036251722002080641 0 0.28549509337792828 -0.061009794462930381 0 0.25578894406637898 -0.071814983055159112 0 0.26356106344924501 -0.050736506704392427 0 0.28549509337792828 -0.061009794462930381 0 0.26356106344924501 -0.050736506704392427 0 0.25572186475693609 -0.032033227847674262 0 0.24466000719816181 -0.052572806154117767 0 0.26356106344924501 -0.050736506704392427 0 0.27613940784681967 -0.036251722002080641 0 0.25572186475693609 -0.032033227847674262 0 0.25572186475693609 -0.032033227847674262 0 0.24466000719816181 -0.052572806154117767 0 0.25572186475693609 -0.032033227847674262 0 0.25159771702699008 -0.014371615300676641 0 0.26678372231571063 -0.011493649541230871 0 0.25572186475693609 -0.032033227847674262 0 0.26678372231571063 -0.011493649541230871 0 0.26489192350979318 -0.0064873577240775106 0 0.2403210271001277 -0.0038011986657945939 0 0.25900523844679291 0.0090906536209348996 0 0.26489192350979318 -0.0064873577240775106 0 0.2403210271001277 -0.0038011986657945939 0 0.25159771702699008 -0.014371615300676641 0 0.26489192350979318 -0.0064873577240775106 0 0.2403210271001277 -0.0038011986657945939 0 0.25159771702699008 -0.014371615300676641 0 0.26489192350979318 -0.0064873577240775106 0 0.26678372231571063 -0.011493649541230871 0 0.2692248172919926 -0.0069610417805164738 0 0.27741899960964289 -0.015799745368864509 0 0.28512431700806451 -0.0086992195202469716 0 0.2692248172919926 -0.0069610417805164738 0 0.27791710391185381 -0.0010379811687957271 0 0.28512431700806451 -0.0086992195202469716 0 0.2692248172919926 -0.0069610417805164738 0 0.28512431700806451 -0.0086992195202469716 0 0.26701986470523431 0.0028523954276382379 0 0.26489192350979318 -0.0064873577240775106 0 0.2692248172919926 -0.0069610417805164738 0 0.26489192350979318 -0.0064873577240775106 0 0.2692248172919926 -0.0069610417805164738 0 0.2692248172919926 -0.0069610417805164738 0 0.26678372231571063 -0.011493649541230871 0 0.27741899960964289 -0.015799745368864509 0 0.26489192350979318 -0.0064873577240775106 0 0.26678372231571063 -0.011493649541230871 0 0.26489192350979318 -0.0064873577240775106 0 0.2692248172919926 -0.0069610417805164738 0 0.26678372231571063 -0.011493649541230871 0 0.2692248172919926 -0.0069610417805164738 0 0.26678372231571063 -0.011493649541230871 0 0.27613940784681967 -0.036251722002080641 0 0.26678372231571063 -0.011493649541230871 0 0.27613940784681967 -0.036251722002080641 0 0.26678372231571063 -0.011493649541230871 0 0.27741899960964289 -0.015799745368864509 0 0.27613940784681967 -0.036251722002080641 0 0.25572186475693609 -0.032033227847674262 0 0.26678372231571063 -0.011493649541230871 0 0.27613940784681967 -0.036251722002080641 0 0.27741899960964289 -0.015799745368864509 0 0.29413594975842328 -0.02512550933568073 0 0.27741899960964289 -0.015799745368864509 0 0.29413594975842328 -0.02512550933568073 0 0.28512431700806451 -0.0086992195202469716 0 0.28514691493175248 0.01112824383243886 0 0.28512431700806451 -0.0086992195202469716 0 0.30050921735997521 -0.004605356182754896 0 0.29413594975842328 -0.02512550933568073 0 0.28512431700806451 -0.0086992195202469716 0 0.30050921735997521 -0.004605356182754896 0 0.317215061455216 -0.016157064213598971 0 0.31587151978819911 -0.020338956197947448 0 0.30050921735997521 -0.004605356182754896 0 0.31587151978819911 -0.020338956197947448 0 0.30050921735997521 -0.004605356182754896 0 0.317215061455216 -0.016157064213598971 0 0.30050921735997521 -0.004605356182754896 0 0.30690038754225768 -0.0011800486910433781 0 0.317215061455216 -0.016157064213598971 0 0.30690038754225768 -0.0011800486910433781 0 0.31587151978819911 -0.020338956197947448 0 0.29413594975842328 -0.02512550933568073 0 0.30886460616181383 -0.042148593106558697 0 0.31587151978819911 -0.020338956197947448 0 0.29413594975842328 -0.02512550933568073 0 0.30050921735997521 -0.004605356182754896 0 0.31587151978819911 -0.020338956197947448 0 0.30886460616181383 -0.042148593106558697 0 0.29413594975842328 -0.02512550933568073 0 0.30886460616181383 -0.042148593106558697 0 0.29329854993608251 -0.045698769784483992 0 0.31829608624605688 -0.065472752473192938 0 0.30185769253542699 -0.063958230015169509 0 0.30886460616181383 -0.042148593106558697 0 0.30185769253542699 -0.063958230015169509 0 0.30886460616181383 -0.042148593106558697 0 0.30185769253542699 -0.063958230015169509 0 0.30886460616181383 -0.042148593106558697 0 0.29329854993608251 -0.045698769784483992 0 0.27613940784681967 -0.036251722002080641 0 0.28549509337792828 -0.061009794462930381 0 0.29329854993608251 -0.045698769784483992 0 0.30185769253542699 -0.063958230015169509 0 0.28549509337792828 -0.061009794462930381 0 0.29329854993608251 -0.045698769784483992 0 0.27613940784681967 -0.036251722002080641 0 0.29413594975842328 -0.02512550933568073 0 0.29329854993608251 -0.045698769784483992 0 0.28257577117233168 -0.20518994938083851 0 0.30379191605182437 -0.20471284840499179 0 0.29252942038038049 -0.2260032745248223 0 0.28257577117233168 -0.20518994938083851 0 0.29252942038038049 -0.2260032745248223 0 0.27440370665207992 -0.22158759206732809 0 0.28257577117233168 -0.20518994938083851 0 0.29805932829815662 -0.18954203104115269 0 0.30379191605182437 -0.20471284840499179 0 0.28257577117233168 -0.20518994938083851 0 0.29805932829815662 -0.18954203104115269 0 0.28309810934824442 -0.18139531770741171 0 0.29805932829815662 -0.18954203104115269 0 0.30379191605182437 -0.20471284840499179 0 0.31670590871501719 -0.18767809548444081 0 0.30379191605182437 -0.20471284840499179 0 0.31109634377457301 -0.22154997806035029 0 0.29252942038038049 -0.2260032745248223 0 0.31109634377457301 -0.22154997806035029 0 0.30987088180634448 -0.24125362874219619 0 0.29252942038038049 -0.2260032745248223 0 0.30987088180634448 -0.24125362874219619 0 0.29250997527574701 -0.24677647679701359 0 0.29252942038038049 -0.2260032745248223 0 0.29250997527574701 -0.24677647679701359 0 0.29252942038038049 -0.2260032745248223 0 0.27462122614518292 -0.24127539045551061 0 0.29252942038038049 -0.2260032745248223 0 0.27440370665207992 -0.22158759206732809 0 0.27462122614518292 -0.24127539045551061 0 0.27440370665207992 -0.22158759206732809 0 0.27462122614518292 -0.24127539045551061 0 0.25406429941061343 -0.23112732810889039 0 0.29250997527574701 -0.24677647679701359 0 0.27462122614518292 -0.24127539045551061 0 0.27534065318434953 -0.25880162201512719 0 0.25406429941061343 -0.23112732810889039 0 0.25726365536858148 -0.25362034743760148 0 0.24146341680214309 -0.24448521489457861 0 0.27462122614518292 -0.24127539045551061 0 0.25406429941061343 -0.23112732810889039 0 0.25726365536858148 -0.25362034743760148 0 0.27440370665207992 -0.22158759206732809 0 0.25406429941061343 -0.23112732810889039 0 0.25948399805722178 -0.21095426616987389 0 0.25406429941061343 -0.23112732810889039 0 0.25948399805722178 -0.21095426616987389 0 0.23924146656863479 -0.21600942233651971 0 0.25948399805722178 -0.21095426616987389 0 0.25294493867930001 -0.1971512634910503 0 0.23924146656863479 -0.21600942233651971 0 0.28257577117233168 -0.20518994938083851 0 0.27440370665207992 -0.22158759206732809 0 0.25948399805722178 -0.21095426616987389 0 0.28257577117233168 -0.20518994938083851 0 0.26980921912182793 -0.19283345323968809 0 0.28309810934824442 -0.18139531770741171 0 0.28257577117233168 -0.20518994938083851 0 0.25948399805722178 -0.21095426616987389 0 0.26980921912182793 -0.19283345323968809 0 0.26980921912182793 -0.19283345323968809 0 0.25294493867930001 -0.1971512634910503 0 0.26076150014885863 -0.1842019471946538 0 0.25948399805722178 -0.21095426616987389 0 0.26980921912182793 -0.19283345323968809 0 0.25294493867930001 -0.1971512634910503 0 0.25294493867930001 -0.1971512634910503 0 0.25115080808597218 -0.18349252771031549 0 0.26076150014885863 -0.1842019471946538 0 0.25115080808597218 -0.18349252771031549 0 0.26076150014885863 -0.1842019471946538 0 0.25889962869698091 -0.1746028342129915 0 0.26076150014885863 -0.1842019471946538 0 0.25889962869698091 -0.1746028342129915 0 0.27017957837672091 -0.17747692395416009 0 0.25115080808597218 -0.18349252771031549 0 0.25889962869698091 -0.1746028342129915 0 0.24727016264961249 -0.1692414738038848 0 0.25889962869698091 -0.1746028342129915 0 0.26616743516329899 -0.16248611748055669 0 0.24727016264961249 -0.1692414738038848 0 0.26140577643439422 -0.14332992145424359 0 0.24727016264961249 -0.1692414738038848 0 0.26616743516329899 -0.16248611748055669 0 0.26140577643439422 -0.14332992145424359 0 0.24727016264961249 -0.1692414738038848 0 0.25889962869698091 -0.1746028342129915 0 0.26616743516329899 -0.16248611748055669 0 0.27017957837672091 -0.17747692395416009 0 0.26616743516329899 -0.16248611748055669 0 0.27825348655266058 -0.16907893574793359 0 0.27017957837672091 -0.17747692395416009 0 0.26616743516329899 -0.16248611748055669 0 0.27746834422487981 -0.157383776805052 0 0.26883056353995632 -0.15253713768717189 0 0.26616743516329899 -0.16248611748055669 0 0.27746834422487981 -0.157383776805052 0 0.27825348655266058 -0.16907893574793359 0 0.27825348655266058 -0.16907893574793359 0 0.27017957837672091 -0.17747692395416009 0 0.28309810934824442 -0.18139531770741171 0 0.26980921912182793 -0.19283345323968809 0 0.27017957837672091 -0.17747692395416009 0 0.28309810934824442 -0.18139531770741171 0 0.26980921912182793 -0.19283345323968809 0 0.26076150014885863 -0.1842019471946538 0 0.27017957837672091 -0.17747692395416009 0 0.25959792799319448 -0.13115630782849941 0 0.26140577643439422 -0.14332992145424359 0 0.2441250445765018 -0.1282891748563233 0 0.26250671304934198 -0.1171844924147165 0 0.25959792799319448 -0.13115630782849941 0 0.2441250445765018 -0.1282891748563233 0 0.26616743516329899 -0.16248611748055669 0 0.26140577643439422 -0.14332992145424359 0 0.26883056353995632 -0.15253713768717189 0 0.26140577643439422 -0.14332992145424359 0 0.2760714190023883 -0.1442202816071636 0 0.27744208016659549 -0.13995397779495439 0 0.27746834422487981 -0.157383776805052 0 0.26883056353995632 -0.15253713768717189 0 0.27327340453904758 -0.14909472247049649 0 0.27746834422487981 -0.157383776805052 0 0.27327340453904758 -0.14909472247049649 0 0.27944720334199591 -0.1510298305388795 0 0.27746834422487981 -0.157383776805052 0 0.27944720334199591 -0.1510298305388795 0 0.28543485155381138 -0.1532631785773593 0 0.27944720334199591 -0.1510298305388795 0 0.27867318395593788 -0.14678707333018209 0 0.28267306369304718 -0.14834113794059131 0 0.27327340453904758 -0.14909472247049649 0 0.27944720334199591 -0.1510298305388795 0 0.27867318395593788 -0.14678707333018209 0 0.27327340453904758 -0.14909472247049649 0 0.27867318395593788 -0.14678707333018209 0 0.2760714190023883 -0.1442202816071636 0 0.27867318395593788 -0.14678707333018209 0 0.28203705400801471 -0.14409361128278431 0 0.28267306369304718 -0.14834113794059131 0 0.27867318395593788 -0.14678707333018209 0 0.27862243637812423 -0.14384960257769991 0 0.2760714190023883 -0.1442202816071636 0 0.27867318395593788 -0.14678707333018209 0 0.27862243637812423 -0.14384960257769991 0 0.28203705400801471 -0.14409361128278431 0 0.27862243637812423 -0.14384960257769991 0 0.27744208016659549 -0.13995397779495439 0 0.28203705400801471 -0.14409361128278431 0 0.27862243637812423 -0.14384960257769991 0 0.2760714190023883 -0.1442202816071636 0 0.27744208016659549 -0.13995397779495439 0 0.2760714190023883 -0.1442202816071636 0 0.27744208016659549 -0.13995397779495439 0 0.26140577643439422 -0.14332992145424359 0 0.27327340453904758 -0.14909472247049649 0 0.2760714190023883 -0.1442202816071636 0 0.26140577643439422 -0.14332992145424359 0 0.26883056353995632 -0.15253713768717189 0 0.27327340453904758 -0.14909472247049649 0 0.26250671304934198 -0.1171844924147165 0 0.25959792799319448 -0.13115630782849941 0 0.27744208016659549 -0.13995397779495439 0 0.27500980117207829 -0.12155323577333579 0 0.26250671304934198 -0.1171844924147165 0 0.27744208016659549 -0.13995397779495439 0 0.28377904751550082 -0.12022960778689511 0 0.27500980117207829 -0.12155323577333579 0 0.27744208016659549 -0.13995397779495439 0 0.26250671304934198 -0.1171844924147165 0 0.27744208016659549 -0.13995397779495439 0 0.28377904751550082 -0.12022960778689511 0 0.27744208016659549 -0.13995397779495439 0 0.25959792799319448 -0.13115630782849941 0 0.26140577643439422 -0.14332992145424359 0 0.27744208016659549 -0.13995397779495439 0 0.28377904751550082 -0.12022960778689511 0 0.27744208016659549 -0.13995397779495439 0 0.28932323864627207 -0.13288207724771259 0 0.28377904751550082 -0.12022960778689511 0 0.28932323864627207 -0.13288207724771259 0 0.29867666688697703 -0.1272849549211697 0 0.28932323864627207 -0.13288207724771259 0 0.29298701750044082 -0.14249666764126889 0 0.28471550868115297 -0.14112277714418339 0 0.27744208016659549 -0.13995397779495439 0 0.28932323864627207 -0.13288207724771259 0 0.28471550868115297 -0.14112277714418339 0 0.28932323864627207 -0.13288207724771259 0 0.29298701750044082 -0.14249666764126889 0 0.30163685485285813 -0.1392931605370735 0 0.28932323864627207 -0.13288207724771259 0 0.30163685485285813 -0.1392931605370735 0 0.29867666688697703 -0.1272849549211697 0 0.29298701750044082 -0.14249666764126889 0 0.28777302560547591 -0.14653199597375141 0 0.29658698791447552 -0.15065635986343121 0 0.29298701750044082 -0.14249666764126889 0 0.28471550868115297 -0.14112277714418339 0 0.28777302560547591 -0.14653199597375141 0 0.28471550868115297 -0.14112277714418339 0 0.28203705400801471 -0.14409361128278431 0 0.28777302560547591 -0.14653199597375141 0 0.27744208016659549 -0.13995397779495439 0 0.28471550868115297 -0.14112277714418339 0 0.28203705400801471 -0.14409361128278431 0 0.28203705400801471 -0.14409361128278431 0 0.28267306369304718 -0.14834113794059131 0 0.28777302560547591 -0.14653199597375141 0 0.28267306369304718 -0.14834113794059131 0 0.28777302560547591 -0.14653199597375141 0 0.28543485155381138 -0.1532631785773593 0 0.27944720334199591 -0.1510298305388795 0 0.28267306369304718 -0.14834113794059131 0 0.28543485155381138 -0.1532631785773593 0 0.28543485155381138 -0.1532631785773593 0 0.29658698791447552 -0.15065635986343121 0 0.29083384063311041 -0.16291767632429169 0 0.28777302560547591 -0.14653199597375141 0 0.28543485155381138 -0.1532631785773593 0 0.29658698791447552 -0.15065635986343121 0 0.29658698791447552 -0.15065635986343121 0 0.30903803874224028 -0.154944676915485 0 0.29083384063311041 -0.16291767632429169 0 0.30903803874224028 -0.154944676915485 0 0.30163685485285813 -0.1392931605370735 0 0.31552056866096628 -0.14046660072871581 0 0.29658698791447552 -0.15065635986343121 0 0.30903803874224028 -0.154944676915485 0 0.30163685485285813 -0.1392931605370735 0 0.29298701750044082 -0.14249666764126889 0 0.29658698791447552 -0.15065635986343121 0 0.30163685485285813 -0.1392931605370735 0 0.30163685485285813 -0.1392931605370735 0 0.29867666688697703 -0.1272849549211697 0 0.31552056866096628 -0.14046660072871581 0 0.30701266551867318 -0.11795202584412939 0 0.31552056866096628 -0.14046660072871581 0 0.30701266551867318 -0.11795202584412939 0 0.29867666688697703 -0.1272849549211697 0 0.31552056866096628 -0.14046660072871581 0 0.29805932829815662 -0.18954203104115269 0 0.28309810934824442 -0.18139531770741171 0 0.30374566956112747 -0.172867968401477 0 0.28309810934824442 -0.18139531770741171 0 0.29083384063311041 -0.16291767632429169 0 0.30374566956112747 -0.172867968401477 0 0.27825348655266058 -0.16907893574793359 0 0.28309810934824442 -0.18139531770741171 0 0.29083384063311041 -0.16291767632429169 0 0.27746834422487981 -0.157383776805052 0 0.27825348655266058 -0.16907893574793359 0 0.29083384063311041 -0.16291767632429169 0 0.27746834422487981 -0.157383776805052 0 0.28543485155381138 -0.1532631785773593 0 0.29083384063311041 -0.16291767632429169 0 0.30903803874224028 -0.154944676915485 0 0.30374566956112747 -0.172867968401477 0 0.3240284718032595 -0.16298117561330211 0 0.30903803874224028 -0.154944676915485 0 0.29083384063311041 -0.16291767632429169 0 0.30374566956112747 -0.172867968401477 0 0.29805932829815662 -0.18954203104115269 0 0.30374566956112747 -0.172867968401477 0 0.31670590871501719 -0.18767809548444081 0 0.30374566956112747 -0.172867968401477 0 0.3240284718032595 -0.16298117561330211 0 0.31670590871501719 -0.18767809548444081 0 0.3240284718032595 -0.16298117561330211 0 0.33253637494555272 -0.18549575049788841 0 0.31670590871501719 -0.18767809548444081 0 0.3240284718032595 -0.16298117561330211 0 0.33799671017450289 -0.15427059616939481 0 0.34627497421775172 -0.16712500364912669 0 0.3240284718032595 -0.16298117561330211 0 0.33253637494555272 -0.18549575049788841 0 0.34627497421775172 -0.16712500364912669 0 0.34627497421775172 -0.16712500364912669 0 0.34011486294275067 -0.1930235804920396 0 0.33253637494555272 -0.18549575049788841 0 0.34627497421775172 -0.16712500364912669 0 0.34011486294275067 -0.1930235804920396 0 0.3240284718032595 -0.16298117561330211 0 0.33253637494555272 -0.18549575049788841 0 0.31552056866096628 -0.14046660072871581 0 0.32253171804754088 -0.12501427821952829 0 0.33350864076215958 -0.14068733778211151 0 0.30701266551867318 -0.11795202584412939 0 0.31552056866096628 -0.14046660072871581 0 0.32253171804754088 -0.12501427821952829 0 0.3240284718032595 -0.16298117561330211 0 0.31552056866096628 -0.14046660072871581 0 0.33350864076215958 -0.14068733778211151 0 0.3240284718032595 -0.16298117561330211 0 0.31552056866096628 -0.14046660072871581 0 0.30903803874224028 -0.154944676915485 0 0.3240284718032595 -0.16298117561330211 0 0.31552056866096628 -0.14046660072871581 0 0.3240284718032595 -0.16298117561330211 0 0.33799671017450289 -0.15427059616939481 0 0.33350864076215958 -0.14068733778211151 0 0.33799671017450289 -0.15427059616939481 0 0.33350864076215958 -0.14068733778211151 0 0.35233452294063261 -0.141202487244703 0 0.33350864076215958 -0.14068733778211151 0 0.34402529308911528 -0.13391297654823131 0 0.35233452294063261 -0.141202487244703 0 0.32253171804754088 -0.12501427821952829 0 0.33350864076215958 -0.14068733778211151 0 0.34004518790650529 -0.12527848050574 0 0.33350864076215958 -0.14068733778211151 0 0.34004518790650529 -0.12527848050574 0 0.34402529308911528 -0.13391297654823131 0 0.34004518790650529 -0.12527848050574 0 0.35606369033391522 -0.1259709067163762 0 0.34402529308911528 -0.13391297654823131 0 0.35606369033391522 -0.1259709067163762 0 0.34402529308911528 -0.13391297654823131 0 0.35233452294063261 -0.141202487244703 0 0.35606369033391522 -0.1259709067163762 0 0.35233452294063261 -0.141202487244703 0 0.33799671017450289 -0.15427059616939481 0 0.35233452294063261 -0.141202487244703 0 0.34627497421775172 -0.16712500364912669 0 0.35233452294063261 -0.141202487244703 0 0.34627497421775172 -0.16712500364912669 0 0.35233452294063261 -0.141202487244703 0 0.34627497421775172 -0.16712500364912669 0 0.36205375531824391 -0.1583193433668508 0 0.35233452294063261 -0.141202487244703 0 0.37378191529930621 -0.14944718128022591 0 0.37093785636814908 -0.13798691163813531 0 0.35233452294063261 -0.141202487244703 0 0.37378191529930621 -0.14944718128022591 0 0.36205375531824391 -0.1583193433668508 0 0.37378191529930621 -0.14944718128022591 0 0.36205375531824391 -0.1583193433668508 0 0.37308854109455708 -0.16093157526259191 0 0.35606369033391522 -0.1259709067163762 0 0.35233452294063261 -0.141202487244703 0 0.37093785636814908 -0.13798691163813531 0 0.35233452294063261 -0.141202487244703 0 0.37093785636814908 -0.13798691163813531 0 0.37980885755413418 -0.11928611433555709 0 0.36703358201424818 -0.1205643964158449 0 0.37093785636814908 -0.13798691163813531 0 0.36703358201424818 -0.1205643964158449 0 0.35606369033391522 -0.1259709067163762 0 0.37093785636814908 -0.13798691163813531 0 0.35440938842994413 -0.18403818521213361 0 0.34627497421775172 -0.16712500364912669 0 0.34011486294275067 -0.1930235804920396 0 0.35440938842994413 -0.18403818521213361 0 0.34627497421775172 -0.16712500364912669 0 0.36427806099096738 -0.1715772602872144 0 0.34627497421775172 -0.16712500364912669 0 0.36427806099096738 -0.1715772602872144 0 0.36205375531824391 -0.1583193433668508 0 0.36427806099096738 -0.1715772602872144 0 0.37308854109455708 -0.16093157526259191 0 0.38040919016197472 -0.17194589761299089 0 0.36427806099096738 -0.1715772602872144 0 0.36205375531824391 -0.1583193433668508 0 0.37308854109455708 -0.16093157526259191 0 0.36427806099096738 -0.1715772602872144 0 0.37230187155944527 -0.18410680502223259 0 0.38040919016197472 -0.17194589761299089 0 0.35440938842994413 -0.18403818521213361 0 0.36427806099096738 -0.1715772602872144 0 0.37230187155944527 -0.18410680502223259 0 0.37230187155944527 -0.18410680502223259 0 0.36943541324010287 -0.20186706000128449 0 0.35149154164174501 -0.20315574626222041 0 0.37230187155944527 -0.18410680502223259 0 0.36943541324010287 -0.20186706000128449 0 0.38044042972011022 -0.19453179374419641 0 0.37230187155944527 -0.18410680502223259 0 0.35149154164174501 -0.20315574626222041 0 0.35440938842994413 -0.18403818521213361 0 0.37230187155944527 -0.18410680502223259 0 0.35149154164174501 -0.20315574626222041 0 0.36366819524513028 -0.21031437113148671 0 0.35862104841248232 -0.2228308520016947 0 0.37925693361890289 -0.2120285714887051 0 0.36943541324010287 -0.20186706000128449 0 0.36366819524513028 -0.21031437113148671 0 0.35149154164174501 -0.20315574626222041 0 0.36943541324010287 -0.20186706000128449 0 0.36366819524513028 -0.21031437113148671 0 0.37925693361890289 -0.2120285714887051 0 0.35149154164174501 -0.20315574626222041 0 0.33068121172404469 -0.22220468750220829 0 0.35862104841248232 -0.2228308520016947 0 0.36366819524513028 -0.21031437113148671 0 0.35149154164174501 -0.20315574626222041 0 0.35862104841248232 -0.2228308520016947 0 0.35440938842994413 -0.18403818521213361 0 0.35149154164174501 -0.20315574626222041 0 0.34011486294275067 -0.1930235804920396 0 0.35149154164174501 -0.20315574626222041 0 0.34011486294275067 -0.1930235804920396 0 0.3308500388182079 -0.19477209315265531 0 0.35149154164174501 -0.20315574626222041 0 0.3308500388182079 -0.19477209315265531 0 0.32373992820587338 -0.20544181336631709 0 0.33253637494555272 -0.18549575049788841 0 0.34011486294275067 -0.1930235804920396 0 0.3308500388182079 -0.19477209315265531 0 0.35149154164174501 -0.20315574626222041 0 0.32373992820587338 -0.20544181336631709 0 0.33068121172404469 -0.22220468750220829 0 0.35149154164174501 -0.20315574626222041 0 0.33068121172404469 -0.22220468750220829 0 0.30379191605182437 -0.20471284840499179 0 0.31109634377457301 -0.22154997806035029 0 0.32373992820587338 -0.20544181336631709 0 0.31109634377457301 -0.22154997806035029 0 0.32373992820587338 -0.20544181336631709 0 0.33068121172404469 -0.22220468750220829 0 0.3308500388182079 -0.19477209315265531 0 0.32373992820587338 -0.20544181336631709 0 0.31670590871501719 -0.18767809548444081 0 0.33253637494555272 -0.18549575049788841 0 0.3308500388182079 -0.19477209315265531 0 0.31670590871501719 -0.18767809548444081 0 0.30379191605182437 -0.20471284840499179 0 0.32373992820587338 -0.20544181336631709 0 0.31670590871501719 -0.18767809548444081 0 0.30987088180634448 -0.24125362874219619 0 0.33627474799740559 -0.24529035195854479 0 0.32740146312166057 -0.2615598439342075 0 0.30987088180634448 -0.24125362874219619 0 0.33068121172404469 -0.22220468750220829 0 0.33627474799740559 -0.24529035195854479 0 0.31109634377457301 -0.22154997806035029 0 0.30987088180634448 -0.24125362874219619 0 0.33068121172404469 -0.22220468750220829 0 0.30987088180634448 -0.24125362874219619 0 0.33068121172404469 -0.22220468750220829 0 0.33068121172404469 -0.22220468750220829 0 0.33627474799740559 -0.24529035195854479 0 0.34620802689974478 -0.2341148902952345 0 0.33627474799740559 -0.24529035195854479 0 0.3592550994650468 -0.24613366971849041 0 0.34620802689974478 -0.2341148902952345 0 0.33068121172404469 -0.22220468750220829 0 0.34620802689974478 -0.2341148902952345 0 0.35862104841248232 -0.2228308520016947 0 0.3592550994650468 -0.24613366971849041 0 0.34620802689974478 -0.2341148902952345 0 0.35862104841248232 -0.2228308520016947 0 0.35862104841248232 -0.2228308520016947 0 0.37496953662933208 -0.22868277770556319 0 0.37925693361890289 -0.2120285714887051 0 0.3592550994650468 -0.24613366971849041 0 0.35862104841248232 -0.2228308520016947 0 0.37496953662933208 -0.22868277770556319 0 0.3592550994650468 -0.24613366971849041 0 0.37496953662933208 -0.22868277770556319 0 0.37997975350283419 -0.24239130628825581 0 0.3592550994650468 -0.24613366971849041 0 0.37997975350283419 -0.24239130628825581 0 0.37962897743813367 -0.25651992395937562 0 0.37997975350283419 -0.24239130628825581 0 0.39078422201957003 -0.24969070593678949 0 0.39374115574330237 -0.23275594279604889 0 0.37496953662933208 -0.22868277770556319 0 0.37997975350283419 -0.24239130628825581 0 0.39374115574330237 -0.23275594279604889 0 0.37997975350283419 -0.24239130628825581 0 0.39078422201957003 -0.24969070593678949 0 0.37962897743813367 -0.25651992395937562 0 0.39078422201957003 -0.24969070593678949 0 0.40271577749504128 -0.24808950568319249 0 0.39374115574330237 -0.23275594279604889 0 0.40271577749504128 -0.24808950568319249 0 0.39374115574330237 -0.23275594279604889 0 0.41071323046394659 -0.2405815597806012 0 0.39374115574330237 -0.23275594279604889 0 0.40098237452119001 -0.21274615241137729 0 0.41052741769560203 -0.22783696307390669 0 0.39374115574330237 -0.23275594279604889 0 0.41071323046394659 -0.2405815597806012 0 0.41052741769560203 -0.22783696307390669 0 0.39374115574330237 -0.23275594279604889 0 0.37925693361890289 -0.2120285714887051 0 0.40098237452119001 -0.21274615241137729 0 0.37496953662933208 -0.22868277770556319 0 0.39374115574330237 -0.23275594279604889 0 0.37925693361890289 -0.2120285714887051 0 0.36943541324010287 -0.20186706000128449 0 0.37925693361890289 -0.2120285714887051 0 0.38044042972011022 -0.19453179374419641 0 0.37925693361890289 -0.2120285714887051 0 0.38044042972011022 -0.19453179374419641 0 0.39584695818252569 -0.1933624959239181 0 0.38044042972011022 -0.19453179374419641 0 0.39584695818252569 -0.1933624959239181 0 0.3883302688968957 -0.18261969374673129 0 0.39584695818252569 -0.1933624959239181 0 0.40098237452119001 -0.21274615241137729 0 0.4098684358706004 -0.20142281071300391 0 0.39584695818252569 -0.1933624959239181 0 0.4098684358706004 -0.20142281071300391 0 0.41232050953237392 -0.17982343258281169 0 0.37925693361890289 -0.2120285714887051 0 0.39584695818252569 -0.1933624959239181 0 0.40098237452119001 -0.21274615241137729 0 0.41622029565463942 -0.21609362125780859 0 0.4098684358706004 -0.20142281071300391 0 0.4264315356173396 -0.20432849808395781 0 0.40098237452119001 -0.21274615241137729 0 0.41622029565463942 -0.21609362125780859 0 0.4098684358706004 -0.20142281071300391 0 0.4098684358706004 -0.20142281071300391 0 0.4264315356173396 -0.20432849808395781 0 0.41232050953237392 -0.17982343258281169 0 0.4264315356173396 -0.20432849808395781 0 0.41232050953237392 -0.17982343258281169 0 0.4264315356173396 -0.20432849808395781 0 0.43189275347364769 -0.18601108132065861 0 0.4422427041991972 -0.19293897445371649 0 0.4264315356173396 -0.20432849808395781 0 0.41232050953237392 -0.17982343258281169 0 0.43189275347364769 -0.18601108132065861 0 0.4264315356173396 -0.20432849808395781 0 0.44054256170230521 -0.22883356358510401 0 0.4264315356173396 -0.20432849808395781 0 0.42740075470870198 -0.2217522577010006 0 0.44054256170230521 -0.22883356358510401 0 0.41622029565463942 -0.21609362125780859 0 0.4264315356173396 -0.20432849808395781 0 0.42740075470870198 -0.2217522577010006 0 0.41622029565463942 -0.21609362125780859 0 0.42740075470870198 -0.2217522577010006 0 0.42211125551440248 -0.22847504556360529 0 0.42740075470870198 -0.2217522577010006 0 0.42211125551440248 -0.22847504556360529 0 0.43135414754850671 -0.23039238084196881 0 0.42211125551440248 -0.22847504556360529 0 0.42953670257014748 -0.23642300718324211 0 0.42008770906388448 -0.23759219001855961 0 0.42211125551440248 -0.22847504556360529 0 0.43135414754850671 -0.23039238084196881 0 0.42953670257014748 -0.23642300718324211 0 0.43135414754850671 -0.23039238084196881 0 0.43570292594701721 -0.2354153486954452 0 0.44054256170230521 -0.22883356358510401 0 0.42740075470870198 -0.2217522577010006 0 0.43135414754850671 -0.23039238084196881 0 0.44054256170230521 -0.22883356358510401 0 0.43135414754850671 -0.23039238084196881 0 0.43570292594701721 -0.2354153486954452 0 0.42953670257014748 -0.23642300718324211 0 0.43570292594701721 -0.2354153486954452 0 0.43468079386219632 -0.24191883787933049 0 0.44107348969050558 -0.240693309601615 0 0.43468079386219632 -0.24191883787933049 0 0.4271596561998503 -0.244205651647634 0 0.42953670257014748 -0.23642300718324211 0 0.43570292594701721 -0.2354153486954452 0 0.43468079386219632 -0.24191883787933049 0 0.42953670257014748 -0.23642300718324211 0 0.43292967301130941 -0.2488540036824014 0 0.43917511256413022 -0.2466480151322302 0 0.43871762778532231 -0.25212208882244802 0 0.43468079386219632 -0.24191883787933049 0 0.43292967301130941 -0.2488540036824014 0 0.43917511256413022 -0.2466480151322302 0 0.43468079386219632 -0.24191883787933049 0 0.43292967301130941 -0.2488540036824014 0 0.4271596561998503 -0.244205651647634 0 0.4271596561998503 -0.244205651647634 0 0.4190014546393992 -0.24696823138092139 0 0.42541254610488072 -0.25270056741268049 0 0.43292967301130941 -0.2488540036824014 0 0.4271596561998503 -0.244205651647634 0 0.42541254610488072 -0.25270056741268049 0 0.4271596561998503 -0.244205651647634 0 0.42008770906388448 -0.23759219001855961 0 0.4190014546393992 -0.24696823138092139 0 0.4271596561998503 -0.244205651647634 0 0.42953670257014748 -0.23642300718324211 0 0.42008770906388448 -0.23759219001855961 0 0.42008770906388448 -0.23759219001855961 0 0.4190014546393992 -0.24696823138092139 0 0.41071323046394659 -0.2405815597806012 0 0.4190014546393992 -0.24696823138092139 0 0.41071323046394659 -0.2405815597806012 0 0.41170531542548788 -0.25126417515390992 0 0.40271577749504128 -0.24808950568319249 0 0.41071323046394659 -0.2405815597806012 0 0.41170531542548788 -0.25126417515390992 0 0.42008770906388448 -0.23759219001855961 0 0.41071323046394659 -0.2405815597806012 0 0.41052741769560203 -0.22783696307390669 0 0.40098237452119001 -0.21274615241137729 0 0.41622029565463942 -0.21609362125780859 0 0.41052741769560203 -0.22783696307390669 0 0.41622029565463942 -0.21609362125780859 0 0.42211125551440248 -0.22847504556360529 0 0.41052741769560203 -0.22783696307390669 0 0.42211125551440248 -0.22847504556360529 0 0.42008770906388448 -0.23759219001855961 0 0.41052741769560203 -0.22783696307390669 0 0.38943037724261159 -0.1347904899183642 0 0.39869330261889507 -0.14602014112377221 0 0.41208161927757919 -0.13087523561031761 0 0.40724277249555002 -0.1192463337858536 0 0.38943037724261159 -0.1347904899183642 0 0.41208161927757919 -0.13087523561031761 0 0.38943037724261159 -0.1347904899183642 0 0.41208161927757919 -0.13087523561031761 0 0.37980885755413418 -0.11928611433555709 0 0.37093785636814908 -0.13798691163813531 0 0.38943037724261159 -0.1347904899183642 0 0.37093785636814908 -0.13798691163813531 0 0.38943037724261159 -0.1347904899183642 0 0.37378191529930621 -0.14944718128022591 0 0.38943037724261159 -0.1347904899183642 0 0.38491978370229318 -0.15336819376567751 0 0.38943037724261159 -0.1347904899183642 0 0.38491978370229318 -0.15336819376567751 0 0.37378191529930621 -0.14944718128022591 0 0.37093785636814908 -0.13798691163813531 0 0.38943037724261159 -0.1347904899183642 0 0.37378191529930621 -0.14944718128022591 0 0.37308854109455708 -0.16093157526259191 0 0.38491978370229318 -0.15336819376567751 0 0.39869330261889507 -0.14602014112377221 0 0.39311220147714548 -0.16505786378224471 0 0.41392253139484558 -0.14600892254225711 0 0.38491978370229318 -0.15336819376567751 0 0.39869330261889507 -0.14602014112377221 0 0.39311220147714548 -0.16505786378224471 0 0.38943037724261159 -0.1347904899183642 0 0.38491978370229318 -0.15336819376567751 0 0.39869330261889507 -0.14602014112377221 0 0.39311220147714548 -0.16505786378224471 0 0.41392253139484558 -0.14600892254225711 0 0.39311220147714548 -0.16505786378224471 0 0.41068030945659773 -0.16570921719709561 0 0.41392253139484558 -0.14600892254225711 0 0.39311220147714548 -0.16505786378224471 0 0.39994988354525202 -0.1760395102610646 0 0.41068030945659773 -0.16570921719709561 0 0.38491978370229318 -0.15336819376567751 0 0.39311220147714548 -0.16505786378224471 0 0.38040919016197472 -0.17194589761299089 0 0.37308854109455708 -0.16093157526259191 0 0.38491978370229318 -0.15336819376567751 0 0.38040919016197472 -0.17194589761299089 0 0.38491978370229318 -0.15336819376567751 0 0.38040919016197472 -0.17194589761299089 0 0.37230187155944527 -0.18410680502223259 0 0.39311220147714548 -0.16505786378224471 0 0.3883302688968957 -0.18261969374673129 0 0.37230187155944527 -0.18410680502223259 0 0.39311220147714548 -0.16505786378224471 0 0.38040919016197472 -0.17194589761299089 0 0.37230187155944527 -0.18410680502223259 0 0.38044042972011022 -0.19453179374419641 0 0.3883302688968957 -0.18261969374673129 0 0.37230187155944527 -0.18410680502223259 0 0.39311220147714548 -0.16505786378224471 0 0.39584695818252569 -0.1933624959239181 0 0.39994988354525202 -0.1760395102610646 0 0.41232050953237392 -0.17982343258281169 0 0.39584695818252569 -0.1933624959239181 0 0.3883302688968957 -0.18261969374673129 0 0.39994988354525202 -0.1760395102610646 0 0.39311220147714548 -0.16505786378224471 0 0.3883302688968957 -0.18261969374673129 0 0.39994988354525202 -0.1760395102610646 0 0.39994988354525202 -0.1760395102610646 0 0.41232050953237392 -0.17982343258281169 0 0.41068030945659773 -0.16570921719709561 0 0.41232050953237392 -0.17982343258281169 0 0.42257653670861861 -0.1716129151356913 0 0.41068030945659773 -0.16570921719709561 0 0.43189275347364769 -0.18601108132065861 0 0.42257653670861861 -0.1716129151356913 0 0.43412364138782639 -0.16920851808495629 0 0.43189275347364769 -0.18601108132065861 0 0.43412364138782639 -0.16920851808495629 0 0.44001273516831668 -0.1783764172762527 0 0.41232050953237392 -0.17982343258281169 0 0.43189275347364769 -0.18601108132065861 0 0.42257653670861861 -0.1716129151356913 0 0.43412364138782639 -0.16920851808495629 0 0.42386546969264721 -0.157312326492934 0 0.43988674428557012 -0.15629540566381109 0 0.42257653670861861 -0.1716129151356913 0 0.43412364138782639 -0.16920851808495629 0 0.42386546969264721 -0.157312326492934 0 0.42386546969264721 -0.157312326492934 0 0.41068030945659773 -0.16570921719709561 0 0.41392253139484558 -0.14600892254225711 0 0.42257653670861861 -0.1716129151356913 0 0.42386546969264721 -0.157312326492934 0 0.41068030945659773 -0.16570921719709561 0 0.39869330261889507 -0.14602014112377221 0 0.41392253139484558 -0.14600892254225711 0 0.41208161927757919 -0.13087523561031761 0 0.42386546969264721 -0.157312326492934 0 0.41392253139484558 -0.14600892254225711 0 0.43230421280140441 -0.1433416226119455 0 0.42386546969264721 -0.157312326492934 0 0.43230421280140441 -0.1433416226119455 0 0.43988674428557012 -0.15629540566381109 0 0.42661387223904329 -0.12098454377727109 0 0.43473286131254663 -0.1269599813022704 0 0.41208161927757919 -0.13087523561031761 0 0.41392253139484558 -0.14600892254225711 0 0.43230421280140441 -0.1433416226119455 0 0.43473286131254663 -0.1269599813022704 0 0.43230421280140441 -0.1433416226119455 0 0.43473286131254663 -0.1269599813022704 0 0.43648454183824659 -0.13175811878196239 0 0.41392253139484558 -0.14600892254225711 0 0.43473286131254663 -0.1269599813022704 0 0.43473286131254663 -0.1269599813022704 0 0.41208161927757919 -0.13087523561031761 0 0.43473286131254663 -0.1269599813022704 0 0.43652399803370612 -0.1266503843383173 0 0.43473286131254663 -0.1269599813022704 0 0.43652399803370612 -0.1266503843383173 0 0.43686479974981568 -0.1288436488615915 0 0.43473286131254663 -0.1269599813022704 0 0.43686479974981568 -0.1288436488615915 0 0.43648454183824659 -0.13175811878196239 0 0.41392253139484558 -0.14600892254225711 0 0.43473286131254663 -0.1269599813022704 0 0.41208161927757919 -0.13087523561031761 0 0.46233294642030121 -0.13029577410444981 0 0.4507048422038758 -0.1254569291466279 0 0.44969735458306581 -0.1318629992909984 0 0.46233294642030121 -0.13029577410444981 0 0.44969735458306581 -0.1318629992909984 0 0.44471813751157008 -0.14226443976851619 0 0.4507048422038758 -0.1254569291466279 0 0.44969735458306581 -0.1318629992909984 0 0.44103349219651622 -0.1294348541443999 0 0.43686479974981568 -0.1288436488615915 0 0.43648454183824659 -0.13175811878196239 0 0.44103349219651622 -0.1294348541443999 0 0.43652399803370612 -0.1266503843383173 0 0.43686479974981568 -0.1288436488615915 0 0.44103349219651622 -0.1294348541443999 0 0.44969735458306581 -0.1318629992909984 0 0.44103349219651622 -0.1294348541443999 0 0.44471813751157008 -0.14226443976851619 0 0.43648454183824659 -0.13175811878196239 0 0.44103349219651622 -0.1294348541443999 0 0.44471813751157008 -0.14226443976851619 0 0.43230421280140441 -0.1433416226119455 0 0.43648454183824659 -0.13175811878196239 0 0.44471813751157008 -0.14226443976851619 0 0.44471813751157008 -0.14226443976851619 0 0.45766723532789633 -0.15879666333412101 0 0.43988674428557012 -0.15629540566381109 0 0.43230421280140441 -0.1433416226119455 0 0.44471813751157008 -0.14226443976851619 0 0.43988674428557012 -0.15629540566381109 0 0.46233294642030121 -0.13029577410444981 0 0.45766723532789633 -0.15879666333412101 0 0.46233294642030121 -0.13029577410444981 0 0.45766723532789633 -0.15879666333412101 0 0.47903454186700689 -0.14491860817462909 0 0.46233294642030121 -0.13029577410444981 0 0.44471813751157008 -0.14226443976851619 0 0.45766723532789633 -0.15879666333412101 0 0.45766723532789633 -0.15879666333412101 0 0.43988674428557012 -0.15629540566381109 0 0.4458378175146181 -0.17411517349359901 0 0.43412364138782639 -0.16920851808495629 0 0.43988674428557012 -0.15629540566381109 0 0.4458378175146181 -0.17411517349359901 0 0.45766723532789633 -0.15879666333412101 0 0.4458378175146181 -0.17411517349359901 0 0.45300152423549178 -0.1872975525637923 0 0.43412364138782639 -0.16920851808495629 0 0.4458378175146181 -0.17411517349359901 0 0.44001273516831668 -0.1783764172762527 0 0.4458378175146181 -0.17411517349359901 0 0.44001273516831668 -0.1783764172762527 0 0.44489139372352893 -0.18154716366216431 0 0.43189275347364769 -0.18601108132065861 0 0.44001273516831668 -0.1783764172762527 0 0.4419738252115778 -0.1858134044909181 0 0.44001273516831668 -0.1783764172762527 0 0.44489139372352893 -0.18154716366216431 0 0.4419738252115778 -0.1858134044909181 0 0.4458378175146181 -0.17411517349359901 0 0.45051520093052061 -0.18628588467377419 0 0.45300152423549178 -0.1872975525637923 0 0.4458378175146181 -0.17411517349359901 0 0.44489139372352893 -0.18154716366216431 0 0.45051520093052061 -0.18628588467377419 0 0.44489139372352893 -0.18154716366216431 0 0.4419738252115778 -0.1858134044909181 0 0.45051520093052061 -0.18628588467377419 0 0.45051520093052061 -0.18628588467377419 0 0.45300152423549178 -0.1872975525637923 0 0.45766723532789633 -0.15879666333412101 0 0.45300152423549178 -0.1872975525637923 0 0.47602254605796679 -0.17263393053228049 0 0.45300152423549178 -0.1872975525637923 0 0.47602254605796679 -0.17263393053228049 0 0.47650076211774711 -0.19685923119094451 0 0.45766723532789633 -0.15879666333412101 0 0.45300152423549178 -0.1872975525637923 0 0.47602254605796679 -0.17263393053228049 0 0.5 -0.18210721193063359 0 0.47650076211774711 -0.19685923119094451 0 0.47602254605796679 -0.17263393053228049 0 0.5 -0.18210721193063359 0 0.5 -0.15779351404316869 0 0.47602254605796679 -0.17263393053228049 0 0.5 -0.15779351404316869 0 0.47903454186700689 -0.14491860817462909 0 0.45766723532789633 -0.15879666333412101 0 0.47602254605796679 -0.17263393053228049 0 0.47903454186700689 -0.14491860817462909 0 0.5 -0.15779351404316869 0 0.47903454186700689 -0.14491860817462909 0 0.5 -0.13347981615570359 0 0.47818452339587708 -0.1165119508780514 0 0.47903454186700689 -0.14491860817462909 0 0.5 -0.13347981615570359 0 0.47818452339587708 -0.1165119508780514 0 0.46233294642030121 -0.13029577410444981 0 0.47903454186700689 -0.14491860817462909 0 0.46031275976808328 -0.23316788994673901 0 0.45494703228505612 -0.22365309056703511 0 0.45215825402727128 -0.23076677405108431 0 0.46031275976808328 -0.23316788994673901 0 0.45530172715096351 -0.23784707953664069 0 0.45215825402727128 -0.23076677405108431 0 0.46031275976808328 -0.23316788994673901 0 0.45494703228505612 -0.22365309056703511 0 0.46412837801973811 -0.21929252942849389 0 0.46031275976808328 -0.23316788994673901 0 0.46412837801973811 -0.21929252942849389 0 0.47030631581894022 -0.23354799250188951 0 0.46031275976808328 -0.23316788994673901 0 0.46848515047489081 -0.24338241864882551 0 0.46066141885548939 -0.24148158248895141 0 0.46031275976808328 -0.23316788994673901 0 0.46848515047489081 -0.24338241864882551 0 0.47030631581894022 -0.23354799250188951 0 0.46848515047489081 -0.24338241864882551 0 0.47379426967759908 -0.2551161382871 0 0.45921282319897938 -0.25088534477896152 0 0.46848515047489081 -0.24338241864882551 0 0.46066141885548939 -0.24148158248895141 0 0.45921282319897938 -0.25088534477896152 0 0.46066141885548939 -0.24148158248895141 0 0.45530172715096351 -0.23784707953664069 0 0.45921282319897938 -0.25088534477896152 0 0.46031275976808328 -0.23316788994673901 0 0.46066141885548939 -0.24148158248895141 0 0.45530172715096351 -0.23784707953664069 0 0.44552755473851618 -0.24512414212957201 0 0.44054256170230521 -0.22883356358510401 0 0.45465358778727077 -0.25333862908624999 0 0.44416337990499422 -0.23293380641746719 0 0.45921282319897938 -0.25088534477896152 0 0.45465358778727077 -0.25333862908624999 0 0.45530172715096351 -0.23784707953664069 0 0.44416337990499422 -0.23293380641746719 0 0.45921282319897938 -0.25088534477896152 0 0.44054256170230521 -0.22883356358510401 0 0.44416337990499422 -0.23293380641746719 0 0.45465358778727077 -0.25333862908624999 0 0.44054256170230521 -0.22883356358510401 0 0.45465358778727077 -0.25333862908624999 0 0.44416337990499422 -0.23293380641746719 0 0.45921282319897938 -0.25088534477896152 0 0.44552755473851618 -0.24512414212957201 0 0.44107348969050558 -0.240693309601615 0 0.44054256170230521 -0.22883356358510401 0 0.44552755473851618 -0.24512414212957201 0 0.44412948591815982 -0.25166394159908168 0 0.44816248816364901 -0.25238097519102243 0 0.44247641072782801 -0.24603235211562469 0 0.43917511256413022 -0.2466480151322302 0 0.44412948591815982 -0.25166394159908168 0 0.44552755473851618 -0.24512414212957201 0 0.44247641072782801 -0.24603235211562469 0 0.44412948591815982 -0.25166394159908168 0 0.44552755473851618 -0.24512414212957201 0 0.44247641072782801 -0.24603235211562469 0 0.44107348969050558 -0.240693309601615 0 0.43468079386219632 -0.24191883787933049 0 0.43917511256413022 -0.2466480151322302 0 0.44107348969050558 -0.240693309601615 0 0.44247641072782801 -0.24603235211562469 0 0.43917511256413022 -0.2466480151322302 0 0.44107348969050558 -0.240693309601615 0 0.43570292594701721 -0.2354153486954452 0 0.44107348969050558 -0.240693309601615 0 0.44054256170230521 -0.22883356358510401 0 0.4264315356173396 -0.20432849808395781 0 0.44054256170230521 -0.22883356358510401 0 0.44673315619821857 -0.2255884067429007 0 0.44054256170230521 -0.22883356358510401 0 0.44416337990499422 -0.23293380641746719 0 0.44673315619821857 -0.2255884067429007 0 0.44416337990499422 -0.23293380641746719 0 0.45215825402727128 -0.23076677405108431 0 0.44673315619821857 -0.2255884067429007 0 0.45530172715096351 -0.23784707953664069 0 0.44416337990499422 -0.23293380641746719 0 0.45215825402727128 -0.23076677405108431 0 0.45494703228505612 -0.22365309056703511 0 0.45215825402727128 -0.23076677405108431 0 0.44673315619821857 -0.2255884067429007 0 0.4264315356173396 -0.20432849808395781 0 0.44673315619821857 -0.2255884067429007 0 0.44986734021685498 -0.20644297965334649 0 0.44673315619821857 -0.2255884067429007 0 0.44986734021685498 -0.20644297965334649 0 0.45494703228505612 -0.22365309056703511 0 0.44673315619821857 -0.2255884067429007 0 0.44986734021685498 -0.20644297965334649 0 0.45300152423549178 -0.1872975525637923 0 0.44986734021685498 -0.20644297965334649 0 0.4422427041991972 -0.19293897445371649 0 0.45300152423549178 -0.1872975525637923 0 0.44986734021685498 -0.20644297965334649 0 0.4264315356173396 -0.20432849808395781 0 0.44986734021685498 -0.20644297965334649 0 0.4422427041991972 -0.19293897445371649 0 0.43189275347364769 -0.18601108132065861 0 0.4419738252115778 -0.1858134044909181 0 0.4422427041991972 -0.19293897445371649 0 0.4419738252115778 -0.1858134044909181 0 0.45051520093052061 -0.18628588467377419 0 0.4422427041991972 -0.19293897445371649 0 0.45051520093052061 -0.18628588467377419 0 0.45300152423549178 -0.1872975525637923 0 0.4422427041991972 -0.19293897445371649 0 0.45300152423549178 -0.1872975525637923 0 0.47650076211774711 -0.19685923119094451 0 0.45300152423549178 -0.1872975525637923 0 0.44986734021685498 -0.20644297965334649 0 0.46374770476768601 -0.204378797979305 0 0.45300152423549178 -0.1872975525637923 0 0.46374770476768601 -0.204378797979305 0 0.47650076211774711 -0.19685923119094451 0 0.45494703228505612 -0.22365309056703511 0 0.46412837801973811 -0.21929252942849389 0 0.44986734021685498 -0.20644297965334649 0 0.46412837801973811 -0.21929252942849389 0 0.44986734021685498 -0.20644297965334649 0 0.46374770476768601 -0.204378797979305 0 0.46412837801973811 -0.21929252942849389 0 0.46374770476768601 -0.204378797979305 0 0.47707366821483449 -0.2120031562722216 0 0.46374770476768601 -0.204378797979305 0 0.47707366821483449 -0.2120031562722216 0 0.47650076211774711 -0.19685923119094451 0 0.47650076211774711 -0.19685923119094451 0 0.50000000000000155 -0.2064209098180986 0 0.5 -0.18210721193063359 0 0.47650076211774711 -0.19685923119094451 0 0.50000000000000155 -0.2064209098180986 0 0.50000000000000155 -0.2064209098180986 0 0.48970053883092229 -0.21844058073303951 0 0.5 -0.23051517486053599 0 0.47707366821483449 -0.2120031562722216 0 0.47650076211774711 -0.19685923119094451 0 0.50000000000000155 -0.2064209098180986 0 0.47707366821483449 -0.2120031562722216 0 0.50000000000000155 -0.2064209098180986 0 0.48970053883092229 -0.21844058073303951 0 0.48970053883092229 -0.21844058073303951 0 0.5 -0.23051517486053599 0 0.47892356359843868 -0.22663529354614381 0 0.5 -0.23051517486053599 0 0.47892356359843868 -0.22663529354614381 0 0.48037632353124621 -0.24431513348718631 0 0.47707366821483449 -0.2120031562722216 0 0.48970053883092229 -0.21844058073303951 0 0.47892356359843868 -0.22663529354614381 0 0.46412837801973811 -0.21929252942849389 0 0.47707366821483449 -0.2120031562722216 0 0.47892356359843868 -0.22663529354614381 0 0.46412837801973811 -0.21929252942849389 0 0.47892356359843868 -0.22663529354614381 0 0.47030631581894022 -0.23354799250188951 0 0.47892356359843868 -0.22663529354614381 0 0.47030631581894022 -0.23354799250188951 0 0.48037632353124621 -0.24431513348718631 0 0.46848515047489081 -0.24338241864882551 0 0.48037632353124621 -0.24431513348718631 0 0.47379426967759908 -0.2551161382871 0 0.46848515047489081 -0.24338241864882551 0 0.47030631581894022 -0.23354799250188951 0 0.48037632353124621 -0.24431513348718631 0 0.5 -0.23051517486053599 0 0.48037632353124621 -0.24431513348718631 0 0.5 -0.25460943990297341 0 0.48037632353124621 -0.24431513348718631 0 0.5 -0.25460943990297341 0 0.48801367558502928 -0.26571606475136661 0 0.50000000000000022 -0.27870370494541058 0 0.48801367558502928 -0.26571606475136661 0 0.48931170978694949 -0.28678842150195 0 0.5 -0.25460943990297341 0 0.50000000000000022 -0.27870370494541058 0 0.48801367558502928 -0.26571606475136661 0 0.47426226649296438 -0.26883688314045567 0 0.47311276962135179 -0.28508457281551508 0 0.48931170978694949 -0.28678842150195 0 0.48801367558502928 -0.26571606475136661 0 0.47426226649296438 -0.26883688314045567 0 0.48931170978694949 -0.28678842150195 0 0.47426226649296438 -0.26883688314045567 0 0.48931170978694949 -0.28678842150195 0 0.47426226649296438 -0.26883688314045567 0 0.47379426967759908 -0.2551161382871 0 0.45921282319897938 -0.25088534477896152 0 0.48037632353124621 -0.24431513348718631 0 0.48801367558502928 -0.26571606475136661 0 0.47379426967759908 -0.2551161382871 0 0.48801367558502928 -0.26571606475136661 0 0.47426226649296438 -0.26883688314045567 0 0.47379426967759908 -0.2551161382871 0 0.47426226649296438 -0.26883688314045567 0 0.45921282319897938 -0.25088534477896152 0 0.45867357026917482 -0.26750260605831883 0 0.45921282319897938 -0.25088534477896152 0 0.45465358778727077 -0.25333862908624999 0 0.45867357026917482 -0.26750260605831883 0 0.47426226649296438 -0.26883688314045567 0 0.45921282319897938 -0.25088534477896152 0 0.45465358778727077 -0.25333862908624999 0 0.45867357026917482 -0.26750260605831883 0 0.44833932421064931 -0.25939718794918609 0 0.47426226649296438 -0.26883688314045567 0 0.45867357026917482 -0.26750260605831883 0 0.47311276962135179 -0.28508457281551508 0 0.45867357026917482 -0.26750260605831883 0 0.45341190072698129 -0.28456089864454431 0 0.47311276962135179 -0.28508457281551508 0 0.45867357026917482 -0.26750260605831883 0 0.44699314029513348 -0.27052543302498011 0 0.44833932421064931 -0.25939718794918609 0 0.45867357026917482 -0.26750260605831883 0 0.44699314029513348 -0.27052543302498011 0 0.45341190072698129 -0.28456089864454431 0 0.44699314029513348 -0.27052543302498011 0 0.43919222284155002 -0.27830080619971909 0 0.45341190072698129 -0.28456089864454431 0 0.44699314029513348 -0.27052543302498011 0 0.4385944452063526 -0.26988256164274432 0 0.44171549930134968 -0.26335377754900008 0 0.44699314029513348 -0.27052543302498011 0 0.43919222284155002 -0.27830080619971909 0 0.4385944452063526 -0.26988256164274432 0 0.4385944452063526 -0.26988256164274432 0 0.44171549930134968 -0.26335377754900008 0 0.43505770238402619 -0.26461992241763038 0 0.44171549930134968 -0.26335377754900008 0 0.43505770238402619 -0.26461992241763038 0 0.43648606404966428 -0.25753784968455939 0 0.44171549930134968 -0.26335377754900008 0 0.4419947323052219 -0.25760620957214742 0 0.44833932421064931 -0.25939718794918609 0 0.44171549930134968 -0.26335377754900008 0 0.4419947323052219 -0.25760620957214742 0 0.43648606404966428 -0.25753784968455939 0 0.43871762778532231 -0.25212208882244802 0 0.4419947323052219 -0.25760620957214742 0 0.43648606404966428 -0.25753784968455939 0 0.43917511256413022 -0.2466480151322302 0 0.43871762778532231 -0.25212208882244802 0 0.44412948591815982 -0.25166394159908168 0 0.43871762778532231 -0.25212208882244802 0 0.44412948591815982 -0.25166394159908168 0 0.4419947323052219 -0.25760620957214742 0 0.44412948591815982 -0.25166394159908168 0 0.4419947323052219 -0.25760620957214742 0 0.44833932421064931 -0.25939718794918609 0 0.44552755473851618 -0.24512414212957201 0 0.45465358778727077 -0.25333862908624999 0 0.44816248816364901 -0.25238097519102243 0 0.44412948591815982 -0.25166394159908168 0 0.44816248816364901 -0.25238097519102243 0 0.44833932421064931 -0.25939718794918609 0 0.45465358778727077 -0.25333862908624999 0 0.44816248816364901 -0.25238097519102243 0 0.44833932421064931 -0.25939718794918609 0 0.44699314029513348 -0.27052543302498011 0 0.44171549930134968 -0.26335377754900008 0 0.44833932421064931 -0.25939718794918609 0 0.44647667656812801 -0.29965112561783208 0 0.45137615954030103 -0.31548320476916308 0 0.43444005925229529 -0.31032905382020182 0 0.44647667656812801 -0.29965112561783208 0 0.43234265414258233 -0.29853995875229639 0 0.43444005925229529 -0.31032905382020182 0 0.44647667656812801 -0.29965112561783208 0 0.43824437449043008 -0.28966145028223478 0 0.43234265414258233 -0.29853995875229639 0 0.43919222284155002 -0.27830080619971909 0 0.43824437449043008 -0.28966145028223478 0 0.45341190072698129 -0.28456089864454431 0 0.44647667656812801 -0.29965112561783208 0 0.43824437449043008 -0.28966145028223478 0 0.45341190072698129 -0.28456089864454431 0 0.45341190072698129 -0.28456089864454431 0 0.47034393466362562 -0.30113581313555698 0 0.47311276962135179 -0.28508457281551508 0 0.44647667656812801 -0.29965112561783208 0 0.45341190072698129 -0.28456089864454431 0 0.47034393466362562 -0.30113581313555698 0 0.44647667656812801 -0.29965112561783208 0 0.47034393466362562 -0.30113581313555698 0 0.45137615954030103 -0.31548320476916308 0 0.47034393466362562 -0.30113581313555698 0 0.45137615954030103 -0.31548320476916308 0 0.47034393466362562 -0.30113581313555698 0 0.48609801829406513 -0.30033747069297151 0 0.48569838996659448 -0.31355153071673758 0 0.47034393466362562 -0.30113581313555698 0 0.48931170978694949 -0.28678842150195 0 0.47034393466362562 -0.30113581313555698 0 0.48931170978694949 -0.28678842150195 0 0.48609801829406513 -0.30033747069297151 0 0.47034393466362562 -0.30113581313555698 0 0.47311276962135179 -0.28508457281551508 0 0.48931170978694949 -0.28678842150195 0 0.50000000000000022 -0.27870370494541058 0 0.48931170978694949 -0.28678842150195 0 0.50000000000000078 -0.29953781349142472 0 0.48931170978694949 -0.28678842150195 0 0.48609801829406513 -0.30033747069297151 0 0.50000000000000078 -0.29953781349142472 0 0.48931170978694949 -0.28678842150195 0 0.50000000000000078 -0.29953781349142472 0 0.50000000000000022 -0.27870370494541058 0 0.48931170978694949 -0.28678842150195 0 0.48609801829406513 -0.30033747069297151 0 0.50000000000000078 -0.29953781349142472 0 0.48569838996659448 -0.31355153071673758 0 0.50000000000000078 -0.29953781349142472 0 0.48569838996659448 -0.31355153071673758 0 0.5 -0.32898483254094879 0 0.48569838996659448 -0.31355153071673758 0 0.5 -0.32898483254094879 0 0.4688689480981888 -0.32767699473222389 0 0.5 -0.32898483254094879 0 0.4688689480981888 -0.32767699473222389 0 0.47786930722932619 -0.34789692042963721 0 0.47034393466362562 -0.30113581313555698 0 0.48569838996659448 -0.31355153071673758 0 0.4688689480981888 -0.32767699473222389 0 0.5 -0.35843185159047292 0 0.47350757658922271 -0.36952329647287657 0 0.48620898030354948 -0.37918006028240092 0 0.5 -0.32898483254094879 0 0.5 -0.35843185159047292 0 0.47786930722932619 -0.34789692042963721 0 0.47786930722932619 -0.34789692042963721 0 0.47350757658922271 -0.36952329647287657 0 0.4655023448943818 -0.35719392053603988 0 0.5 -0.35843185159047292 0 0.47786930722932619 -0.34789692042963721 0 0.47350757658922271 -0.36952329647287657 0 0.45861777817450511 -0.36868509019449441 0 0.46271268513135372 -0.37747780338012438 0 0.45189505467726382 -0.37680202485208381 0 0.45861777817450511 -0.36868509019449441 0 0.44976491938063418 -0.36654981963533051 0 0.45189505467726382 -0.37680202485208381 0 0.47350757658922271 -0.36952329647287657 0 0.45861777817450511 -0.36868509019449441 0 0.46271268513135372 -0.37747780338012438 0 0.47350757658922271 -0.36952329647287657 0 0.45861777817450511 -0.36868509019449441 0 0.4655023448943818 -0.35719392053603988 0 0.45861777817450511 -0.36868509019449441 0 0.45601593140111862 -0.35990106862703092 0 0.44976491938063418 -0.36654981963533051 0 0.45861777817450511 -0.36868509019449441 0 0.45601593140111862 -0.35990106862703092 0 0.4655023448943818 -0.35719392053603988 0 0.47786930722932619 -0.34789692042963721 0 0.4655023448943818 -0.35719392053603988 0 0.45483150576365328 -0.34688844598146529 0 0.45601593140111862 -0.35990106862703092 0 0.4655023448943818 -0.35719392053603988 0 0.45483150576365328 -0.34688844598146529 0 0.45483150576365328 -0.34688844598146529 0 0.44020278747438729 -0.34510251360014332 0 0.44674619010751909 -0.35809924702175239 0 0.44020278747438729 -0.34510251360014332 0 0.43833245073232718 -0.35667994920926999 0 0.44674619010751909 -0.35809924702175239 0 0.45601593140111862 -0.35990106862703092 0 0.45483150576365328 -0.34688844598146529 0 0.44674619010751909 -0.35809924702175239 0 0.44674619010751909 -0.35809924702175239 0 0.44976491938063418 -0.36654981963533051 0 0.4432564460600979 -0.36443112509465042 0 0.45601593140111862 -0.35990106862703092 0 0.44674619010751909 -0.35809924702175239 0 0.44976491938063418 -0.36654981963533051 0 0.43833245073232718 -0.35667994920926999 0 0.44674619010751909 -0.35809924702175239 0 0.4432564460600979 -0.36443112509465042 0 0.43833245073232718 -0.35667994920926999 0 0.4432564460600979 -0.36443112509465042 0 0.43792231759094602 -0.36891862507496959 0 0.44976491938063418 -0.36654981963533051 0 0.4432564460600979 -0.36443112509465042 0 0.44173316381622191 -0.37123334486501253 0 0.4432564460600979 -0.36443112509465042 0 0.43792231759094602 -0.36891862507496959 0 0.44173316381622191 -0.37123334486501253 0 0.44976491938063418 -0.36654981963533051 0 0.44173316381622191 -0.37123334486501253 0 0.45189505467726382 -0.37680202485208381 0 0.4688689480981888 -0.32767699473222389 0 0.44744827938524201 -0.33285238680196422 0 0.45137615954030103 -0.31548320476916308 0 0.47034393466362562 -0.30113581313555698 0 0.4688689480981888 -0.32767699473222389 0 0.45137615954030103 -0.31548320476916308 0 0.4688689480981888 -0.32767699473222389 0 0.45483150576365328 -0.34688844598146529 0 0.44744827938524201 -0.33285238680196422 0 0.4688689480981888 -0.32767699473222389 0 0.47786930722932619 -0.34789692042963721 0 0.45483150576365328 -0.34688844598146529 0 0.45483150576365328 -0.34688844598146529 0 0.44020278747438729 -0.34510251360014332 0 0.44744827938524201 -0.33285238680196422 0 0.44020278747438729 -0.34510251360014332 0 0.44744827938524201 -0.33285238680196422 0 0.43240838441697632 -0.3298305964027694 0 0.45137615954030103 -0.31548320476916308 0 0.43240838441697632 -0.3298305964027694 0 0.43444005925229529 -0.31032905382020182 0 0.44744827938524201 -0.33285238680196422 0 0.45137615954030103 -0.31548320476916308 0 0.43240838441697632 -0.3298305964027694 0 0.45137615954030103 -0.31548320476916308 0 0.43240838441697632 -0.3298305964027694 0 0.42213808355103849 -0.31598854483820238 0 0.43240838441697632 -0.3298305964027694 0 0.43444005925229529 -0.31032905382020182 0 0.42213808355103849 -0.31598854483820238 0 0.43240838441697632 -0.3298305964027694 0 0.42063894984562838 -0.32794228428963068 0 0.43240838441697632 -0.3298305964027694 0 0.42063894984562838 -0.32794228428963068 0 0.42353451242868528 -0.3468482352548341 0 0.44020278747438729 -0.34510251360014332 0 0.43240838441697632 -0.3298305964027694 0 0.42353451242868528 -0.3468482352548341 0 0.4091467072664246 -0.32477784543469868 0 0.42353451242868528 -0.3468482352548341 0 0.4091467072664246 -0.32477784543469868 0 0.42063894984562838 -0.32794228428963068 0 0.42353451242868528 -0.3468482352548341 0 0.41089111725139721 -0.34269856142925859 0 0.4091467072664246 -0.32477784543469868 0 0.42353451242868528 -0.3468482352548341 0 0.41089111725139721 -0.34269856142925859 0 0.4091467072664246 -0.32477784543469868 0 0.40425152475925441 -0.33267251048098129 0 0.4091467072664246 -0.32477784543469868 0 0.41500843607520332 -0.31765864762852652 0 0.40782856937156858 -0.30992265774813338 0 0.42213808355103849 -0.31598854483820238 0 0.41500843607520332 -0.31765864762852652 0 0.41528987034135628 -0.30966190583196729 0 0.4091467072664246 -0.32477784543469868 0 0.41500843607520332 -0.31765864762852652 0 0.42063894984562838 -0.32794228428963068 0 0.42213808355103849 -0.31598854483820238 0 0.41500843607520332 -0.31765864762852652 0 0.42063894984562838 -0.32794228428963068 0 0.43792231759094602 -0.36891862507496959 0 0.42718561209050382 -0.36319872422350041 0 0.42353451242868528 -0.3468482352548341 0 0.43792231759094602 -0.36891862507496959 0 0.44173316381622191 -0.37123334486501253 0 0.43018656974337233 -0.3834847830435818 0 0.43792231759094602 -0.36891862507496959 0 0.42661372489006832 -0.37330916830292271 0 0.42718561209050382 -0.36319872422350041 0 0.42661372489006832 -0.37330916830292271 0 0.42718561209050382 -0.36319872422350041 0 0.42067189345231581 -0.36371886826127509 0 0.43792231759094602 -0.36891862507496959 0 0.42353451242868528 -0.3468482352548341 0 0.42718561209050382 -0.36319872422350041 0 0.42353451242868528 -0.3468482352548341 0 0.42067189345231581 -0.36371886826127509 0 0.43833245073232718 -0.35667994920926999 0 0.43792231759094602 -0.36891862507496959 0 0.42353451242868528 -0.3468482352548341 0 0.44020278747438729 -0.34510251360014332 0 0.43833245073232718 -0.35667994920926999 0 0.42353451242868528 -0.3468482352548341 0 0.42353451242868528 -0.3468482352548341 0 0.41118608239640281 -0.35773278074769221 0 0.42067189345231581 -0.36371886826127509 0 0.41089111725139721 -0.34269856142925859 0 0.42353451242868528 -0.3468482352548341 0 0.41118608239640281 -0.35773278074769221 0 0.41089111725139721 -0.34269856142925859 0 0.41118608239640281 -0.35773278074769221 0 0.40345194384414051 -0.35159281539693271 0 0.42661372489006832 -0.37330916830292271 0 0.42067189345231581 -0.36371886826127509 0 0.40978735765452701 -0.3715350174533486 0 0.41118608239640281 -0.35773278074769221 0 0.42067189345231581 -0.36371886826127509 0 0.40978735765452701 -0.3715350174533486 0 0.39634156242657448 -0.36307978873527152 0 0.40109715774397792 -0.38275058451944882 0 0.38240798480570892 -0.37852010314408679 0 0.40978735765452701 -0.3715350174533486 0 0.39634156242657448 -0.36307978873527152 0 0.40109715774397792 -0.38275058451944882 0 0.41118608239640281 -0.35773278074769221 0 0.40978735765452701 -0.3715350174533486 0 0.39634156242657448 -0.36307978873527152 0 0.39634156242657448 -0.36307978873527152 0 0.40345194384414051 -0.35159281539693271 0 0.39209624447111568 -0.34275609473116092 0 0.41118608239640281 -0.35773278074769221 0 0.39634156242657448 -0.36307978873527152 0 0.40345194384414051 -0.35159281539693271 0 0.40345194384414051 -0.35159281539693271 0 0.40267270758147689 -0.34242999550958342 0 0.39209624447111568 -0.34275609473116092 0 0.41089111725139721 -0.34269856142925859 0 0.40345194384414051 -0.35159281539693271 0 0.40267270758147689 -0.34242999550958342 0 0.39634156242657448 -0.36307978873527152 0 0.37618485313497191 -0.35303141813195599 0 0.39209624447111568 -0.34275609473116092 0 0.39634156242657448 -0.36307978873527152 0 0.37618485313497191 -0.35303141813195599 0 0.38240798480570892 -0.37852010314408679 0 0.37618485313497191 -0.35303141813195599 0 0.38240798480570892 -0.37852010314408679 0 0.40425152475925441 -0.33267251048098129 0 0.39300241843570249 -0.3110378002903586 0 0.4091467072664246 -0.32477784543469868 0 0.39300241843570249 -0.3110378002903586 0 0.39475890210416392 -0.30270745561456308 0 0.4091467072664246 -0.32477784543469868 0 0.39475890210416392 -0.30270745561456308 0 0.4091467072664246 -0.32477784543469868 0 0.40425152475925441 -0.33267251048098129 0 0.39300241843570249 -0.3110378002903586 0 0.40425152475925441 -0.33267251048098129 0 0.38822804294015112 -0.3261114208869455 0 0.39300241843570249 -0.3110378002903586 0 0.40425152475925441 -0.33267251048098129 0 0.39209624447111568 -0.34275609473116092 0 0.38822804294015112 -0.3261114208869455 0 0.40425152475925441 -0.33267251048098129 0 0.40267270758147689 -0.34242999550958342 0 0.39209624447111568 -0.34275609473116092 0 0.41089111725139721 -0.34269856142925859 0 0.40425152475925441 -0.33267251048098129 0 0.40267270758147689 -0.34242999550958342 0 0.37618485313497191 -0.35303141813195599 0 0.39209624447111568 -0.34275609473116092 0 0.36996172146423478 -0.32754273311982529 0 0.39209624447111568 -0.34275609473116092 0 0.38822804294015112 -0.3261114208869455 0 0.36996172146423478 -0.32754273311982529 0 0.38822804294015112 -0.3261114208869455 0 0.38164260336710232 -0.31615744579396521 0 0.36996172146423478 -0.32754273311982529 0 0.38822804294015112 -0.3261114208869455 0 0.38164260336710232 -0.31615744579396521 0 0.39300241843570249 -0.3110378002903586 0 0.38177106400017391 -0.30862132669022929 0 0.38029466251644028 -0.29986647237510811 0 0.37214457168145071 -0.30742358830148531 0 0.39300241843570249 -0.3110378002903586 0 0.38175331211215058 -0.28940309009973592 0 0.38164260336710232 -0.31615744579396521 0 0.38177106400017391 -0.30862132669022929 0 0.37214457168145071 -0.30742358830148531 0 0.39300241843570249 -0.3110378002903586 0 0.39475890210416392 -0.30270745561456308 0 0.38175331211215058 -0.28940309009973592 0 0.38029466251644028 -0.29986647237510811 0 0.39300241843570249 -0.3110378002903586 0 0.38175331211215058 -0.28940309009973592 0 0.38164260336710232 -0.31615744579396521 0 0.38177106400017391 -0.30862132669022929 0 0.39300241843570249 -0.3110378002903586 0 0.38177106400017391 -0.30862132669022929 0 0.38029466251644028 -0.29986647237510811 0 0.39300241843570249 -0.3110378002903586 0 0.4091467072664246 -0.32477784543469868 0 0.39475890210416392 -0.30270745561456308 0 0.40782856937156858 -0.30992265774813338 0 0.39475890210416392 -0.30270745561456308 0 0.40429755200803852 -0.3015310211561289 0 0.40149673409666831 -0.29605944040816118 0 0.40429755200803852 -0.3015310211561289 0 0.40149673409666831 -0.29605944040816118 0 0.40808526015628949 -0.29523915444325732 0 0.39475890210416392 -0.30270745561456308 0 0.40429755200803852 -0.3015310211561289 0 0.40782856937156858 -0.30992265774813338 0 0.39475890210416392 -0.30270745561456308 0 0.39730188346755718 -0.29161135963752222 0 0.39142402894447709 -0.286435042888317 0 0.40304007274729231 -0.28920821118933449 0 0.39763996789025002 -0.28367275964584732 0 0.40506285170047662 -0.28083922749534462 0 0.40304007274729231 -0.28920821118933449 0 0.39730188346755718 -0.29161135963752222 0 0.39763996789025002 -0.28367275964584732 0 0.40304007274729231 -0.28920821118933449 0 0.40149673409666831 -0.29605944040816118 0 0.40808526015628949 -0.29523915444325732 0 0.40304007274729231 -0.28920821118933449 0 0.40149673409666831 -0.29605944040816118 0 0.39730188346755718 -0.29161135963752222 0 0.39475890210416392 -0.30270745561456308 0 0.40149673409666831 -0.29605944040816118 0 0.39730188346755718 -0.29161135963752222 0 0.39763996789025002 -0.28367275964584732 0 0.39142402894447709 -0.286435042888317 0 0.39195529533629442 -0.27806131115557092 0 0.39730188346755718 -0.29161135963752222 0 0.39763996789025002 -0.28367275964584732 0 0.39142402894447709 -0.286435042888317 0 0.39475890210416392 -0.30270745561456308 0 0.38037109694190308 -0.28063706579442749 0 0.39475890210416392 -0.30270745561456308 0 0.38175331211215058 -0.28940309009973592 0 0.38037109694190308 -0.28063706579442749 0 0.39142402894447709 -0.286435042888317 0 0.38037109694190308 -0.28063706579442749 0 0.38713910380081668 -0.27916368249890622 0 0.39475890210416392 -0.30270745561456308 0 0.39142402894447709 -0.286435042888317 0 0.38037109694190308 -0.28063706579442749 0 0.38029466251644028 -0.29986647237510811 0 0.38175331211215058 -0.28940309009973592 0 0.37093408616543422 -0.29499190654120538 0 0.38175331211215058 -0.28940309009973592 0 0.37050420578859872 -0.26776837990911312 0 0.38175331211215058 -0.28940309009973592 0 0.38037109694190308 -0.28063706579442749 0 0.37050420578859872 -0.26776837990911312 0 0.38037109694190308 -0.28063706579442749 0 0.38480599398059251 -0.27152131015730951 0 0.37050420578859872 -0.26776837990911312 0 0.38480599398059251 -0.27152131015730951 0 0.39244458987216091 -0.26161417174629581 0 0.39261010037049587 -0.27136451795379868 0 0.38037109694190308 -0.28063706579442749 0 0.38480599398059251 -0.27152131015730951 0 0.38713910380081668 -0.27916368249890622 0 0.38480599398059251 -0.27152131015730951 0 0.38713910380081668 -0.27916368249890622 0 0.39195529533629442 -0.27806131115557092 0 0.39142402894447709 -0.286435042888317 0 0.38713910380081668 -0.27916368249890622 0 0.39195529533629442 -0.27806131115557092 0 0.38480599398059251 -0.27152131015730951 0 0.39195529533629442 -0.27806131115557092 0 0.39261010037049587 -0.27136451795379868 0 0.38480599398059251 -0.27152131015730951 0 0.37962897743813367 -0.25651992395937562 0 0.37050420578859872 -0.26776837990911312 0 0.38480599398059251 -0.27152131015730951 0 0.37962897743813367 -0.25651992395937562 0 0.39244458987216091 -0.26161417174629581 0 0.39078422201957003 -0.24969070593678949 0 0.37962897743813367 -0.25651992395937562 0 0.39244458987216091 -0.26161417174629581 0 0.39078422201957003 -0.24969070593678949 0 0.39244458987216091 -0.26161417174629581 0 0.40410575785193181 -0.25828851936103481 0 0.39244458987216091 -0.26161417174629581 0 0.40410575785193181 -0.25828851936103481 0 0.39822211595326279 -0.26692182407365989 0 0.40410575785193181 -0.25828851936103481 0 0.39822211595326279 -0.26692182407365989 0 0.40492140044583741 -0.26790783212078467 0 0.40410575785193181 -0.25828851936103481 0 0.40492140044583741 -0.26790783212078467 0 0.40945290732670331 -0.26396052327947239 0 0.39078422201957003 -0.24969070593678949 0 0.40271577749504128 -0.24808950568319249 0 0.40410575785193181 -0.25828851936103481 0 0.40271577749504128 -0.24808950568319249 0 0.40410575785193181 -0.25828851936103481 0 0.41170531542548788 -0.25126417515390992 0 0.39763996789025002 -0.28367275964584732 0 0.39195529533629442 -0.27806131115557092 0 0.39894115351181969 -0.27424944313259708 0 0.39195529533629442 -0.27806131115557092 0 0.39261010037049587 -0.27136451795379868 0 0.39894115351181969 -0.27424944313259708 0 0.39244458987216091 -0.26161417174629581 0 0.39261010037049587 -0.27136451795379868 0 0.39822211595326279 -0.26692182407365989 0 0.39261010037049587 -0.27136451795379868 0 0.39822211595326279 -0.26692182407365989 0 0.39894115351181969 -0.27424944313259708 0 0.39822211595326279 -0.26692182407365989 0 0.40492140044583741 -0.26790783212078467 0 0.39894115351181969 -0.27424944313259708 0 0.40492140044583741 -0.26790783212078467 0 0.39894115351181969 -0.27424944313259708 0 0.40712920685057652 -0.27420612675110112 0 0.39763996789025002 -0.28367275964584732 0 0.39894115351181969 -0.27424944313259708 0 0.40506285170047662 -0.28083922749534462 0 0.39894115351181969 -0.27424944313259708 0 0.40506285170047662 -0.28083922749534462 0 0.40712920685057652 -0.27420612675110112 0 0.40506285170047662 -0.28083922749534462 0 0.41284697370079432 -0.2782971556212297 0 0.40712920685057652 -0.27420612675110112 0 0.41284697370079432 -0.2782971556212297 0 0.40712920685057652 -0.27420612675110112 0 0.41387365489395472 -0.26973697538554919 0 0.40492140044583741 -0.26790783212078467 0 0.41387365489395472 -0.26973697538554919 0 0.40945290732670331 -0.26396052327947239 0 0.40492140044583741 -0.26790783212078467 0 0.40712920685057652 -0.27420612675110112 0 0.41387365489395472 -0.26973697538554919 0 0.41387365489395472 -0.26973697538554919 0 0.42135307316749521 -0.27487684751024949 0 0.42100146315739412 -0.26552033609670711 0 0.41284697370079432 -0.2782971556212297 0 0.41387365489395472 -0.26973697538554919 0 0.42135307316749521 -0.27487684751024949 0 0.41284697370079432 -0.2782971556212297 0 0.42135307316749521 -0.27487684751024949 0 0.41975251852593748 -0.28445801958006911 0 0.40410575785193181 -0.25828851936103481 0 0.41170531542548788 -0.25126417515390992 0 0.41491081611508918 -0.25990876625052101 0 0.40410575785193181 -0.25828851936103481 0 0.40945290732670331 -0.26396052327947239 0 0.41491081611508918 -0.25990876625052101 0 0.41387365489395472 -0.26973697538554919 0 0.40945290732670331 -0.26396052327947239 0 0.41491081611508918 -0.25990876625052101 0 0.41387365489395472 -0.26973697538554919 0 0.42100146315739412 -0.26552033609670711 0 0.41491081611508918 -0.25990876625052101 0 0.42100146315739412 -0.26552033609670711 0 0.42163465399116667 -0.25872199059074641 0 0.41491081611508918 -0.25990876625052101 0 0.41170531542548788 -0.25126417515390992 0 0.41491081611508918 -0.25990876625052101 0 0.41853295725520467 -0.25391274615775578 0 0.42163465399116667 -0.25872199059074641 0 0.41491081611508918 -0.25990876625052101 0 0.41853295725520467 -0.25391274615775578 0 0.42163465399116667 -0.25872199059074641 0 0.41853295725520467 -0.25391274615775578 0 0.42541254610488072 -0.25270056741268049 0 0.4190014546393992 -0.24696823138092139 0 0.41853295725520467 -0.25391274615775578 0 0.42541254610488072 -0.25270056741268049 0 0.4190014546393992 -0.24696823138092139 0 0.41170531542548788 -0.25126417515390992 0 0.41853295725520467 -0.25391274615775578 0 0.42163465399116667 -0.25872199059074641 0 0.42541254610488072 -0.25270056741268049 0 0.42845093672784768 -0.26136295507116752 0 0.42541254610488072 -0.25270056741268049 0 0.42845093672784768 -0.26136295507116752 0 0.43126889086453951 -0.25455984543500237 0 0.42100146315739412 -0.26552033609670711 0 0.42163465399116667 -0.25872199059074641 0 0.42845093672784768 -0.26136295507116752 0 0.42845093672784768 -0.26136295507116752 0 0.43505770238402619 -0.26461992241763038 0 0.43648606404966428 -0.25753784968455939 0 0.42845093672784768 -0.26136295507116752 0 0.43505770238402619 -0.26461992241763038 0 0.43027170394141367 -0.27054512142908671 0 0.42845093672784768 -0.26136295507116752 0 0.43126889086453951 -0.25455984543500237 0 0.43648606404966428 -0.25753784968455939 0 0.43871762778532231 -0.25212208882244802 0 0.43126889086453951 -0.25455984543500237 0 0.43648606404966428 -0.25753784968455939 0 0.43292967301130941 -0.2488540036824014 0 0.43871762778532231 -0.25212208882244802 0 0.43126889086453951 -0.25455984543500237 0 0.43292967301130941 -0.2488540036824014 0 0.42541254610488072 -0.25270056741268049 0 0.43126889086453951 -0.25455984543500237 0 0.42135307316749521 -0.27487684751024949 0 0.42956799811030638 -0.28148515248710693 0 0.41975251852593748 -0.28445801958006911 0 0.42135307316749521 -0.27487684751024949 0 0.43027170394141367 -0.27054512142908671 0 0.42956799811030638 -0.28148515248710693 0 0.42135307316749521 -0.27487684751024949 0 0.42100146315739412 -0.26552033609670711 0 0.43027170394141367 -0.27054512142908671 0 0.42100146315739412 -0.26552033609670711 0 0.42845093672784768 -0.26136295507116752 0 0.43027170394141367 -0.27054512142908671 0 0.43919222284155002 -0.27830080619971909 0 0.4385944452063526 -0.26988256164274432 0 0.43027170394141367 -0.27054512142908671 0 0.4385944452063526 -0.26988256164274432 0 0.43505770238402619 -0.26461992241763038 0 0.43027170394141367 -0.27054512142908671 0 0.43919222284155002 -0.27830080619971909 0 0.43027170394141367 -0.27054512142908671 0 0.42956799811030638 -0.28148515248710693 0 0.43824437449043008 -0.28966145028223478 0 0.42956799811030638 -0.28148515248710693 0 0.42651213435721103 -0.29151489344350012 0 0.43919222284155002 -0.27830080619971909 0 0.43824437449043008 -0.28966145028223478 0 0.42956799811030638 -0.28148515248710693 0 0.42956799811030638 -0.28148515248710693 0 0.42651213435721103 -0.29151489344350012 0 0.41975251852593748 -0.28445801958006911 0 0.42651213435721103 -0.29151489344350012 0 0.42265725367426682 -0.30260234616053761 0 0.41710028749217543 -0.29373719746223742 0 0.43824437449043008 -0.28966145028223478 0 0.42651213435721103 -0.29151489344350012 0 0.43234265414258233 -0.29853995875229639 0 0.43234265414258233 -0.29853995875229639 0 0.43444005925229529 -0.31032905382020182 0 0.42265725367426682 -0.30260234616053761 0 0.42213808355103849 -0.31598854483820238 0 0.43444005925229529 -0.31032905382020182 0 0.42265725367426682 -0.30260234616053761 0 0.42651213435721103 -0.29151489344350012 0 0.43234265414258233 -0.29853995875229639 0 0.42265725367426682 -0.30260234616053761 0 0.42265725367426682 -0.30260234616053761 0 0.41237795257390419 -0.3022181237121867 0 0.41710028749217543 -0.29373719746223742 0 0.42213808355103849 -0.31598854483820238 0 0.42265725367426682 -0.30260234616053761 0 0.41528987034135628 -0.30966190583196729 0 0.42265725367426682 -0.30260234616053761 0 0.41528987034135628 -0.30966190583196729 0 0.41237795257390419 -0.3022181237121867 0 0.41500843607520332 -0.31765864762852652 0 0.41528987034135628 -0.30966190583196729 0 0.40782856937156858 -0.30992265774813338 0 0.41528987034135628 -0.30966190583196729 0 0.40782856937156858 -0.30992265774813338 0 0.41237795257390419 -0.3022181237121867 0 0.40429755200803852 -0.3015310211561289 0 0.41237795257390419 -0.3022181237121867 0 0.40808526015628949 -0.29523915444325732 0 0.41237795257390419 -0.3022181237121867 0 0.40808526015628949 -0.29523915444325732 0 0.41710028749217543 -0.29373719746223742 0 0.40429755200803852 -0.3015310211561289 0 0.40782856937156858 -0.30992265774813338 0 0.41237795257390419 -0.3022181237121867 0 0.40808526015628949 -0.29523915444325732 0 0.41113464432764291 -0.28683687095609128 0 0.41710028749217543 -0.29373719746223742 0 0.40304007274729231 -0.28920821118933449 0 0.40808526015628949 -0.29523915444325732 0 0.41113464432764291 -0.28683687095609128 0 0.40304007274729231 -0.28920821118933449 0 0.40506285170047662 -0.28083922749534462 0 0.41113464432764291 -0.28683687095609128 0 0.40506285170047662 -0.28083922749534462 0 0.41284697370079432 -0.2782971556212297 0 0.41113464432764291 -0.28683687095609128 0 0.41284697370079432 -0.2782971556212297 0 0.41113464432764291 -0.28683687095609128 0 0.41975251852593748 -0.28445801958006911 0 0.41113464432764291 -0.28683687095609128 0 0.41975251852593748 -0.28445801958006911 0 0.41710028749217543 -0.29373719746223742 0 0.42651213435721103 -0.29151489344350012 0 0.41975251852593748 -0.28445801958006911 0 0.41710028749217543 -0.29373719746223742 0 0.44904225237101492 -0.50000000000000033 0 0.45004401508161579 -0.4787570704506926 0 0.43421240961939139 -0.49999999999999972 0 0.44904225237101492 -0.50000000000000033 0 0.45004401508161579 -0.4787570704506926 0 0.45004401508161579 -0.4787570704506926 0 0.43065669488015018 -0.48070599894378141 0 0.43421240961939139 -0.49999999999999972 0 0.45004401508161579 -0.4787570704506926 0 0.43566071353235342 -0.46355264343579089 0 0.43065669488015018 -0.48070599894378141 0 0.45004401508161579 -0.4787570704506926 0 0.47115653038696198 -0.47458122981084161 0 0.46628057992027361 -0.46016057875321997 0 0.44904225237101492 -0.50000000000000033 0 0.45004401508161579 -0.4787570704506926 0 0.47115653038696198 -0.47458122981084161 0 0.5 -0.5 0 0.47115653038696198 -0.47458122981084161 0 0.5 -0.45186915055015731 0 0.44904225237101492 -0.50000000000000033 0 0.5 -0.5 0 0.47115653038696198 -0.47458122981084161 0 0.47115653038696198 -0.47458122981084161 0 0.48077102025797452 -0.45549611643706822 0 0.46628057992027361 -0.46016057875321997 0 0.47115653038696198 -0.47458122981084161 0 0.48077102025797452 -0.45549611643706822 0 0.47115653038696198 -0.47458122981084161 0 0.48077102025797452 -0.45549611643706822 0 0.5 -0.45186915055015731 0 0.48077102025797452 -0.45549611643706822 0 0.47047881694724669 -0.44903457528364688 0 0.46628057992027361 -0.46016057875321997 0 0.48077102025797452 -0.45549611643706822 0 0.49038551012898701 -0.43641100306329461 0 0.48077102025797452 -0.45549611643706822 0 0.5 -0.45186915055015731 0 0.49038551012898701 -0.43641100306329461 0 0.48077102025797452 -0.45549611643706822 0 0.47754833864438551 -0.44218946840133899 0 0.49038551012898701 -0.43641100306329461 0 0.48077102025797452 -0.45549611643706822 0 0.47754833864438551 -0.44218946840133899 0 0.47047881694724669 -0.44903457528364688 0 0.47754833864438551 -0.44218946840133899 0 0.47047881694724669 -0.44903457528364688 0 0.46852552080992549 -0.44048839695443598 0 0.45926862510367472 -0.44683831587217138 0 0.45104577779221661 -0.45751414090138481 0 0.45204754050281742 -0.43627121135207708 0 0.46852552080992549 -0.44048839695443598 0 0.45926862510367472 -0.44683831587217138 0 0.46246741514551631 -0.43660855176593799 0 0.45926862510367472 -0.44683831587217138 0 0.45204754050281742 -0.43627121135207708 0 0.46246741514551631 -0.43660855176593799 0 0.47047881694724669 -0.44903457528364688 0 0.46852552080992549 -0.44048839695443598 0 0.45926862510367472 -0.44683831587217138 0 0.47047881694724669 -0.44903457528364688 0 0.45926862510367472 -0.44683831587217138 0 0.46628057992027361 -0.46016057875321997 0 0.45004401508161579 -0.4787570704506926 0 0.46628057992027361 -0.46016057875321997 0 0.45104577779221661 -0.45751414090138481 0 0.45926862510367472 -0.44683831587217138 0 0.46628057992027361 -0.46016057875321997 0 0.45104577779221661 -0.45751414090138481 0 0.45004401508161579 -0.4787570704506926 0 0.45104577779221661 -0.45751414090138481 0 0.43566071353235342 -0.46355264343579089 0 0.45004401508161579 -0.4787570704506926 0 0.45104577779221661 -0.45751414090138481 0 0.45104577779221661 -0.45751414090138481 0 0.43823690162582152 -0.442656551615 0 0.43566071353235342 -0.46355264343579089 0 0.45104577779221661 -0.45751414090138481 0 0.45204754050281742 -0.43627121135207708 0 0.45104577779221661 -0.45751414090138481 0 0.43823690162582152 -0.442656551615 0 0.45204754050281742 -0.43627121135207708 0 0.45430136434918972 -0.42968477721519488 0 0.43040870373640522 -0.42960949699457918 0 0.4445886017928069 -0.41946726592624312 0 0.45430136434918972 -0.42968477721519488 0 0.43040870373640522 -0.42960949699457918 0 0.43823690162582152 -0.442656551615 0 0.45204754050281742 -0.43627121135207708 0 0.43040870373640522 -0.42960949699457918 0 0.45204754050281742 -0.43627121135207708 0 0.45430136434918972 -0.42968477721519488 0 0.43040870373640522 -0.42960949699457918 0 0.4445886017928069 -0.41946726592624312 0 0.45626400488001012 -0.41852232274223139 0 0.45430136434918972 -0.42968477721519488 0 0.4445886017928069 -0.41946726592624312 0 0.45030067759957459 -0.40920304056939583 0 0.43607093377631329 -0.40042142092979582 0 0.4445886017928069 -0.41946726592624312 0 0.45030067759957459 -0.40920304056939583 0 0.45626400488001012 -0.41852232274223139 0 0.45030067759957459 -0.40920304056939583 0 0.45626400488001012 -0.41852232274223139 0 0.46461227738567717 -0.40399461877989912 0 0.45626400488001012 -0.41852232274223139 0 0.46727733630446061 -0.4192115361233813 0 0.46461227738567717 -0.40399461877989912 0 0.45430136434918972 -0.42968477721519488 0 0.47819402496197411 -0.42976005743581058 0 0.46727733630446061 -0.4192115361233813 0 0.45430136434918972 -0.42968477721519488 0 0.47819402496197411 -0.42976005743581058 0 0.45430136434918972 -0.42968477721519488 0 0.46246741514551631 -0.43660855176593799 0 0.47819402496197411 -0.42976005743581058 0 0.45626400488001012 -0.41852232274223139 0 0.46727733630446061 -0.4192115361233813 0 0.45430136434918972 -0.42968477721519488 0 0.45204754050281742 -0.43627121135207708 0 0.45430136434918972 -0.42968477721519488 0 0.46246741514551631 -0.43660855176593799 0 0.5 -0.45186915055015731 0 0.49038551012898701 -0.43641100306329461 0 0.49999999999999978 -0.41732588968952122 0 0.47754833864438551 -0.44218946840133899 0 0.46852552080992549 -0.44048839695443598 0 0.47819402496197411 -0.42976005743581058 0 0.46852552080992549 -0.44048839695443598 0 0.46246741514551631 -0.43660855176593799 0 0.47819402496197411 -0.42976005743581058 0 0.47754833864438551 -0.44218946840133899 0 0.47819402496197411 -0.42976005743581058 0 0.49038551012898701 -0.43641100306329461 0 0.47819402496197411 -0.42976005743581058 0 0.49038551012898701 -0.43641100306329461 0 0.49999999999999978 -0.41732588968952122 0 0.49038551012898701 -0.43641100306329461 0 0.49999999999999978 -0.41732588968952122 0 0.49999999999999978 -0.41732588968952122 0 0.47803026485536992 -0.41388491951904732 0 0.48349128744616809 -0.3981477611786608 0 0.47819402496197411 -0.42976005743581058 0 0.49999999999999978 -0.41732588968952122 0 0.47803026485536992 -0.41388491951904732 0 0.46727733630446061 -0.4192115361233813 0 0.47819402496197411 -0.42976005743581058 0 0.47803026485536992 -0.41388491951904732 0 0.46727733630446061 -0.4192115361233813 0 0.47803026485536992 -0.41388491951904732 0 0.46461227738567717 -0.40399461877989912 0 0.47803026485536992 -0.41388491951904732 0 0.48349128744616809 -0.3981477611786608 0 0.46461227738567717 -0.40399461877989912 0 0.48349128744616809 -0.3981477611786608 0 0.47209620213241288 -0.38662220816109938 0 0.46461227738567717 -0.40399461877989912 0 0.49999999999999978 -0.41732588968952122 0 0.48349128744616809 -0.3981477611786608 0 0.5 -0.38787887063999699 0 0.48349128744616809 -0.3981477611786608 0 0.48620898030354948 -0.37918006028240092 0 0.5 -0.38787887063999699 0 0.5 -0.35843185159047292 0 0.48620898030354948 -0.37918006028240092 0 0.5 -0.38787887063999699 0 0.47350757658922271 -0.36952329647287657 0 0.47209620213241288 -0.38662220816109938 0 0.46271268513135372 -0.37747780338012438 0 0.48349128744616809 -0.3981477611786608 0 0.48620898030354948 -0.37918006028240092 0 0.47209620213241288 -0.38662220816109938 0 0.47350757658922271 -0.36952329647287657 0 0.48620898030354948 -0.37918006028240092 0 0.47209620213241288 -0.38662220816109938 0 0.46271268513135372 -0.37747780338012438 0 0.45744681408336407 -0.38575639722006821 0 0.45189505467726382 -0.37680202485208381 0 0.47209620213241288 -0.38662220816109938 0 0.46271268513135372 -0.37747780338012438 0 0.45744681408336407 -0.38575639722006821 0 0.47209620213241288 -0.38662220816109938 0 0.45744681408336407 -0.38575639722006821 0 0.46461227738567717 -0.40399461877989912 0 0.45744681408336407 -0.38575639722006821 0 0.46461227738567717 -0.40399461877989912 0 0.45184219469928433 -0.39789486874989249 0 0.45030067759957459 -0.40920304056939583 0 0.46461227738567717 -0.40399461877989912 0 0.45184219469928433 -0.39789486874989249 0 0.45030067759957459 -0.40920304056939583 0 0.45184219469928433 -0.39789486874989249 0 0.43607093377631329 -0.40042142092979582 0 0.45184219469928433 -0.39789486874989249 0 0.44708058619903079 -0.38729405048447457 0 0.43607093377631329 -0.40042142092979582 0 0.44173316381622191 -0.37123334486501253 0 0.45189505467726382 -0.37680202485208381 0 0.44708058619903079 -0.38729405048447457 0 0.44173316381622191 -0.37123334486501253 0 0.44708058619903079 -0.38729405048447457 0 0.43607093377631329 -0.40042142092979582 0 0.44173316381622191 -0.37123334486501253 0 0.43607093377631329 -0.40042142092979582 0 0.45744681408336407 -0.38575639722006821 0 0.45189505467726382 -0.37680202485208381 0 0.44708058619903079 -0.38729405048447457 0 0.45744681408336407 -0.38575639722006821 0 0.45184219469928433 -0.39789486874989249 0 0.44708058619903079 -0.38729405048447457 0 0.44173316381622191 -0.37123334486501253 0 0.43018656974337233 -0.3834847830435818 0 0.43607093377631329 -0.40042142092979582 0 0.42661372489006832 -0.37330916830292271 0 0.43018656974337233 -0.3834847830435818 0 0.41571052833623512 -0.38186572013688852 0 0.43792231759094602 -0.36891862507496959 0 0.42661372489006832 -0.37330916830292271 0 0.43018656974337233 -0.3834847830435818 0 0.43607093377631329 -0.40042142092979582 0 0.41370439676437609 -0.3974940894908795 0 0.41981869584763148 -0.41440516100429259 0 0.43018656974337233 -0.3834847830435818 0 0.43607093377631329 -0.40042142092979582 0 0.41370439676437609 -0.3974940894908795 0 0.43018656974337233 -0.3834847830435818 0 0.41370439676437609 -0.3974940894908795 0 0.41571052833623512 -0.38186572013688852 0 0.41370439676437609 -0.3974940894908795 0 0.41571052833623512 -0.38186572013688852 0 0.40109715774397792 -0.38275058451944882 0 0.42661372489006832 -0.37330916830292271 0 0.40978735765452701 -0.3715350174533486 0 0.41571052833623512 -0.38186572013688852 0 0.40978735765452701 -0.3715350174533486 0 0.41571052833623512 -0.38186572013688852 0 0.40109715774397792 -0.38275058451944882 0 0.40109715774397792 -0.38275058451944882 0 0.38240798480570892 -0.37852010314408679 0 0.38863111647644599 -0.40400878815621749 0 0.38240798480570892 -0.37852010314408679 0 0.38863111647644599 -0.40400878815621749 0 0.38863111647644599 -0.40400878815621749 0 0.37176003243497441 -0.40998872043702711 0 0.36795612070160122 -0.3943037227883871 0 0.38240798480570892 -0.37852010314408679 0 0.38863111647644599 -0.40400878815621749 0 0.36795612070160122 -0.3943037227883871 0 0.41370439676437609 -0.3974940894908795 0 0.38863111647644599 -0.40400878815621749 0 0.4062779690192711 -0.41494731252474337 0 0.41370439676437609 -0.3974940894908795 0 0.40109715774397792 -0.38275058451944882 0 0.38863111647644599 -0.40400878815621749 0 0.38863111647644599 -0.40400878815621749 0 0.39485424814717818 -0.42949747316834941 0 0.4062779690192711 -0.41494731252474337 0 0.38863111647644599 -0.40400878815621749 0 0.39485424814717818 -0.42949747316834941 0 0.38863111647644599 -0.40400878815621749 0 0.38208767645140901 -0.41911042656524472 0 0.37176003243497441 -0.40998872043702711 0 0.38863111647644599 -0.40400878815621749 0 0.38208767645140901 -0.41911042656524472 0 0.39485424814717818 -0.42949747316834941 0 0.39485424814717818 -0.42949747316834941 0 0.36925590453949608 -0.42941681873704168 0 0.37665443888321409 -0.43729346785436302 0 0.3856757983069049 -0.43577025519560952 0 0.36925590453949608 -0.42941681873704168 0 0.3856757983069049 -0.43577025519560952 0 0.39485424814717818 -0.42949747316834941 0 0.36925590453949608 -0.42941681873704168 0 0.38208767645140901 -0.41911042656524472 0 0.39485424814717818 -0.42949747316834941 0 0.36925590453949608 -0.42941681873704168 0 0.39485424814717818 -0.42949747316834941 0 0.41263147594179173 -0.42955348508146501 0 0.3970599418841867 -0.43853154730823468 0 0.39485424814717818 -0.42949747316834941 0 0.41263147594179173 -0.42955348508146501 0 0.39485424814717818 -0.42949747316834941 0 0.3970599418841867 -0.43853154730823468 0 0.3856757983069049 -0.43577025519560952 0 0.39485424814717818 -0.42949747316834941 0 0.3970599418841867 -0.43853154730823468 0 0.39485424814717818 -0.42949747316834941 0 0.41263147594179173 -0.42955348508146501 0 0.4062779690192711 -0.41494731252474337 0 0.41263147594179173 -0.42955348508146501 0 0.43040870373640522 -0.42960949699457918 0 0.41263147594179173 -0.42955348508146501 0 0.43040870373640522 -0.42960949699457918 0 0.4105733347589578 -0.4439764995731092 0 0.41263147594179173 -0.42955348508146501 0 0.4105733347589578 -0.4439764995731092 0 0.3970599418841867 -0.43853154730823468 0 0.41263147594179173 -0.42955348508146501 0 0.41981869584763148 -0.41440516100429259 0 0.43040870373640522 -0.42960949699457918 0 0.41370439676437609 -0.3974940894908795 0 0.4062779690192711 -0.41494731252474337 0 0.41981869584763148 -0.41440516100429259 0 0.41263147594179173 -0.42955348508146501 0 0.4062779690192711 -0.41494731252474337 0 0.41981869584763148 -0.41440516100429259 0 0.43607093377631329 -0.40042142092979582 0 0.41981869584763148 -0.41440516100429259 0 0.43040870373640522 -0.42960949699457918 0 0.4445886017928069 -0.41946726592624312 0 0.43607093377631329 -0.40042142092979582 0 0.43040870373640522 -0.42960949699457918 0 0.43607093377631329 -0.40042142092979582 0 0.43040870373640522 -0.42960949699457918 0 0.43040870373640522 -0.42960949699457918 0 0.42609808641601882 -0.45183018130920338 0 0.43823690162582152 -0.442656551615 0 0.43040870373640522 -0.42960949699457918 0 0.42609808641601882 -0.45183018130920338 0 0.43040870373640522 -0.42960949699457918 0 0.42609808641601882 -0.45183018130920338 0 0.4105733347589578 -0.4439764995731092 0 0.43823690162582152 -0.442656551615 0 0.42609808641601882 -0.45183018130920338 0 0.43566071353235342 -0.46355264343579089 0 0.42609808641601882 -0.45183018130920338 0 0.43566071353235342 -0.46355264343579089 0 0.41788280539829797 -0.46985191739468413 0 0.42609808641601882 -0.45183018130920338 0 0.40695414576950523 -0.45771744581404522 0 0.41788280539829797 -0.46985191739468413 0 0.42609808641601882 -0.45183018130920338 0 0.40695414576950523 -0.45771744581404522 0 0.4105733347589578 -0.4439764995731092 0 0.4105733347589578 -0.4439764995731092 0 0.39721761528731692 -0.45119552741579683 0 0.3970599418841867 -0.43853154730823468 0 0.40695414576950523 -0.45771744581404522 0 0.4105733347589578 -0.4439764995731092 0 0.39721761528731692 -0.45119552741579683 0 0.39721761528731692 -0.45119552741579683 0 0.3970599418841867 -0.43853154730823468 0 0.3848034700195111 -0.44451211479328562 0 0.3856757983069049 -0.43577025519560952 0 0.3970599418841867 -0.43853154730823468 0 0.3848034700195111 -0.44451211479328562 0 0.37665443888321409 -0.43729346785436302 0 0.3856757983069049 -0.43577025519560952 0 0.3848034700195111 -0.44451211479328562 0 0.3848034700195111 -0.44451211479328562 0 0.39015981315766812 -0.47191920641734841 0 0.36813351492680652 -0.4578788096260229 0 0.39015981315766812 -0.47191920641734841 0 0.36813351492680652 -0.4578788096260229 0 0.39721761528731692 -0.45119552741579683 0 0.3848034700195111 -0.44451211479328562 0 0.39015981315766812 -0.47191920641734841 0 0.40695414576950523 -0.45771744581404522 0 0.39721761528731692 -0.45119552741579683 0 0.39015981315766812 -0.47191920641734841 0 0.40695414576950523 -0.45771744581404522 0 0.39015981315766812 -0.47191920641734841 0 0.41788280539829797 -0.46985191739468413 0 0.39015981315766812 -0.47191920641734841 0 0.39617150827203812 -0.48844435240108153 0 0.41218611138852979 -0.48595960320867387 0 0.39015981315766812 -0.47191920641734841 0 0.41218611138852979 -0.48595960320867387 0 0.39015981315766812 -0.47191920641734841 0 0.37999710445162738 -0.5 0 0.36111942344273912 -0.48004186837267743 0 0.39015981315766812 -0.47191920641734841 0 0.37999710445162738 -0.5 0 0.39617150827203812 -0.48844435240108153 0 0.37999710445162738 -0.5 0 0.39617150827203812 -0.48844435240108153 0 0.40710475703550941 -0.5 0 0.39617150827203812 -0.48844435240108153 0 0.40710475703550941 -0.5 0 0.41218611138852979 -0.48595960320867387 0 0.40710475703550941 -0.5 0 0.41218611138852979 -0.48595960320867387 0 0.43421240961939139 -0.49999999999999972 0 0.41218611138852979 -0.48595960320867387 0 0.41788280539829797 -0.46985191739468413 0 0.43065669488015018 -0.48070599894378141 0 0.39015981315766812 -0.47191920641734841 0 0.41218611138852979 -0.48595960320867387 0 0.41788280539829797 -0.46985191739468413 0 0.43566071353235342 -0.46355264343579089 0 0.41788280539829797 -0.46985191739468413 0 0.43065669488015018 -0.48070599894378141 0 0.41218611138852979 -0.48595960320867387 0 0.43421240961939139 -0.49999999999999972 0 0.41218611138852979 -0.48595960320867387 0 0.43065669488015018 -0.48070599894378141 0 0.43421240961939139 -0.49999999999999972 0 0.32562102085959999 -0.49962517918909338 0 0.3188650930646052 -0.49384015059516778 0 0.30906313459206908 -0.49999999999999822 0 0.3188650930646052 -0.49384015059516778 0 0.31537357137569311 -0.47573542319158041 0 0.30906313459206908 -0.49999999999999822 0 0.32562102085959999 -0.49962517918909338 0 0.3188650930646052 -0.49384015059516778 0 0.31537357137569311 -0.47573542319158041 0 0.32562102085959999 -0.49962517918909338 0 0.31537357137569311 -0.47573542319158041 0 0.32562102085959999 -0.49962517918909338 0 0.32705189356582531 -0.47758756671950892 0 0.31537357137569311 -0.47573542319158041 0 0.32705189356582531 -0.47758756671950892 0 0.31537357137569311 -0.47573542319158041 0 0.32731070687432662 -0.45987691031431599 0 0.32705189356582531 -0.47758756671950892 0 0.33990227515368221 -0.47511275418304622 0 0.32731070687432662 -0.45987691031431599 0 0.32562102085959999 -0.49962517918909338 0 0.32705189356582531 -0.47758756671950892 0 0.33990227515368221 -0.47511275418304622 0 0.32562102085959999 -0.49962517918909338 0 0.33990227515368221 -0.47511275418304622 0 0.32562102085959999 -0.49962517918909338 0 0.33990227515368221 -0.47511275418304622 0 0.33937333261091801 -0.49122101923177458 0 0.32562102085959999 -0.49962517918909338 0 0.33937333261091801 -0.49122101923177458 0 0.35288945186774517 -0.5 0 0.33937333261091801 -0.49122101923177458 0 0.35288945186774517 -0.5 0 0.36111942344273912 -0.48004186837267743 0 0.37999710445162738 -0.5 0 0.35288945186774517 -0.5 0 0.36111942344273912 -0.48004186837267743 0 0.39015981315766812 -0.47191920641734841 0 0.36111942344273912 -0.48004186837267743 0 0.36813351492680652 -0.4578788096260229 0 0.33990227515368221 -0.47511275418304622 0 0.33937333261091801 -0.49122101923177458 0 0.36111942344273912 -0.48004186837267743 0 0.33990227515368221 -0.47511275418304622 0 0.36111942344273912 -0.48004186837267743 0 0.35583468574274812 -0.46590844033968648 0 0.33990227515368221 -0.47511275418304622 0 0.35418352944776488 -0.45060032917699938 0 0.33990227515368221 -0.47511275418304622 0 0.35418352944776488 -0.45060032917699938 0 0.340093026771697 -0.45737760876331679 0 0.33990227515368221 -0.47511275418304622 0 0.35583468574274812 -0.46590844033968648 0 0.35418352944776488 -0.45060032917699938 0 0.36111942344273912 -0.48004186837267743 0 0.35583468574274812 -0.46590844033968648 0 0.36813351492680652 -0.4578788096260229 0 0.35583468574274812 -0.46590844033968648 0 0.36813351492680652 -0.4578788096260229 0 0.35418352944776488 -0.45060032917699938 0 0.3848034700195111 -0.44451211479328562 0 0.36813351492680652 -0.4578788096260229 0 0.36188953281526259 -0.44421627808609571 0 0.3848034700195111 -0.44451211479328562 0 0.36188953281526259 -0.44421627808609571 0 0.37665443888321409 -0.43729346785436302 0 0.3848034700195111 -0.44451211479328562 0 0.36188953281526259 -0.44421627808609571 0 0.36813351492680652 -0.4578788096260229 0 0.36188953281526259 -0.44421627808609571 0 0.35418352944776488 -0.45060032917699938 0 0.36188953281526259 -0.44421627808609571 0 0.33897559561101431 -0.44392044137890579 0 0.34365756093181399 -0.42933616430573279 0 0.36188953281526259 -0.44421627808609571 0 0.33897559561101431 -0.44392044137890579 0 0.36188953281526259 -0.44421627808609571 0 0.35418352944776488 -0.45060032917699938 0 0.33897559561101431 -0.44392044137890579 0 0.35418352944776488 -0.45060032917699938 0 0.33897559561101431 -0.44392044137890579 0 0.340093026771697 -0.45737760876331679 0 0.33990227515368221 -0.47511275418304622 0 0.340093026771697 -0.45737760876331679 0 0.32731070687432662 -0.45987691031431599 0 0.33897559561101431 -0.44392044137890579 0 0.340093026771697 -0.45737760876331679 0 0.32731070687432662 -0.45987691031431599 0 0.31537357137569311 -0.47573542319158041 0 0.32731070687432662 -0.45987691031431599 0 0.31637589709399738 -0.45542627657340667 0 0.33897559561101431 -0.44392044137890579 0 0.31606165840676581 -0.44362460467171588 0 0.31637589709399738 -0.45542627657340667 0 0.31606165840676581 -0.44362460467171588 0 0.30512612189178517 -0.45184566719406782 0 0.33897559561101431 -0.44392044137890579 0 0.32731070687432662 -0.45987691031431599 0 0.31606165840676581 -0.44362460467171588 0 0.33897559561101431 -0.44392044137890579 0 0.31606165840676581 -0.44362460467171588 0 0.32817533568345891 -0.437405088827024 0 0.32731070687432662 -0.45987691031431599 0 0.31637589709399738 -0.45542627657340667 0 0.31606165840676581 -0.44362460467171588 0 0.31606165840676581 -0.44362460467171588 0 0.31805921732413212 -0.42925550987442379 0 0.32817533568345891 -0.437405088827024 0 0.31606165840676581 -0.44362460467171588 0 0.31805921732413212 -0.42925550987442379 0 0.30493236766246812 -0.436345934488445 0 0.31985940292529941 -0.41295447671329732 0 0.31075796009052831 -0.39572085063997808 0 0.30888278388740348 -0.41521004381282178 0 0.31805921732413212 -0.42925550987442379 0 0.31985940292529941 -0.41295447671329732 0 0.33113555781690102 -0.41904522338276579 0 0.31805921732413212 -0.42925550987442379 0 0.31985940292529941 -0.41295447671329732 0 0.30888278388740348 -0.41521004381282178 0 0.31985940292529941 -0.41295447671329732 0 0.33113555781690102 -0.41904522338276579 0 0.33046149550753229 -0.40554075585649679 0 0.33113555781690102 -0.41904522338276579 0 0.34241547994114269 -0.41362446478144221 0 0.34365756093181399 -0.42933616430573279 0 0.33113555781690102 -0.41904522338276579 0 0.34241547994114269 -0.41362446478144221 0 0.33046149550753229 -0.40554075585649679 0 0.31805921732413212 -0.42925550987442379 0 0.34365756093181399 -0.42933616430573279 0 0.32817533568345891 -0.437405088827024 0 0.31805921732413212 -0.42925550987442379 0 0.33113555781690102 -0.41904522338276579 0 0.34365756093181399 -0.42933616430573279 0 0.31805921732413212 -0.42925550987442379 0 0.34365756093181399 -0.42933616430573279 0 0.33897559561101431 -0.44392044137890579 0 0.34365756093181399 -0.42933616430573279 0 0.32817533568345891 -0.437405088827024 0 0.34365756093181399 -0.42933616430573279 0 0.36925590453949608 -0.42941681873704168 0 0.35674230937501078 -0.41217086121041902 0 0.34365756093181399 -0.42933616430573279 0 0.36925590453949608 -0.42941681873704168 0 0.36188953281526259 -0.44421627808609571 0 0.34365756093181399 -0.42933616430573279 0 0.36925590453949608 -0.42941681873704168 0 0.37665443888321409 -0.43729346785436302 0 0.36188953281526259 -0.44421627808609571 0 0.36925590453949608 -0.42941681873704168 0 0.38208767645140901 -0.41911042656524472 0 0.36925590453949608 -0.42941681873704168 0 0.37176003243497441 -0.40998872043702711 0 0.36925590453949608 -0.42941681873704168 0 0.37176003243497441 -0.40998872043702711 0 0.35674230937501078 -0.41217086121041902 0 0.34241547994114269 -0.41362446478144221 0 0.35674230937501078 -0.41217086121041902 0 0.34647936393220441 -0.39402114553103817 0 0.34241547994114269 -0.41362446478144221 0 0.34365756093181399 -0.42933616430573279 0 0.35674230937501078 -0.41217086121041902 0 0.35674230937501078 -0.41217086121041902 0 0.34647936393220441 -0.39402114553103817 0 0.36795612070160122 -0.3943037227883871 0 0.37176003243497441 -0.40998872043702711 0 0.35674230937501078 -0.41217086121041902 0 0.36795612070160122 -0.3943037227883871 0 0.38240798480570892 -0.37852010314408679 0 0.36795612070160122 -0.3943037227883871 0 0.3567457423339877 -0.37092962175819427 0 0.34647936393220441 -0.39402114553103817 0 0.33846966771265258 -0.37695460337982112 0 0.3567457423339877 -0.37092962175819427 0 0.34647936393220441 -0.39402114553103817 0 0.36795612070160122 -0.3943037227883871 0 0.3567457423339877 -0.37092962175819427 0 0.34647936393220441 -0.39402114553103817 0 0.33846966771265258 -0.37695460337982112 0 0.3263508617172054 -0.38750488125084709 0 0.34241547994114269 -0.41362446478144221 0 0.34647936393220441 -0.39402114553103817 0 0.33046149550753229 -0.40554075585649679 0 0.34647936393220441 -0.39402114553103817 0 0.33046149550753229 -0.40554075585649679 0 0.3263508617172054 -0.38750488125084709 0 0.33046149550753229 -0.40554075585649679 0 0.3263508617172054 -0.38750488125084709 0 0.31075796009052831 -0.39572085063997808 0 0.31985940292529941 -0.41295447671329732 0 0.33046149550753229 -0.40554075585649679 0 0.31075796009052831 -0.39572085063997808 0 0.3263508617172054 -0.38750488125084709 0 0.3096773386499212 -0.3813243078888065 0 0.31075796009052831 -0.39572085063997808 0 0.33846966771265258 -0.37695460337982112 0 0.3263508617172054 -0.38750488125084709 0 0.31915821050206972 -0.37043664262910392 0 0.3263508617172054 -0.38750488125084709 0 0.3096773386499212 -0.3813243078888065 0 0.31915821050206972 -0.37043664262910392 0 0.3096773386499212 -0.3813243078888065 0 0.29526372343335222 -0.38214642848390951 0 0.29938815419514908 -0.36235191135060729 0 0.3096773386499212 -0.3813243078888065 0 0.31075796009052831 -0.39572085063997808 0 0.29526372343335222 -0.38214642848390951 0 0.31075796009052831 -0.39572085063997808 0 0.29178274806564442 -0.41520067436951369 0 0.31075796009052831 -0.39572085063997808 0 0.29113929267155558 -0.40194094561721161 0 0.29526372343335222 -0.38214642848390951 0 0.31075796009052831 -0.39572085063997808 0 0.29113929267155558 -0.40194094561721161 0 0.29178274806564442 -0.41520067436951369 0 0.29113929267155558 -0.40194094561721161 0 0.29526372343335222 -0.38214642848390951 0 0.29096903481361719 -0.39843243044280019 0 0.28318981538834798 -0.39262896962206201 0 0.29526372343335222 -0.38214642848390951 0 0.29096903481361719 -0.39843243044280019 0 0.29113929267155558 -0.40194094561721161 0 0.29526372343335222 -0.38214642848390951 0 0.29096903481361719 -0.39843243044280019 0 0.29113929267155558 -0.40194094561721161 0 0.28502919674291388 -0.40062006331372729 0 0.27798512017272892 -0.40082089003652099 0 0.28264635626051132 -0.40952105626625152 0 0.29113929267155558 -0.40194094561721161 0 0.28502919674291388 -0.40062006331372729 0 0.28264635626051132 -0.40952105626625152 0 0.29096903481361719 -0.39843243044280019 0 0.29113929267155558 -0.40194094561721161 0 0.28502919674291388 -0.40062006331372729 0 0.28502919674291388 -0.40062006331372729 0 0.28318981538834798 -0.39262896962206201 0 0.27798512017272892 -0.40082089003652099 0 0.29096903481361719 -0.39843243044280019 0 0.28502919674291388 -0.40062006331372729 0 0.28318981538834798 -0.39262896962206201 0 0.28318981538834798 -0.39262896962206201 0 0.29526372343335222 -0.38214642848390951 0 0.27569670368188232 -0.38326726020642471 0 0.29526372343335222 -0.38214642848390951 0 0.27569670368188232 -0.38326726020642471 0 0.2822483272805178 -0.36575990941074382 0 0.28318981538834798 -0.39262896962206201 0 0.27569670368188232 -0.38326726020642471 0 0.27140133813572248 -0.39438652514112071 0 0.27569670368188232 -0.38326726020642471 0 0.26161541147981399 -0.38825456187999341 0 0.27140133813572248 -0.39438652514112071 0 0.27569670368188232 -0.38326726020642471 0 0.26161541147981399 -0.38825456187999341 0 0.26273855981799532 -0.37402085189451678 0 0.26161541147981399 -0.38825456187999341 0 0.26273855981799532 -0.37402085189451678 0 0.2462658744323834 -0.38197959250061342 0 0.26161541147981399 -0.38825456187999341 0 0.25113336278303172 -0.39639034007073559 0 0.2462658744323834 -0.38197959250061342 0 0.25113336278303172 -0.39639034007073559 0 0.25834465052961392 -0.41196496969487773 0 0.2415255849161019 -0.40609463635975013 0 0.25113336278303172 -0.39639034007073559 0 0.26281084462470111 -0.3998352336856334 0 0.25834465052961392 -0.41196496969487773 0 0.26161541147981399 -0.38825456187999341 0 0.25113336278303172 -0.39639034007073559 0 0.26281084462470111 -0.3998352336856334 0 0.26161541147981399 -0.38825456187999341 0 0.26281084462470111 -0.3998352336856334 0 0.27140133813572248 -0.39438652514112071 0 0.26281084462470111 -0.3998352336856334 0 0.27081663500811198 -0.40520008615658132 0 0.25834465052961392 -0.41196496969487773 0 0.27081663500811198 -0.40520008615658132 0 0.27140133813572248 -0.39438652514112071 0 0.27798512017272892 -0.40082089003652099 0 0.26281084462470111 -0.3998352336856334 0 0.27081663500811198 -0.40520008615658132 0 0.27140133813572248 -0.39438652514112071 0 0.28318981538834798 -0.39262896962206201 0 0.27140133813572248 -0.39438652514112071 0 0.27798512017272892 -0.40082089003652099 0 0.27081663500811198 -0.40520008615658132 0 0.27798512017272892 -0.40082089003652099 0 0.28264635626051132 -0.40952105626625152 0 0.27081663500811198 -0.40520008615658132 0 0.27206571492222681 -0.41502427433416672 0 0.28264635626051132 -0.40952105626625152 0 0.27844475086434628 -0.42008249968918893 0 0.27206571492222681 -0.41502427433416672 0 0.28264635626051132 -0.40952105626625152 0 0.26660164492473198 -0.42150218520744809 0 0.27206571492222681 -0.41502427433416672 0 0.25834465052961392 -0.41196496969487773 0 0.27844475086434628 -0.42008249968918893 0 0.26660164492473198 -0.42150218520744809 0 0.27206571492222681 -0.41502427433416672 0 0.27081663500811198 -0.40520008615658132 0 0.27206571492222681 -0.41502427433416672 0 0.25834465052961392 -0.41196496969487773 0 0.25834465052961392 -0.41196496969487773 0 0.25675938249820729 -0.42906236834179229 0 0.24471655788437549 -0.41836465708289111 0 0.26660164492473198 -0.42150218520744809 0 0.25834465052961392 -0.41196496969487773 0 0.25675938249820729 -0.42906236834179229 0 0.25675938249820729 -0.42906236834179229 0 0.26225826081895931 -0.43553163761717179 0 0.24937758952868769 -0.43582476186075059 0 0.25675938249820729 -0.42906236834179229 0 0.26225826081895931 -0.43553163761717179 0 0.26930167735914629 -0.4333880303452663 0 0.25675938249820729 -0.42906236834179229 0 0.27821428364315981 -0.42912996774889278 0 0.26930167735914629 -0.4333880303452663 0 0.27111210296809168 -0.43642101817110968 0 0.27821428364315981 -0.42912996774889278 0 0.25675938249820729 -0.42906236834179229 0 0.26930167735914629 -0.4333880303452663 0 0.27821428364315981 -0.42912996774889278 0 0.26660164492473198 -0.42150218520744809 0 0.25675938249820729 -0.42906236834179229 0 0.27821428364315981 -0.42912996774889278 0 0.26225826081895931 -0.43553163761717179 0 0.26930167735914629 -0.4333880303452663 0 0.27111210296809168 -0.43642101817110968 0 0.26930167735914629 -0.4333880303452663 0 0.27111210296809168 -0.43642101817110968 0 0.27844475086434628 -0.42008249968918893 0 0.26660164492473198 -0.42150218520744809 0 0.27821428364315981 -0.42912996774889278 0 0.27111210296809168 -0.43642101817110968 0 0.27821428364315981 -0.42912996774889278 0 0.27851784514164207 -0.43605140350369348 0 0.27111210296809168 -0.43642101817110968 0 0.27821428364315981 -0.42912996774889278 0 0.27821428364315981 -0.42912996774889278 0 0.27851784514164207 -0.43605140350369348 0 0.28546936300596981 -0.42915282681778749 0 0.28546936300596981 -0.42915282681778749 0 0.28269717206150108 -0.44245749461713091 0 0.27851784514164207 -0.43605140350369348 0 0.28546936300596981 -0.42915282681778749 0 0.28269717206150108 -0.44245749461713091 0 0.28844378249660962 -0.43602848621063972 0 0.28546936300596981 -0.42915282681778749 0 0.28269717206150108 -0.44245749461713091 0 0.28844378249660962 -0.43602848621063972 0 0.29246087371645019 -0.42917485544311462 0 0.28546936300596981 -0.42915282681778749 0 0.28844378249660962 -0.43602848621063972 0 0.29246087371645019 -0.42917485544311462 0 0.29314772120251731 -0.44332876796452603 0 0.29246087371645019 -0.42917485544311462 0 0.29314772120251731 -0.44332876796452603 0 0.29246087371645019 -0.42917485544311462 0 0.30493236766246812 -0.436345934488445 0 0.29314772120251731 -0.44332876796452603 0 0.29246087371645019 -0.42917485544311462 0 0.29178274806564442 -0.41520067436951369 0 0.29246087371645019 -0.42917485544311462 0 0.29178274806564442 -0.41520067436951369 0 0.30279640574840933 -0.42221027087496837 0 0.27821428364315981 -0.42912996774889278 0 0.28546936300596981 -0.42915282681778749 0 0.28744958810085658 -0.4196490669458563 0 0.28546936300596981 -0.42915282681778749 0 0.28744958810085658 -0.4196490669458563 0 0.29246087371645019 -0.42917485544311462 0 0.28546936300596981 -0.42915282681778749 0 0.28744958810085658 -0.4196490669458563 0 0.27821428364315981 -0.42912996774889278 0 0.28744958810085658 -0.4196490669458563 0 0.27844475086434628 -0.42008249968918893 0 0.27821428364315981 -0.42912996774889278 0 0.28744958810085658 -0.4196490669458563 0 0.29246087371645019 -0.42917485544311462 0 0.28546936300596981 -0.42915282681778749 0 0.27821428364315981 -0.42912996774889278 0 0.28546936300596981 -0.42915282681778749 0 0.29113929267155558 -0.40194094561721161 0 0.28744958810085658 -0.4196490669458563 0 0.28264635626051132 -0.40952105626625152 0 0.27844475086434628 -0.42008249968918893 0 0.28744958810085658 -0.4196490669458563 0 0.28264635626051132 -0.40952105626625152 0 0.29113929267155558 -0.40194094561721161 0 0.28744958810085658 -0.4196490669458563 0 0.29113929267155558 -0.40194094561721161 0 0.28744958810085658 -0.4196490669458563 0 0.29178274806564442 -0.41520067436951369 0 0.29113929267155558 -0.40194094561721161 0 0.29178274806564442 -0.41520067436951369 0 0.29246087371645019 -0.42917485544311462 0 0.28744958810085658 -0.4196490669458563 0 0.29178274806564442 -0.41520067436951369 0 0.28744958810085658 -0.4196490669458563 0 0.29178274806564442 -0.41520067436951369 0 0.29178274806564442 -0.41520067436951369 0 0.30888278388740348 -0.41521004381282178 0 0.30279640574840933 -0.42221027087496837 0 0.31075796009052831 -0.39572085063997808 0 0.29178274806564442 -0.41520067436951369 0 0.30888278388740348 -0.41521004381282178 0 0.31805921732413212 -0.42925550987442379 0 0.29246087371645019 -0.42917485544311462 0 0.31805921732413212 -0.42925550987442379 0 0.29246087371645019 -0.42917485544311462 0 0.30279640574840933 -0.42221027087496837 0 0.31805921732413212 -0.42925550987442379 0 0.29246087371645019 -0.42917485544311462 0 0.30493236766246812 -0.436345934488445 0 0.31805921732413212 -0.42925550987442379 0 0.30888278388740348 -0.41521004381282178 0 0.30279640574840933 -0.42221027087496837 0 0.31606165840676581 -0.44362460467171588 0 0.30512612189178517 -0.45184566719406782 0 0.29314772120251731 -0.44332876796452603 0 0.31606165840676581 -0.44362460467171588 0 0.30493236766246812 -0.436345934488445 0 0.29314772120251731 -0.44332876796452603 0 0.30512612189178517 -0.45184566719406782 0 0.29394025903575932 -0.45966064860657702 0 0.29314772120251731 -0.44332876796452603 0 0.31606165840676581 -0.44362460467171588 0 0.29314772120251731 -0.44332876796452603 0 0.31537357137569311 -0.47573542319158041 0 0.31637589709399738 -0.45542627657340667 0 0.30512612189178517 -0.45184566719406782 0 0.31537357137569311 -0.47573542319158041 0 0.30512612189178517 -0.45184566719406782 0 0.31537357137569311 -0.47573542319158041 0 0.30512612189178517 -0.45184566719406782 0 0.29394025903575932 -0.45966064860657702 0 0.29394025903575932 -0.45966064860657702 0 0.28491455044924457 -0.45954411970608688 0 0.29473279686900039 -0.47599252924862812 0 0.29394025903575932 -0.45966064860657702 0 0.29473279686900039 -0.47599252924862812 0 0.28491455044924457 -0.45954411970608688 0 0.29473279686900039 -0.47599252924862812 0 0.29394025903575932 -0.45966064860657702 0 0.28491455044924457 -0.45954411970608688 0 0.29314772120251731 -0.44332876796452603 0 0.29314772120251731 -0.44332876796452603 0 0.28269717206150108 -0.44245749461713091 0 0.27509630402948781 -0.44309571016354632 0 0.29314772120251731 -0.44332876796452603 0 0.27509630402948781 -0.44309571016354632 0 0.28491455044924457 -0.45954411970608688 0 0.29314772120251731 -0.44332876796452603 0 0.27509630402948781 -0.44309571016354632 0 0.29394025903575932 -0.45966064860657702 0 0.29314772120251731 -0.44332876796452603 0 0.28844378249660962 -0.43602848621063972 0 0.29314772120251731 -0.44332876796452603 0 0.28269717206150108 -0.44245749461713091 0 0.27851784514164207 -0.43605140350369348 0 0.28269717206150108 -0.44245749461713091 0 0.27509630402948781 -0.44309571016354632 0 0.28491455044924457 -0.45954411970608688 0 0.27509630402948781 -0.44309571016354632 0 0.27111210296809168 -0.43642101817110968 0 0.27851784514164207 -0.43605140350369348 0 0.27509630402948781 -0.44309571016354632 0 0.27509630402948781 -0.44309571016354632 0 0.2647405517406643 -0.44296200936694391 0 0.26894138168338477 -0.45835658674643581 0 0.27509630402948781 -0.44309571016354632 0 0.2647405517406643 -0.44296200936694391 0 0.27111210296809168 -0.43642101817110968 0 0.27509630402948781 -0.44309571016354632 0 0.2647405517406643 -0.44296200936694391 0 0.26225826081895931 -0.43553163761717179 0 0.27111210296809168 -0.43642101817110968 0 0.2647405517406643 -0.44296200936694391 0 0.27111210296809168 -0.43642101817110968 0 0.27509630402948781 -0.44309571016354632 0 0.27111210296809168 -0.43642101817110968 0 0.2647405517406643 -0.44296200936694391 0 0.2647405517406643 -0.44296200936694391 0 0.23528251899697711 -0.44258168330907049 0 0.26225826081895931 -0.43553163761717179 0 0.2647405517406643 -0.44296200936694391 0 0.24937758952868769 -0.43582476186075059 0 0.2647405517406643 -0.44296200936694391 0 0.24642569303344669 -0.46176391886762419 0 0.2647405517406643 -0.44296200936694391 0 0.26894138168338477 -0.45835658674643581 0 0.24642569303344669 -0.46176391886762419 0 0.26894138168338477 -0.45835658674643581 0 0.25460761733926612 -0.48077428153223201 0 0.24642569303344669 -0.46176391886762419 0 0.28491455044924457 -0.45954411970608688 0 0.26894138168338477 -0.45835658674643581 0 0.27481125637505999 -0.47672941046381351 0 0.28491455044924457 -0.45954411970608688 0 0.27509630402948781 -0.44309571016354632 0 0.26894138168338477 -0.45835658674643581 0 0.26894138168338477 -0.45835658674643581 0 0.27481125637505999 -0.47672941046381351 0 0.25460761733926612 -0.48077428153223201 0 0.25460761733926612 -0.48077428153223201 0 0.26992155257213829 -0.5 0 0.24394529676999099 -0.5 0 0.27481125637505999 -0.47672941046381351 0 0.25460761733926612 -0.48077428153223201 0 0.26992155257213829 -0.5 0 0.27481125637505999 -0.47672941046381351 0 0.26992155257213829 -0.5 0 0.28423504578222791 -0.48826781330302371 0 0.2958978083742857 -0.500000000000002 0 0.29473279686900039 -0.47599252924862812 0 0.28423504578222791 -0.48826781330302371 0 0.2958978083742857 -0.500000000000002 0 0.29473279686900039 -0.47599252924862812 0 0.26992155257213829 -0.5 0 0.28423504578222791 -0.48826781330302371 0 0.2958978083742857 -0.500000000000002 0 0.27481125637505999 -0.47672941046381351 0 0.28423504578222791 -0.48826781330302371 0 0.29473279686900039 -0.47599252924862812 0 0.28491455044924457 -0.45954411970608688 0 0.27481125637505999 -0.47672941046381351 0 0.29473279686900039 -0.47599252924862812 0 0.31537357137569311 -0.47573542319158041 0 0.29473279686900039 -0.47599252924862812 0 0.30906313459206908 -0.49999999999999822 0 0.31537357137569311 -0.47573542319158041 0 0.29394025903575932 -0.45966064860657702 0 0.29473279686900039 -0.47599252924862812 0 0.2958978083742857 -0.500000000000002 0 0.29473279686900039 -0.47599252924862812 0 0.30906313459206908 -0.49999999999999822 0 0.29473279686900039 -0.47599252924862812 0 0.30906313459206908 -0.49999999999999822 0 0.32957540708980337 -0.28233484169300721 0 0.33350720058453531 -0.3067582988720306 0 0.34777854009225467 -0.29092059718385621 0 0.33350720058453531 -0.3067582988720306 0 0.31940688812320073 -0.32114172553523779 0 0.31236919290445669 -0.30090688950199113 0 0.32957540708980337 -0.28233484169300721 0 0.33350720058453531 -0.3067582988720306 0 0.31236919290445669 -0.30090688950199113 0 0.32957540708980337 -0.28233484169300721 0 0.31236919290445669 -0.30090688950199113 0 0.31219288969015102 -0.27103532748113379 0 0.32957540708980337 -0.28233484169300721 0 0.32740146312166057 -0.2615598439342075 0 0.31219288969015102 -0.27103532748113379 0 0.30987088180634448 -0.24125362874219619 0 0.32740146312166057 -0.2615598439342075 0 0.31219288969015102 -0.27103532748113379 0 0.33627474799740559 -0.24529035195854479 0 0.32740146312166057 -0.2615598439342075 0 0.34280143854843398 -0.26651154424247869 0 0.32957540708980337 -0.28233484169300721 0 0.32740146312166057 -0.2615598439342075 0 0.34280143854843398 -0.26651154424247869 0 0.32957540708980337 -0.28233484169300721 0 0.34280143854843398 -0.26651154424247869 0 0.34777854009225467 -0.29092059718385621 0 0.34280143854843398 -0.26651154424247869 0 0.35666834061529479 -0.27123260863895199 0 0.34777854009225467 -0.29092059718385621 0 0.3592550994650468 -0.24613366971849041 0 0.34280143854843398 -0.26651154424247869 0 0.35666834061529479 -0.27123260863895199 0 0.33627474799740559 -0.24529035195854479 0 0.3592550994650468 -0.24613366971849041 0 0.34280143854843398 -0.26651154424247869 0 0.3592550994650468 -0.24613366971849041 0 0.37962897743813367 -0.25651992395937562 0 0.37050420578859872 -0.26776837990911312 0 0.3592550994650468 -0.24613366971849041 0 0.35666834061529479 -0.27123260863895199 0 0.37050420578859872 -0.26776837990911312 0 0.3592550994650468 -0.24613366971849041 0 0.37050420578859872 -0.26776837990911312 0 0.35666834061529479 -0.27123260863895199 0 0.37050420578859872 -0.26776837990911312 0 0.36300241918213971 -0.28482885214082171 0 0.37050420578859872 -0.26776837990911312 0 0.37154850581208082 -0.284248057172719 0 0.36300241918213971 -0.28482885214082171 0 0.38175331211215058 -0.28940309009973592 0 0.37050420578859872 -0.26776837990911312 0 0.37154850581208082 -0.284248057172719 0 0.37154850581208082 -0.284248057172719 0 0.37093408616543422 -0.29499190654120538 0 0.36300241918213971 -0.28482885214082171 0 0.38175331211215058 -0.28940309009973592 0 0.37154850581208082 -0.284248057172719 0 0.37093408616543422 -0.29499190654120538 0 0.37093408616543422 -0.29499190654120538 0 0.36300241918213971 -0.28482885214082171 0 0.36107539554114298 -0.29693991331551067 0 0.35666834061529479 -0.27123260863895199 0 0.36300241918213971 -0.28482885214082171 0 0.34777854009225467 -0.29092059718385621 0 0.36300241918213971 -0.28482885214082171 0 0.34777854009225467 -0.29092059718385621 0 0.36107539554114298 -0.29693991331551067 0 0.33350720058453531 -0.3067582988720306 0 0.35617419542099171 -0.30797258542327188 0 0.3434221482530771 -0.31898036386437462 0 0.33350720058453531 -0.3067582988720306 0 0.34777854009225467 -0.29092059718385621 0 0.35617419542099171 -0.30797258542327188 0 0.34777854009225467 -0.29092059718385621 0 0.35617419542099171 -0.30797258542327188 0 0.36107539554114298 -0.29693991331551067 0 0.35617419542099171 -0.30797258542327188 0 0.36107539554114298 -0.29693991331551067 0 0.37214457168145071 -0.30742358830148531 0 0.38029466251644028 -0.29986647237510811 0 0.37093408616543422 -0.29499190654120538 0 0.37214457168145071 -0.30742358830148531 0 0.37093408616543422 -0.29499190654120538 0 0.36107539554114298 -0.29693991331551067 0 0.37214457168145071 -0.30742358830148531 0 0.35617419542099171 -0.30797258542327188 0 0.37214457168145071 -0.30742358830148531 0 0.36996172146423478 -0.32754273311982529 0 0.35617419542099171 -0.30797258542327188 0 0.36996172146423478 -0.32754273311982529 0 0.35306648032504262 -0.33228776260873261 0 0.38164260336710232 -0.31615744579396521 0 0.37214457168145071 -0.30742358830148531 0 0.36996172146423478 -0.32754273311982529 0 0.36996172146423478 -0.32754273311982529 0 0.35306648032504262 -0.33228776260873261 0 0.35731430246447682 -0.34983201697113597 0 0.37618485313497191 -0.35303141813195599 0 0.36996172146423478 -0.32754273311982529 0 0.35731430246447682 -0.34983201697113597 0 0.37618485313497191 -0.35303141813195599 0 0.36996172146423478 -0.32754273311982529 0 0.35306648032504262 -0.33228776260873261 0 0.35731430246447682 -0.34983201697113597 0 0.34168414680625769 -0.34452156241349458 0 0.35617419542099171 -0.30797258542327188 0 0.35306648032504262 -0.33228776260873261 0 0.3434221482530771 -0.31898036386437462 0 0.37618485313497191 -0.35303141813195599 0 0.38240798480570892 -0.37852010314408679 0 0.3567457423339877 -0.37092962175819427 0 0.37618485313497191 -0.35303141813195599 0 0.35731430246447682 -0.34983201697113597 0 0.3567457423339877 -0.37092962175819427 0 0.35731430246447682 -0.34983201697113597 0 0.33741189226114721 -0.35981876257024509 0 0.34168414680625769 -0.34452156241349458 0 0.35731430246447682 -0.34983201697113597 0 0.3567457423339877 -0.37092962175819427 0 0.33741189226114721 -0.35981876257024509 0 0.33846966771265258 -0.37695460337982112 0 0.3567457423339877 -0.37092962175819427 0 0.33741189226114721 -0.35981876257024509 0 0.33846966771265258 -0.37695460337982112 0 0.33741189226114721 -0.35981876257024509 0 0.31915821050206972 -0.37043664262910392 0 0.33741189226114721 -0.35981876257024509 0 0.34168414680625769 -0.34452156241349458 0 0.32813074893442251 -0.34418371868588848 0 0.33741189226114721 -0.35981876257024509 0 0.32813074893442251 -0.34418371868588848 0 0.32201112636252999 -0.3528096981888329 0 0.32201112636252999 -0.3528096981888329 0 0.31915821050206972 -0.37043664262910392 0 0.30987318817222509 -0.34571298684785262 0 0.32813074893442251 -0.34418371868588848 0 0.32201112636252999 -0.3528096981888329 0 0.31771908807833588 -0.34170101098267841 0 0.32201112636252999 -0.3528096981888329 0 0.31771908807833588 -0.34170101098267841 0 0.30987318817222509 -0.34571298684785262 0 0.33741189226114721 -0.35981876257024509 0 0.32201112636252999 -0.3528096981888329 0 0.31915821050206972 -0.37043664262910392 0 0.35306648032504262 -0.33228776260873261 0 0.3434221482530771 -0.31898036386437462 0 0.33232496317177118 -0.32984298873849771 0 0.33350720058453531 -0.3067582988720306 0 0.3434221482530771 -0.31898036386437462 0 0.33232496317177118 -0.32984298873849771 0 0.33350720058453531 -0.3067582988720306 0 0.33232496317177118 -0.32984298873849771 0 0.31940688812320073 -0.32114172553523779 0 0.35306648032504262 -0.33228776260873261 0 0.34168414680625769 -0.34452156241349458 0 0.33232496317177118 -0.32984298873849771 0 0.34168414680625769 -0.34452156241349458 0 0.32813074893442251 -0.34418371868588848 0 0.33232496317177118 -0.32984298873849771 0 0.32813074893442251 -0.34418371868588848 0 0.33232496317177118 -0.32984298873849771 0 0.32267668596175481 -0.33341785867055518 0 0.33232496317177118 -0.32984298873849771 0 0.32267668596175481 -0.33341785867055518 0 0.31940688812320073 -0.32114172553523779 0 0.32813074893442251 -0.34418371868588848 0 0.32267668596175481 -0.33341785867055518 0 0.31771908807833588 -0.34170101098267841 0 0.32267668596175481 -0.33341785867055518 0 0.31771908807833588 -0.34170101098267841 0 0.31294298630122958 -0.33429540854302747 0 0.31771908807833588 -0.34170101098267841 0 0.31168118685013108 -0.34100175600761939 0 0.30987318817222509 -0.34571298684785262 0 0.31771908807833588 -0.34170101098267841 0 0.31294298630122958 -0.33429540854302747 0 0.31168118685013108 -0.34100175600761939 0 0.32267668596175481 -0.33341785867055518 0 0.31294298630122958 -0.33429540854302747 0 0.31940688812320073 -0.32114172553523779 0 0.31294298630122958 -0.33429540854302747 0 0.31940688812320073 -0.32114172553523779 0 0.30601167809918312 -0.32095610648709572 0 0.31940688812320073 -0.32114172553523779 0 0.30601167809918312 -0.32095610648709572 0 0.31236919290445669 -0.30090688950199113 0 0.30601167809918312 -0.32095610648709572 0 0.29267099061500118 -0.31767693215293968 0 0.29602111265001879 -0.30165816726207401 0 0.30601167809918312 -0.32095610648709572 0 0.30423517195087751 -0.34071154513897461 0 0.29267099061500118 -0.31767693215293968 0 0.31294298630122958 -0.33429540854302747 0 0.30601167809918312 -0.32095610648709572 0 0.30570887717953288 -0.34364700841230278 0 0.30423517195087751 -0.34071154513897461 0 0.29267099061500118 -0.31767693215293968 0 0.30601167809918312 -0.32095610648709572 0 0.30570887717953288 -0.34364700841230278 0 0.30423517195087751 -0.34071154513897461 0 0.31294298630122958 -0.33429540854302747 0 0.31168118685013108 -0.34100175600761939 0 0.30570887717953288 -0.34364700841230278 0 0.31168118685013108 -0.34100175600761939 0 0.30570887717953288 -0.34364700841230278 0 0.30987318817222509 -0.34571298684785262 0 0.30570887717953288 -0.34364700841230278 0 0.30423517195087751 -0.34071154513897461 0 0.30570887717953288 -0.34364700841230278 0 0.30351258495694688 -0.34255739421730541 0 0.30423517195087751 -0.34071154513897461 0 0.30570887717953288 -0.34364700841230278 0 0.30351258495694688 -0.34255739421730541 0 0.30351258495694688 -0.34255739421730541 0 0.30423517195087751 -0.34071154513897461 0 0.30423517195087751 -0.34071154513897461 0 0.29267099061500118 -0.31767693215293968 0 0.27697346549350221 -0.32939093076003212 0 0.30351258495694688 -0.34255739421730541 0 0.27697346549350221 -0.32939093076003212 0 0.30351258495694688 -0.34255739421730541 0 0.30423517195087751 -0.34071154513897461 0 0.27697346549350221 -0.32939093076003212 0 0.30351258495694688 -0.34255739421730541 0 0.28388279232808111 -0.34879423229863538 0 0.27697346549350221 -0.32939093076003212 0 0.3096773386499212 -0.3813243078888065 0 0.31915821050206972 -0.37043664262910392 0 0.29938815419514908 -0.36235191135060729 0 0.29526372343335222 -0.38214642848390951 0 0.29938815419514908 -0.36235191135060729 0 0.30570887717953288 -0.34364700841230278 0 0.30351258495694688 -0.34255739421730541 0 0.29938815419514908 -0.36235191135060729 0 0.31915821050206972 -0.37043664262910392 0 0.30570887717953288 -0.34364700841230278 0 0.30987318817222509 -0.34571298684785262 0 0.30351258495694688 -0.34255739421730541 0 0.29938815419514908 -0.36235191135060729 0 0.29225796469017368 -0.35486586181932289 0 0.31915821050206972 -0.37043664262910392 0 0.30570887717953288 -0.34364700841230278 0 0.29938815419514908 -0.36235191135060729 0 0.31915821050206972 -0.37043664262910392 0 0.30570887717953288 -0.34364700841230278 0 0.30351258495694688 -0.34255739421730541 0 0.29938815419514908 -0.36235191135060729 0 0.30570887717953288 -0.34364700841230278 0 0.30987318817222509 -0.34571298684785262 0 0.29225796469017368 -0.35486586181932289 0 0.28388279232808111 -0.34879423229863538 0 0.2822483272805178 -0.36575990941074382 0 0.30351258495694688 -0.34255739421730541 0 0.29225796469017368 -0.35486586181932289 0 0.28388279232808111 -0.34879423229863538 0 0.29526372343335222 -0.38214642848390951 0 0.29938815419514908 -0.36235191135060729 0 0.2822483272805178 -0.36575990941074382 0 0.29938815419514908 -0.36235191135060729 0 0.29225796469017368 -0.35486586181932289 0 0.2822483272805178 -0.36575990941074382 0 0.27569670368188232 -0.38326726020642471 0 0.2822483272805178 -0.36575990941074382 0 0.26273855981799532 -0.37402085189451678 0 0.2822483272805178 -0.36575990941074382 0 0.26391134377156378 -0.35745418407105078 0 0.26273855981799532 -0.37402085189451678 0 0.28388279232808111 -0.34879423229863538 0 0.2690396956517056 -0.34420120372419399 0 0.26391134377156378 -0.35745418407105078 0 0.28388279232808111 -0.34879423229863538 0 0.2822483272805178 -0.36575990941074382 0 0.26391134377156378 -0.35745418407105078 0 0.26391134377156378 -0.35745418407105078 0 0.25139118101367519 -0.34116546776705792 0 0.24725496166677341 -0.36469484034826838 0 0.2690396956517056 -0.34420120372419399 0 0.26391134377156378 -0.35745418407105078 0 0.25139118101367519 -0.34116546776705792 0 0.26391134377156378 -0.35745418407105078 0 0.26273855981799532 -0.37402085189451678 0 0.24725496166677341 -0.36469484034826838 0 0.26273855981799532 -0.37402085189451678 0 0.24725496166677341 -0.36469484034826838 0 0.2462658744323834 -0.38197959250061342 0 0.27697346549350221 -0.32939093076003212 0 0.2504343460300561 -0.31622446730276171 0 0.27399568940133018 -0.31084845435951231 0 0.29267099061500118 -0.31767693215293968 0 0.27697346549350221 -0.32939093076003212 0 0.27399568940133018 -0.31084845435951231 0 0.2690396956517056 -0.34420120372419399 0 0.27697346549350221 -0.32939093076003212 0 0.25139118101367519 -0.34116546776705792 0 0.28388279232808111 -0.34879423229863538 0 0.2690396956517056 -0.34420120372419399 0 0.27697346549350221 -0.32939093076003212 0 0.27697346549350221 -0.32939093076003212 0 0.25139118101367519 -0.34116546776705792 0 0.2504343460300561 -0.31622446730276171 0 0.27697346549350221 -0.32939093076003212 0 0.2504343460300561 -0.31622446730276171 0 0.2504343460300561 -0.31622446730276171 0 0.25790403393649142 -0.29221016043342007 0 0.26868825863076801 -0.29933442507853231 0 0.2504343460300561 -0.31622446730276171 0 0.27399568940133018 -0.31084845435951231 0 0.26868825863076801 -0.29933442507853231 0 0.25790403393649142 -0.29221016043342007 0 0.26247779924518422 -0.27455948017448001 0 0.23862998452346509 -0.28454510211497241 0 0.25790403393649142 -0.29221016043342007 0 0.27122533838754692 -0.28910882128364879 0 0.26247779924518422 -0.27455948017448001 0 0.27122533838754692 -0.28910882128364879 0 0.28742349607482037 -0.28773318483823551 0 0.26247779924518422 -0.27455948017448001 0 0.27122533838754692 -0.28910882128364879 0 0.27963310405047059 -0.29170685589357598 0 0.28742349607482037 -0.28773318483823551 0 0.25790403393649142 -0.29221016043342007 0 0.27122533838754692 -0.28910882128364879 0 0.26868825863076801 -0.29933442507853231 0 0.27122533838754692 -0.28910882128364879 0 0.27963310405047059 -0.29170685589357598 0 0.26868825863076801 -0.29933442507853231 0 0.27963310405047059 -0.29170685589357598 0 0.27399568940133018 -0.31084845435951231 0 0.26868825863076801 -0.29933442507853231 0 0.29267099061500118 -0.31767693215293968 0 0.27963310405047059 -0.29170685589357598 0 0.29267099061500118 -0.31767693215293968 0 0.27963310405047059 -0.29170685589357598 0 0.27399568940133018 -0.31084845435951231 0 0.29267099061500118 -0.31767693215293968 0 0.27963310405047059 -0.29170685589357598 0 0.29602111265001879 -0.30165816726207401 0 0.27963310405047059 -0.29170685589357598 0 0.29602111265001879 -0.30165816726207401 0 0.28742349607482037 -0.28773318483823551 0 0.28742349607482037 -0.28773318483823551 0 0.31236919290445669 -0.30090688950199113 0 0.29602111265001879 -0.30165816726207401 0 0.28742349607482037 -0.28773318483823551 0 0.31236919290445669 -0.30090688950199113 0 0.28742349607482037 -0.28773318483823551 0 0.31236919290445669 -0.30090688950199113 0 0.2973859747586714 -0.27579116796592118 0 0.31236919290445669 -0.30090688950199113 0 0.31219288969015102 -0.27103532748113379 0 0.2973859747586714 -0.27579116796592118 0 0.30601167809918312 -0.32095610648709572 0 0.29602111265001879 -0.30165816726207401 0 0.31236919290445669 -0.30090688950199113 0 0.30987088180634448 -0.24125362874219619 0 0.29250997527574701 -0.24677647679701359 0 0.31219288969015102 -0.27103532748113379 0 0.29250997527574701 -0.24677647679701359 0 0.31219288969015102 -0.27103532748113379 0 0.2896735531526361 -0.26412531454105981 0 0.31219288969015102 -0.27103532748113379 0 0.2973859747586714 -0.27579116796592118 0 0.2896735531526361 -0.26412531454105981 0 0.2973859747586714 -0.27579116796592118 0 0.28192096152604101 -0.27231994505035018 0 0.2896735531526361 -0.26412531454105981 0 0.28742349607482037 -0.28773318483823551 0 0.2973859747586714 -0.27579116796592118 0 0.28192096152604101 -0.27231994505035018 0 0.29250997527574701 -0.24677647679701359 0 0.2896735531526361 -0.26412531454105981 0 0.27534065318434953 -0.25880162201512719 0 0.28192096152604101 -0.27231994505035018 0 0.2896735531526361 -0.26412531454105981 0 0.27534065318434953 -0.25880162201512719 0 0.27462122614518292 -0.24127539045551061 0 0.27534065318434953 -0.25880162201512719 0 0.25726365536858148 -0.25362034743760148 0 0.28742349607482037 -0.28773318483823551 0 0.26247779924518422 -0.27455948017448001 0 0.28192096152604101 -0.27231994505035018 0 0.27534065318434953 -0.25880162201512719 0 0.26247779924518422 -0.27455948017448001 0 0.28742349607482037 -0.28773318483823551 0 0.28192096152604101 -0.27231994505035018 0 0.26247779924518422 -0.27455948017448001 0 0.26247779924518422 -0.27455948017448001 0 0.23753210241554801 -0.26138577551072451 0 0.26247779924518422 -0.27455948017448001 0 0.25726365536858148 -0.25362034743760148 0 0.23753210241554801 -0.26138577551072451 0 0.27534065318434953 -0.25880162201512719 0 0.26247779924518422 -0.27455948017448001 0 0.25726365536858148 -0.25362034743760148 0 0.23753210241554801 -0.26138577551072451 0 0.24146341680214309 -0.24448521489457861 0 0.2264227451730553 -0.24971222362376699 0 0.25726365536858148 -0.25362034743760148 0 0.23753210241554801 -0.26138577551072451 0 0.24146341680214309 -0.24448521489457861 0 0.26247779924518422 -0.27455948017448001 0 0.23753210241554801 -0.26138577551072451 0 0.23862998452346509 -0.28454510211497241 0 0.23753210241554801 -0.26138577551072451 0 0.2162589501465873 -0.27468266641732147 0 0.23862998452346509 -0.28454510211497241 0 0.23753210241554801 -0.26138577551072451 0 0.2162589501465873 -0.27468266641732147 0 0.2264227451730553 -0.24971222362376699 0 0.21040399342164171 -0.25176681621351038 0 0.2162589501465873 -0.27468266641732147 0 0.2264227451730553 -0.24971222362376699 0 0.21040399342164171 -0.25176681621351038 0 0.2162589501465873 -0.27468266641732147 0 0.1934777637386868 -0.26196852324515157 0 0.2162589501465873 -0.27468266641732147 0 0.1966688692062398 -0.27921476679881868 0 0.1934777637386868 -0.26196852324515157 0 0.1966688692062398 -0.27921476679881868 0 0.1934777637386868 -0.26196852324515157 0 0.177394147168592 -0.28445233252858981 0 0.21040399342164171 -0.25176681621351038 0 0.1934777637386868 -0.26196852324515157 0 0.19936230214102421 -0.2479946931896729 0 0.1934777637386868 -0.26196852324515157 0 0.18957958600208469 -0.24548130840959781 0 0.18140855909891221 -0.24875385404173869 0 0.1934777637386868 -0.26196852324515157 0 0.18957958600208469 -0.24548130840959781 0 0.19936230214102421 -0.2479946931896729 0 0.19954461577109309 -0.29575554500421197 0 0.1961972522999722 -0.32216937387389732 0 0.17947015261898311 -0.31043279954087621 0 0.1966688692062398 -0.27921476679881868 0 0.19954461577109309 -0.29575554500421197 0 0.177394147168592 -0.28445233252858981 0 0.2162589501465873 -0.27468266641732147 0 0.19954461577109309 -0.29575554500421197 0 0.22389522656661021 -0.30305800384549131 0 0.2162589501465873 -0.27468266641732147 0 0.1966688692062398 -0.27921476679881868 0 0.19954461577109309 -0.29575554500421197 0 0.19954461577109309 -0.29575554500421197 0 0.22389522656661021 -0.30305800384549131 0 0.1961972522999722 -0.32216937387389732 0 0.2504343460300561 -0.31622446730276171 0 0.25790403393649142 -0.29221016043342007 0 0.23862998452346509 -0.28454510211497241 0 0.2504343460300561 -0.31622446730276171 0 0.22389522656661021 -0.30305800384549131 0 0.23862998452346509 -0.28454510211497241 0 0.2162589501465873 -0.27468266641732147 0 0.22389522656661021 -0.30305800384549131 0 0.23862998452346509 -0.28454510211497241 0 0.2504343460300561 -0.31622446730276171 0 0.22389522656661021 -0.30305800384549131 0 0.22389522656661021 -0.30305800384549131 0 0.23204811719291779 -0.33532479601063409 0 0.2125404456115573 -0.3333426100015644 0 0.2504343460300561 -0.31622446730276171 0 0.22389522656661021 -0.30305800384549131 0 0.23204811719291779 -0.33532479601063409 0 0.25139118101367519 -0.34116546776705792 0 0.2504343460300561 -0.31622446730276171 0 0.23204811719291779 -0.33532479601063409 0 0.25139118101367519 -0.34116546776705792 0 0.23204811719291779 -0.33532479601063409 0 0.23339586826354061 -0.3539524211851004 0 0.23204811719291779 -0.33532479601063409 0 0.2148142246021956 -0.35440494078226209 0 0.2125404456115573 -0.3333426100015644 0 0.24725496166677341 -0.36469484034826838 0 0.23339586826354061 -0.3539524211851004 0 0.22607167799098421 -0.37270743793131111 0 0.24725496166677341 -0.36469484034826838 0 0.22607167799098421 -0.37270743793131111 0 0.2462658744323834 -0.38197959250061342 0 0.25139118101367519 -0.34116546776705792 0 0.24725496166677341 -0.36469484034826838 0 0.23339586826354061 -0.3539524211851004 0 0.23204811719291779 -0.33532479601063409 0 0.23339586826354061 -0.3539524211851004 0 0.2148142246021956 -0.35440494078226209 0 0.23339586826354061 -0.3539524211851004 0 0.22607167799098421 -0.37270743793131111 0 0.2148142246021956 -0.35440494078226209 0 0.22607167799098421 -0.37270743793131111 0 0.2148142246021956 -0.35440494078226209 0 0.20089624558916569 -0.37097766955135358 0 0.2148142246021956 -0.35440494078226209 0 0.196995760569282 -0.35087166092684791 0 0.2125404456115573 -0.3333426100015644 0 0.2148142246021956 -0.35440494078226209 0 0.196995760569282 -0.35087166092684791 0 0.20089624558916569 -0.37097766955135358 0 0.196995760569282 -0.35087166092684791 0 0.20089624558916569 -0.37097766955135358 0 0.1768321188753432 -0.36690628541415632 0 0.22389522656661021 -0.30305800384549131 0 0.2125404456115573 -0.3333426100015644 0 0.1961972522999722 -0.32216937387389732 0 0.196995760569282 -0.35087166092684791 0 0.2125404456115573 -0.3333426100015644 0 0.1961972522999722 -0.32216937387389732 0 0.196995760569282 -0.35087166092684791 0 0.1961972522999722 -0.32216937387389732 0 0.1815461580693743 -0.3364132665531625 0 0.1815461580693743 -0.3364132665531625 0 0.1643579081553766 -0.3243843153562348 0 0.17947015261898311 -0.31043279954087621 0 0.1815461580693743 -0.3364132665531625 0 0.17947015261898311 -0.31043279954087621 0 0.1961972522999722 -0.32216937387389732 0 0.1815461580693743 -0.3364132665531625 0 0.17947015261898311 -0.31043279954087621 0 0.1815461580693743 -0.3364132665531625 0 0.16209568629271459 -0.34050931120228572 0 0.17381591925058279 -0.35045305017024581 0 0.16209568629271459 -0.34050931120228572 0 0.1643579081553766 -0.3243843153562348 0 0.1490492594086629 -0.33054926329457512 0 0.1815461580693743 -0.3364132665531625 0 0.16209568629271459 -0.34050931120228572 0 0.1643579081553766 -0.3243843153562348 0 0.1643579081553766 -0.3243843153562348 0 0.14785798951182749 -0.31747381703923983 0 0.15879613053988581 -0.31078255386998788 0 0.1643579081553766 -0.3243843153562348 0 0.17947015261898311 -0.31043279954087621 0 0.15879613053988581 -0.31078255386998788 0 0.196995760569282 -0.35087166092684791 0 0.1815461580693743 -0.3364132665531625 0 0.17381591925058279 -0.35045305017024581 0 0.196995760569282 -0.35087166092684791 0 0.1768321188753432 -0.36690628541415632 0 0.196995760569282 -0.35087166092684791 0 0.1768321188753432 -0.36690628541415632 0 0.17381591925058279 -0.35045305017024581 0 0.16209568629271459 -0.34050931120228572 0 0.17381591925058279 -0.35045305017024581 0 0.15160987244619981 -0.35756472675477641 0 0.1768321188753432 -0.36690628541415632 0 0.17381591925058279 -0.35045305017024581 0 0.15160987244619981 -0.35756472675477641 0 0.1768321188753432 -0.36690628541415632 0 0.15160987244619981 -0.35756472675477641 0 0.15666847718140431 -0.38294090990146468 0 0.1768321188753432 -0.36690628541415632 0 0.15666847718140431 -0.38294090990146468 0 0.15160987244619981 -0.35756472675477641 0 0.13564640110034021 -0.35912784543918008 0 0.13554014667972011 -0.37371994475541209 0 0.15160987244619981 -0.35756472675477641 0 0.13554014667972011 -0.37371994475541209 0 0.15666847718140431 -0.38294090990146468 0 0.16209568629271459 -0.34050931120228572 0 0.15160987244619981 -0.35756472675477641 0 0.1475882597035684 -0.34306743954738478 0 0.15160987244619981 -0.35756472675477641 0 0.1343114121946197 -0.3455365503022883 0 0.1475882597035684 -0.34306743954738478 0 0.15160987244619981 -0.35756472675477641 0 0.1343114121946197 -0.3455365503022883 0 0.13564640110034021 -0.35912784543918008 0 0.1343114121946197 -0.3455365503022883 0 0.1218367566819203 -0.34066885685305681 0 0.1211241730808211 -0.35969015994424403 0 0.1343114121946197 -0.3455365503022883 0 0.13564640110034021 -0.35912784543918008 0 0.1211241730808211 -0.35969015994424403 0 0.13564640110034021 -0.35912784543918008 0 0.13554014667972011 -0.37371994475541209 0 0.1211241730808211 -0.35969015994424403 0 0.1643579081553766 -0.3243843153562348 0 0.14785798951182749 -0.31747381703923983 0 0.1490492594086629 -0.33054926329457512 0 0.14785798951182749 -0.31747381703923983 0 0.1490492594086629 -0.33054926329457512 0 0.13601489266483169 -0.3229904494785929 0 0.16209568629271459 -0.34050931120228572 0 0.1490492594086629 -0.33054926329457512 0 0.1475882597035684 -0.34306743954738478 0 0.1490492594086629 -0.33054926329457512 0 0.1475882597035684 -0.34306743954738478 0 0.1353950678134421 -0.33468762657073647 0 0.1490492594086629 -0.33054926329457512 0 0.1353950678134421 -0.33468762657073647 0 0.13601489266483169 -0.3229904494785929 0 0.1343114121946197 -0.3455365503022883 0 0.1475882597035684 -0.34306743954738478 0 0.1353950678134421 -0.33468762657073647 0 0.1343114121946197 -0.3455365503022883 0 0.1353950678134421 -0.33468762657073647 0 0.1218367566819203 -0.34066885685305681 0 0.1353950678134421 -0.33468762657073647 0 0.12646864396445259 -0.32771949481933838 0 0.13601489266483169 -0.3229904494785929 0 0.1353950678134421 -0.33468762657073647 0 0.12646864396445259 -0.32771949481933838 0 0.1218367566819203 -0.34066885685305681 0 0.12646864396445259 -0.32771949481933838 0 0.13601489266483169 -0.3229904494785929 0 0.1236403595102975 -0.31726182602291142 0 0.14785798951182749 -0.31747381703923983 0 0.13601489266483169 -0.3229904494785929 0 0.13602289492267541 -0.31130305695836602 0 0.13601489266483169 -0.3229904494785929 0 0.13602289492267541 -0.31130305695836602 0 0.1236403595102975 -0.31726182602291142 0 0.127428615210958 -0.30550107704066293 0 0.13602289492267541 -0.31130305695836602 0 0.1236403595102975 -0.31726182602291142 0 0.127428615210958 -0.30550107704066293 0 0.13551093200295419 -0.30168473438614679 0 0.1256525224322369 -0.29448257816376899 0 0.127428615210958 -0.30550107704066293 0 0.13551093200295419 -0.30168473438614679 0 0.13602289492267541 -0.31130305695836602 0 0.13551093200295419 -0.30168473438614679 0 0.13602289492267541 -0.31130305695836602 0 0.14563569558381231 -0.30495269920752849 0 0.14563569558381231 -0.30495269920752849 0 0.1436119925904093 -0.29293491915627751 0 0.1604468518829657 -0.29816604611383052 0 0.14785798951182749 -0.31747381703923983 0 0.13602289492267541 -0.31130305695836602 0 0.14563569558381231 -0.30495269920752849 0 0.13551093200295419 -0.30168473438614679 0 0.14563569558381231 -0.30495269920752849 0 0.1436119925904093 -0.29293491915627751 0 0.14563569558381231 -0.30495269920752849 0 0.15879613053988581 -0.31078255386998788 0 0.1604468518829657 -0.29816604611383052 0 0.14785798951182749 -0.31747381703923983 0 0.14563569558381231 -0.30495269920752849 0 0.15879613053988581 -0.31078255386998788 0 0.1436119925904093 -0.29293491915627751 0 0.1604468518829657 -0.29816604611383052 0 0.15777299279611159 -0.28544097237972332 0 0.1436119925904093 -0.29293491915627751 0 0.15114809845108379 -0.28013278059363872 0 0.15777299279611159 -0.28544097237972332 0 0.1436119925904093 -0.29293491915627751 0 0.1436168584679525 -0.2836209543501686 0 0.1357133019824012 -0.28986653681351437 0 0.1436119925904093 -0.29293491915627751 0 0.1436168584679525 -0.2836209543501686 0 0.15114809845108379 -0.28013278059363872 0 0.1436168584679525 -0.2836209543501686 0 0.12997183443900701 -0.2884276955838429 0 0.14612074404546729 -0.27464986070998659 0 0.1436168584679525 -0.2836209543501686 0 0.1357133019824012 -0.28986653681351437 0 0.12997183443900701 -0.2884276955838429 0 0.1436119925904093 -0.29293491915627751 0 0.1256525224322369 -0.29448257816376899 0 0.12997183443900701 -0.2884276955838429 0 0.14612074404546729 -0.27464986070998659 0 0.1436119925904093 -0.29293491915627751 0 0.1357133019824012 -0.28986653681351437 0 0.1256525224322369 -0.29448257816376899 0 0.13551093200295419 -0.30168473438614679 0 0.1436119925904093 -0.29293491915627751 0 0.1256525224322369 -0.29448257816376899 0 0.1357133019824012 -0.28986653681351437 0 0.1256525224322369 -0.29448257816376899 0 0.12997183443900701 -0.2884276955838429 0 0.1256525224322369 -0.29448257816376899 0 0.12997183443900701 -0.2884276955838429 0 0.1225628758501054 -0.2947488287446996 0 0.1256525224322369 -0.29448257816376899 0 0.12997183443900701 -0.2884276955838429 0 0.12997183443900701 -0.2884276955838429 0 0.1233634239504731 -0.2874855776093414 0 0.1225628758501054 -0.2947488287446996 0 0.12997183443900701 -0.2884276955838429 0 0.1225628758501054 -0.2947488287446996 0 0.12997183443900701 -0.2884276955838429 0 0.1275993617664036 -0.28112518425861122 0 0.1233634239504731 -0.2874855776093414 0 0.12997183443900701 -0.2884276955838429 0 0.1275993617664036 -0.28112518425861122 0 0.13485463758425459 -0.27391652201106309 0 0.1275993617664036 -0.28112518425861122 0 0.1280966355330338 -0.27434446718476552 0 0.12144198577599689 -0.28043819023602667 0 0.12997183443900701 -0.2884276955838429 0 0.14612074404546729 -0.27464986070998659 0 0.1420233446603141 -0.27153369043062148 0 0.12997183443900701 -0.2884276955838429 0 0.13485463758425459 -0.27391652201106309 0 0.1420233446603141 -0.27153369043062148 0 0.12997183443900701 -0.2884276955838429 0 0.1420233446603141 -0.27153369043062148 0 0.1275993617664036 -0.28112518425861122 0 0.1280966355330338 -0.27434446718476552 0 0.13485463758425459 -0.27391652201106309 0 0.1280966355330338 -0.27434446718476552 0 0.13485463758425459 -0.27391652201106309 0 0.13350735252106491 -0.26509119559065258 0 0.1280966355330338 -0.27434446718476552 0 0.13350735252106491 -0.26509119559065258 0 0.123327112510175 -0.26381005316279871 0 0.13811143923488059 -0.26777882680588339 0 0.13485463758425459 -0.27391652201106309 0 0.13350735252106491 -0.26509119559065258 0 0.13811143923488059 -0.26777882680588339 0 0.13485463758425459 -0.27391652201106309 0 0.1420233446603141 -0.27153369043062148 0 0.13350735252106491 -0.26509119559065258 0 0.1338120645475761 -0.25178135897747889 0 0.123327112510175 -0.26381005316279871 0 0.13350735252106491 -0.26509119559065258 0 0.1338120645475761 -0.25178135897747889 0 0.1420604221738889 -0.26057389919119672 0 0.13811143923488059 -0.26777882680588339 0 0.13350735252106491 -0.26509119559065258 0 0.1420604221738889 -0.26057389919119672 0 0.15407485488162029 -0.25463968527739939 0 0.1420233446603141 -0.27153369043062148 0 0.1338120645475761 -0.25178135897747889 0 0.15081333679343489 -0.24957271686280691 0 0.1504037114514421 -0.26476637401943331 0 0.15407485488162029 -0.25463968527739939 0 0.1420233446603141 -0.27153369043062148 0 0.1420604221738889 -0.26057389919119672 0 0.15407485488162029 -0.25463968527739939 0 0.1420233446603141 -0.27153369043062148 0 0.1338120645475761 -0.25178135897747889 0 0.14898820642875321 -0.25263106074458241 0 0.15081333679343489 -0.24957271686280691 0 0.1420604221738889 -0.26057389919119672 0 0.14898820642875321 -0.25263106074458241 0 0.15407485488162029 -0.25463968527739939 0 0.1338120645475761 -0.25178135897747889 0 0.14898820642875321 -0.25263106074458241 0 0.1338120645475761 -0.25178135897747889 0 0.1420604221738889 -0.26057389919119672 0 0.14898820642875321 -0.25263106074458241 0 0.1504037114514421 -0.26476637401943331 0 0.15407485488162029 -0.25463968527739939 0 0.15854298516514259 -0.2623064548534918 0 0.1504037114514421 -0.26476637401943331 0 0.15545765769127859 -0.26765705275147811 0 0.15854298516514259 -0.2623064548534918 0 0.14898820642875321 -0.25263106074458241 0 0.15407485488162029 -0.25463968527739939 0 0.16416434830993021 -0.25348076251168611 0 0.14898820642875321 -0.25263106074458241 0 0.16416434830993021 -0.25348076251168611 0 0.15081333679343489 -0.24957271686280691 0 0.1436168584679525 -0.2836209543501686 0 0.14612074404546729 -0.27464986070998659 0 0.15114809845108379 -0.28013278059363872 0 0.13811143923488059 -0.26777882680588339 0 0.1420604221738889 -0.26057389919119672 0 0.1420233446603141 -0.27153369043062148 0 0.1504037114514421 -0.26476637401943331 0 0.1420233446603141 -0.27153369043062148 0 0.14774651714261711 -0.27061417123897102 0 0.14612074404546729 -0.27464986070998659 0 0.1420233446603141 -0.27153369043062148 0 0.14774651714261711 -0.27061417123897102 0 0.15545765769127859 -0.26765705275147811 0 0.1524382684132447 -0.27150675979584271 0 0.16044566573528521 -0.27204862233714472 0 0.14612074404546729 -0.27464986070998659 0 0.14774651714261711 -0.27061417123897102 0 0.1524382684132447 -0.27150675979584271 0 0.1504037114514421 -0.26476637401943331 0 0.14774651714261711 -0.27061417123897102 0 0.1524382684132447 -0.27150675979584271 0 0.1504037114514421 -0.26476637401943331 0 0.15545765769127859 -0.26765705275147811 0 0.1524382684132447 -0.27150675979584271 0 0.1524382684132447 -0.27150675979584271 0 0.15114809845108379 -0.28013278059363872 0 0.16044566573528521 -0.27204862233714472 0 0.14612074404546729 -0.27464986070998659 0 0.1524382684132447 -0.27150675979584271 0 0.15114809845108379 -0.28013278059363872 0 0.16044566573528521 -0.27204862233714472 0 0.16717305761943019 -0.26615200754944318 0 0.177394147168592 -0.28445233252858981 0 0.16044566573528521 -0.27204862233714472 0 0.177394147168592 -0.28445233252858981 0 0.15777299279611159 -0.28544097237972332 0 0.15114809845108379 -0.28013278059363872 0 0.16044566573528521 -0.27204862233714472 0 0.15777299279611159 -0.28544097237972332 0 0.15545765769127859 -0.26765705275147811 0 0.16044566573528521 -0.27204862233714472 0 0.15854298516514259 -0.2623064548534918 0 0.16044566573528521 -0.27204862233714472 0 0.16717305761943019 -0.26615200754944318 0 0.15854298516514259 -0.2623064548534918 0 0.15407485488162029 -0.25463968527739939 0 0.15854298516514259 -0.2623064548534918 0 0.16416434830993021 -0.25348076251168611 0 0.14898820642875321 -0.25263106074458241 0 0.16416434830993021 -0.25348076251168611 0 0.16416434830993021 -0.25348076251168611 0 0.15746623258843939 -0.24717962177743169 0 0.15081333679343489 -0.24957271686280691 0 0.16717305761943019 -0.26615200754944318 0 0.15854298516514259 -0.2623064548534918 0 0.16416434830993021 -0.25348076251168611 0 0.16717305761943019 -0.26615200754944318 0 0.16416434830993021 -0.25348076251168611 0 0.17531814171820079 -0.25847186551630352 0 0.1934777637386868 -0.26196852324515157 0 0.17531814171820079 -0.25847186551630352 0 0.18140855909891221 -0.24875385404173869 0 0.16717305761943019 -0.26615200754944318 0 0.17531814171820079 -0.25847186551630352 0 0.177394147168592 -0.28445233252858981 0 0.1934777637386868 -0.26196852324515157 0 0.17531814171820079 -0.25847186551630352 0 0.177394147168592 -0.28445233252858981 0 0.17531814171820079 -0.25847186551630352 0 0.177394147168592 -0.28445233252858981 0 0.177394147168592 -0.28445233252858981 0 0.17947015261898311 -0.31043279954087621 0 0.1604468518829657 -0.29816604611383052 0 0.19954461577109309 -0.29575554500421197 0 0.177394147168592 -0.28445233252858981 0 0.17947015261898311 -0.31043279954087621 0 0.177394147168592 -0.28445233252858981 0 0.17947015261898311 -0.31043279954087621 0 0.17947015261898311 -0.31043279954087621 0 0.15879613053988581 -0.31078255386998788 0 0.1604468518829657 -0.29816604611383052 0 0.177394147168592 -0.28445233252858981 0 0.1604468518829657 -0.29816604611383052 0 0.15777299279611159 -0.28544097237972332 0 0.19199278516569629 -0.5 0 0.1900164382224285 -0.48271496941050879 0 0.20545646434069309 -0.4787017342280358 0 0.1900164382224285 -0.48271496941050879 0 0.20545646434069309 -0.4787017342280358 0 0.18613842771148381 -0.46787851807202258 0 0.20545646434069309 -0.4787017342280358 0 0.2281108343262262 -0.48056582836830158 0 0.21973600360042431 -0.45949417383294189 0 0.20545646434069309 -0.4787017342280358 0 0.21796904096784361 -0.5 0 0.2281108343262262 -0.48056582836830158 0 0.19199278516569629 -0.5 0 0.20545646434069309 -0.4787017342280358 0 0.21796904096784361 -0.5 0 0.21796904096784361 -0.5 0 0.24394529676999099 -0.5 0 0.2281108343262262 -0.48056582836830158 0 0.25460761733926612 -0.48077428153223201 0 0.24394529676999099 -0.5 0 0.2281108343262262 -0.48056582836830158 0 0.2281108343262262 -0.48056582836830158 0 0.24642569303344669 -0.46176391886762419 0 0.25460761733926612 -0.48077428153223201 0 0.2281108343262262 -0.48056582836830158 0 0.24642569303344669 -0.46176391886762419 0 0.2281108343262262 -0.48056582836830158 0 0.21973600360042431 -0.45949417383294189 0 0.2323887624892686 -0.4611014010944845 0 0.21973600360042431 -0.45949417383294189 0 0.2323887624892686 -0.4611014010944845 0 0.23528251899697711 -0.44258168330907049 0 0.2281108343262262 -0.48056582836830158 0 0.2323887624892686 -0.4611014010944845 0 0.24642569303344669 -0.46176391886762419 0 0.2323887624892686 -0.4611014010944845 0 0.24642569303344669 -0.46176391886762419 0 0.23528251899697711 -0.44258168330907049 0 0.2647405517406643 -0.44296200936694391 0 0.23528251899697711 -0.44258168330907049 0 0.24937758952868769 -0.43582476186075059 0 0.2647405517406643 -0.44296200936694391 0 0.24642569303344669 -0.46176391886762419 0 0.23528251899697711 -0.44258168330907049 0 0.21973600360042431 -0.45949417383294189 0 0.23528251899697711 -0.44258168330907049 0 0.20582448625328989 -0.44220135725120002 0 0.23528251899697711 -0.44258168330907049 0 0.20582448625328989 -0.44220135725120002 0 0.23528251899697711 -0.44258168330907049 0 0.20582448625328989 -0.44220135725120002 0 0.22256526670295609 -0.43567624475563838 0 0.20545646434069309 -0.4787017342280358 0 0.21973600360042431 -0.45949417383294189 0 0.202602484605724 -0.45942999972385479 0 0.21973600360042431 -0.45949417383294189 0 0.20582448625328989 -0.44220135725120002 0 0.202602484605724 -0.45942999972385479 0 0.202602484605724 -0.45942999972385479 0 0.19228485390892139 -0.44832807257495588 0 0.18613842771148381 -0.46787851807202258 0 0.20545646434069309 -0.4787017342280358 0 0.202602484605724 -0.45942999972385479 0 0.18613842771148381 -0.46787851807202258 0 0.20582448625328989 -0.44220135725120002 0 0.202602484605724 -0.45942999972385479 0 0.19228485390892139 -0.44832807257495588 0 0.20582448625328989 -0.44220135725120002 0 0.19228485390892139 -0.44832807257495588 0 0.1986877949313606 -0.42882383702638299 0 0.19228485390892139 -0.44832807257495588 0 0.1986877949313606 -0.42882383702638299 0 0.183200271073473 -0.43641073338783498 0 0.1986877949313606 -0.42882383702638299 0 0.1816281482625339 -0.41415137017959991 0 0.183200271073473 -0.43641073338783498 0 0.20582455939560251 -0.41258395769508027 0 0.1950935246886642 -0.40110820421824778 0 0.1816281482625339 -0.41415137017959991 0 0.1986877949313606 -0.42882383702638299 0 0.20582455939560251 -0.41258395769508027 0 0.1816281482625339 -0.41415137017959991 0 0.20582455939560251 -0.41258395769508027 0 0.21384958020830239 -0.42892716952759119 0 0.2218345854540221 -0.41854111548045619 0 0.20582455939560251 -0.41258395769508027 0 0.2218345854540221 -0.41854111548045619 0 0.2220903860499629 -0.40641314768071007 0 0.1986877949313606 -0.42882383702638299 0 0.20582455939560251 -0.41258395769508027 0 0.21384958020830239 -0.42892716952759119 0 0.20582448625328989 -0.44220135725120002 0 0.21384958020830239 -0.42892716952759119 0 0.22256526670295609 -0.43567624475563838 0 0.20582448625328989 -0.44220135725120002 0 0.1986877949313606 -0.42882383702638299 0 0.21384958020830239 -0.42892716952759119 0 0.21384958020830239 -0.42892716952759119 0 0.22256526670295609 -0.43567624475563838 0 0.23530448135325491 -0.42899476893469179 0 0.21384958020830239 -0.42892716952759119 0 0.23530448135325491 -0.42899476893469179 0 0.21384958020830239 -0.42892716952759119 0 0.23530448135325491 -0.42899476893469179 0 0.2218345854540221 -0.41854111548045619 0 0.23528251899697711 -0.44258168330907049 0 0.22256526670295609 -0.43567624475563838 0 0.23530448135325491 -0.42899476893469179 0 0.25675938249820729 -0.42906236834179229 0 0.23530448135325491 -0.42899476893469179 0 0.23528251899697711 -0.44258168330907049 0 0.23530448135325491 -0.42899476893469179 0 0.24937758952868769 -0.43582476186075059 0 0.25675938249820729 -0.42906236834179229 0 0.23530448135325491 -0.42899476893469179 0 0.24471655788437549 -0.41836465708289111 0 0.25675938249820729 -0.42906236834179229 0 0.23530448135325491 -0.42899476893469179 0 0.24937758952868769 -0.43582476186075059 0 0.25834465052961392 -0.41196496969487773 0 0.24471655788437549 -0.41836465708289111 0 0.2415255849161019 -0.40609463635975013 0 0.23530448135325491 -0.42899476893469179 0 0.24471655788437549 -0.41836465708289111 0 0.23210392026298771 -0.41578653356420769 0 0.24471655788437549 -0.41836465708289111 0 0.23210392026298771 -0.41578653356420769 0 0.2415255849161019 -0.40609463635975013 0 0.23210392026298771 -0.41578653356420769 0 0.2220903860499629 -0.40641314768071007 0 0.2415255849161019 -0.40609463635975013 0 0.23530448135325491 -0.42899476893469179 0 0.23210392026298771 -0.41578653356420769 0 0.2218345854540221 -0.41854111548045619 0 0.23210392026298771 -0.41578653356420769 0 0.2218345854540221 -0.41854111548045619 0 0.2220903860499629 -0.40641314768071007 0 0.2220903860499629 -0.40641314768071007 0 0.2325848323457651 -0.39226733923237422 0 0.2415255849161019 -0.40609463635975013 0 0.2220903860499629 -0.40641314768071007 0 0.2325848323457651 -0.39226733923237422 0 0.20793944219493879 -0.39039719718598698 0 0.25113336278303172 -0.39639034007073559 0 0.2325848323457651 -0.39226733923237422 0 0.2415255849161019 -0.40609463635975013 0 0.25113336278303172 -0.39639034007073559 0 0.2325848323457651 -0.39226733923237422 0 0.2462658744323834 -0.38197959250061342 0 0.22607167799098421 -0.37270743793131111 0 0.2325848323457651 -0.39226733923237422 0 0.2462658744323834 -0.38197959250061342 0 0.22607167799098421 -0.37270743793131111 0 0.2325848323457651 -0.39226733923237422 0 0.20793944219493879 -0.39039719718598698 0 0.22607167799098421 -0.37270743793131111 0 0.20089624558916569 -0.37097766955135358 0 0.20793944219493879 -0.39039719718598698 0 0.20582455939560251 -0.41258395769508027 0 0.2220903860499629 -0.40641314768071007 0 0.20793944219493879 -0.39039719718598698 0 0.20793944219493879 -0.39039719718598698 0 0.1950935246886642 -0.40110820421824778 0 0.18397260247544159 -0.38969422049886882 0 0.20582455939560251 -0.41258395769508027 0 0.20793944219493879 -0.39039719718598698 0 0.1950935246886642 -0.40110820421824778 0 0.20089624558916569 -0.37097766955135358 0 0.20793944219493879 -0.39039719718598698 0 0.18397260247544159 -0.38969422049886882 0 0.20089624558916569 -0.37097766955135358 0 0.1768321188753432 -0.36690628541415632 0 0.18397260247544159 -0.38969422049886882 0 0.1768321188753432 -0.36690628541415632 0 0.18397260247544159 -0.38969422049886882 0 0.15666847718140431 -0.38294090990146468 0 0.1950935246886642 -0.40110820421824778 0 0.18397260247544159 -0.38969422049886882 0 0.1816281482625339 -0.41415137017959991 0 0.18397260247544159 -0.38969422049886882 0 0.16282522567504601 -0.40076461101477862 0 0.1816281482625339 -0.41415137017959991 0 0.18397260247544159 -0.38969422049886882 0 0.16282522567504601 -0.40076461101477862 0 0.15666847718140431 -0.38294090990146468 0 0.13554014667972011 -0.37371994475541209 0 0.15666847718140431 -0.38294090990146468 0 0.13650483548746539 -0.39897553438877298 0 0.13554014667972011 -0.37371994475541209 0 0.13650483548746539 -0.39897553438877298 0 0.11257503074115451 -0.38498649823446041 0 0.16282522567504601 -0.40076461101477862 0 0.13650483548746539 -0.39897553438877298 0 0.15535206496838491 -0.41806102010518609 0 0.16282522567504601 -0.40076461101477862 0 0.15666847718140431 -0.38294090990146468 0 0.13650483548746539 -0.39897553438877298 0 0.15666847718140431 -0.38294090990146468 0 0.13650483548746539 -0.39897553438877298 0 0.13650483548746539 -0.39897553438877298 0 0.15535206496838491 -0.41806102010518609 0 0.13513029091253781 -0.42041342615249999 0 0.13650483548746539 -0.39897553438877298 0 0.1163411937935266 -0.41501015887608139 0 0.13650483548746539 -0.39897553438877298 0 0.13513029091253781 -0.42041342615249999 0 0.1163411937935266 -0.41501015887608139 0 0.13513029091253781 -0.42041342615249999 0 0.15032059054535499 -0.43467939270726969 0 0.13254635452133279 -0.44085243440563188 0 0.13513029091253781 -0.42041342615249999 0 0.13254635452133279 -0.44085243440563188 0 0.1143868512917591 -0.43285467588419202 0 0.15535206496838491 -0.41806102010518609 0 0.13513029091253781 -0.42041342615249999 0 0.15032059054535499 -0.43467939270726969 0 0.15535206496838491 -0.41806102010518609 0 0.15032059054535499 -0.43467939270726969 0 0.16908223299646141 -0.42841704329178959 0 0.15032059054535499 -0.43467939270726969 0 0.16908223299646141 -0.42841704329178959 0 0.16335318746445779 -0.4445252196366028 0 0.16282522567504601 -0.40076461101477862 0 0.15535206496838491 -0.41806102010518609 0 0.1816281482625339 -0.41415137017959991 0 0.15535206496838491 -0.41806102010518609 0 0.16908223299646141 -0.42841704329178959 0 0.1816281482625339 -0.41415137017959991 0 0.16908223299646141 -0.42841704329178959 0 0.183200271073473 -0.43641073338783498 0 0.16335318746445779 -0.4445252196366028 0 0.16908223299646141 -0.42841704329178959 0 0.1816281482625339 -0.41415137017959991 0 0.183200271073473 -0.43641073338783498 0 0.183200271073473 -0.43641073338783498 0 0.1772803827575771 -0.45352317498248768 0 0.16335318746445779 -0.4445252196366028 0 0.19228485390892139 -0.44832807257495588 0 0.183200271073473 -0.43641073338783498 0 0.1772803827575771 -0.45352317498248768 0 0.19228485390892139 -0.44832807257495588 0 0.1772803827575771 -0.45352317498248768 0 0.18613842771148381 -0.46787851807202258 0 0.1772803827575771 -0.45352317498248768 0 0.18613842771148381 -0.46787851807202258 0 0.16548752239589951 -0.46480458862744461 0 0.16548752239589951 -0.46480458862744461 0 0.16335318746445779 -0.4445252196366028 0 0.1464594124089553 -0.4558072126519076 0 0.1772803827575771 -0.45352317498248768 0 0.16548752239589951 -0.46480458862744461 0 0.16335318746445779 -0.4445252196366028 0 0.15032059054535499 -0.43467939270726969 0 0.16335318746445779 -0.4445252196366028 0 0.1464594124089553 -0.4558072126519076 0 0.15032059054535499 -0.43467939270726969 0 0.13254635452133279 -0.44085243440563188 0 0.1464594124089553 -0.4558072126519076 0 0.13254635452133279 -0.44085243440563188 0 0.1274715551183096 -0.46736641087901343 0 0.1464594124089553 -0.4558072126519076 0 0.16548752239589951 -0.46480458862744461 0 0.1464594124089553 -0.4558072126519076 0 0.1467440422409298 -0.48368320543950499 0 0.1274715551183096 -0.46736641087901343 0 0.1467440422409298 -0.48368320543950499 0 0.12445287299781339 -0.48580957524003149 0 0.1274715551183096 -0.46736641087901343 0 0.1464594124089553 -0.4558072126519076 0 0.1467440422409298 -0.48368320543950499 0 0.1274715551183096 -0.46736641087901343 0 0.1467440422409298 -0.48368320543950499 0 0.1467440422409298 -0.48368320543950499 0 0.13861342094189541 -0.5 0 0.12445287299781339 -0.48580957524003149 0 0.1467440422409298 -0.48368320543950499 0 0.13861342094189541 -0.5 0 0.16601652936354891 -0.49999999999999789 0 0.1467440422409298 -0.48368320543950499 0 0.16601652936354891 -0.49999999999999789 0 0.1742528725293658 -0.48296598532830509 0 0.1467440422409298 -0.48368320543950499 0 0.16601652936354891 -0.49999999999999789 0 0.16548752239589951 -0.46480458862744461 0 0.1467440422409298 -0.48368320543950499 0 0.1742528725293658 -0.48296598532830509 0 0.18613842771148381 -0.46787851807202258 0 0.16548752239589951 -0.46480458862744461 0 0.1742528725293658 -0.48296598532830509 0 0.1900164382224285 -0.48271496941050879 0 0.18613842771148381 -0.46787851807202258 0 0.1742528725293658 -0.48296598532830509 0 0.19199278516569629 -0.5 0 0.16601652936354891 -0.49999999999999789 0 0.1742528725293658 -0.48296598532830509 0 0.19199278516569629 -0.5 0 0.1900164382224285 -0.48271496941050879 0 0.1742528725293658 -0.48296598532830509 0 0.067672963152933252 -0.5 0 0.070479040632291823 -0.48264211959480191 0 0.053020152767299072 -0.48801933676575959 0 0.067672963152933252 -0.5 0 0.070479040632291823 -0.48264211959480191 0 0.080327064833409109 -0.49320164294834518 0 0.064630060102032719 -0.47456076603106118 0 0.075246676549625066 -0.47305272083988897 0 0.070479040632291823 -0.48264211959480191 0 0.064630060102032719 -0.47456076603106118 0 0.075246676549625066 -0.47305272083988897 0 0.061795930812101732 -0.46820781613902701 0 0.075246676549625066 -0.47305272083988897 0 0.092517011764567517 -0.47378197497117353 0 0.089959488850471461 -0.49094383163907668 0 0.075246676549625066 -0.47305272083988897 0 0.070479040632291823 -0.48264211959480191 0 0.089959488850471461 -0.49094383163907668 0 0.075246676549625066 -0.47305272083988897 0 0.092517011764567517 -0.47378197497117353 0 0.083633368414380696 -0.46621164320728742 0 0.075246676549625066 -0.47305272083988897 0 0.089959488850471461 -0.49094383163907668 0 0.067672963152933252 -0.5 0 0.080327064833409109 -0.49320164294834518 0 0.097406857924120502 -0.499999999999999 0 0.080327064833409109 -0.49320164294834518 0 0.089959488850471461 -0.49094383163907668 0 0.097406857924120502 -0.499999999999999 0 0.070479040632291823 -0.48264211959480191 0 0.080327064833409109 -0.49320164294834518 0 0.089959488850471461 -0.49094383163907668 0 0.070479040632291823 -0.48264211959480191 0 0.089959488850471461 -0.49094383163907668 0 0.089959488850471461 -0.49094383163907668 0 0.097406857924120502 -0.499999999999999 0 0.089959488850471461 -0.49094383163907668 0 0.097406857924120502 -0.499999999999999 0 0.1112103125202419 -0.50000000000000022 0 0.089959488850471461 -0.49094383163907668 0 0.1052052932537345 -0.48462989700511527 0 0.1112103125202419 -0.50000000000000022 0 0.089959488850471461 -0.49094383163907668 0 0.1112103125202419 -0.50000000000000022 0 0.1052052932537345 -0.48462989700511527 0 0.1112103125202419 -0.50000000000000022 0 0.12445287299781339 -0.48580957524003149 0 0.13861342094189541 -0.5 0 0.1112103125202419 -0.50000000000000022 0 0.12445287299781339 -0.48580957524003149 0 0.1052052932537345 -0.48462989700511527 0 0.12445287299781339 -0.48580957524003149 0 0.10908141417361709 -0.46883823252096812 0 0.1274715551183096 -0.46736641087901343 0 0.12445287299781339 -0.48580957524003149 0 0.10908141417361709 -0.46883823252096812 0 0.092517011764567517 -0.47378197497117353 0 0.089959488850471461 -0.49094383163907668 0 0.1052052932537345 -0.48462989700511527 0 0.092517011764567517 -0.47378197497117353 0 0.1052052932537345 -0.48462989700511527 0 0.10908141417361709 -0.46883823252096812 0 0.092517011764567517 -0.47378197497117353 0 0.10908141417361709 -0.46883823252096812 0 0.090724871429903375 -0.45809280890615561 0 0.10908141417361709 -0.46883823252096812 0 0.1081990679956894 -0.4510496163185217 0 0.090724871429903375 -0.45809280890615561 0 0.1274715551183096 -0.46736641087901343 0 0.10908141417361709 -0.46883823252096812 0 0.1081990679956894 -0.4510496163185217 0 0.1274715551183096 -0.46736641087901343 0 0.1081990679956894 -0.4510496163185217 0 0.13254635452133279 -0.44085243440563188 0 0.1274715551183096 -0.46736641087901343 0 0.1081990679956894 -0.4510496163185217 0 0.13254635452133279 -0.44085243440563188 0 0.1081990679956894 -0.4510496163185217 0 0.1143868512917591 -0.43285467588419202 0 0.1081990679956894 -0.4510496163185217 0 0.09424645164530171 -0.44210268425789312 0 0.090724871429903375 -0.45809280890615561 0 0.1081990679956894 -0.4510496163185217 0 0.09424645164530171 -0.44210268425789312 0 0.1143868512917591 -0.43285467588419202 0 0.09424645164530171 -0.44210268425789312 0 0.078924008128618786 -0.44927425917818692 0 0.090724871429903375 -0.45809280890615561 0 0.09424645164530171 -0.44210268425789312 0 0.078924008128618786 -0.44927425917818692 0 0.079815715379254276 -0.43713965414436617 0 0.092517011764567517 -0.47378197497117353 0 0.090724871429903375 -0.45809280890615561 0 0.083633368414380696 -0.46621164320728742 0 0.075246676549625066 -0.47305272083988897 0 0.083633368414380696 -0.46621164320728742 0 0.07604491391342684 -0.45991906811193117 0 0.090724871429903375 -0.45809280890615561 0 0.083633368414380696 -0.46621164320728742 0 0.07604491391342684 -0.45991906811193117 0 0.078924008128618786 -0.44927425917818692 0 0.090724871429903375 -0.45809280890615561 0 0.07604491391342684 -0.45991906811193117 0 0.075246676549625066 -0.47305272083988897 0 0.07604491391342684 -0.45991906811193117 0 0.060533864248779268 -0.45516161004070088 0 0.075246676549625066 -0.47305272083988897 0 0.060533864248779268 -0.45516161004070088 0 0.061795930812101732 -0.46820781613902701 0 0.078924008128618786 -0.44927425917818692 0 0.07604491391342684 -0.45991906811193117 0 0.066742638013750744 -0.45361708446569943 0 0.075246676549625066 -0.47305272083988897 0 0.060533864248779268 -0.45516161004070088 0 0.07604491391342684 -0.45991906811193117 0 0.066742638013750744 -0.45361708446569943 0 0.060533864248779268 -0.45516161004070088 0 0.066742638013750744 -0.45361708446569943 0 0.060533864248779268 -0.45516161004070088 0 0.066742638013750744 -0.45361708446569943 0 0.070851891070507364 -0.4429924727175758 0 0.060604784186928162 -0.44219524034701829 0 0.066742638013750744 -0.45361708446569943 0 0.060604784186928162 -0.44219524034701829 0 0.060533864248779268 -0.45516161004070088 0 0.070851891070507364 -0.4429924727175758 0 0.068700271916894928 -0.43290455926873739 0 0.060604784186928162 -0.44219524034701829 0 0.078924008128618786 -0.44927425917818692 0 0.070851891070507364 -0.4429924727175758 0 0.079815715379254276 -0.43713965414436617 0 0.070851891070507364 -0.4429924727175758 0 0.068700271916894928 -0.43290455926873739 0 0.079815715379254276 -0.43713965414436617 0 0.078924008128618786 -0.44927425917818692 0 0.066742638013750744 -0.45361708446569943 0 0.070851891070507364 -0.4429924727175758 0 0.068700271916894928 -0.43290455926873739 0 0.078113452497016317 -0.41994308157894578 0 0.079815715379254276 -0.43713965414436617 0 0.068700271916894928 -0.43290455926873739 0 0.078113452497016317 -0.41994308157894578 0 0.058719347470543831 -0.42372109043242612 0 0.068700271916894928 -0.43290455926873739 0 0.058719347470543831 -0.42372109043242612 0 0.060604784186928162 -0.44219524034701829 0 0.078113452497016317 -0.41994308157894578 0 0.070468827029821934 -0.40290810194725279 0 0.058719347470543831 -0.42372109043242612 0 0.078113452497016317 -0.41994308157894578 0 0.093810327587010828 -0.40408349715757252 0 0.070468827029821934 -0.40290810194725279 0 0.078113452497016317 -0.41994308157894578 0 0.096321857990668808 -0.42533267408736197 0 0.093810327587010828 -0.40408349715757252 0 0.078113452497016317 -0.41994308157894578 0 0.079815715379254276 -0.43713965414436617 0 0.096321857990668808 -0.42533267408736197 0 0.09424645164530171 -0.44210268425789312 0 0.079815715379254276 -0.43713965414436617 0 0.096321857990668808 -0.42533267408736197 0 0.09424645164530171 -0.44210268425789312 0 0.096321857990668808 -0.42533267408736197 0 0.1143868512917591 -0.43285467588419202 0 0.096321857990668808 -0.42533267408736197 0 0.1143868512917591 -0.43285467588419202 0 0.1163411937935266 -0.41501015887608139 0 0.13513029091253781 -0.42041342615249999 0 0.1143868512917591 -0.43285467588419202 0 0.1163411937935266 -0.41501015887608139 0 0.096321857990668808 -0.42533267408736197 0 0.1163411937935266 -0.41501015887608139 0 0.093810327587010828 -0.40408349715757252 0 0.1163411937935266 -0.41501015887608139 0 0.093810327587010828 -0.40408349715757252 0 0.11257503074115451 -0.38498649823446041 0 0.13650483548746539 -0.39897553438877298 0 0.1163411937935266 -0.41501015887608139 0 0.11257503074115451 -0.38498649823446041 0 0.11257503074115451 -0.38498649823446041 0 0.085185771917526548 -0.37977283474271561 0 0.10079201747098269 -0.36412242239479142 0 0.093810327587010828 -0.40408349715757252 0 0.11257503074115451 -0.38498649823446041 0 0.085185771917526548 -0.37977283474271561 0 0.093810327587010828 -0.40408349715757252 0 0.085185771917526548 -0.37977283474271561 0 0.070468827029821934 -0.40290810194725279 0 0.085185771917526548 -0.37977283474271561 0 0.070468827029821934 -0.40290810194725279 0 0.057841008155207027 -0.38245658693310142 0 0.070468827029821934 -0.40290810194725279 0 0.057841008155207027 -0.38245658693310142 0 0.049143054551627013 -0.40747152083875582 0 0.057841008155207027 -0.38245658693310142 0 0.043656632087297011 -0.39232656597616861 0 0.049143054551627013 -0.40747152083875582 0 0.043656632087297011 -0.39232656597616861 0 0.028999000949789959 -0.40147898970888801 0 0.049143054551627013 -0.40747152083875582 0 0.043656632087297011 -0.39232656597616861 0 0.028999000949789959 -0.40147898970888801 0 0.032111139506758431 -0.37191992684122582 0 0.057841008155207027 -0.38245658693310142 0 0.043656632087297011 -0.39232656597616861 0 0.032111139506758431 -0.37191992684122582 0 0.011472045166716269 -0.38952867199447438 0 0.032111139506758431 -0.37191992684122582 0 0.011472045166716269 -0.38952867199447438 0 0.028999000949789959 -0.40147898970888801 0 0.032111139506758431 -0.37191992684122582 0 0.011472045166716269 -0.38952867199447438 0 0.032111139506758431 -0.37191992684122582 0 0.0095024714850780283 -0.37458082262515818 0 -0.0042332821090469977 -0.36931681778231101 0 -0.0014384839491562609 -0.38294108750953337 0 0.0095024714850780283 -0.37458082262515818 0 -0.0014384839491562609 -0.38294108750953337 0 0.011472045166716269 -0.38952867199447438 0 0.0095024714850780283 -0.37458082262515818 0 -0.0091670491733258502 -0.407137417147723 0 0.011472045166716269 -0.38952867199447438 0 0.005108664055598287 -0.40528738143041459 0 0.011472045166716269 -0.38952867199447438 0 0.005108664055598287 -0.40528738143041459 0 0.01434864661312045 -0.40656634948070969 0 -0.0091670491733258502 -0.407137417147723 0 0.011472045166716269 -0.38952867199447438 0 0.011472045166716269 -0.38952867199447438 0 0.028999000949789959 -0.40147898970888801 0 0.01434864661312045 -0.40656634948070969 0 0.028999000949789959 -0.40147898970888801 0 0.01434864661312045 -0.40656634948070969 0 0.016816745003192791 -0.42357542462247538 0 0.028999000949789959 -0.40147898970888801 0 0.016816745003192791 -0.42357542462247538 0 0.038035624732997701 -0.42318917072202022 0 0.01434864661312045 -0.40656634948070969 0 0.0037810136158822729 -0.41791708709875131 0 0.016816745003192791 -0.42357542462247538 0 0.005108664055598287 -0.40528738143041459 0 0.01434864661312045 -0.40656634948070969 0 0.0037810136158822729 -0.41791708709875131 0 0.00079488181500260609 -0.42987501851034571 0 0.016816745003192791 -0.42357542462247538 0 0.0068165806591294316 -0.44348526320397952 0 0.0037810136158822729 -0.41791708709875131 0 0.00079488181500260609 -0.42987501851034571 0 0.016816745003192791 -0.42357542462247538 0 0.016816745003192791 -0.42357542462247538 0 0.038035624732997701 -0.42318917072202022 0 0.02666676983233552 -0.44312735458325581 0 0.016816745003192791 -0.42357542462247538 0 0.02666676983233552 -0.44312735458325581 0 0.0068165806591294316 -0.44348526320397952 0 0.038035624732997701 -0.42318917072202022 0 0.047868830590497097 -0.43976064414632088 0 0.02666676983233552 -0.44312735458325581 0 0.028999000949789959 -0.40147898970888801 0 0.038035624732997701 -0.42318917072202022 0 0.049143054551627013 -0.40747152083875582 0 0.070468827029821934 -0.40290810194725279 0 0.049143054551627013 -0.40747152083875582 0 0.058719347470543831 -0.42372109043242612 0 0.038035624732997701 -0.42318917072202022 0 0.049143054551627013 -0.40747152083875582 0 0.058719347470543831 -0.42372109043242612 0 0.058719347470543831 -0.42372109043242612 0 0.047868830590497097 -0.43976064414632088 0 0.060604784186928162 -0.44219524034701829 0 0.038035624732997701 -0.42318917072202022 0 0.058719347470543831 -0.42372109043242612 0 0.047868830590497097 -0.43976064414632088 0 0.047868830590497097 -0.43976064414632088 0 0.060533864248779268 -0.45516161004070088 0 0.03684497090434212 -0.46105457747661138 0 0.047868830590497097 -0.43976064414632088 0 0.060533864248779268 -0.45516161004070088 0 0.047868830590497097 -0.43976064414632088 0 0.060604784186928162 -0.44219524034701829 0 0.060533864248779268 -0.45516161004070088 0 0.060533864248779268 -0.45516161004070088 0 0.03684497090434212 -0.46105457747661138 0 0.060533864248779268 -0.45516161004070088 0 0.052543339594833843 -0.46469110280171649 0 0.03684497090434212 -0.46105457747661138 0 0.060533864248779268 -0.45516161004070088 0 0.061795930812101732 -0.46820781613902701 0 0.052543339594833843 -0.46469110280171649 0 0.052543339594833843 -0.46469110280171649 0 0.03684497090434212 -0.46105457747661138 0 0.050998592414112261 -0.47434040755052698 0 0.047868830590497097 -0.43976064414632088 0 0.03684497090434212 -0.46105457747661138 0 0.02666676983233552 -0.44312735458325581 0 0.02666676983233552 -0.44312735458325581 0 0.0068165806591294316 -0.44348526320397952 0 0.013156077559905371 -0.46694754491252372 0 -0.0057475739345891896 -0.4549207533069245 0 0.0068165806591294316 -0.44348526320397952 0 0.013156077559905371 -0.46694754491252372 0 0.03684497090434212 -0.46105457747661138 0 0.02666676983233552 -0.44312735458325581 0 0.013156077559905371 -0.46694754491252372 0 0.03684497090434212 -0.46105457747661138 0 0.013156077559905371 -0.46694754491252372 0 0.03684497090434212 -0.46105457747661138 0 0.013156077559905371 -0.46694754491252372 0 0.032323810821201983 -0.4810656019103603 0 0.013156077559905371 -0.46694754491252372 0 0.0082051736105589468 -0.5 0 0.032323810821201983 -0.4810656019103603 0 -0.01053281578453142 -0.47284051234843588 0 0.013156077559905371 -0.46694754491252372 0 0.0082051736105589468 -0.5 0 -0.01053281578453142 -0.47284051234843588 0 0.013156077559905371 -0.46694754491252372 0 0.0082051736105589468 -0.5 0 0.037939068381746099 -0.5 0 0.032323810821201983 -0.4810656019103603 0 0.037939068381746099 -0.5 0 0.032323810821201983 -0.4810656019103603 0 0.053020152767299072 -0.48801933676575959 0 0.032323810821201983 -0.4810656019103603 0 0.050998592414112261 -0.47434040755052698 0 0.053020152767299072 -0.48801933676575959 0 0.03684497090434212 -0.46105457747661138 0 0.032323810821201983 -0.4810656019103603 0 0.050998592414112261 -0.47434040755052698 0 0.070479040632291823 -0.48264211959480191 0 0.050998592414112261 -0.47434040755052698 0 0.064630060102032719 -0.47456076603106118 0 0.070479040632291823 -0.48264211959480191 0 0.050998592414112261 -0.47434040755052698 0 0.070479040632291823 -0.48264211959480191 0 0.050998592414112261 -0.47434040755052698 0 0.053020152767299072 -0.48801933676575959 0 0.064630060102032719 -0.47456076603106118 0 0.061795930812101732 -0.46820781613902701 0 0.050998592414112261 -0.47434040755052698 0 0.061795930812101732 -0.46820781613902701 0 0.052543339594833843 -0.46469110280171649 0 0.050998592414112261 -0.47434040755052698 0 0.067672963152933252 -0.5 0 0.037939068381746099 -0.5 0 0.053020152767299072 -0.48801933676575959 0 0.087473163936891085 -0.29777268792509082 0 0.081564451789839787 -0.2785545792295161 0 0.1018918429625556 -0.28221661660282987 0 0.087473163936891085 -0.29777268792509082 0 0.081564451789839787 -0.2785545792295161 0 0.087473163936891085 -0.29777268792509082 0 0.067853695646582016 -0.28620356249784679 0 0.081564451789839787 -0.2785545792295161 0 0.087473163936891085 -0.29777268792509082 0 0.071339674350402019 -0.30608447369461589 0 0.075597518235181557 -0.31257595346091949 0 0.087473163936891085 -0.29777268792509082 0 0.098187962191818287 -0.30489187491565878 0 0.094028422526884897 -0.31909369138147992 0 0.087473163936891085 -0.29777268792509082 0 0.094028422526884897 -0.31909369138147992 0 0.075597518235181557 -0.31257595346091949 0 0.087473163936891085 -0.29777268792509082 0 0.094028422526884897 -0.31909369138147992 0 0.087473163936891085 -0.29777268792509082 0 0.071339674350402019 -0.30608447369461589 0 0.060560524715249003 -0.30009188710746898 0 0.087473163936891085 -0.29777268792509082 0 0.060560524715249003 -0.30009188710746898 0 0.071339674350402019 -0.30608447369461589 0 0.075597518235181557 -0.31257595346091949 0 0.061727490514286158 -0.31389736628498438 0 0.071339674350402019 -0.30608447369461589 0 0.061727490514286158 -0.31389736628498438 0 0.060560524715249003 -0.30009188710746898 0 0.067853695646582016 -0.28620356249784679 0 0.059116804960237683 -0.29062940211096661 0 0.060560524715249003 -0.30009188710746898 0 0.087473163936891085 -0.29777268792509082 0 0.067853695646582016 -0.28620356249784679 0 0.060560524715249003 -0.30009188710746898 0 0.066214989649419603 -0.27316028682740479 0 0.075655739642787975 -0.2593364705339416 0 0.081564451789839787 -0.2785545792295161 0 0.067853695646582016 -0.28620356249784679 0 0.066214989649419603 -0.27316028682740479 0 0.081564451789839787 -0.2785545792295161 0 0.066214989649419603 -0.27316028682740479 0 0.075655739642787975 -0.2593364705339416 0 0.05341834128670471 -0.26222533989734959 0 0.075655739642787975 -0.2593364705339416 0 0.05341834128670471 -0.26222533989734959 0 0.071841433176306951 -0.24693042426755701 0 0.075655739642787975 -0.2593364705339416 0 0.05341834128670471 -0.26222533989734959 0 0.075655739642787975 -0.2593364705339416 0 0.071841433176306951 -0.24693042426755701 0 0.075655739642787975 -0.2593364705339416 0 0.097033033634931737 -0.25655933767435479 0 0.087503871482331325 -0.24918859503345439 0 0.075655739642787975 -0.2593364705339416 0 0.087704679779763817 -0.26614109232216421 0 0.097033033634931737 -0.25655933767435479 0 0.075655739642787975 -0.2593364705339416 0 0.071841433176306951 -0.24693042426755701 0 0.087503871482331325 -0.24918859503345439 0 0.075655739642787975 -0.2593364705339416 0 0.097033033634931737 -0.25655933767435479 0 0.075655739642787975 -0.2593364705339416 0 0.081564451789839787 -0.2785545792295161 0 0.081564451789839787 -0.2785545792295161 0 0.096565494051495782 -0.27011398185084429 0 0.1018918429625556 -0.28221661660282987 0 0.075655739642787975 -0.2593364705339416 0 0.081564451789839787 -0.2785545792295161 0 0.087704679779763817 -0.26614109232216421 0 0.081564451789839787 -0.2785545792295161 0 0.087704679779763817 -0.26614109232216421 0 0.096565494051495782 -0.27011398185084429 0 0.11343381581407461 -0.27807896693227868 0 0.1097056353048949 -0.26812745810770261 0 0.1018918429625556 -0.28221661660282987 0 0.096565494051495782 -0.27011398185084429 0 0.1097056353048949 -0.26812745810770261 0 0.1018918429625556 -0.28221661660282987 0 0.097033033634931737 -0.25655933767435479 0 0.11542254909125391 -0.25417034832591701 0 0.09726841460880753 -0.24973530510077291 0 0.097033033634931737 -0.25655933767435479 0 0.11542254909125391 -0.25417034832591701 0 0.1097056353048949 -0.26812745810770261 0 0.097033033634931737 -0.25655933767435479 0 0.11542254909125391 -0.25417034832591701 0 0.1155402395781918 -0.2507583320391269 0 0.09726841460880753 -0.24973530510077291 0 0.097033033634931737 -0.25655933767435479 0 0.087503871482331325 -0.24918859503345439 0 0.09726841460880753 -0.24973530510077291 0 0.097033033634931737 -0.25655933767435479 0 0.09726841460880753 -0.24973530510077291 0 0.096565494051495782 -0.27011398185084429 0 0.097033033634931737 -0.25655933767435479 0 0.087704679779763817 -0.26614109232216421 0 0.096565494051495782 -0.27011398185084429 0 0.097033033634931737 -0.25655933767435479 0 0.096565494051495782 -0.27011398185084429 0 0.097033033634931737 -0.25655933767435479 0 0.1097056353048949 -0.26812745810770261 0 0.1338120645475761 -0.25178135897747889 0 0.1155402395781918 -0.2507583320391269 0 0.11542254909125391 -0.25417034832591701 0 0.1155402395781918 -0.2507583320391269 0 0.11542254909125391 -0.25417034832591701 0 0.09726841460880753 -0.24973530510077291 0 0.1338120645475761 -0.25178135897747889 0 0.1155402395781918 -0.2507583320391269 0 0.1338120645475761 -0.25178135897747889 0 0.11542254909125391 -0.25417034832591701 0 0.123327112510175 -0.26381005316279871 0 0.1338120645475761 -0.25178135897747889 0 0.11542254909125391 -0.25417034832591701 0 0.11542254909125391 -0.25417034832591701 0 0.123327112510175 -0.26381005316279871 0 0.1097056353048949 -0.26812745810770261 0 0.11343381581407461 -0.27807896693227868 0 0.1097056353048949 -0.26812745810770261 0 0.119201036987635 -0.27295982712471439 0 0.1280966355330338 -0.27434446718476552 0 0.123327112510175 -0.26381005316279871 0 0.119201036987635 -0.27295982712471439 0 0.123327112510175 -0.26381005316279871 0 0.1097056353048949 -0.26812745810770261 0 0.119201036987635 -0.27295982712471439 0 0.11343381581407461 -0.27807896693227868 0 0.119201036987635 -0.27295982712471439 0 0.12144198577599689 -0.28043819023602667 0 0.1280966355330338 -0.27434446718476552 0 0.119201036987635 -0.27295982712471439 0 0.12144198577599689 -0.28043819023602667 0 0.1225628758501054 -0.2947488287446996 0 0.10501801989349829 -0.29626075833489562 0 0.12144198577599689 -0.28043819023602667 0 0.1233634239504731 -0.2874855776093414 0 0.1139532624844367 -0.28782333961704598 0 0.1275993617664036 -0.28112518425861122 0 0.12144198577599689 -0.28043819023602667 0 0.1233634239504731 -0.2874855776093414 0 0.1225628758501054 -0.2947488287446996 0 0.1139532624844367 -0.28782333961704598 0 0.10501801989349829 -0.29626075833489562 0 0.1233634239504731 -0.2874855776093414 0 0.1225628758501054 -0.2947488287446996 0 0.1139532624844367 -0.28782333961704598 0 0.1256525224322369 -0.29448257816376899 0 0.1225628758501054 -0.2947488287446996 0 0.11343381581407461 -0.27807896693227868 0 0.12144198577599689 -0.28043819023602667 0 0.1139532624844367 -0.28782333961704598 0 0.11343381581407461 -0.27807896693227868 0 0.1139532624844367 -0.28782333961704598 0 0.1018918429625556 -0.28221661660282987 0 0.1139532624844367 -0.28782333961704598 0 0.1018918429625556 -0.28221661660282987 0 0.10501801989349829 -0.29626075833489562 0 0.087473163936891085 -0.29777268792509082 0 0.1018918429625556 -0.28221661660282987 0 0.10501801989349829 -0.29626075833489562 0 0.087473163936891085 -0.29777268792509082 0 0.10501801989349829 -0.29626075833489562 0 0.087473163936891085 -0.29777268792509082 0 0.10501801989349829 -0.29626075833489562 0 0.098187962191818287 -0.30489187491565878 0 0.098187962191818287 -0.30489187491565878 0 0.10829564918849539 -0.30692126006309001 0 0.094028422526884897 -0.31909369138147992 0 0.10501801989349829 -0.29626075833489562 0 0.098187962191818287 -0.30489187491565878 0 0.10829564918849539 -0.30692126006309001 0 0.10829564918849539 -0.30692126006309001 0 0.11665503897845669 -0.30709539838653632 0 0.10765755552467721 -0.31970821860930398 0 0.1225628758501054 -0.2947488287446996 0 0.10501801989349829 -0.29626075833489562 0 0.10829564918849539 -0.30692126006309001 0 0.1225628758501054 -0.2947488287446996 0 0.10829564918849539 -0.30692126006309001 0 0.1225628758501054 -0.2947488287446996 0 0.10829564918849539 -0.30692126006309001 0 0.11665503897845669 -0.30709539838653632 0 0.127428615210958 -0.30550107704066293 0 0.1256525224322369 -0.29448257816376899 0 0.11665503897845669 -0.30709539838653632 0 0.1256525224322369 -0.29448257816376899 0 0.11665503897845669 -0.30709539838653632 0 0.1256525224322369 -0.29448257816376899 0 0.1225628758501054 -0.2947488287446996 0 0.11665503897845669 -0.30709539838653632 0 0.127428615210958 -0.30550107704066293 0 0.11665503897845669 -0.30709539838653632 0 0.1236403595102975 -0.31726182602291142 0 0.1236403595102975 -0.31726182602291142 0 0.1156667707943719 -0.32879233033577338 0 0.10765755552467721 -0.31970821860930398 0 0.11665503897845669 -0.30709539838653632 0 0.1236403595102975 -0.31726182602291142 0 0.10765755552467721 -0.31970821860930398 0 0.11665503897845669 -0.30709539838653632 0 0.10765755552467721 -0.31970821860930398 0 0.1156667707943719 -0.32879233033577338 0 0.1048460875680276 -0.32950050860128433 0 0.10765755552467721 -0.31970821860930398 0 0.12646864396445259 -0.32771949481933838 0 0.1236403595102975 -0.31726182602291142 0 0.1156667707943719 -0.32879233033577338 0 0.12646864396445259 -0.32771949481933838 0 0.1218367566819203 -0.34066885685305681 0 0.1156667707943719 -0.32879233033577338 0 0.1218367566819203 -0.34066885685305681 0 0.1156667707943719 -0.32879233033577338 0 0.1082494064665878 -0.33928340961487857 0 0.1156667707943719 -0.32879233033577338 0 0.1048460875680276 -0.32950050860128433 0 0.1082494064665878 -0.33928340961487857 0 0.1048460875680276 -0.32950050860128433 0 0.1082494064665878 -0.33928340961487857 0 0.097004582427965266 -0.33631516769786107 0 0.1082494064665878 -0.33928340961487857 0 0.097004582427965266 -0.33631516769786107 0 0.093814972832634291 -0.34820918954221819 0 0.1048460875680276 -0.32950050860128433 0 0.097004582427965266 -0.33631516769786107 0 0.096073069581201237 -0.32574391368982941 0 0.096073069581201237 -0.32574391368982941 0 0.094028422526884897 -0.31909369138147992 0 0.10765755552467721 -0.31970821860930398 0 0.096073069581201237 -0.32574391368982941 0 0.094028422526884897 -0.31909369138147992 0 0.10829564918849539 -0.30692126006309001 0 0.094028422526884897 -0.31909369138147992 0 0.10829564918849539 -0.30692126006309001 0 0.094028422526884897 -0.31909369138147992 0 0.10765755552467721 -0.31970821860930398 0 0.1048460875680276 -0.32950050860128433 0 0.096073069581201237 -0.32574391368982941 0 0.10765755552467721 -0.31970821860930398 0 0.13554014667972011 -0.37371994475541209 0 0.11257503074115451 -0.38498649823446041 0 0.1211241730808211 -0.35969015994424403 0 0.11257503074115451 -0.38498649823446041 0 0.1211241730808211 -0.35969015994424403 0 0.10079201747098269 -0.36412242239479142 0 0.1211241730808211 -0.35969015994424403 0 0.1091752126596531 -0.3513855426967849 0 0.10079201747098269 -0.36412242239479142 0 0.1218367566819203 -0.34066885685305681 0 0.1211241730808211 -0.35969015994424403 0 0.1091752126596531 -0.3513855426967849 0 0.1218367566819203 -0.34066885685305681 0 0.1082494064665878 -0.33928340961487857 0 0.1091752126596531 -0.3513855426967849 0 0.1091752126596531 -0.3513855426967849 0 0.093814972832634291 -0.34820918954221819 0 0.10079201747098269 -0.36412242239479142 0 0.1082494064665878 -0.33928340961487857 0 0.1091752126596531 -0.3513855426967849 0 0.093814972832634291 -0.34820918954221819 0 0.085185771917526548 -0.37977283474271561 0 0.10079201747098269 -0.36412242239479142 0 0.076425374258651049 -0.36036916924143869 0 0.093814972832634291 -0.34820918954221819 0 0.076425374258651049 -0.36036916924143869 0 0.073389328186842753 -0.33670243653472848 0 0.093814972832634291 -0.34820918954221819 0 0.10079201747098269 -0.36412242239479142 0 0.076425374258651049 -0.36036916924143869 0 0.076425374258651049 -0.36036916924143869 0 0.073389328186842753 -0.33670243653472848 0 0.052750233846800589 -0.35431118168797721 0 0.073389328186842753 -0.33670243653472848 0 0.052750233846800589 -0.35431118168797721 0 0.085185771917526548 -0.37977283474271561 0 0.057841008155207027 -0.38245658693310142 0 0.076425374258651049 -0.36036916924143869 0 0.094028422526884897 -0.31909369138147992 0 0.073389328186842753 -0.33670243653472848 0 0.096073069581201237 -0.32574391368982941 0 0.094028422526884897 -0.31909369138147992 0 0.073389328186842753 -0.33670243653472848 0 0.094028422526884897 -0.31909369138147992 0 0.073389328186842753 -0.33670243653472848 0 0.072651274237206992 -0.32234881883649769 0 0.094028422526884897 -0.31909369138147992 0 0.072651274237206992 -0.32234881883649769 0 0.075597518235181557 -0.31257595346091949 0 0.097004582427965266 -0.33631516769786107 0 0.096073069581201237 -0.32574391368982941 0 0.073389328186842753 -0.33670243653472848 0 0.097004582427965266 -0.33631516769786107 0 0.093814972832634291 -0.34820918954221819 0 0.073389328186842753 -0.33670243653472848 0 0.073389328186842753 -0.33670243653472848 0 0.072651274237206992 -0.32234881883649769 0 0.058513611722839573 -0.32947464652037622 0 0.072651274237206992 -0.32234881883649769 0 0.061727490514286158 -0.31389736628498438 0 0.058513611722839573 -0.32947464652037622 0 0.072651274237206992 -0.32234881883649769 0 0.075597518235181557 -0.31257595346091949 0 0.061727490514286158 -0.31389736628498438 0 0.061727490514286158 -0.31389736628498438 0 0.048871722081095123 -0.31851038162196682 0 0.053524671366835877 -0.30640407556079952 0 0.048871722081095123 -0.31851038162196682 0 0.058513611722839573 -0.32947464652037622 0 0.042608717461976538 -0.3312298768594002 0 0.061727490514286158 -0.31389736628498438 0 0.048871722081095123 -0.31851038162196682 0 0.058513611722839573 -0.32947464652037622 0 0.073389328186842753 -0.33670243653472848 0 0.058513611722839573 -0.32947464652037622 0 0.052750233846800589 -0.35431118168797721 0 0.058513611722839573 -0.32947464652037622 0 0.042608717461976538 -0.3312298768594002 0 0.052750233846800589 -0.35431118168797721 0 0.042608717461976538 -0.3312298768594002 0 0.032201100374313327 -0.3403185580786573 0 0.052750233846800589 -0.35431118168797721 0 0.042608717461976538 -0.3312298768594002 0 0.032201100374313327 -0.3403185580786573 0 0.02803274898307424 -0.32856413603580631 0 0.042608717461976538 -0.3312298768594002 0 0.035004108339948901 -0.31633090919971779 0 0.02803274898307424 -0.32856413603580631 0 0.048871722081095123 -0.31851038162196682 0 0.035004108339948901 -0.31633090919971779 0 0.042659306472636778 -0.3047174731171407 0 0.048871722081095123 -0.31851038162196682 0 0.042608717461976538 -0.3312298768594002 0 0.035004108339948901 -0.31633090919971779 0 0.057841008155207027 -0.38245658693310142 0 0.052750233846800589 -0.35431118168797721 0 0.032111139506758431 -0.37191992684122582 0 0.057841008155207027 -0.38245658693310142 0 0.076425374258651049 -0.36036916924143869 0 0.052750233846800589 -0.35431118168797721 0 0.032201100374313327 -0.3403185580786573 0 0.052750233846800589 -0.35431118168797721 0 0.023184557849655049 -0.35200766470484768 0 0.052750233846800589 -0.35431118168797721 0 0.032111139506758431 -0.37191992684122582 0 0.052750233846800589 -0.35431118168797721 0 0.032111139506758431 -0.37191992684122582 0 0.023184557849655049 -0.35200766470484768 0 0.032111139506758431 -0.37191992684122582 0 0.023184557849655049 -0.35200766470484768 0 0.010345294108568969 -0.36081801354288939 0 0.032111139506758431 -0.37191992684122582 0 0.010345294108568969 -0.36081801354288939 0 0.0095024714850780283 -0.37458082262515818 0 -0.0019921573348008 -0.35014241775074068 0 0.023184557849655049 -0.35200766470484768 0 0.014429243730060239 -0.33547993110525531 0 -0.0019921573348008 -0.35014241775074068 0 0.023184557849655049 -0.35200766470484768 0 0.010345294108568969 -0.36081801354288939 0 -0.0019921573348008 -0.35014241775074068 0 -0.0042332821090469977 -0.36931681778231101 0 0.010345294108568969 -0.36081801354288939 0 -0.0042332821090469977 -0.36931681778231101 0 0.010345294108568969 -0.36081801354288939 0 0.0095024714850780283 -0.37458082262515818 0 0.035004108339948901 -0.31633090919971779 0 0.02803274898307424 -0.32856413603580631 0 0.015526697491276621 -0.31392901685578528 0 0.02803274898307424 -0.32856413603580631 0 0.014429243730060239 -0.33547993110525531 0 0.015526697491276621 -0.31392901685578528 0 0.032201100374313327 -0.3403185580786573 0 0.023184557849655049 -0.35200766470484768 0 0.014429243730060239 -0.33547993110525531 0 0.032201100374313327 -0.3403185580786573 0 0.02803274898307424 -0.32856413603580631 0 0.014429243730060239 -0.33547993110525531 0 -0.008605873932596356 -0.33624452634938418 0 -0.0019921573348008 -0.35014241775074068 0 0.014429243730060239 -0.33547993110525531 0 -0.008605873932596356 -0.33624452634938418 0 0.014429243730060239 -0.33547993110525531 0 0.0035141492887302548 -0.32519051246028208 0 0.014429243730060239 -0.33547993110525531 0 0.0035141492887302548 -0.32519051246028208 0 0.015526697491276621 -0.31392901685578528 0 -0.0093546214437348063 -0.3154421594820554 0 0.0035141492887302548 -0.32519051246028208 0 0.015526697491276621 -0.31392901685578528 0 -0.0093546214437348063 -0.3154421594820554 0 0.015526697491276621 -0.31392901685578528 0 0.0025702240157044749 -0.30194718224499639 0 0.015526697491276621 -0.31392901685578528 0 0.0025702240157044749 -0.30194718224499639 0 0.018894421690538499 -0.29417828297256371 0 0.0025702240157044749 -0.30194718224499639 0 0.001953977901653102 -0.28749824366549498 0 0.018894421690538499 -0.29417828297256371 0 0.001953977901653102 -0.28749824366549498 0 0.018894421690538499 -0.29417828297256371 0 0.015670532879786751 -0.2762907948651831 0 0.018894421690538499 -0.29417828297256371 0 0.030268242974381541 -0.30296892509516138 0 0.036539995597899583 -0.28735292316580879 0 0.018894421690538499 -0.29417828297256371 0 0.036539995597899583 -0.28735292316580879 0 0.015670532879786751 -0.2762907948651831 0 0.015526697491276621 -0.31392901685578528 0 0.018894421690538499 -0.29417828297256371 0 0.030268242974381541 -0.30296892509516138 0 0.035004108339948901 -0.31633090919971779 0 0.015526697491276621 -0.31392901685578528 0 0.030268242974381541 -0.30296892509516138 0 0.030268242974381541 -0.30296892509516138 0 0.042659306472636778 -0.3047174731171407 0 0.036539995597899583 -0.28735292316580879 0 0.035004108339948901 -0.31633090919971779 0 0.030268242974381541 -0.30296892509516138 0 0.042659306472636778 -0.3047174731171407 0 0.042659306472636778 -0.3047174731171407 0 0.036539995597899583 -0.28735292316580879 0 0.051747098475659753 -0.29673762405939008 0 0.051747098475659753 -0.29673762405939008 0 0.052582719881183543 -0.27948148197836992 0 0.051747098475659753 -0.29673762405939008 0 0.059116804960237683 -0.29062940211096661 0 0.052582719881183543 -0.27948148197836992 0 0.036539995597899583 -0.28735292316580879 0 0.051747098475659753 -0.29673762405939008 0 0.052582719881183543 -0.27948148197836992 0 0.067853695646582016 -0.28620356249784679 0 0.059116804960237683 -0.29062940211096661 0 0.052582719881183543 -0.27948148197836992 0 0.051747098475659753 -0.29673762405939008 0 0.059116804960237683 -0.29062940211096661 0 0.060560524715249003 -0.30009188710746898 0 0.051747098475659753 -0.29673762405939008 0 0.060560524715249003 -0.30009188710746898 0 0.053524671366835877 -0.30640407556079952 0 0.061727490514286158 -0.31389736628498438 0 0.060560524715249003 -0.30009188710746898 0 0.053524671366835877 -0.30640407556079952 0 0.048871722081095123 -0.31851038162196682 0 0.042659306472636778 -0.3047174731171407 0 0.053524671366835877 -0.30640407556079952 0 0.042659306472636778 -0.3047174731171407 0 0.051747098475659753 -0.29673762405939008 0 0.053524671366835877 -0.30640407556079952 0 0.05341834128670471 -0.26222533989734959 0 0.054455146400998369 -0.2408146193913096 0 0.05341834128670471 -0.26222533989734959 0 0.041504830166615332 -0.24909079072316551 0 0.054455146400998369 -0.2408146193913096 0 0.05341834128670471 -0.26222533989734959 0 0.052582719881183543 -0.27948148197836992 0 0.066214989649419603 -0.27316028682740479 0 0.05341834128670471 -0.26222533989734959 0 0.052582719881183543 -0.27948148197836992 0 0.067853695646582016 -0.28620356249784679 0 0.066214989649419603 -0.27316028682740479 0 0.052582719881183543 -0.27948148197836992 0 0.05341834128670471 -0.26222533989734959 0 0.052582719881183543 -0.27948148197836992 0 0.028317708997288939 -0.2654861731325095 0 0.036539995597899583 -0.28735292316580879 0 0.052582719881183543 -0.27948148197836992 0 0.028317708997288939 -0.2654861731325095 0 0.028317708997288939 -0.2654861731325095 0 0.026822654761378281 -0.24010580347910071 0 0.041504830166615332 -0.24909079072316551 0 0.05341834128670471 -0.26222533989734959 0 0.028317708997288939 -0.2654861731325095 0 0.041504830166615332 -0.24909079072316551 0 0.05341834128670471 -0.26222533989734959 0 0.028317708997288939 -0.2654861731325095 0 0.028317708997288939 -0.2654861731325095 0 0.01150473642008854 -0.25100487296640661 0 0.026822654761378281 -0.24010580347910071 0 0.028317708997288939 -0.2654861731325095 0 0.015670532879786751 -0.2762907948651831 0 0.0049597396345670026 -0.26452376434945218 0 0.036539995597899583 -0.28735292316580879 0 0.028317708997288939 -0.2654861731325095 0 0.015670532879786751 -0.2762907948651831 0 -0.002131649244152236 -0.27375645946249172 0 0.015670532879786751 -0.2762907948651831 0 0.0049597396345670026 -0.26452376434945218 0 -0.002131649244152236 -0.27375645946249172 0 0.001953977901653102 -0.28749824366549498 0 0.015670532879786751 -0.2762907948651831 0 -0.0050603712554523096 -0.25502580822232418 0 0.01150473642008854 -0.25100487296640661 0 0.0049597396345670026 -0.26452376434945218 0 0.028317708997288939 -0.2654861731325095 0 0.01150473642008854 -0.25100487296640661 0 0.0049597396345670026 -0.26452376434945218 0 -0.0050603712554523096 -0.25502580822232418 0 -0.0012779613340340411 -0.24176494305706761 0 0.01150473642008854 -0.25100487296640661 0 -0.0012779613340340411 -0.24176494305706761 0 0.01150473642008854 -0.25100487296640661 0 0.01227448810303049 -0.23689425083746071 0 -0.0012779613340340411 -0.24176494305706761 0 -0.0016127085748020571 -0.22712480654777251 0 0.01227448810303049 -0.23689425083746071 0 -0.0016127085748020571 -0.22712480654777251 0 0.01227448810303049 -0.23689425083746071 0 0.01698840492239578 -0.2228903554452914 0 -0.0016127085748020571 -0.22712480654777251 0 0.01698840492239578 -0.2228903554452914 0 0.0064561243882930407 -0.21561537692257879 0 0.01227448810303049 -0.23689425083746071 0 0.01698840492239578 -0.2228903554452914 0 0.026822654761378281 -0.24010580347910071 0 0.01698840492239578 -0.2228903554452914 0 0.026822654761378281 -0.24010580347910071 0 0.034262553780134708 -0.21981152268886431 0 0.01150473642008854 -0.25100487296640661 0 0.01227448810303049 -0.23689425083746071 0 0.026822654761378281 -0.24010580347910071 0 -0.0048422933519348798 -0.20657909219758999 0 0.01498437965793468 -0.2009023489100171 0 0.0039750345954989988 -0.18651425943902311 0 0.01498437965793468 -0.2009023489100171 0 0.019555974831457788 -0.18489329081675979 0 0.0039750345954989988 -0.18651425943902311 0 -0.0048422933519348798 -0.20657909219758999 0 0.01498437965793468 -0.2009023489100171 0 0.0064561243882930407 -0.21561537692257879 0 0.01498437965793468 -0.2009023489100171 0 0.0064561243882930407 -0.21561537692257879 0 0.022166629418003729 -0.2118345471400416 0 0.01698840492239578 -0.2228903554452914 0 0.0064561243882930407 -0.21561537692257879 0 0.022166629418003729 -0.2118345471400416 0 -0.0016127085748020571 -0.22712480654777251 0 -0.0048422933519348798 -0.20657909219758999 0 0.0064561243882930407 -0.21561537692257879 0 0.01698840492239578 -0.2228903554452914 0 0.022166629418003729 -0.2118345471400416 0 0.034262553780134708 -0.21981152268886431 0 0.01498437965793468 -0.2009023489100171 0 0.022166629418003729 -0.2118345471400416 0 0.031897636722889637 -0.2043381853445167 0 0.022166629418003729 -0.2118345471400416 0 0.031897636722889637 -0.2043381853445167 0 0.034262553780134708 -0.21981152268886431 0 0.01498437965793468 -0.2009023489100171 0 0.027972004457906641 -0.19290593557317351 0 0.019555974831457788 -0.18489329081675979 0 0.01498437965793468 -0.2009023489100171 0 0.027972004457906641 -0.19290593557317351 0 0.031897636722889637 -0.2043381853445167 0 0.056528756629579638 -0.1979931783792292 0 0.033889281643562412 -0.17857272488157999 0 0.027972004457906641 -0.19290593557317351 0 0.03953274943368866 -0.19582312791299369 0 0.033889281643562412 -0.17857272488157999 0 0.03953274943368866 -0.19582312791299369 0 0.044202360045936313 -0.20737869318372881 0 0.056528756629579638 -0.1979931783792292 0 0.03953274943368866 -0.19582312791299369 0 0.056528756629579638 -0.1979931783792292 0 0.033889281643562412 -0.17857272488157999 0 0.027972004457906641 -0.19290593557317351 0 0.03953274943368866 -0.19582312791299369 0 0.031897636722889637 -0.2043381853445167 0 0.03953274943368866 -0.19582312791299369 0 0.044202360045936313 -0.20737869318372881 0 0.031897636722889637 -0.2043381853445167 0 0.044202360045936313 -0.20737869318372881 0 0.034262553780134708 -0.21981152268886431 0 0.055491951515289413 -0.2194038988852694 0 0.044202360045936313 -0.20737869318372881 0 0.031897636722889637 -0.2043381853445167 0 0.034262553780134708 -0.21981152268886431 0 0.058246448850680657 -0.19946663842738771 0 0.055491951515289413 -0.2194038988852694 0 0.066041136181110544 -0.21386160323267189 0 0.056528756629579638 -0.1979931783792292 0 0.055491951515289413 -0.2194038988852694 0 0.058246448850680657 -0.19946663842738771 0 0.056528756629579638 -0.1979931783792292 0 0.055491951515289413 -0.2194038988852694 0 0.044202360045936313 -0.20737869318372881 0 0.056528756629579638 -0.1979931783792292 0 0.055491951515289413 -0.2194038988852694 0 0.056528756629579638 -0.1979931783792292 0 0.057329549479635908 -0.18145626931170691 0 0.056528756629579638 -0.1979931783792292 0 0.065123946871468164 -0.19127238357693871 0 0.057329549479635908 -0.18145626931170691 0 0.058246448850680657 -0.19946663842738771 0 0.056528756629579638 -0.1979931783792292 0 0.065123946871468164 -0.19127238357693871 0 0.058246448850680657 -0.19946663842738771 0 0.056528756629579638 -0.1979931783792292 0 0.041504830166615332 -0.24909079072316551 0 0.041828765002810943 -0.233037808058844 0 0.054455146400998369 -0.2408146193913096 0 0.026822654761378281 -0.24010580347910071 0 0.041504830166615332 -0.24909079072316551 0 0.041828765002810943 -0.233037808058844 0 0.041828765002810943 -0.233037808058844 0 0.034262553780134708 -0.21981152268886431 0 0.055491951515289413 -0.2194038988852694 0 0.026822654761378281 -0.24010580347910071 0 0.041828765002810943 -0.233037808058844 0 0.034262553780134708 -0.21981152268886431 0 0.055491951515289413 -0.2194038988852694 0 0.054455146400998369 -0.2408146193913096 0 0.070056056729074334 -0.23044917593339351 0 0.055491951515289413 -0.2194038988852694 0 0.054455146400998369 -0.2408146193913096 0 0.041828765002810943 -0.233037808058844 0 0.055491951515289413 -0.2194038988852694 0 0.054455146400998369 -0.2408146193913096 0 0.05341834128670471 -0.26222533989734959 0 0.054455146400998369 -0.2408146193913096 0 0.071841433176306951 -0.24693042426755701 0 0.071841433176306951 -0.24693042426755701 0 0.078351655706027534 -0.24017870186704479 0 0.070056056729074334 -0.23044917593339351 0 0.054455146400998369 -0.2408146193913096 0 0.071841433176306951 -0.24693042426755701 0 0.070056056729074334 -0.23044917593339351 0 0.078351655706027534 -0.24017870186704479 0 0.084005261436397555 -0.23414661223377431 0 0.070056056729074334 -0.23044917593339351 0 0.071841433176306951 -0.24693042426755701 0 0.078351655706027534 -0.24017870186704479 0 0.087503871482331325 -0.24918859503345439 0 0.084005261436397555 -0.23414661223377431 0 0.09726841460880753 -0.24973530510077291 0 0.098224276789357245 -0.22202348732504129 0 0.078351655706027534 -0.24017870186704479 0 0.087503871482331325 -0.24918859503345439 0 0.084005261436397555 -0.23414661223377431 0 0.087503871482331325 -0.24918859503345439 0 0.084005261436397555 -0.23414661223377431 0 0.09726841460880753 -0.24973530510077291 0 0.087503871482331325 -0.24918859503345439 0 0.09726841460880753 -0.24973530510077291 0 0.084005261436397555 -0.23414661223377431 0 0.077944909524616218 -0.21644665818138251 0 0.098224276789357245 -0.22202348732504129 0 0.084005261436397555 -0.23414661223377431 0 0.070056056729074334 -0.23044917593339351 0 0.077944909524616218 -0.21644665818138251 0 0.070056056729074334 -0.23044917593339351 0 0.066041136181110544 -0.21386160323267189 0 0.077944909524616218 -0.21644665818138251 0 0.055491951515289413 -0.2194038988852694 0 0.070056056729074334 -0.23044917593339351 0 0.066041136181110544 -0.21386160323267189 0 0.058246448850680657 -0.19946663842738771 0 0.066041136181110544 -0.21386160323267189 0 0.071428190199665467 -0.20133585635874521 0 0.066041136181110544 -0.21386160323267189 0 0.077944909524616218 -0.21644665818138251 0 0.071428190199665467 -0.20133585635874521 0 0.058246448850680657 -0.19946663842738771 0 0.065123946871468164 -0.19127238357693871 0 0.071428190199665467 -0.20133585635874521 0 0.065123946871468164 -0.19127238357693871 0 0.071428190199665467 -0.20133585635874521 0 0.077775677467109644 -0.1894438906232867 0 0.077775677467109644 -0.1894438906232867 0 0.085264727641627694 -0.2009309552866074 0 0.087035172899110766 -0.18202416968187909 0 0.085264727641627694 -0.2009309552866074 0 0.099180138969906934 -0.19431166954930951 0 0.087035172899110766 -0.18202416968187909 0 0.071428190199665467 -0.20133585635874521 0 0.077775677467109644 -0.1894438906232867 0 0.085264727641627694 -0.2009309552866074 0 0.077944909524616218 -0.21644665818138251 0 0.085264727641627694 -0.2009309552866074 0 0.098224276789357245 -0.22202348732504129 0 0.077944909524616218 -0.21644665818138251 0 0.071428190199665467 -0.20133585635874521 0 0.085264727641627694 -0.2009309552866074 0 0.085264727641627694 -0.2009309552866074 0 0.099180138969906934 -0.19431166954930951 0 0.098224276789357245 -0.22202348732504129 0 0.099180138969906934 -0.19431166954930951 0 0.11354412200005309 -0.20878294345574169 0 0.098224276789357245 -0.22202348732504129 0 0.099180138969906934 -0.19431166954930951 0 0.098224276789357245 -0.22202348732504129 0 0.099180138969906934 -0.19431166954930951 0 0.1232396379011078 -0.1927549034493776 0 0.1116878195257827 -0.17967737761147759 0 0.099180138969906934 -0.19431166954930951 0 0.1232396379011078 -0.1927549034493776 0 0.11354412200005309 -0.20878294345574169 0 0.1232396379011078 -0.1927549034493776 0 0.11354412200005309 -0.20878294345574169 0 0.1296813367821156 -0.2112782106774091 0 0.11354412200005309 -0.20878294345574169 0 0.11925867152865099 -0.22395178641925401 0 0.1296813367821156 -0.2112782106774091 0 0.11354412200005309 -0.20878294345574169 0 0.11925867152865099 -0.22395178641925401 0 0.098224276789357245 -0.22202348732504129 0 0.11925867152865099 -0.22395178641925401 0 0.1115141746540584 -0.23685798868452451 0 0.098224276789357245 -0.22202348732504129 0 0.11925867152865099 -0.22395178641925401 0 0.1115141746540584 -0.23685798868452451 0 0.12727927076528461 -0.2378210325384271 0 0.1155402395781918 -0.2507583320391269 0 0.1115141746540584 -0.23685798868452451 0 0.12727927076528461 -0.2378210325384271 0 0.09726841460880753 -0.24973530510077291 0 0.098224276789357245 -0.22202348732504129 0 0.1115141746540584 -0.23685798868452451 0 0.09726841460880753 -0.24973530510077291 0 0.098224276789357245 -0.22202348732504129 0 0.1155402395781918 -0.2507583320391269 0 0.1115141746540584 -0.23685798868452451 0 0.09726841460880753 -0.24973530510077291 0 0.1006234008225292 -0.15246943509712671 0 0.1001360011504572 -0.16659985177357781 0 0.083956960864695562 -0.1482839632705675 0 0.093837558922739497 -0.14264619108299431 0 0.1006234008225292 -0.15246943509712671 0 0.1028307954559992 -0.13579239345953559 0 0.1006234008225292 -0.15246943509712671 0 0.1028307954559992 -0.13579239345953559 0 0.1133439292462652 -0.14669813101470161 0 0.1006234008225292 -0.15246943509712671 0 0.1133439292462652 -0.14669813101470161 0 0.1122920085546638 -0.16227381202107721 0 0.093837558922739497 -0.14264619108299431 0 0.1028307954559992 -0.13579239345953559 0 0.086025777066828416 -0.13071312073542821 0 0.1028307954559992 -0.13579239345953559 0 0.086025777066828416 -0.13071312073542821 0 0.1003755091591467 -0.120365047089626 0 0.1028307954559992 -0.13579239345953559 0 0.1110772144577262 -0.12607447494648069 0 0.1003755091591467 -0.120365047089626 0 0.1028307954559992 -0.13579239345953559 0 0.1110772144577262 -0.12607447494648069 0 0.1195920268695274 -0.13435801890873961 0 0.1028307954559992 -0.13579239345953559 0 0.1195920268695274 -0.13435801890873961 0 0.1133439292462652 -0.14669813101470161 0 0.1110772144577262 -0.12607447494648069 0 0.1195920268695274 -0.13435801890873961 0 0.125059882544757 -0.1243050716586782 0 0.1195920268695274 -0.13435801890873961 0 0.1133439292462652 -0.14669813101470161 0 0.12550759679471971 -0.14428239988351421 0 0.1133439292462652 -0.14669813101470161 0 0.1238726331408222 -0.15597973401630799 0 0.1122920085546638 -0.16227381202107721 0 0.1133439292462652 -0.14669813101470161 0 0.1238726331408222 -0.15597973401630799 0 0.12550759679471971 -0.14428239988351421 0 0.1122920085546638 -0.16227381202107721 0 0.1240882674421261 -0.17221834261327171 0 0.1116878195257827 -0.17967737761147759 0 0.1238726331408222 -0.15597973401630799 0 0.1122920085546638 -0.16227381202107721 0 0.1240882674421261 -0.17221834261327171 0 0.1232396379011078 -0.1927549034493776 0 0.1240882674421261 -0.17221834261327171 0 0.1116878195257827 -0.17967737761147759 0 0.1232396379011078 -0.1927549034493776 0 0.1116878195257827 -0.17967737761147759 0 0.099180138969906934 -0.19431166954930951 0 0.1116878195257827 -0.17967737761147759 0 0.1001360011504572 -0.16659985177357781 0 0.099180138969906934 -0.19431166954930951 0 0.1001360011504572 -0.16659985177357781 0 0.099180138969906934 -0.19431166954930951 0 0.1001360011504572 -0.16659985177357781 0 0.087035172899110766 -0.18202416968187909 0 0.1116878195257827 -0.17967737761147759 0 0.1001360011504572 -0.16659985177357781 0 0.1122920085546638 -0.16227381202107721 0 0.1116878195257827 -0.17967737761147759 0 0.1001360011504572 -0.16659985177357781 0 0.1006234008225292 -0.15246943509712671 0 0.1122920085546638 -0.16227381202107721 0 0.1001360011504572 -0.16659985177357781 0 0.1006234008225292 -0.15246943509712671 0 0.1001360011504572 -0.16659985177357781 0 0.1001360011504572 -0.16659985177357781 0 0.083956960864695562 -0.1482839632705675 0 0.1001360011504572 -0.16659985177357781 0 0.079225084705666013 -0.1675683830972868 0 0.083956960864695562 -0.1482839632705675 0 0.077775677467109644 -0.1894438906232867 0 0.087035172899110766 -0.18202416968187909 0 0.070769962292113645 -0.17944740942254711 0 0.079225084705666013 -0.1675683830972868 0 0.087035172899110766 -0.18202416968187909 0 0.070769962292113645 -0.17944740942254711 0 0.1001360011504572 -0.16659985177357781 0 0.079225084705666013 -0.1675683830972868 0 0.087035172899110766 -0.18202416968187909 0 0.065123946871468164 -0.19127238357693871 0 0.077775677467109644 -0.1894438906232867 0 0.070769962292113645 -0.17944740942254711 0 0.065123946871468164 -0.19127238357693871 0 0.070769962292113645 -0.17944740942254711 0 0.057329549479635908 -0.18145626931170691 0 0.079225084705666013 -0.1675683830972868 0 0.069844290743162202 -0.15572535069481899 0 0.058130342329691373 -0.1649193602441846 0 0.079225084705666013 -0.1675683830972868 0 0.069844290743162202 -0.15572535069481899 0 0.083956960864695562 -0.1482839632705675 0 0.079225084705666013 -0.1675683830972868 0 0.070769962292113645 -0.17944740942254711 0 0.058130342329691373 -0.1649193602441846 0 0.069844290743162202 -0.15572535069481899 0 0.065690713085214791 -0.1421362209973312 0 0.083956960864695562 -0.1482839632705675 0 0.069844290743162202 -0.15572535069481899 0 0.065690713085214791 -0.1421362209973312 0 0.055338914955394031 -0.1557955185274518 0 0.093837558922739497 -0.14264619108299431 0 0.1006234008225292 -0.15246943509712671 0 0.083956960864695562 -0.1482839632705675 0 0.083956960864695562 -0.1482839632705675 0 0.086025777066828416 -0.13071312073542821 0 0.067777920578933518 -0.1299680747675574 0 0.093837558922739497 -0.14264619108299431 0 0.083956960864695562 -0.1482839632705675 0 0.086025777066828416 -0.13071312073542821 0 0.083956960864695562 -0.1482839632705675 0 0.067777920578933518 -0.1299680747675574 0 0.065690713085214791 -0.1421362209973312 0 0.083956960864695562 -0.1482839632705675 0 0.067777920578933518 -0.1299680747675574 0 0.086025777066828416 -0.13071312073542821 0 0.067777920578933518 -0.1299680747675574 0 0.076734835755005087 -0.11970758577673089 0 0.067777920578933518 -0.1299680747675574 0 0.053441304474890289 -0.13464385441717969 0 0.05399936433302991 -0.12122894057442581 0 0.053441304474890289 -0.13464385441717969 0 0.041268264505893618 -0.12924178955595211 0 0.05399936433302991 -0.12122894057442581 0 0.065690713085214791 -0.1421362209973312 0 0.067777920578933518 -0.1299680747675574 0 0.053441304474890289 -0.13464385441717969 0 0.065690713085214791 -0.1421362209973312 0 0.055338914955394031 -0.1557955185274518 0 0.0384702598713796 -0.15064424619063199 0 0.065690713085214791 -0.1421362209973312 0 0.0384702598713796 -0.15064424619063199 0 0.065690713085214791 -0.1421362209973312 0 0.053441304474890289 -0.13464385441717969 0 0.0384702598713796 -0.15064424619063199 0 0.053441304474890289 -0.13464385441717969 0 0.0384702598713796 -0.15064424619063199 0 0.041268264505893618 -0.12924178955595211 0 0.0384702598713796 -0.15064424619063199 0 0.041268264505893618 -0.12924178955595211 0 0.015842377588640461 -0.12995768139491151 0 0.057329549479635908 -0.18145626931170691 0 0.058130342329691373 -0.1649193602441846 0 0.056528756629579638 -0.1979931783792292 0 0.057329549479635908 -0.18145626931170691 0 0.033889281643562412 -0.17857272488157999 0 0.070769962292113645 -0.17944740942254711 0 0.057329549479635908 -0.18145626931170691 0 0.058130342329691373 -0.1649193602441846 0 0.057329549479635908 -0.18145626931170691 0 0.058130342329691373 -0.1649193602441846 0 0.04455896874752216 -0.16555241451029229 0 0.069844290743162202 -0.15572535069481899 0 0.055338914955394031 -0.1557955185274518 0 0.058130342329691373 -0.1649193602441846 0 0.055338914955394031 -0.1557955185274518 0 0.058130342329691373 -0.1649193602441846 0 0.04455896874752216 -0.16555241451029229 0 0.055338914955394031 -0.1557955185274518 0 0.0384702598713796 -0.15064424619063199 0 0.04455896874752216 -0.16555241451029229 0 0.0384702598713796 -0.15064424619063199 0 0.031574010555557599 -0.1635538019881777 0 0.04455896874752216 -0.16555241451029229 0 0.031574010555557599 -0.1635538019881777 0 0.04455896874752216 -0.16555241451029229 0 0.033889281643562412 -0.17857272488157999 0 0.057329549479635908 -0.18145626931170691 0 0.04455896874752216 -0.16555241451029229 0 0.033889281643562412 -0.17857272488157999 0 0.033889281643562412 -0.17857272488157999 0 0.019555974831457788 -0.18489329081675979 0 0.017860935761059481 -0.17540941327727391 0 0.033889281643562412 -0.17857272488157999 0 0.017860935761059481 -0.17540941327727391 0 0.018922444694438611 -0.16573396598117041 0 0.027972004457906641 -0.19290593557317351 0 0.033889281643562412 -0.17857272488157999 0 0.019555974831457788 -0.18489329081675979 0 0.033889281643562412 -0.17857272488157999 0 0.018922444694438611 -0.16573396598117041 0 0.0384702598713796 -0.15064424619063199 0 0.031574010555557599 -0.1635538019881777 0 0.011249806657544249 -0.1591522713839319 0 0.031574010555557599 -0.1635538019881777 0 0.018922444694438611 -0.16573396598117041 0 0.011249806657544249 -0.1591522713839319 0 0.031574010555557599 -0.1635538019881777 0 0.033889281643562412 -0.17857272488157999 0 0.018922444694438611 -0.16573396598117041 0 0.018922444694438611 -0.16573396598117041 0 0.011249806657544249 -0.1591522713839319 0 0.0051361497124387812 -0.16106315607433669 0 0.018922444694438611 -0.16573396598117041 0 0.0051361497124387812 -0.16106315607433669 0 0.018922444694438611 -0.16573396598117041 0 0.011249806657544249 -0.1591522713839319 0 0.011249806657544249 -0.1591522713839319 0 0.0051361497124387812 -0.16106315607433669 0 0.011249806657544249 -0.1591522713839319 0 0.0051361497124387812 -0.16106315607433669 0 0.00014451492137988051 -0.1496259991592768 0 -0.001198061652550745 -0.17280609881212911 0 0.0051361497124387812 -0.16106315607433669 0 0.0083362452288298274 -0.17396118646513589 0 0.018922444694438611 -0.16573396598117041 0 0.0051361497124387812 -0.16106315607433669 0 0.0083362452288298274 -0.17396118646513589 0 0.017860935761059481 -0.17540941327727391 0 0.018922444694438611 -0.16573396598117041 0 0.0083362452288298274 -0.17396118646513589 0 0.019555974831457788 -0.18489329081675979 0 0.017860935761059481 -0.17540941327727391 0 0.0083362452288298274 -0.17396118646513589 0 -0.001198061652550745 -0.17280609881212911 0 0.0083362452288298274 -0.17396118646513589 0 0.0039750345954989988 -0.18651425943902311 0 0.019555974831457788 -0.18489329081675979 0 0.0083362452288298274 -0.17396118646513589 0 0.0039750345954989988 -0.18651425943902311 0 0.041268264505893618 -0.12924178955595211 0 0.015842377588640461 -0.12995768139491151 0 0.0384702598713796 -0.15064424619063199 0 0.015842377588640461 -0.12995768139491151 0 0.011224689942066299 -0.1440107542725246 0 0.0384702598713796 -0.15064424619063199 0 0.011249806657544249 -0.1591522713839319 0 0.011224689942066299 -0.1440107542725246 0 0.0384702598713796 -0.15064424619063199 0 0.011249806657544249 -0.1591522713839319 0 -0.0095835093286126792 -0.13067357323387099 0 0.011224689942066299 -0.1440107542725246 0 0.00014451492137988051 -0.1496259991592768 0 0.011249806657544249 -0.1591522713839319 0 0.00014451492137988051 -0.1496259991592768 0 0.011249806657544249 -0.1591522713839319 0 0.011224689942066299 -0.1440107542725246 0 0.00014451492137988051 -0.1496259991592768 0 -0.0095835093286126792 -0.13067357323387099 0 0.015842377588640461 -0.12995768139491151 0 -0.0095835093286126792 -0.13067357323387099 0 0.015842377588640461 -0.12995768139491151 0 0.011224689942066299 -0.1440107542725246 0 -0.004447001458793981 -0.1103644265276268 0 -0.0095835093286126792 -0.13067357323387099 0 0.015842377588640461 -0.12995768139491151 0 -0.004447001458793981 -0.1103644265276268 0 0.015842377588640461 -0.12995768139491151 0 0.019064047731892519 -0.1027428983621612 0 0.015842377588640461 -0.12995768139491151 0 0.019064047731892519 -0.1027428983621612 0 0.037106240101941267 -0.1127949235512794 0 0.019064047731892519 -0.1027428983621612 0 0.037234516137291472 -0.08975442686183864 0 0.037106240101941267 -0.1127949235512794 0 -0.004447001458793981 -0.1103644265276268 0 0.019064047731892519 -0.1027428983621612 0 -0.0041979068999104599 -0.092692987180200151 0 -0.004447001458793981 -0.1103644265276268 0 0.019064047731892519 -0.1027428983621612 0 -0.0041979068999104599 -0.092692987180200151 0 0.003886405537072308 -0.074985287574065307 0 0.019828086476746741 -0.084468472620665633 0 -0.0041979068999104599 -0.092692987180200151 0 0.019064047731892519 -0.1027428983621612 0 0.019828086476746741 -0.084468472620665633 0 0.003886405537072308 -0.074985287574065307 0 0.028295076817156449 -0.069568801619081161 0 0.019828086476746741 -0.084468472620665633 0 0.003886405537072308 -0.074985287574065307 0 0.028295076817156449 -0.069568801619081161 0 0.01833358543460277 -0.05641701057889667 0 0.019064047731892519 -0.1027428983621612 0 0.019828086476746741 -0.084468472620665633 0 0.037234516137291472 -0.08975442686183864 0 0.028295076817156449 -0.069568801619081161 0 0.019828086476746741 -0.084468472620665633 0 0.037234516137291472 -0.08975442686183864 0 0.028295076817156449 -0.069568801619081161 0 0.037234516137291472 -0.08975442686183864 0 0.056852127489792813 -0.07490730178705754 0 0.028295076817156449 -0.069568801619081161 0 0.056852127489792813 -0.07490730178705754 0 0.043412112850471737 -0.054930671915401803 0 0.056852127489792813 -0.07490730178705754 0 0.043412112850471737 -0.054930671915401803 0 0.062505798999464707 -0.060826586793076412 0 0.056852127489792813 -0.07490730178705754 0 0.055228870314899682 -0.103843804558387 0 0.070281085843191191 -0.093817275438188408 0 0.037234516137291472 -0.08975442686183864 0 0.056852127489792813 -0.07490730178705754 0 0.055228870314899682 -0.103843804558387 0 0.055228870314899682 -0.103843804558387 0 0.05399936433302991 -0.12122894057442581 0 0.037106240101941267 -0.1127949235512794 0 0.055228870314899682 -0.103843804558387 0 0.05399936433302991 -0.12122894057442581 0 0.065906963652981487 -0.1182248878619804 0 0.041268264505893618 -0.12924178955595211 0 0.05399936433302991 -0.12122894057442581 0 0.037106240101941267 -0.1127949235512794 0 0.041268264505893618 -0.12924178955595211 0 0.015842377588640461 -0.12995768139491151 0 0.037106240101941267 -0.1127949235512794 0 0.037234516137291472 -0.08975442686183864 0 0.055228870314899682 -0.103843804558387 0 0.037106240101941267 -0.1127949235512794 0 0.030110906951190688 -0.01173386609504996 0 0.0045774522161646097 -0.0093144947699853528 0 0.019230231732056138 -0.023667566818530359 0 0.018044735406519189 -0.0027914786915071068 0 0.030110906951190688 -0.01173386609504996 0 0.0045774522161646097 -0.0093144947699853528 0 0.035622497167505339 0.0063925700628825917 0 0.018044735406519189 -0.0027914786915071068 0 0.030110906951190688 -0.01173386609504996 0 0.030110906951190688 -0.01173386609504996 0 0.0045774522161646097 -0.0093144947699853528 0 0.018044735406519189 -0.0027914786915071068 0 0.002394805847480138 -0.0071764921779012506 0 0.0045774522161646097 -0.0093144947699853528 0 0.0006213327713558641 -0.0089396406014967747 0 0.0045774522161646097 -0.0093144947699853528 0 0.0014199230119024339 -0.021574900853890581 0 0.002394805847480138 -0.0071764921779012506 0 0.0006213327713558641 -0.0089396406014967747 0 0.0045774522161646097 -0.0093144947699853528 0 0.0006213327713558641 -0.0089396406014967747 0 0.0045774522161646097 -0.0093144947699853528 0 -0.001488115343110989 -0.0087397640735148233 0 0.002394805847480138 -0.0071764921779012506 0 0.0006213327713558641 -0.0089396406014967747 0 0.002394805847480138 -0.0071764921779012506 0 0.0006213327713558641 -0.0089396406014967747 0 0.002394805847480138 -0.0071764921779012506 0 0.0045774522161646097 -0.0093144947699853528 0 0.0045774522161646097 -0.0093144947699853528 0 0.019230231732056138 -0.023667566818530359 0 0.0045774522161646097 -0.0093144947699853528 0 0.0014199230119024339 -0.021574900853890581 0 0.019230231732056138 -0.023667566818530359 0 0.0014199230119024339 -0.021574900853890581 0 0.0083973707027768379 -0.030855929703784798 0 0.019230231732056138 -0.023667566818530359 0 -0.003476286599935095 -0.036271506326322138 0 0.0014199230119024339 -0.021574900853890581 0 0.0083973707027768379 -0.030855929703784798 0 0.030110906951190688 -0.01173386609504996 0 0.019230231732056138 -0.023667566818530359 0 0.031518170358815163 -0.024102367719011381 0 0.019230231732056138 -0.023667566818530359 0 0.033883011247947889 -0.038020638867075192 0 0.031518170358815163 -0.024102367719011381 0 0.019230231732056138 -0.023667566818530359 0 0.033883011247947889 -0.038020638867075192 0 0.01494251690265052 -0.041372340822573933 0 0.01833358543460277 -0.05641701057889667 0 0.033883011247947889 -0.038020638867075192 0 0.019230231732056138 -0.023667566818530359 0 0.01494251690265052 -0.041372340822573933 0 0.033883011247947889 -0.038020638867075192 0 -0.003476286599935095 -0.036271506326322138 0 -0.00022463716734756899 -0.054496453091326037 0 0.01494251690265052 -0.041372340822573933 0 -0.003476286599935095 -0.036271506326322138 0 0.0083973707027768379 -0.030855929703784798 0 0.01494251690265052 -0.041372340822573933 0 0.0083973707027768379 -0.030855929703784798 0 0.019230231732056138 -0.023667566818530359 0 0.01494251690265052 -0.041372340822573933 0 -0.00022463716734756899 -0.054496453091326037 0 0.003886405537072308 -0.074985287574065307 0 0.01833358543460277 -0.05641701057889667 0 -0.00022463716734756899 -0.054496453091326037 0 0.01494251690265052 -0.041372340822573933 0 0.01833358543460277 -0.05641701057889667 0 0.028295076817156449 -0.069568801619081161 0 0.01833358543460277 -0.05641701057889667 0 0.043412112850471737 -0.054930671915401803 0 0.01833358543460277 -0.05641701057889667 0 0.043412112850471737 -0.054930671915401803 0 0.033883011247947889 -0.038020638867075192 0 0.043412112850471737 -0.054930671915401803 0 0.059769218069649313 -0.045902054602901338 0 0.062505798999464707 -0.060826586793076412 0 0.043412112850471737 -0.054930671915401803 0 0.059769218069649313 -0.045902054602901338 0 0.051344651808144813 -0.03456126235542302 0 0.051344651808144813 -0.03456126235542302 0 0.056061594203691133 -0.025076371103657479 0 0.065665228365204262 -0.034364577790676212 0 0.059769218069649313 -0.045902054602901338 0 0.051344651808144813 -0.03456126235542302 0 0.065665228365204262 -0.034364577790676212 0 0.043412112850471737 -0.054930671915401803 0 0.051344651808144813 -0.03456126235542302 0 0.033883011247947889 -0.038020638867075192 0 0.051344651808144813 -0.03456126235542302 0 0.033883011247947889 -0.038020638867075192 0 0.042848531504065902 -0.022987399095390042 0 0.030110906951190688 -0.01173386609504996 0 0.042848531504065902 -0.022987399095390042 0 0.055644361686216767 -0.014153237420114781 0 0.033883011247947889 -0.038020638867075192 0 0.031518170358815163 -0.024102367719011381 0 0.042848531504065902 -0.022987399095390042 0 0.030110906951190688 -0.01173386609504996 0 0.031518170358815163 -0.024102367719011381 0 0.042848531504065902 -0.022987399095390042 0 0.051344651808144813 -0.03456126235542302 0 0.042848531504065902 -0.022987399095390042 0 0.056061594203691133 -0.025076371103657479 0 0.056061594203691133 -0.025076371103657479 0 0.064805197654823885 -0.019315378856683371 0 0.065665228365204262 -0.034364577790676212 0 0.056061594203691133 -0.025076371103657479 0 0.055644361686216767 -0.014153237420114781 0 0.064805197654823885 -0.019315378856683371 0 0.042848531504065902 -0.022987399095390042 0 0.056061594203691133 -0.025076371103657479 0 0.055644361686216767 -0.014153237420114781 0 0.055644361686216767 -0.014153237420114781 0 0.058196269712748661 -0.0010094984802769141 0 0.069352637037845374 -0.0058266927155855106 0 0.055644361686216767 -0.014153237420114781 0 0.058196269712748661 -0.0010094984802769141 0 0.045210290485040869 -0.0034719151203993228 0 0.030110906951190688 -0.01173386609504996 0 0.055644361686216767 -0.014153237420114781 0 0.045210290485040869 -0.0034719151203993228 0 0.035622497167505339 0.0063925700628825917 0 0.030110906951190688 -0.01173386609504996 0 0.045210290485040869 -0.0034719151203993228 0 0.030110906951190688 -0.01173386609504996 0 0.055644361686216767 -0.014153237420114781 0 0.096167504599054904 0.0042442054759202954 0 0.081717153665888317 -0.0025063239881197622 0 0.095472413630543998 -0.0072730453323191883 0 0.081717153665888317 -0.0025063239881197622 0 0.081177816421242804 -0.016572608745179591 0 0.095472413630543998 -0.0072730453323191883 0 0.055644361686216767 -0.014153237420114781 0 0.081177816421242804 -0.016572608745179591 0 0.055644361686216767 -0.014153237420114781 0 0.069352637037845374 -0.0058266927155855106 0 0.081177816421242804 -0.016572608745179591 0 0.070381517258247442 0.0054324954822656396 0 0.081717153665888317 -0.0025063239881197622 0 0.069352637037845374 -0.0058266927155855106 0 0.070381517258247442 0.0054324954822656396 0 0.058196269712748661 -0.0010094984802769141 0 0.069352637037845374 -0.0058266927155855106 0 0.081717153665888317 -0.0025063239881197622 0 0.069352637037845374 -0.0058266927155855106 0 0.081177816421242804 -0.016572608745179591 0 0.064805197654823885 -0.019315378856683371 0 0.085712771491518958 -0.038211511484016539 0 0.065665228365204262 -0.034364577790676212 0 0.064805197654823885 -0.019315378856683371 0 0.076287907678157074 -0.023986159701047009 0 0.081177816421242804 -0.016572608745179591 0 0.055644361686216767 -0.014153237420114781 0 0.064805197654823885 -0.019315378856683371 0 0.081177816421242804 -0.016572608745179591 0 0.064805197654823885 -0.019315378856683371 0 0.076287907678157074 -0.023986159701047009 0 0.085712771491518958 -0.038211511484016539 0 0.064805197654823885 -0.019315378856683371 0 0.085712771491518958 -0.038211511484016539 0 0.076287907678157074 -0.023986159701047009 0 0.090532384742726735 -0.027505059676875141 0 0.085712771491518958 -0.038211511484016539 0 0.076287907678157074 -0.023986159701047009 0 0.085712771491518958 -0.038211511484016539 0 0.081177816421242804 -0.016572608745179591 0 0.090532384742726735 -0.027505059676875141 0 0.1067112711562688 -0.01899198007024441 0 0.076287907678157074 -0.023986159701047009 0 0.081177816421242804 -0.016572608745179591 0 0.090532384742726735 -0.027505059676875141 0 0.090532384742726735 -0.027505059676875141 0 0.085712771491518958 -0.038211511484016539 0 0.102772156966446 -0.039763038383888151 0 0.085712771491518958 -0.038211511484016539 0 0.07267749436203183 -0.048188407729665747 0 0.085132366133298415 -0.052458296335176707 0 0.085712771491518958 -0.038211511484016539 0 0.065665228365204262 -0.034364577790676212 0 0.07267749436203183 -0.048188407729665747 0 0.059769218069649313 -0.045902054602901338 0 0.065665228365204262 -0.034364577790676212 0 0.07267749436203183 -0.048188407729665747 0 0.059769218069649313 -0.045902054602901338 0 0.07267749436203183 -0.048188407729665747 0 0.062505798999464707 -0.060826586793076412 0 0.07267749436203183 -0.048188407729665747 0 0.062505798999464707 -0.060826586793076412 0 0.07727958311305537 -0.057367419372147309 0 0.085712771491518958 -0.038211511484016539 0 0.098207536939253007 -0.057070397666300149 0 0.07727958311305537 -0.057367419372147309 0 0.085132366133298415 -0.052458296335176707 0 0.088807886296056321 -0.06442462200908719 0 0.085712771491518958 -0.038211511484016539 0 0.085132366133298415 -0.052458296335176707 0 0.098207536939253007 -0.057070397666300149 0 0.07267749436203183 -0.048188407729665747 0 0.07727958311305537 -0.057367419372147309 0 0.085132366133298415 -0.052458296335176707 0 0.085132366133298415 -0.052458296335176707 0 0.098207536939253007 -0.057070397666300149 0 0.088807886296056321 -0.06442462200908719 0 0.085712771491518958 -0.038211511484016539 0 0.1060355466537841 -0.056579106778484822 0 0.085712771491518958 -0.038211511484016539 0 0.098207536939253007 -0.057070397666300149 0 0.1060355466537841 -0.056579106778484822 0 0.098207536939253007 -0.057070397666300149 0 0.1060355466537841 -0.056579106778484822 0 0.1035330678577871 -0.060408744014543561 0 0.1060355466537841 -0.056579106778484822 0 0.1035330678577871 -0.060408744014543561 0 0.1060355466537841 -0.056579106778484822 0 0.12407046944405239 -0.056682210957894767 0 0.1194833752947594 -0.035999389823432593 0 0.1060355466537841 -0.056579106778484822 0 0.1194833752947594 -0.035999389823432593 0 0.102772156966446 -0.039763038383888151 0 0.1060355466537841 -0.056579106778484822 0 0.1194833752947594 -0.035999389823432593 0 0.1194833752947594 -0.035999389823432593 0 0.102772156966446 -0.039763038383888151 0 0.1067112711562688 -0.01899198007024441 0 0.085712771491518958 -0.038211511484016539 0 0.1060355466537841 -0.056579106778484822 0 0.102772156966446 -0.039763038383888151 0 0.090532384742726735 -0.027505059676875141 0 0.102772156966446 -0.039763038383888151 0 0.1067112711562688 -0.01899198007024441 0 0.081177816421242804 -0.016572608745179591 0 0.1067112711562688 -0.01899198007024441 0 0.1194833752947594 -0.035999389823432593 0 0.119688443476294 -0.020419382492060888 0 0.13293120393573529 -0.01541967286838083 0 0.1194833752947594 -0.035999389823432593 0 0.1067112711562688 -0.01899198007024441 0 0.119688443476294 -0.020419382492060888 0 0.119688443476294 -0.020419382492060888 0 0.1196279235184127 -0.011266487206185741 0 0.13293120393573529 -0.01541967286838083 0 0.1067112711562688 -0.01899198007024441 0 0.119688443476294 -0.020419382492060888 0 0.1196279235184127 -0.011266487206185741 0 0.1067112711562688 -0.01899198007024441 0 0.1196279235184127 -0.011266487206185741 0 0.11158832231026521 -0.002538519333972472 0 0.12681727907172599 0.0028609529651058472 0 0.1196279235184127 -0.011266487206185741 0 0.11158832231026521 -0.002538519333972472 0 0.081177816421242804 -0.016572608745179591 0 0.1067112711562688 -0.01899198007024441 0 0.095472413630543998 -0.0072730453323191883 0 0.1067112711562688 -0.01899198007024441 0 0.11158832231026521 -0.002538519333972472 0 0.095472413630543998 -0.0072730453323191883 0 0.096167504599054904 0.0042442054759202954 0 0.11158832231026521 -0.002538519333972472 0 0.095472413630543998 -0.0072730453323191883 0 0.088205186756687592 -0.098499163401079406 0 0.088306584707542421 -0.11364295246223539 0 0.1041297467101449 -0.10443009357677931 0 0.088205186756687592 -0.098499163401079406 0 0.088306584707542421 -0.11364295246223539 0 0.074368452797441906 -0.1081427041937684 0 0.086025777066828416 -0.13071312073542821 0 0.088306584707542421 -0.11364295246223539 0 0.1003755091591467 -0.120365047089626 0 0.086025777066828416 -0.13071312073542821 0 0.088306584707542421 -0.11364295246223539 0 0.076734835755005087 -0.11970758577673089 0 0.088306584707542421 -0.11364295246223539 0 0.076734835755005087 -0.11970758577673089 0 0.074368452797441906 -0.1081427041937684 0 0.076734835755005087 -0.11970758577673089 0 0.065906963652981487 -0.1182248878619804 0 0.074368452797441906 -0.1081427041937684 0 0.055228870314899682 -0.103843804558387 0 0.065906963652981487 -0.1182248878619804 0 0.074368452797441906 -0.1081427041937684 0 0.067777920578933518 -0.1299680747675574 0 0.076734835755005087 -0.11970758577673089 0 0.065906963652981487 -0.1182248878619804 0 0.067777920578933518 -0.1299680747675574 0 0.05399936433302991 -0.12122894057442581 0 0.065906963652981487 -0.1182248878619804 0 0.088205186756687592 -0.098499163401079406 0 0.070281085843191191 -0.093817275438188408 0 0.074368452797441906 -0.1081427041937684 0 0.055228870314899682 -0.103843804558387 0 0.070281085843191191 -0.093817275438188408 0 0.074368452797441906 -0.1081427041937684 0 0.056852127489792813 -0.07490730178705754 0 0.078967107604769243 -0.081534257868326937 0 0.056852127489792813 -0.07490730178705754 0 0.070281085843191191 -0.093817275438188408 0 0.078967107604769243 -0.081534257868326937 0 0.062505798999464707 -0.060826586793076412 0 0.07727958311305537 -0.057367419372147309 0 0.078967107604769243 -0.081534257868326937 0 0.056852127489792813 -0.07490730178705754 0 0.062505798999464707 -0.060826586793076412 0 0.078967107604769243 -0.081534257868326937 0 0.07727958311305537 -0.057367419372147309 0 0.088807886296056321 -0.06442462200908719 0 0.078967107604769243 -0.081534257868326937 0 0.088807886296056321 -0.06442462200908719 0 0.078967107604769243 -0.081534257868326937 0 0.094886380824945021 -0.074739832907536372 0 0.088205186756687592 -0.098499163401079406 0 0.078967107604769243 -0.081534257868326937 0 0.10108208771974569 -0.088161213949596334 0 0.078967107604769243 -0.081534257868326937 0 0.10108208771974569 -0.088161213949596334 0 0.088205186756687592 -0.098499163401079406 0 0.070281085843191191 -0.093817275438188408 0 0.078967107604769243 -0.081534257868326937 0 0.078967107604769243 -0.081534257868326937 0 0.10108208771974569 -0.088161213949596334 0 0.094886380824945021 -0.074739832907536372 0 0.10108208771974569 -0.088161213949596334 0 0.094886380824945021 -0.074739832907536372 0 0.1107023023869871 -0.07592928384858362 0 0.1060355466537841 -0.056579106778484822 0 0.1035330678577871 -0.060408744014543561 0 0.1107023023869871 -0.07592928384858362 0 0.098151026611810355 -0.068041034107876819 0 0.094886380824945021 -0.074739832907536372 0 0.1107023023869871 -0.07592928384858362 0 0.098207536939253007 -0.057070397666300149 0 0.1107023023869871 -0.07592928384858362 0 0.098207536939253007 -0.057070397666300149 0 0.098151026611810355 -0.068041034107876819 0 0.1107023023869871 -0.07592928384858362 0 0.098207536939253007 -0.057070397666300149 0 0.1035330678577871 -0.060408744014543561 0 0.1107023023869871 -0.07592928384858362 0 0.088807886296056321 -0.06442462200908719 0 0.098151026611810355 -0.068041034107876819 0 0.094886380824945021 -0.074739832907536372 0 0.098207536939253007 -0.057070397666300149 0 0.088807886296056321 -0.06442462200908719 0 0.098151026611810355 -0.068041034107876819 0 0.1060355466537841 -0.056579106778484822 0 0.1107023023869871 -0.07592928384858362 0 0.12599115970317629 -0.074614863284063901 0 0.1060355466537841 -0.056579106778484822 0 0.12599115970317629 -0.074614863284063901 0 0.1060355466537841 -0.056579106778484822 0 0.12407046944405239 -0.056682210957894767 0 0.12599115970317629 -0.074614863284063901 0 0.1107023023869871 -0.07592928384858362 0 0.1231970678347219 -0.094788170030866675 0 0.10108208771974569 -0.088161213949596334 0 0.1231970678347219 -0.094788170030866675 0 0.10108208771974569 -0.088161213949596334 0 0.1107023023869871 -0.07592928384858362 0 0.1231970678347219 -0.094788170030866675 0 0.1107023023869871 -0.07592928384858362 0 0.1231970678347219 -0.094788170030866675 0 0.12599115970317629 -0.074614863284063901 0 0.1231970678347219 -0.094788170030866675 0 0.1041297467101449 -0.10443009357677931 0 0.1165495357793246 -0.11537146045311671 0 0.10108208771974569 -0.088161213949596334 0 0.1231970678347219 -0.094788170030866675 0 0.1041297467101449 -0.10443009357677931 0 0.088205186756687592 -0.098499163401079406 0 0.10108208771974569 -0.088161213949596334 0 0.1041297467101449 -0.10443009357677931 0 0.1110772144577262 -0.12607447494648069 0 0.1003755091591467 -0.120365047089626 0 0.1165495357793246 -0.11537146045311671 0 0.088306584707542421 -0.11364295246223539 0 0.1041297467101449 -0.10443009357677931 0 0.1003755091591467 -0.120365047089626 0 0.1041297467101449 -0.10443009357677931 0 0.1003755091591467 -0.120365047089626 0 0.1165495357793246 -0.11537146045311671 0 0.1110772144577262 -0.12607447494648069 0 0.1165495357793246 -0.11537146045311671 0 0.125059882544757 -0.1243050716586782 0 0.1165495357793246 -0.11537146045311671 0 0.125059882544757 -0.1243050716586782 0 0.13570225296767791 -0.1136627830916173 0 0.125059882544757 -0.1243050716586782 0 0.13570225296767791 -0.1136627830916173 0 0.13351042007077771 -0.13535464583232679 0 0.13570225296767791 -0.1136627830916173 0 0.14916210969568239 -0.1144869233999513 0 0.14820743810063461 -0.13253739615236759 0 0.13570225296767791 -0.1136627830916173 0 0.14820743810063461 -0.13253739615236759 0 0.14916210969568239 -0.1144869233999513 0 0.1659023858019596 -0.11068637629522381 0 0.14820743810063461 -0.13253739615236759 0 0.13570225296767791 -0.1136627830916173 0 0.14916210969568239 -0.1144869233999513 0 0.1438387705826743 -0.1009736450727655 0 0.14916210969568239 -0.1144869233999513 0 0.1438387705826743 -0.1009736450727655 0 0.1659023858019596 -0.11068637629522381 0 0.1438387705826743 -0.1009736450727655 0 0.14594677275256851 -0.092650619789643215 0 0.1659023858019596 -0.11068637629522381 0 0.14594677275256851 -0.092650619789643215 0 0.1659023858019596 -0.11068637629522381 0 0.1231970678347219 -0.094788170030866675 0 0.1438387705826743 -0.1009736450727655 0 0.14594677275256851 -0.092650619789643215 0 0.1231970678347219 -0.094788170030866675 0 0.1438387705826743 -0.1009736450727655 0 0.1231970678347219 -0.094788170030866675 0 0.13570225296767791 -0.1136627830916173 0 0.1231970678347219 -0.094788170030866675 0 0.13570225296767791 -0.1136627830916173 0 0.1438387705826743 -0.1009736450727655 0 0.1231970678347219 -0.094788170030866675 0 0.1165495357793246 -0.11537146045311671 0 0.13570225296767791 -0.1136627830916173 0 0.12599115970317629 -0.074614863284063901 0 0.14324551520284479 -0.074303388514748908 0 0.14594677275256851 -0.092650619789643215 0 0.12599115970317629 -0.074614863284063901 0 0.14594677275256851 -0.092650619789643215 0 0.1231970678347219 -0.094788170030866675 0 0.12599115970317629 -0.074614863284063901 0 0.14594677275256851 -0.092650619789643215 0 0.13274812921261911 -0.06482196831319062 0 0.14324551520284479 -0.074303388514748908 0 0.14208920836164879 -0.057453001683217583 0 0.12407046944405239 -0.056682210957894767 0 0.13274812921261911 -0.06482196831319062 0 0.12599115970317629 -0.074614863284063901 0 0.13274812921261911 -0.06482196831319062 0 0.12599115970317629 -0.074614863284063901 0 0.14324551520284479 -0.074303388514748908 0 0.14324551520284479 -0.074303388514748908 0 0.1577676676713505 -0.070958881179004327 0 0.14208920836164879 -0.057453001683217583 0 0.14324551520284479 -0.074303388514748908 0 0.15552700132703259 -0.084480842179265062 0 0.1577676676713505 -0.070958881179004327 0 0.14594677275256851 -0.092650619789643215 0 0.15552700132703259 -0.084480842179265062 0 0.16270751108717671 -0.093919671838121624 0 0.14324551520284479 -0.074303388514748908 0 0.14594677275256851 -0.092650619789643215 0 0.15552700132703259 -0.084480842179265062 0 0.15552700132703259 -0.084480842179265062 0 0.1577676676713505 -0.070958881179004327 0 0.17317205283599571 -0.083245500938658068 0 0.15552700132703259 -0.084480842179265062 0 0.17317205283599571 -0.083245500938658068 0 0.16270751108717671 -0.093919671838121624 0 0.17317205283599571 -0.083245500938658068 0 0.1732436498299591 -0.098484742462365965 0 0.16270751108717671 -0.093919671838121624 0 0.1577676676713505 -0.070958881179004327 0 0.17329006297225849 -0.067144545014819187 0 0.17317205283599571 -0.083245500938658068 0 0.1577676676713505 -0.070958881179004327 0 0.17329006297225849 -0.067144545014819187 0 0.16114266970546481 -0.055348584155622209 0 0.17329006297225849 -0.067144545014819187 0 0.18660459660722059 -0.07121356670435669 0 0.17317205283599571 -0.083245500938658068 0 0.17329006297225849 -0.067144545014819187 0 0.18660459660722059 -0.07121356670435669 0 0.18383722960737159 -0.053734604093409272 0 0.18660459660722059 -0.07121356670435669 0 0.17317205283599571 -0.083245500938658068 0 0.19163234817905089 -0.084272585639399919 0 0.17317205283599571 -0.083245500938658068 0 0.18448732685510821 -0.096160788283265797 0 0.19163234817905089 -0.084272585639399919 0 0.17317205283599571 -0.083245500938658068 0 0.18448732685510821 -0.096160788283265797 0 0.1732436498299591 -0.098484742462365965 0 0.18448732685510821 -0.096160788283265797 0 0.1732436498299591 -0.098484742462365965 0 0.1799489725695555 -0.1084113749565605 0 0.1732436498299591 -0.098484742462365965 0 0.1799489725695555 -0.1084113749565605 0 0.1659023858019596 -0.11068637629522381 0 0.18448732685510821 -0.096160788283265797 0 0.1799489725695555 -0.1084113749565605 0 0.19189947738255089 -0.11079770296415201 0 0.1799489725695555 -0.1084113749565605 0 0.1659023858019596 -0.11068637629522381 0 0.18392927920566929 -0.12697896821793581 0 0.1659023858019596 -0.11068637629522381 0 0.18392927920566929 -0.12697896821793581 0 0.1799489725695555 -0.1084113749565605 0 0.19189947738255089 -0.11079770296415201 0 0.18392927920566929 -0.12697896821793581 0 0.1659023858019596 -0.11068637629522381 0 0.17135699408012309 -0.1393121638749876 0 0.1732436498299591 -0.098484742462365965 0 0.1659023858019596 -0.11068637629522381 0 0.16270751108717671 -0.093919671838121624 0 0.14594677275256851 -0.092650619789643215 0 0.1659023858019596 -0.11068637629522381 0 0.16270751108717671 -0.093919671838121624 0 0.1659023858019596 -0.11068637629522381 0 0.16270751108717671 -0.093919671838121624 0 0.1463790325767105 0.0051600440866713393 0 0.13293120393573529 -0.01541967286838083 0 0.14494909117168939 -0.01571097116995826 0 0.1463790325767105 0.0051600440866713393 0 0.15462421245165581 -0.0058893527151400796 0 0.14494909117168939 -0.01571097116995826 0 0.1463790325767105 0.0051600440866713393 0 0.14494909117168939 -0.01571097116995826 0 0.15462421245165581 -0.0058893527151400796 0 0.14494909117168939 -0.01571097116995826 0 0.1598580582920249 -0.020425916519869049 0 0.1463790325767105 0.0051600440866713393 0 0.12681727907172599 0.0028609529651058472 0 0.13293120393573529 -0.01541967286838083 0 0.1463790325767105 0.0051600440866713393 0 0.13293120393573529 -0.01541967286838083 0 0.12681727907172599 0.0028609529651058472 0 0.1196279235184127 -0.011266487206185741 0 0.13293120393573529 -0.01541967286838083 0 0.13293120393573529 -0.01541967286838083 0 0.14494909117168939 -0.01571097116995826 0 0.1435191497666691 -0.036581986426587887 0 0.1194833752947594 -0.035999389823432593 0 0.13293120393573529 -0.01541967286838083 0 0.1435191497666691 -0.036581986426587887 0 0.1194833752947594 -0.035999389823432593 0 0.13293120393573529 -0.01541967286838083 0 0.14494909117168939 -0.01571097116995826 0 0.1435191497666691 -0.036581986426587887 0 0.14494909117168939 -0.01571097116995826 0 0.1435191497666691 -0.036581986426587887 0 0.1598580582920249 -0.020425916519869049 0 0.1194833752947594 -0.035999389823432593 0 0.1435191497666691 -0.036581986426587887 0 0.13229055071678239 -0.046679147222783213 0 0.12407046944405239 -0.056682210957894767 0 0.1194833752947594 -0.035999389823432593 0 0.13229055071678239 -0.046679147222783213 0 0.1435191497666691 -0.036581986426587887 0 0.13229055071678239 -0.046679147222783213 0 0.14208920836164879 -0.057453001683217583 0 0.12407046944405239 -0.056682210957894767 0 0.13229055071678239 -0.046679147222783213 0 0.14208920836164879 -0.057453001683217583 0 0.12407046944405239 -0.056682210957894767 0 0.13274812921261911 -0.06482196831319062 0 0.14208920836164879 -0.057453001683217583 0 0.1577676676713505 -0.070958881179004327 0 0.14208920836164879 -0.057453001683217583 0 0.16114266970546481 -0.055348584155622209 0 0.1435191497666691 -0.036581986426587887 0 0.14208920836164879 -0.057453001683217583 0 0.1435191497666691 -0.036581986426587887 0 0.14208920836164879 -0.057453001683217583 0 0.16114266970546481 -0.055348584155622209 0 0.16114266970546481 -0.055348584155622209 0 0.18383722960737159 -0.053734604093409272 0 0.16867226584066319 -0.036111154955617203 0 0.17329006297225849 -0.067144545014819187 0 0.16114266970546481 -0.055348584155622209 0 0.18383722960737159 -0.053734604093409272 0 0.18383722960737159 -0.053734604093409272 0 0.16867226584066319 -0.036111154955617203 0 0.1895671539671433 -0.037285104408639982 0 0.1435191497666691 -0.036581986426587887 0 0.16114266970546481 -0.055348584155622209 0 0.16867226584066319 -0.036111154955617203 0 0.1435191497666691 -0.036581986426587887 0 0.16867226584066319 -0.036111154955617203 0 0.1598580582920249 -0.020425916519869049 0 0.16867226584066319 -0.036111154955617203 0 0.1598580582920249 -0.020425916519869049 0 0.17626464034529979 -0.01218273843611789 0 0.16867226584066319 -0.036111154955617203 0 0.17626464034529979 -0.01218273843611789 0 0.19288185645158881 -0.018686415508600542 0 0.16867226584066319 -0.036111154955617203 0 0.19288185645158881 -0.018686415508600542 0 0.16867226584066319 -0.036111154955617203 0 0.19288185645158881 -0.018686415508600542 0 0.1895671539671433 -0.037285104408639982 0 0.1913914811785945 0.0015479160267864781 0 0.177795833794237 0.0058736288592868176 0 0.17626464034529979 -0.01218273843611789 0 0.177795833794237 0.0058736288592868176 0 0.17626464034529979 -0.01218273843611789 0 0.16638725000284621 -0.0041024332455818144 0 0.1913914811785945 0.0015479160267864781 0 0.17626464034529979 -0.01218273843611789 0 0.19288185645158881 -0.018686415508600542 0 0.15462421245165581 -0.0058893527151400796 0 0.1598580582920249 -0.020425916519869049 0 0.16638725000284621 -0.0041024332455818144 0 0.1598580582920249 -0.020425916519869049 0 0.17626464034529979 -0.01218273843611789 0 0.16638725000284621 -0.0041024332455818144 0 0.15628357420278671 0.003810722324721363 0 0.15462421245165581 -0.0058893527151400796 0 0.16638725000284621 -0.0041024332455818144 0 0.21709144706251299 -0.0012616760615819459 0 0.19288185645158881 -0.018686415508600542 0 0.21709144706251299 -0.0012616760615819459 0 0.19288185645158881 -0.018686415508600542 0 0.21106230177929311 -0.016930390785221641 0 0.21709144706251299 -0.0012616760615819459 0 0.21106230177929311 -0.016930390785221641 0 0.21880732635032871 -0.001449260780306197 0 0.21106230177929311 -0.016930390785221641 0 0.22385231661827831 -0.017244899007901549 0 0.21880732635032871 -0.001449260780306197 0 0.21991949691130641 0.00077379957079282309 0 0.21709144706251299 -0.0012616760615819459 0 0.21991949691130641 0.00077379957079282309 0 0.21709144706251299 -0.0012616760615819459 0 0.21880732635032871 -0.001449260780306197 0 0.21709144706251299 -0.0012616760615819459 0 0.21880732635032871 -0.001449260780306197 0 0.21106230177929311 -0.016930390785221641 0 0.21880732635032871 -0.001449260780306197 0 0.1913914811785945 0.0015479160267864781 0 0.21709144706251299 -0.0012616760615819459 0 0.19288185645158881 -0.018686415508600542 0 0.19288185645158881 -0.018686415508600542 0 0.21106230177929311 -0.016930390785221641 0 0.2033172772082579 -0.032411520790137288 0 0.19288185645158881 -0.018686415508600542 0 0.2033172772082579 -0.032411520790137288 0 0.1895671539671433 -0.037285104408639982 0 0.21106230177929311 -0.016930390785221641 0 0.2033172772082579 -0.032411520790137288 0 0.21106230177929311 -0.016930390785221641 0 0.21701755041282189 -0.032304719396535099 0 0.2033172772082579 -0.032411520790137288 0 0.21106230177929311 -0.016930390785221641 0 0.21701755041282189 -0.032304719396535099 0 0.22385231661827831 -0.017244899007901549 0 0.21701755041282189 -0.032304719396535099 0 0.21047104707744299 -0.044055030933792823 0 0.21970932447173591 -0.041885045690610363 0 0.21047104707744299 -0.044055030933792823 0 0.2163169812201669 -0.048151654183774213 0 0.21970932447173591 -0.041885045690610363 0 0.21047104707744299 -0.044055030933792823 0 0.2033172772082579 -0.032411520790137288 0 0.19912714072783499 -0.045481826695435601 0 0.21701755041282189 -0.032304719396535099 0 0.21047104707744299 -0.044055030933792823 0 0.2033172772082579 -0.032411520790137288 0 0.2033172772082579 -0.032411520790137288 0 0.1895671539671433 -0.037285104408639982 0 0.19912714072783499 -0.045481826695435601 0 0.18383722960737159 -0.053734604093409272 0 0.1895671539671433 -0.037285104408639982 0 0.19912714072783499 -0.045481826695435601 0 0.18383722960737159 -0.053734604093409272 0 0.19912714072783499 -0.045481826695435601 0 0.20031667673944939 -0.057421141152823332 0 0.18383722960737159 -0.053734604093409272 0 0.20031667673944939 -0.057421141152823332 0 0.19584992287481651 -0.066326971565447423 0 0.19912714072783499 -0.045481826695435601 0 0.20031667673944939 -0.057421141152823332 0 0.20701231567461709 -0.051722697756719387 0 0.20031667673944939 -0.057421141152823332 0 0.21110366793748389 -0.058962871247726333 0 0.20754781500579161 -0.067167929918243774 0 0.20031667673944939 -0.057421141152823332 0 0.20701231567461709 -0.051722697756719387 0 0.21110366793748389 -0.058962871247726333 0 0.21047104707744299 -0.044055030933792823 0 0.19912714072783499 -0.045481826695435601 0 0.20701231567461709 -0.051722697756719387 0 0.21047104707744299 -0.044055030933792823 0 0.20701231567461709 -0.051722697756719387 0 0.21404304589087411 -0.052692618753818851 0 0.20701231567461709 -0.051722697756719387 0 0.21404304589087411 -0.052692618753818851 0 0.21110366793748389 -0.058962871247726333 0 0.21047104707744299 -0.044055030933792823 0 0.21404304589087411 -0.052692618753818851 0 0.2163169812201669 -0.048151654183774213 0 0.21404304589087411 -0.052692618753818851 0 0.2163169812201669 -0.048151654183774213 0 0.22104450744061471 -0.053973921356874788 0 0.21404304589087411 -0.052692618753818851 0 0.21720125996139161 -0.057407354338342383 0 0.22104450744061471 -0.053973921356874788 0 0.21720125996139161 -0.057407354338342383 0 0.21110366793748389 -0.058962871247726333 0 0.2190710203991128 -0.066761103999133015 0 0.21404304589087411 -0.052692618753818851 0 0.21720125996139161 -0.057407354338342383 0 0.21110366793748389 -0.058962871247726333 0 0.22259109842381891 -0.056331752972584533 0 0.24466000719816181 -0.052572806154117767 0 0.23359814963938669 -0.073112384460560717 0 0.22259109842381891 -0.056331752972584533 0 0.2190710203991128 -0.066761103999133015 0 0.21720125996139161 -0.057407354338342383 0 0.22259109842381891 -0.056331752972584533 0 0.2190710203991128 -0.066761103999133015 0 0.21720125996139161 -0.057407354338342383 0 0.22259109842381891 -0.056331752972584533 0 0.22104450744061471 -0.053973921356874788 0 0.22259109842381891 -0.056331752972584533 0 0.22104450744061471 -0.053973921356874788 0 0.2163169812201669 -0.048151654183774213 0 0.22104450744061471 -0.053973921356874788 0 0.21970932447173591 -0.041885045690610363 0 0.25572186475693609 -0.032033227847674262 0 0.24466000719816181 -0.052572806154117767 0 0.2314560627619717 -0.030066475819188941 0 0.22259109842381891 -0.056331752972584533 0 0.24466000719816181 -0.052572806154117767 0 0.2314560627619717 -0.030066475819188941 0 0.22259109842381891 -0.056331752972584533 0 0.2314560627619717 -0.030066475819188941 0 0.22259109842381891 -0.056331752972584533 0 0.22104450744061471 -0.053973921356874788 0 0.2314560627619717 -0.030066475819188941 0 0.22104450744061471 -0.053973921356874788 0 0.21970932447173591 -0.041885045690610363 0 0.2314560627619717 -0.030066475819188941 0 0.21701755041282189 -0.032304719396535099 0 0.21970932447173591 -0.041885045690610363 0 0.2314560627619717 -0.030066475819188941 0 0.22385231661827831 -0.017244899007901549 0 0.2314560627619717 -0.030066475819188941 0 0.2403210271001277 -0.0038011986657945939 0 0.21701755041282189 -0.032304719396535099 0 0.22385231661827831 -0.017244899007901549 0 0.2314560627619717 -0.030066475819188941 0 0.25159771702699008 -0.014371615300676641 0 0.2314560627619717 -0.030066475819188941 0 0.2403210271001277 -0.0038011986657945939 0 0.25572186475693609 -0.032033227847674262 0 0.25159771702699008 -0.014371615300676641 0 0.2314560627619717 -0.030066475819188941 0 0.2314560627619717 -0.030066475819188941 0 0.2403210271001277 -0.0038011986657945939 0 0.2403210271001277 -0.0038011986657945939 0 0.21880732635032871 -0.001449260780306197 0 0.21991949691130641 0.00077379957079282309 0 0.2403210271001277 -0.0038011986657945939 0 0.21880732635032871 -0.001449260780306197 0 0.22385231661827831 -0.017244899007901549 0 0.2403210271001277 -0.0038011986657945939 0 0.21880732635032871 -0.001449260780306197 0 0.21991949691130641 0.00077379957079282309 0 0.21880732635032871 -0.001449260780306197 0 0.20659325823048899 -0.099029874252906047 0 0.21655448612892231 -0.108466948295262 0 0.2034485844213379 -0.1104083252764293 0 0.20659325823048899 -0.099029874252906047 0 0.21858698215692479 -0.095058636804357027 0 0.21655448612892231 -0.108466948295262 0 0.20659325823048899 -0.099029874252906047 0 0.21858698215692479 -0.095058636804357027 0 0.21076223576946701 -0.091385441013354662 0 0.21237619803781799 -0.123978557377612 0 0.2034485844213379 -0.1104083252764293 0 0.19857579603009881 -0.123745354966356 0 0.21655448612892231 -0.108466948295262 0 0.21237619803781799 -0.123978557377612 0 0.2034485844213379 -0.1104083252764293 0 0.19857579603009881 -0.123745354966356 0 0.19189947738255089 -0.11079770296415201 0 0.18392927920566929 -0.12697896821793581 0 0.2034485844213379 -0.1104083252764293 0 0.19857579603009881 -0.123745354966356 0 0.19189947738255089 -0.11079770296415201 0 0.18448732685510821 -0.096160788283265797 0 0.19189947738255089 -0.11079770296415201 0 0.19704440529688971 -0.097808096169463843 0 0.2034485844213379 -0.1104083252764293 0 0.19189947738255089 -0.11079770296415201 0 0.19704440529688971 -0.097808096169463843 0 0.20659325823048899 -0.099029874252906047 0 0.2034485844213379 -0.1104083252764293 0 0.19704440529688971 -0.097808096169463843 0 0.20659325823048899 -0.099029874252906047 0 0.19704440529688971 -0.097808096169463843 0 0.20377507451519661 -0.086639367611932153 0 0.18448732685510821 -0.096160788283265797 0 0.19704440529688971 -0.097808096169463843 0 0.19163234817905089 -0.084272585639399919 0 0.19163234817905089 -0.084272585639399919 0 0.20020732292815921 -0.075382335334988601 0 0.20377507451519661 -0.086639367611932153 0 0.19704440529688971 -0.097808096169463843 0 0.19163234817905089 -0.084272585639399919 0 0.20377507451519661 -0.086639367611932153 0 0.18660459660722059 -0.07121356670435669 0 0.18383722960737159 -0.053734604093409272 0 0.19584992287481651 -0.066326971565447423 0 0.18660459660722059 -0.07121356670435669 0 0.20020732292815921 -0.075382335334988601 0 0.19584992287481651 -0.066326971565447423 0 0.18660459660722059 -0.07121356670435669 0 0.19163234817905089 -0.084272585639399919 0 0.20020732292815921 -0.075382335334988601 0 0.20031667673944939 -0.057421141152823332 0 0.19584992287481651 -0.066326971565447423 0 0.20754781500579161 -0.067167929918243774 0 0.20020732292815921 -0.075382335334988601 0 0.19584992287481651 -0.066326971565447423 0 0.20754781500579161 -0.067167929918243774 0 0.20020732292815921 -0.075382335334988601 0 0.20754781500579161 -0.067167929918243774 0 0.21182278070176411 -0.07642901816315241 0 0.21182278070176411 -0.07642901816315241 0 0.2190710203991128 -0.066761103999133015 0 0.22185546860341471 -0.076890537193463129 0 0.21110366793748389 -0.058962871247726333 0 0.20754781500579161 -0.067167929918243774 0 0.2190710203991128 -0.066761103999133015 0 0.20754781500579161 -0.067167929918243774 0 0.21182278070176411 -0.07642901816315241 0 0.2190710203991128 -0.066761103999133015 0 0.20377507451519661 -0.086639367611932153 0 0.21076223576946701 -0.091385441013354662 0 0.2156201083762905 -0.085211377739258853 0 0.20659325823048899 -0.099029874252906047 0 0.20377507451519661 -0.086639367611932153 0 0.21076223576946701 -0.091385441013354662 0 0.21182278070176411 -0.07642901816315241 0 0.20377507451519661 -0.086639367611932153 0 0.2156201083762905 -0.085211377739258853 0 0.20020732292815921 -0.075382335334988601 0 0.21182278070176411 -0.07642901816315241 0 0.20377507451519661 -0.086639367611932153 0 0.21182278070176411 -0.07642901816315241 0 0.2156201083762905 -0.085211377739258853 0 0.22185546860341471 -0.076890537193463129 0 0.21858698215692479 -0.095058636804357027 0 0.21076223576946701 -0.091385441013354662 0 0.2156201083762905 -0.085211377739258853 0 0.21858698215692479 -0.095058636804357027 0 0.22254221780738029 -0.08612048538839856 0 0.22945301150852729 -0.089618177888440453 0 0.21858698215692479 -0.095058636804357027 0 0.2156201083762905 -0.085211377739258853 0 0.22254221780738029 -0.08612048538839856 0 0.22254221780738029 -0.08612048538839856 0 0.22667762447946821 -0.081336379644961862 0 0.22945301150852729 -0.089618177888440453 0 0.2156201083762905 -0.085211377739258853 0 0.22254221780738029 -0.08612048538839856 0 0.22185546860341471 -0.076890537193463129 0 0.22254221780738029 -0.08612048538839856 0 0.22667762447946821 -0.081336379644961862 0 0.22185546860341471 -0.076890537193463129 0 0.22667762447946821 -0.081336379644961862 0 0.22945301150852729 -0.089618177888440453 0 0.232130230341555 -0.075838006554786702 0 0.22259109842381891 -0.056331752972584533 0 0.23359814963938669 -0.073112384460560717 0 0.22259109842381891 -0.056331752972584533 0 0.22559767577824291 -0.070341033318702742 0 0.23359814963938669 -0.073112384460560717 0 0.22259109842381891 -0.056331752972584533 0 0.2190710203991128 -0.066761103999133015 0 0.22559767577824291 -0.070341033318702742 0 0.2190710203991128 -0.066761103999133015 0 0.22559767577824291 -0.070341033318702742 0 0.22185546860341471 -0.076890537193463129 0 0.22559767577824291 -0.070341033318702742 0 0.22185546860341471 -0.076890537193463129 0 0.226513327956856 -0.076031742247647013 0 0.22667762447946821 -0.081336379644961862 0 0.22185546860341471 -0.076890537193463129 0 0.226513327956856 -0.076031742247647013 0 0.22559767577824291 -0.070341033318702742 0 0.232130230341555 -0.075838006554786702 0 0.23359814963938669 -0.073112384460560717 0 0.22667762447946821 -0.081336379644961862 0 0.226513327956856 -0.076031742247647013 0 0.232130230341555 -0.075838006554786702 0 0.232130230341555 -0.075838006554786702 0 0.23359814963938669 -0.073112384460560717 0 0.22559767577824291 -0.070341033318702742 0 0.226513327956856 -0.076031742247647013 0 0.232130230341555 -0.075838006554786702 0 0.25578894406637898 -0.071814983055159112 0 0.24466000719816181 -0.052572806154117767 0 0.23359814963938669 -0.073112384460560717 0 0.24466000719816181 -0.052572806154117767 0 0.23359814963938669 -0.073112384460560717 0 0.232130230341555 -0.075838006554786702 0 0.23359814963938669 -0.073112384460560717 0 0.248052431344363 -0.095148438437639593 0 0.25578894406637898 -0.071814983055159112 0 0.23359814963938669 -0.073112384460560717 0 0.248052431344363 -0.095148438437639593 0 0.23359814963938669 -0.073112384460560717 0 0.248052431344363 -0.095148438437639593 0 0.22945301150852729 -0.089618177888440453 0 0.232130230341555 -0.075838006554786702 0 0.248052431344363 -0.095148438437639593 0 0.22945301150852729 -0.089618177888440453 0 0.248052431344363 -0.095148438437639593 0 0.23028066412444251 -0.1035134914659659 0 0.248052431344363 -0.095148438437639593 0 0.23028066412444251 -0.1035134914659659 0 0.24260121657943401 -0.11258968035378961 0 0.21858698215692479 -0.095058636804357027 0 0.21655448612892231 -0.108466948295262 0 0.23028066412444251 -0.1035134914659659 0 0.21858698215692479 -0.095058636804357027 0 0.22945301150852729 -0.089618177888440453 0 0.23028066412444251 -0.1035134914659659 0 0.21655448612892231 -0.108466948295262 0 0.21237619803781799 -0.123978557377612 0 0.22804122980252159 -0.1188128045943018 0 0.21655448612892231 -0.108466948295262 0 0.23028066412444251 -0.1035134914659659 0 0.22804122980252159 -0.1188128045943018 0 0.23028066412444251 -0.1035134914659659 0 0.22804122980252159 -0.1188128045943018 0 0.24260121657943401 -0.11258968035378961 0 0.26250671304934198 -0.1171844924147165 0 0.24260121657943401 -0.11258968035378961 0 0.2441250445765018 -0.1282891748563233 0 0.22804122980252159 -0.1188128045943018 0 0.24260121657943401 -0.11258968035378961 0 0.2441250445765018 -0.1282891748563233 0 0.2441250445765018 -0.1282891748563233 0 0.23903729808979979 -0.1497956366535709 0 0.2244889389359962 -0.13749465980780429 0 0.26140577643439422 -0.14332992145424359 0 0.2441250445765018 -0.1282891748563233 0 0.23903729808979979 -0.1497956366535709 0 0.26140577643439422 -0.14332992145424359 0 0.23903729808979979 -0.1497956366535709 0 0.24727016264961249 -0.1692414738038848 0 0.23903729808979979 -0.1497956366535709 0 0.2244889389359962 -0.13749465980780429 0 0.2199830660130864 -0.1595641520633625 0 0.22804122980252159 -0.1188128045943018 0 0.2441250445765018 -0.1282891748563233 0 0.2244889389359962 -0.13749465980780429 0 0.21237619803781799 -0.123978557377612 0 0.22804122980252159 -0.1188128045943018 0 0.2244889389359962 -0.13749465980780429 0 0.21237619803781799 -0.123978557377612 0 0.2244889389359962 -0.13749465980780429 0 0.2019561726093779 -0.14327156014064921 0 0.21237619803781799 -0.123978557377612 0 0.19857579603009881 -0.123745354966356 0 0.2019561726093779 -0.14327156014064921 0 0.2244889389359962 -0.13749465980780429 0 0.2019561726093779 -0.14327156014064921 0 0.2199830660130864 -0.1595641520633625 0 0.2019561726093779 -0.14327156014064921 0 0.2199830660130864 -0.1595641520633625 0 0.2019561726093779 -0.14327156014064921 0 0.2047419039749544 -0.16383627848553101 0 0.2199830660130864 -0.1595641520633625 0 0.2019561726093779 -0.14327156014064921 0 0.1858442134446858 -0.1403981851473228 0 0.18613440788357311 -0.15203004835571851 0 0.2019561726093779 -0.14327156014064921 0 0.2047419039749544 -0.16383627848553101 0 0.18613440788357311 -0.15203004835571851 0 0.19857579603009881 -0.123745354966356 0 0.2019561726093779 -0.14327156014064921 0 0.18392927920566929 -0.12697896821793581 0 0.2019561726093779 -0.14327156014064921 0 0.18392927920566929 -0.12697896821793581 0 0.2019561726093779 -0.14327156014064921 0 0.1858442134446858 -0.1403981851473228 0 0.18392927920566929 -0.12697896821793581 0 0.20143056513873611 -0.17998665641699849 0 0.18945430304214239 -0.18113699365130109 0 0.1956775580667883 -0.19315745649050381 0 0.20143056513873611 -0.17998665641699849 0 0.18945430304214239 -0.18113699365130109 0 0.19108557901044451 -0.16803916485973749 0 0.19108557901044451 -0.16803916485973749 0 0.2047419039749544 -0.16383627848553101 0 0.18613440788357311 -0.15203004835571851 0 0.20143056513873611 -0.17998665641699849 0 0.19108557901044451 -0.16803916485973749 0 0.2047419039749544 -0.16383627848553101 0 0.2047419039749544 -0.16383627848553101 0 0.21987806867346529 -0.181539582491408 0 0.2199830660130864 -0.1595641520633625 0 0.20143056513873611 -0.17998665641699849 0 0.2047419039749544 -0.16383627848553101 0 0.21987806867346529 -0.181539582491408 0 0.20143056513873611 -0.17998665641699849 0 0.21987806867346529 -0.181539582491408 0 0.21026993533039931 -0.19452922539566581 0 0.21987806867346529 -0.181539582491408 0 0.2199830660130864 -0.1595641520633625 0 0.23800995941679501 -0.17585674398607579 0 0.21987806867346529 -0.181539582491408 0 0.23800995941679501 -0.17585674398607579 0 0.2331345488648309 -0.19515302615352589 0 0.2199830660130864 -0.1595641520633625 0 0.23800995941679501 -0.17585674398607579 0 0.23903729808979979 -0.1497956366535709 0 0.2199830660130864 -0.1595641520633625 0 0.23506515458377289 -0.16194558534122611 0 0.2199830660130864 -0.1595641520633625 0 0.23506515458377289 -0.16194558534122611 0 0.23800995941679501 -0.17585674398607579 0 0.23903729808979979 -0.1497956366535709 0 0.23506515458377289 -0.16194558534122611 0 0.24727016264961249 -0.1692414738038848 0 0.23506515458377289 -0.16194558534122611 0 0.24727016264961249 -0.1692414738038848 0 0.23800995941679501 -0.17585674398607579 0 0.24727016264961249 -0.1692414738038848 0 0.2331345488648309 -0.19515302615352589 0 0.24727016264961249 -0.1692414738038848 0 0.23800995941679501 -0.17585674398607579 0 0.2331345488648309 -0.19515302615352589 0 0.25115080808597218 -0.18349252771031549 0 0.24727016264961249 -0.1692414738038848 0 0.2331345488648309 -0.19515302615352589 0 0.25294493867930001 -0.1971512634910503 0 0.25115080808597218 -0.18349252771031549 0 0.2331345488648309 -0.19515302615352589 0 0.25294493867930001 -0.1971512634910503 0 0.23924146656863479 -0.21600942233651971 0 0.2331345488648309 -0.19515302615352589 0 0.25948399805722178 -0.21095426616987389 0 0.23924146656863479 -0.21600942233651971 0 0.23924146656863479 -0.21600942233651971 0 0.218998935080048 -0.22106457850316641 0 0.21946760776481619 -0.20450875509018021 0 0.2331345488648309 -0.19515302615352589 0 0.218998935080048 -0.22106457850316641 0 0.2331345488648309 -0.19515302615352589 0 0.218998935080048 -0.22106457850316641 0 0.23924146656863479 -0.21600942233651971 0 0.2331345488648309 -0.19515302615352589 0 0.218998935080048 -0.22106457850316641 0 0.21946760776481619 -0.20450875509018021 0 0.22068754015837791 -0.19393264728269499 0 0.2331345488648309 -0.19515302615352589 0 0.21987806867346529 -0.181539582491408 0 0.22068754015837791 -0.19393264728269499 0 0.2331345488648309 -0.19515302615352589 0 0.25406429941061343 -0.23112732810889039 0 0.24146341680214309 -0.24448521489457861 0 0.23197262628044979 -0.22995906340082059 0 0.25406429941061343 -0.23112732810889039 0 0.23924146656863479 -0.21600942233651971 0 0.23197262628044979 -0.22995906340082059 0 0.23924146656863479 -0.21600942233651971 0 0.218998935080048 -0.22106457850316641 0 0.23197262628044979 -0.22995906340082059 0 0.218998935080048 -0.22106457850316641 0 0.23197262628044979 -0.22995906340082059 0 0.2174712270181591 -0.22386497246011361 0 0.23197262628044979 -0.22995906340082059 0 0.22090538197196211 -0.23599380530564679 0 0.2174712270181591 -0.22386497246011361 0 0.23197262628044979 -0.22995906340082059 0 0.2264227451730553 -0.24971222362376699 0 0.22090538197196211 -0.23599380530564679 0 0.24146341680214309 -0.24448521489457861 0 0.23197262628044979 -0.22995906340082059 0 0.2264227451730553 -0.24971222362376699 0 0.21040399342164171 -0.25176681621351038 0 0.2264227451730553 -0.24971222362376699 0 0.22090538197196211 -0.23599380530564679 0 0.21040399342164171 -0.25176681621351038 0 0.22090538197196211 -0.23599380530564679 0 0.20830595876386901 -0.23638945826593061 0 0.21040399342164171 -0.25176681621351038 0 0.20830595876386901 -0.23638945826593061 0 0.19936230214102421 -0.2479946931896729 0 0.22090538197196211 -0.23599380530564679 0 0.20830595876386901 -0.23638945826593061 0 0.2144511399868903 -0.2312706685566866 0 0.218998935080048 -0.22106457850316641 0 0.19612053567392879 -0.2267779885035914 0 0.218998935080048 -0.22106457850316641 0 0.19612053567392879 -0.2267779885035914 0 0.2105383011147646 -0.21819048542197941 0 0.218998935080048 -0.22106457850316641 0 0.20576090592389351 -0.2270860010417686 0 0.19612053567392879 -0.2267779885035914 0 0.20830595876386901 -0.23638945826593061 0 0.20576090592389351 -0.2270860010417686 0 0.20182830522270101 -0.2319599292687276 0 0.20830595876386901 -0.23638945826593061 0 0.20576090592389351 -0.2270860010417686 0 0.2144511399868903 -0.2312706685566866 0 0.22090538197196211 -0.23599380530564679 0 0.2144511399868903 -0.2312706685566866 0 0.2174712270181591 -0.22386497246011361 0 0.20576090592389351 -0.2270860010417686 0 0.2144511399868903 -0.2312706685566866 0 0.21346905720863779 -0.2258257771414271 0 0.2144511399868903 -0.2312706685566866 0 0.21346905720863779 -0.2258257771414271 0 0.2174712270181591 -0.22386497246011361 0 0.218998935080048 -0.22106457850316641 0 0.20576090592389351 -0.2270860010417686 0 0.21346905720863779 -0.2258257771414271 0 0.218998935080048 -0.22106457850316641 0 0.21346905720863779 -0.2258257771414271 0 0.2174712270181591 -0.22386497246011361 0 0.218998935080048 -0.22106457850316641 0 0.2174712270181591 -0.22386497246011361 0 0.19612053567392879 -0.2267779885035914 0 0.2105383011147646 -0.21819048542197941 0 0.20425053182178279 -0.21841625855527369 0 0.19777000223886329 -0.21875233346220549 0 0.19612053567392879 -0.2267779885035914 0 0.20425053182178279 -0.21841625855527369 0 0.19777000223886329 -0.21875233346220549 0 0.19393270034329779 -0.22126915535208849 0 0.19612053567392879 -0.2267779885035914 0 0.19393270034329779 -0.22126915535208849 0 0.18772081891462031 -0.22518952661427791 0 0.19612053567392879 -0.2267779885035914 0 0.19393270034329779 -0.22126915535208849 0 0.18772081891462031 -0.22518952661427791 0 0.19411944454577909 -0.214356772828279 0 0.19612053567392879 -0.2267779885035914 0 0.19712582052911259 -0.23758626926361981 0 0.1871717184338115 -0.23640941086597769 0 0.19612053567392879 -0.2267779885035914 0 0.20182830522270101 -0.2319599292687276 0 0.19712582052911259 -0.23758626926361981 0 0.20576090592389351 -0.2270860010417686 0 0.19612053567392879 -0.2267779885035914 0 0.20182830522270101 -0.2319599292687276 0 0.20830595876386901 -0.23638945826593061 0 0.19712582052911259 -0.23758626926361981 0 0.19936230214102421 -0.2479946931896729 0 0.20830595876386901 -0.23638945826593061 0 0.20182830522270101 -0.2319599292687276 0 0.19712582052911259 -0.23758626926361981 0 0.19712582052911259 -0.23758626926361981 0 0.18957958600208469 -0.24548130840959781 0 0.1871717184338115 -0.23640941086597769 0 0.19712582052911259 -0.23758626926361981 0 0.18957958600208469 -0.24548130840959781 0 0.19936230214102421 -0.2479946931896729 0 0.21026993533039931 -0.19452922539566581 0 0.2106024981415649 -0.2056222994823437 0 0.20186537415214451 -0.20478020160934601 0 0.21987806867346529 -0.181539582491408 0 0.22068754015837791 -0.19393264728269499 0 0.21026993533039931 -0.19452922539566581 0 0.21946760776481619 -0.20450875509018021 0 0.22068754015837791 -0.19393264728269499 0 0.21026993533039931 -0.19452922539566581 0 0.21946760776481619 -0.20450875509018021 0 0.21026993533039931 -0.19452922539566581 0 0.2106024981415649 -0.2056222994823437 0 0.21946760776481619 -0.20450875509018021 0 0.218998935080048 -0.22106457850316641 0 0.21566385185952111 -0.2138241496878262 0 0.21946760776481619 -0.20450875509018021 0 0.21566385185952111 -0.2138241496878262 0 0.21365056347845579 -0.2115327797359787 0 0.21946760776481619 -0.20450875509018021 0 0.21365056347845579 -0.2115327797359787 0 0.2106024981415649 -0.2056222994823437 0 0.218998935080048 -0.22106457850316641 0 0.21566385185952111 -0.2138241496878262 0 0.2105383011147646 -0.21819048542197941 0 0.21566385185952111 -0.2138241496878262 0 0.21365056347845579 -0.2115327797359787 0 0.2105383011147646 -0.21819048542197941 0 0.2105383011147646 -0.21819048542197941 0 0.20775900998200869 -0.21276053558054769 0 0.20425053182178279 -0.21841625855527369 0 0.21365056347845579 -0.2115327797359787 0 0.2105383011147646 -0.21819048542197941 0 0.20775900998200869 -0.21276053558054769 0 0.20775900998200869 -0.21276053558054769 0 0.20425053182178279 -0.21841625855527369 0 0.20156851284219721 -0.21282904574896491 0 0.20775900998200869 -0.21276053558054769 0 0.20186537415214451 -0.20478020160934601 0 0.20156851284219721 -0.21282904574896491 0 0.20775900998200869 -0.21276053558054769 0 0.2106024981415649 -0.2056222994823437 0 0.20186537415214451 -0.20478020160934601 0 0.21365056347845579 -0.2115327797359787 0 0.20775900998200869 -0.21276053558054769 0 0.2106024981415649 -0.2056222994823437 0 0.20186537415214451 -0.20478020160934601 0 0.19411944454577909 -0.214356772828279 0 0.19348214685029161 -0.20221454249066079 0 0.18772081891462031 -0.22518952661427791 0 0.19411944454577909 -0.214356772828279 0 0.18226621063645451 -0.19656373903451449 0 0.20186537415214451 -0.20478020160934601 0 0.20156851284219721 -0.21282904574896491 0 0.19411944454577909 -0.214356772828279 0 0.19411944454577909 -0.214356772828279 0 0.19348214685029161 -0.20221454249066079 0 0.18226621063645451 -0.19656373903451449 0 0.19777000223886329 -0.21875233346220549 0 0.20425053182178279 -0.21841625855527369 0 0.20156851284219721 -0.21282904574896491 0 0.19777000223886329 -0.21875233346220549 0 0.20156851284219721 -0.21282904574896491 0 0.19411944454577909 -0.214356772828279 0 0.19777000223886329 -0.21875233346220549 0 0.19393270034329779 -0.22126915535208849 0 0.19411944454577909 -0.214356772828279 0 0.19348214685029161 -0.20221454249066079 0 0.1956775580667883 -0.19315745649050381 0 0.18226621063645451 -0.19656373903451449 0 0.20186537415214451 -0.20478020160934601 0 0.19348214685029161 -0.20221454249066079 0 0.1956775580667883 -0.19315745649050381 0 0.21026993533039931 -0.19452922539566581 0 0.20186537415214451 -0.20478020160934601 0 0.1956775580667883 -0.19315745649050381 0 0.20143056513873611 -0.17998665641699849 0 0.21026993533039931 -0.19452922539566581 0 0.1956775580667883 -0.19315745649050381 0 0.18945430304214239 -0.18113699365130109 0 0.1956775580667883 -0.19315745649050381 0 0.18226621063645451 -0.19656373903451449 0 0.18226621063645451 -0.19656373903451449 0 0.1715432114556068 -0.21122996104898861 0 0.16984428664340401 -0.18996852359395999 0 0.18772081891462031 -0.22518952661427791 0 0.18226621063645451 -0.19656373903451449 0 0.1715432114556068 -0.21122996104898861 0 0.18772081891462031 -0.22518952661427791 0 0.18226621063645451 -0.19656373903451449 0 0.1715432114556068 -0.21122996104898861 0 0.1573322870795833 -0.20789039819694149 0 0.1623168744573055 -0.22287573648660611 0 0.1573322870795833 -0.20789039819694149 0 0.1623168744573055 -0.22287573648660611 0 0.1522967848894444 -0.22083493224417339 0 0.1715432114556068 -0.21122996104898861 0 0.1573322870795833 -0.20789039819694149 0 0.16984428664340401 -0.18996852359395999 0 0.1573322870795833 -0.20789039819694149 0 0.16984428664340401 -0.18996852359395999 0 0.15597410852767299 -0.19239463322910441 0 0.1715432114556068 -0.21122996104898861 0 0.16984428664340401 -0.18996852359395999 0 0.16984428664340401 -0.18996852359395999 0 0.15597410852767299 -0.19239463322910441 0 0.1614518955362341 -0.18261220584938501 0 0.17531814171820079 -0.25847186551630352 0 0.18140855909891221 -0.24875385404173869 0 0.17324213626780979 -0.23249139850401729 0 0.17531814171820079 -0.25847186551630352 0 0.17324213626780979 -0.23249139850401729 0 0.18140855909891221 -0.24875385404173869 0 0.182482909248532 -0.24101033857802051 0 0.17324213626780979 -0.23249139850401729 0 0.18957958600208469 -0.24548130840959781 0 0.18140855909891221 -0.24875385404173869 0 0.182482909248532 -0.24101033857802051 0 0.18957958600208469 -0.24548130840959781 0 0.182482909248532 -0.24101033857802051 0 0.1871717184338115 -0.23640941086597769 0 0.182482909248532 -0.24101033857802051 0 0.1871717184338115 -0.23640941086597769 0 0.17324213626780979 -0.23249139850401729 0 0.18772081891462031 -0.22518952661427791 0 0.19612053567392879 -0.2267779885035914 0 0.17324213626780979 -0.23249139850401729 0 0.19612053567392879 -0.2267779885035914 0 0.1871717184338115 -0.23640941086597769 0 0.17324213626780979 -0.23249139850401729 0 0.1715432114556068 -0.21122996104898861 0 0.17324213626780979 -0.23249139850401729 0 0.19612053567392879 -0.2267779885035914 0 0.17324213626780979 -0.23249139850401729 0 0.18772081891462031 -0.22518952661427791 0 0.1715432114556068 -0.21122996104898861 0 0.17324213626780979 -0.23249139850401729 0 0.1715432114556068 -0.21122996104898861 0 0.17324213626780979 -0.23249139850401729 0 0.1623168744573055 -0.22287573648660611 0 0.1623168744573055 -0.22287573648660611 0 0.15535209141549861 -0.22942801887575409 0 0.1522967848894444 -0.22083493224417339 0 0.1623168744573055 -0.22287573648660611 0 0.16254320702155209 -0.2351632361734422 0 0.15535209141549861 -0.22942801887575409 0 0.17324213626780979 -0.23249139850401729 0 0.16254320702155209 -0.2351632361734422 0 0.17324213626780979 -0.23249139850401729 0 0.1623168744573055 -0.22287573648660611 0 0.16254320702155209 -0.2351632361734422 0 0.16416434830993021 -0.25348076251168611 0 0.17531814171820079 -0.25847186551630352 0 0.17324213626780979 -0.23249139850401729 0 0.16416434830993021 -0.25348076251168611 0 0.17324213626780979 -0.23249139850401729 0 0.16097870724125449 -0.24292032119762011 0 0.17324213626780979 -0.23249139850401729 0 0.16254320702155209 -0.2351632361734422 0 0.16097870724125449 -0.24292032119762011 0 0.16254320702155209 -0.2351632361734422 0 0.16097870724125449 -0.24292032119762011 0 0.15390853800913809 -0.24274468653761391 0 0.16416434830993021 -0.25348076251168611 0 0.16097870724125449 -0.24292032119762011 0 0.15746623258843939 -0.24717962177743169 0 0.16097870724125449 -0.24292032119762011 0 0.15746623258843939 -0.24717962177743169 0 0.15390853800913809 -0.24274468653761391 0 0.1338120645475761 -0.25178135897747889 0 0.14143480209138451 -0.24391931440815429 0 0.15081333679343489 -0.24957271686280691 0 0.14143480209138451 -0.24391931440815429 0 0.14954523601732381 -0.23656141158161401 0 0.13965007243053049 -0.2272862619181428 0 0.14143480209138451 -0.24391931440815429 0 0.15081333679343489 -0.24957271686280691 0 0.14892547822782029 -0.24319953234754729 0 0.15746623258843939 -0.24717962177743169 0 0.15081333679343489 -0.24957271686280691 0 0.15390853800913809 -0.24274468653761391 0 0.15081333679343489 -0.24957271686280691 0 0.15390853800913809 -0.24274468653761391 0 0.14892547822782029 -0.24319953234754729 0 0.16254320702155209 -0.2351632361734422 0 0.15390853800913809 -0.24274468653761391 0 0.14954523601732381 -0.23656141158161401 0 0.15390853800913809 -0.24274468653761391 0 0.14892547822782029 -0.24319953234754729 0 0.14954523601732381 -0.23656141158161401 0 0.14143480209138451 -0.24391931440815429 0 0.14892547822782029 -0.24319953234754729 0 0.14954523601732381 -0.23656141158161401 0 0.14954523601732381 -0.23656141158161401 0 0.15535209141549861 -0.22942801887575409 0 0.13965007243053049 -0.2272862619181428 0 0.15535209141549861 -0.22942801887575409 0 0.1522967848894444 -0.22083493224417339 0 0.13965007243053049 -0.2272862619181428 0 0.16254320702155209 -0.2351632361734422 0 0.14954523601732381 -0.23656141158161401 0 0.15535209141549861 -0.22942801887575409 0 0.1522967848894444 -0.22083493224417339 0 0.13965007243053049 -0.2272862619181428 0 0.14214428324753289 -0.2154529738929884 0 0.11925867152865099 -0.22395178641925401 0 0.13965007243053049 -0.2272862619181428 0 0.12727927076528461 -0.2378210325384271 0 0.11925867152865099 -0.22395178641925401 0 0.13965007243053049 -0.2272862619181428 0 0.1296813367821156 -0.2112782106774091 0 0.14143480209138451 -0.24391931440815429 0 0.13965007243053049 -0.2272862619181428 0 0.12727927076528461 -0.2378210325384271 0 0.1338120645475761 -0.25178135897747889 0 0.1155402395781918 -0.2507583320391269 0 0.12727927076528461 -0.2378210325384271 0 0.1338120645475761 -0.25178135897747889 0 0.14143480209138451 -0.24391931440815429 0 0.12727927076528461 -0.2378210325384271 0 0.1472064603361167 -0.20247602688276969 0 0.14541013119376039 -0.19094925991957609 0 0.13560729147637779 -0.19666813964102769 0 0.1472064603361167 -0.20247602688276969 0 0.14541013119376039 -0.19094925991957609 0 0.15597410852767299 -0.19239463322910441 0 0.14541013119376039 -0.19094925991957609 0 0.15597410852767299 -0.19239463322910441 0 0.15149562072024261 -0.18002206604153331 0 0.1573322870795833 -0.20789039819694149 0 0.1472064603361167 -0.20247602688276969 0 0.15597410852767299 -0.19239463322910441 0 0.1573322870795833 -0.20789039819694149 0 0.1472064603361167 -0.20247602688276969 0 0.14214428324753289 -0.2154529738929884 0 0.1573322870795833 -0.20789039819694149 0 0.1522967848894444 -0.22083493224417339 0 0.14214428324753289 -0.2154529738929884 0 0.1472064603361167 -0.20247602688276969 0 0.14214428324753289 -0.2154529738929884 0 0.1296813367821156 -0.2112782106774091 0 0.1472064603361167 -0.20247602688276969 0 0.1296813367821156 -0.2112782106774091 0 0.13560729147637779 -0.19666813964102769 0 0.13965007243053049 -0.2272862619181428 0 0.14214428324753289 -0.2154529738929884 0 0.1296813367821156 -0.2112782106774091 0 0.1232396379011078 -0.1927549034493776 0 0.1296813367821156 -0.2112782106774091 0 0.13560729147637779 -0.19666813964102769 0 0.14541013119376039 -0.19094925991957609 0 0.13560729147637779 -0.19666813964102769 0 0.1367671749083921 -0.18318543380344571 0 0.1232396379011078 -0.1927549034493776 0 0.13560729147637779 -0.19666813964102769 0 0.1367671749083921 -0.18318543380344571 0 0.1232396379011078 -0.1927549034493776 0 0.1240882674421261 -0.17221834261327171 0 0.1367671749083921 -0.18318543380344571 0 0.1240882674421261 -0.17221834261327171 0 0.1367671749083921 -0.18318543380344571 0 0.13968624526684381 -0.1663096509244866 0 0.14541013119376039 -0.19094925991957609 0 0.1367671749083921 -0.18318543380344571 0 0.15149562072024261 -0.18002206604153331 0 0.1367671749083921 -0.18318543380344571 0 0.15149562072024261 -0.18002206604153331 0 0.13968624526684381 -0.1663096509244866 0 0.15149562072024261 -0.18002206604153331 0 0.15438358984087761 -0.16681526513507461 0 0.15901421514929279 -0.17490695601163531 0 0.13968624526684381 -0.1663096509244866 0 0.137218974646206 -0.14902146964549531 0 0.15110583492258711 -0.15411329859263981 0 0.15438358984087761 -0.16681526513507461 0 0.15110583492258711 -0.15411329859263981 0 0.16298457853711951 -0.16119870976526179 0 0.15149562072024261 -0.18002206604153331 0 0.15438358984087761 -0.16681526513507461 0 0.13968624526684381 -0.1663096509244866 0 0.15438358984087761 -0.16681526513507461 0 0.13968624526684381 -0.1663096509244866 0 0.15110583492258711 -0.15411329859263981 0 0.1238726331408222 -0.15597973401630799 0 0.13968624526684381 -0.1663096509244866 0 0.137218974646206 -0.14902146964549531 0 0.1238726331408222 -0.15597973401630799 0 0.1240882674421261 -0.17221834261327171 0 0.13968624526684381 -0.1663096509244866 0 0.1238726331408222 -0.15597973401630799 0 0.12550759679471971 -0.14428239988351421 0 0.137218974646206 -0.14902146964549531 0 0.12550759679471971 -0.14428239988351421 0 0.137218974646206 -0.14902146964549531 0 0.13351042007077771 -0.13535464583232679 0 0.13570225296767791 -0.1136627830916173 0 0.13351042007077771 -0.13535464583232679 0 0.14820743810063461 -0.13253739615236759 0 0.137218974646206 -0.14902146964549531 0 0.13351042007077771 -0.13535464583232679 0 0.14820743810063461 -0.13253739615236759 0 0.1195920268695274 -0.13435801890873961 0 0.125059882544757 -0.1243050716586782 0 0.13351042007077771 -0.13535464583232679 0 0.1195920268695274 -0.13435801890873961 0 0.12550759679471971 -0.14428239988351421 0 0.13351042007077771 -0.13535464583232679 0 0.14820743810063461 -0.13253739615236759 0 0.15110583492258711 -0.15411329859263981 0 0.1632605781546366 -0.14974645590444771 0 0.137218974646206 -0.14902146964549531 0 0.14820743810063461 -0.13253739615236759 0 0.15110583492258711 -0.15411329859263981 0 0.1632605781546366 -0.14974645590444771 0 0.17135699408012309 -0.1393121638749876 0 0.1768116023582888 -0.16793795145475099 0 0.15110583492258711 -0.15411329859263981 0 0.1632605781546366 -0.14974645590444771 0 0.16298457853711951 -0.16119870976526179 0 0.14820743810063461 -0.13253739615236759 0 0.1632605781546366 -0.14974645590444771 0 0.17135699408012309 -0.1393121638749876 0 0.1659023858019596 -0.11068637629522381 0 0.14820743810063461 -0.13253739615236759 0 0.17135699408012309 -0.1393121638749876 0 0.1659023858019596 -0.11068637629522381 0 0.17135699408012309 -0.1393121638749876 0 0.18392927920566929 -0.12697896821793581 0 0.17135699408012309 -0.1393121638749876 0 0.1858442134446858 -0.1403981851473228 0 0.18392927920566929 -0.12697896821793581 0 0.17135699408012309 -0.1393121638749876 0 0.1768116023582888 -0.16793795145475099 0 0.17135699408012309 -0.1393121638749876 0 0.18613440788357311 -0.15203004835571851 0 0.1768116023582888 -0.16793795145475099 0 0.17135699408012309 -0.1393121638749876 0 0.1858442134446858 -0.1403981851473228 0 0.18613440788357311 -0.15203004835571851 0 0.19108557901044451 -0.16803916485973749 0 0.18613440788357311 -0.15203004835571851 0 0.1768116023582888 -0.16793795145475099 0 0.18226621063645451 -0.19656373903451449 0 0.16984428664340401 -0.18996852359395999 0 0.1768116023582888 -0.16793795145475099 0 0.18945430304214239 -0.18113699365130109 0 0.19108557901044451 -0.16803916485973749 0 0.1768116023582888 -0.16793795145475099 0 0.18226621063645451 -0.19656373903451449 0 0.1768116023582888 -0.16793795145475099 0 0.18945430304214239 -0.18113699365130109 0 0.18226621063645451 -0.19656373903451449 0 0.1768116023582888 -0.16793795145475099 0 0.16984428664340401 -0.18996852359395999 0 0.1681453618312011 -0.16870708613893129 0 0.16984428664340401 -0.18996852359395999 0 0.1768116023582888 -0.16793795145475099 0 0.1681453618312011 -0.16870708613893129 0 0.16984428664340401 -0.18996852359395999 0 0.1614518955362341 -0.18261220584938501 0 0.1681453618312011 -0.16870708613893129 0 0.15597410852767299 -0.19239463322910441 0 0.15149562072024261 -0.18002206604153331 0 0.1614518955362341 -0.18261220584938501 0 0.1614518955362341 -0.18261220584938501 0 0.15901421514929279 -0.17490695601163531 0 0.1681453618312011 -0.16870708613893129 0 0.15149562072024261 -0.18002206604153331 0 0.1614518955362341 -0.18261220584938501 0 0.15901421514929279 -0.17490695601163531 0 0.15438358984087761 -0.16681526513507461 0 0.16298457853711951 -0.16119870976526179 0 0.1681453618312011 -0.16870708613893129 0 0.15438358984087761 -0.16681526513507461 0 0.15901421514929279 -0.17490695601163531 0 0.1681453618312011 -0.16870708613893129 0 0.1632605781546366 -0.14974645590444771 0 0.1768116023582888 -0.16793795145475099 0 0.16298457853711951 -0.16119870976526179 0 0.1768116023582888 -0.16793795145475099 0 0.16298457853711951 -0.16119870976526179 0 0.1681453618312011 -0.16870708613893129 0 
</DataArray>
</Points>
<Cells>
<DataArray type="UInt32" Name="connectivity" format="ascii">
0 1 2 3 4 5 6 7 8 9 10 11 12 13 14 15 16 17 18 19 20 21 22 23 24 25 26 27 28 29 30 31 32 33 34 35 36 37 38 39 40 41 42 43 44 45 46 47 48 49 50 51 52 53 54 55 56 57 58 59 60 61 62 63 64 65 66 67 68 69 70 71 72 73 74 75 76 77 78 79 80 81 82 83 84 85 86 87 88 89 90 91 92 93 94 95 96 97 98 99 100 101 102 103 104 105 106 107 108 109 110 111 112 113 114 115 116 117 118 119 120 121 122 123 124 125 126 127 128 129 130 131 132 133 134 135 136 137 138 139 140 141 142 143 144 145 146 147 148 149 150 151 152 153 154 155 156 157 158 159 160 161 162 163 164 165 166 167 168 169 170 171 172 173 174 175 176 177 178 179 180 181 182 183 184 185 186 187 188 189 190 191 192 193 194 195 196 197 198 199 200 201 202 203 204 205 206 207 208 209 210 211 212 213 214 215 216 217 218 219 220 221 222 223 224 225 226 227 228 229 230 231 232 233 234 235 236 237 238 239 240 241 242 243 244 245 246 247 248 249 250 251 252 253 254 255 256 257 258 259 260 261 262 263 264 265 266 267 268 269 270 271 272 273 274 275 276 277 278 279 280 281 282 283 284 285 286 287 288 289 290 291 292 293 294 295 296 297 298 299 300 301 302 303 304 305 306 307 308 309 310 311 312 313 314 315 316 317 318 319 320 321 322 323 324 325 326 327 328 329 330 331 332 333 334 335 336 337 338 339 340 341 342 343 344 345 346 347 348 349 350 351 352 353 354 355 356 357 358 359 360 361 362 363 364 365 366 367 368 369 370 371 372 373 374 375 376 377 378 379 380 381 382 383 384 385 386 387 388 389 390 391 392 393 394 395 396 397 398 399 400 401 402 403 404 405 406 407 408 409 410 411 412 413 414 415 416 417 418 419 420 421 422 423 424 425 426 427 428 429 430 431 432 433 434 435 436 437 438 439 440 441 442 443 444 445 446 447 448 449 450 451 452 453 454 455 456 457 458 459 460 461 462 463 464 465 466 467 468 469 470 471 472 473 474 475 476 477 478 479 480 481 482 483 484 485 486 487 488 489 490 491 492 493 494 495 496 497 498 499 500 501 502 503 504 505 506 507 508 509 510 511 512 513 514 515 516 517 518 519 520 521 522 523 524 525 526 527 528 529 530 531 532 533 534 535 536 537 538 539 540 541 542 543 544 545 546 547 548 549 550 551 552 553 554 555 556 557 558 559 560 561 562 563 564 565 566 567 568 569 570 571 572 573 574 575 576 577 578 579 580 581 582 583 584 585 586 587 588 589 590 591 592 593 594 595 596 597 598 599 600 601 602 603 604 605 606 607 608 609 610 611 612 613 614 615 616 617 618 619 620 621 622 623 624 625 626 627 628 629 630 631 632 633 634 635 636 637 638 639 640 641 642 643 644 645 646 647 648 649 650 651 652 653 654 655 656 657 658 659 660 661 662 663 664 665 666 667 668 669 670 671 672 673 674 675 676 677 678 679 680 681 682 683 684 685 686 687 688 689 690 691 692 693 694 695 696 697 698 699 700 701 702 703 704 705 706 707 708 709 710 711 712 713 714 715 716 717 718 719 720 721 722 723 724 725 726 727 728 729 730 731 732 733 734 735 736 737 738 739 740 741 742 743 744 745 746 747 748 749 750 751 752 753 754 755 756 757 758 759 760 761 762 763 764 765 766 767 768 769 770 771 772 773 774 775 776 777 778 779 780 781 782 783 784 785 786 787 788 789 790 791 792 793 794 795 796 797 798 799 800 801 802 803 804 805 806 807 808 809 810 811 812 813 814 815 816 817 818 819 820 821 822 823 824 825 826 827 828 829 830 831 832 833 834 835 836 837 838 839 840 841 842 843 844 845 846 847 848 849 850 851 852 853 854 855 856 857 858 859 860 861 862 863 864 865 866 867 868 869 870 871 872 873 874 875 876 877 878 879 880 881 882 883 884 885 886 887 888 889 890 891 892 893 894 895 896 897 898 899 900 901 902 903 904 905 906 907 908 909 910 911 912 913 914 915 916 917 918 919 920 921 922 923 924 925 926 927 928 929 930 931 932 933 934 935 936 937 938 939 940 941 942 943 944 945 946 947 948 949 950 951 952 953 954 955 956 957 958 959 960 961 962 963 964 965 966 967 968 969 970 971 972 973 974 975 976 977 978 979 980 981 982 983 984 985 986 987 988 989 990 991 992 993 994 995 996 997 998 999 1000 1001 1002 1003 1004 1005 1006 1007 1008 1009 1010 1011 1012 1013 1014 1015 1016 1017 1018 1019 1020 1021 1022 1023 1024 1025 1026 1027 1028 1029 1030 1031 1032 1033 1034 1035 1036 1037 1038 1039 1040 1041 1042 1043 1044 1045 1046 1047 1048 1049 1050 1051 1052 1053 1054 1055 1056 1057 1058 1059 1060 1061 1062 1063 1064 1065 1066 1067 1068 1069 1070 1071 1072 1073 1074 1075 1076 1077 1078 1079 1080 1081 1082 1083 1084 1085 1086 1087 1088 1089 1090 1091 1092 1093 1094 1095 1096 1097 1098 1099 1100 1101 1102 1103 1104 1105 1106 1107 1108 1109 1110 1111 1112 1113 1114 1115 1116 1117 1118 1119 1120 1121 1122 1123 1124 1125 1126 1127 1128 1129 1130 1131 1132 1133 1134 1135 1136 1137 1138 1139 1140 1141 1142 1143 1144 1145 1146 1147 1148 1149 1150 1151 1152 1153 1154 1155 1156 1157 1158 1159 1160 1161 1162 1163 1164 1165 1166 1167 1168 1169 1170 1171 1172 1173 1174 1175 1176 1177 1178 1179 1180 1181 1182 1183 1184 1185 1186 1187 1188 1189 1190 1191 1192 1193 1194 1195 1196 1197 1198 1199 1200 1201 1202 1203 1204 1205 1206 1207 1208 1209 1210 1211 1212 1213 1214 1215 1216 1217 1218 1219 1220 1221 1222 1223 1224 1225 1226 1227 1228 1229 1230 1231 1232 1233 1234 1235 1236 1237 1238 1239 1240 1241 1242 1243 1244 1245 1246 1247 1248 1249 1250 1251 1252 1253 1254 1255 1256 1257 1258 1259 1260 1261 1262 1263 1264 1265 1266 1267 1268 1269 1270 1271 1272 1273 1274 1275 1276 1277 1278 1279 1280 1281 1282 1283 1284 1285 1286 1287 1288 1289 1290 1291 1292 1293 1294 1295 1296 1297 1298 1299 1300 1301 1302 1303 1304 1305 1306 1307 1308 1309 1310 1311 1312 1313 1314 1315 1316 1317 1318 1319 1320 1321 1322 1323 1324 1325 1326 1327 1328 1329 1330 1331 1332 1333 1334 1335 1336 1337 1338 1339 1340 1341 1342 1343 1344 1345 1346 1347 1348 1349 1350 1351 1352 1353 1354 1355 1356 1357 1358 1359 1360 1361 1362 1363 1364 1365 1366 1367 1368 1369 1370 1371 1372 1373 1374 1375 1376 1377 1378 1379 1380 1381 1382 1383 1384 1385 1386 1387 1388 1389 1390 1391 1392 1393 1394 1395 1396 1397 1398 1399 1400 1401 1402 1403 1404 1405 1406 1407 1408 1409 1410 1411 1412 1413 1414 1415 1416 1417 1418 1419 1420 1421 1422 1423 1424 1425 1426 1427 1428 1429 1430 1431 1432 1433 1434 1435 1436 1437 1438 1439 1440 1441 1442 1443 1444 1445 1446 1447 1448 1449 1450 1451 1452 1453 1454 1455 1456 1457 1458 1459 1460 1461 1462 1463 1464 1465 1466 1467 1468 1469 1470 1471 1472 1473 1474 1475 1476 1477 1478 1479 1480 1481 1482 1483 1484 1485 1486 1487 1488 1489 1490 1491 1492 1493 1494 1495 1496 1497 1498 1499 1500 1501 1502 1503 1504 1505 1506 1507 1508 1509 1510 1511 1512 1513 1514 1515 1516 1517 1518 1519 1520 1521 1522 1523 1524 1525 1526 1527 1528 1529 1530 1531 1532 1533 1534 1535 1536 1537 1538 1539 1540 1541 1542 1543 1544 1545 1546 1547 1548 1549 1550 1551 1552 1553 1554 1555 1556 1557 1558 1559 1560 1561 1562 1563 1564 1565 1566 1567 1568 1569 1570 1571 1572 1573 1574 1575 1576 1577 1578 1579 1580 1581 1582 1583 1584 1585 1586 1587 1588 1589 1590 1591 1592 1593 1594 1595 1596 1597 1598 1599 1600 1601 1602 1603 1604 1605 1606 1607 1608 1609 1610 1611 1612 1613 1614 1615 1616 1617 1618 1619 1620 1621 1622 1623 1624 1625 1626 1627 1628 1629 1630 1631 1632 1633 1634 1635 1636 1637 1638 1639 1640 1641 1642 1643 1644 1645 1646 1647 1648 1649 1650 1651 1652 1653 1654 1655 1656 1657 1658 1659 1660 1661 1662 1663 1664 1665 1666 1667 1668 1669 1670 1671 1672 1673 1674 1675 1676 1677 1678 1679 1680 1681 1682 1683 1684 1685 1686 1687 1688 1689 1690 1691 1692 1693 1694 1695 1696 1697 1698 1699 1700 1701 1702 1703 1704 1705 1706 1707 1708 1709 1710 1711 1712 1713 1714 1715 1716 1717 1718 1719 1720 1721 1722 1723 1724 1725 1726 1727 1728 1729 1730 1731 1732 1733 1734 1735 1736 1737 1738 1739 1740 1741 1742 1743 1744 1745 1746 1747 1748 1749 1750 1751 1752 1753 1754 1755 1756 1757 1758 1759 1760 1761 1762 1763 1764 1765 1766 1767 1768 1769 1770 1771 1772 1773 1774 1775 1776 1777 1778 1779 1780 1781 1782 1783 1784 1785 1786 1787 1788 1789 1790 1791 1792 1793 1794 1795 1796 1797 1798 1799 1800 1801 1802 1803 1804 1805 1806 1807 1808 1809 1810 1811 1812 1813 1814 1815 1816 1817 1818 1819 1820 1821 1822 1823 1824 1825 1826 1827 1828 1829 1830 1831 1832 1833 1834 1835 1836 1837 1838 1839 1840 1841 1842 1843 1844 1845 1846 1847 1848 1849 1850 1851 1852 1853 1854 1855 1856 1857 1858 1859 1860 1861 1862 1863 1864 1865 1866 1867 1868 1869 1870 1871 1872 1873 1874 1875 1876 1877 1878 1879 1880 1881 1882 1883 1884 1885 1886 1887 1888 1889 1890 1891 1892 1893 1894 1895 1896 1897 1898 1899 1900 1901 1902 1903 1904 1905 1906 1907 1908 1909 1910 1911 1912 1913 1914 1915 1916 1917 1918 1919 1920 1921 1922 1923 1924 1925 1926 1927 1928 1929 1930 1931 1932 1933 1934 1935 1936 1937 1938 1939 1940 1941 1942 1943 1944 1945 1946 1947 1948 1949 1950 1951 1952 1953 1954 1955 1956 1957 1958 1959 1960 1961 1962 1963 1964 1965 1966 1967 1968 1969 1970 1971 1972 1973 1974 1975 1976 1977 1978 1979 1980 1981 1982 1983 1984 1985 1986 1987 1988 1989 1990 1991 1992 1993 1994 1995 1996 1997 1998 1999 2000 2001 2002 2003 2004 2005 2006 2007 2008 2009 2010 2011 2012 2013 2014 2015 2016 2017 2018 2019 2020 2021 2022 2023 2024 2025 2026 2027 2028 2029 2030 2031 2032 2033 2034 2035 2036 2037 2038 2039 2040 2041 2042 2043 2044 2045 2046 2047 2048 2049 2050 2051 2052 2053 2054 2055 2056 2057 2058 2059 2060 2061 2062 2063 2064 2065 2066 2067 2068 2069 2070 2071 2072 2073 2074 2075 2076 2077 2078 2079 2080 2081 2082 2083 2084 2085 2086 2087 2088 2089 2090 2091 2092 2093 2094 2095 2096 2097 2098 2099 2100 2101 2102 2103 2104 2105 2106 2107 2108 2109 2110 2111 2112 2113 2114 2115 2116 2117 2118 2119 2120 2121 2122 2123 2124 2125 2126 2127 2128 2129 2130 2131 2132 2133 2134 2135 2136 2137 2138 2139 2140 2141 2142 2143 2144 2145 2146 2147 2148 2149 2150 2151 2152 2153 2154 2155 2156 2157 2158 2159 2160 2161 2162 2163 2164 2165 2166 2167 2168 2169 2170 2171 2172 2173 2174 2175 2176 2177 2178 2179 2180 2181 2182 2183 2184 2185 2186 2187 2188 2189 2190 2191 2192 2193 2194 2195 2196 2197 2198 2199 2200 2201 2202 2203 2204 2205 2206 2207 2208 2209 2210 2211 2212 2213 2214 2215 2216 2217 2218 2219 2220 2221 2222 2223 2224 2225 2226 2227 2228 2229 2230 2231 2232 2233 2234 2235 2236 2237 2238 2239 2240 2241 2242 2243 2244 2245 2246 2247 2248 2249 2250 2251 2252 2253 2254 2255 2256 2257 2258 2259 2260 2261 2262 2263 2264 2265 2266 2267 2268 2269 2270 2271 2272 2273 2274 2275 2276 2277 2278 2279 2280 2281 2282 2283 2284 2285 2286 2287 2288 2289 2290 2291 2292 2293 2294 2295 2296 2297 2298 2299 2300 2301 2302 2303 2304 2305 2306 2307 2308 2309 2310 2311 2312 2313 2314 2315 2316 2317 2318 2319 2320 2321 2322 2323 2324 2325 2326 2327 2328 2329 2330 2331 2332 2333 2334 2335 2336 2337 2338 2339 2340 2341 2342 2343 2344 2345 2346 2347 2348 2349 2350 2351 2352 2353 2354 2355 2356 2357 2358 2359 2360 2361 2362 2363 2364 2365 2366 2367 2368 2369 2370 2371 2372 2373 2374 2375 2376 2377 2378 2379 2380 2381 2382 2383 2384 2385 2386 2387 2388 2389 2390 2391 2392 2393 2394 2395 2396 2397 2398 2399 2400 2401 2402 2403 2404 2405 2406 2407 2408 2409 2410 2411 2412 2413 2414 2415 2416 2417 2418 2419 2420 2421 2422 2423 2424 2425 2426 2427 2428 2429 2430 2431 2432 2433 2434 2435 2436 2437 2438 2439 2440 2441 2442 2443 2444 2445 2446 2447 2448 2449 2450 2451 2452 2453 2454 2455 2456 2457 2458 2459 2460 2461 2462 2463 2464 2465 2466 2467 2468 2469 2470 2471 2472 2473 2474 2475 2476 2477 2478 2479 2480 2481 2482 2483 2484 2485 2486 2487 2488 2489 2490 2491 2492 2493 2494 2495 2496 2497 2498 2499 2500 2501 2502 2503 2504 2505 2506 2507 2508 2509 2510 2511 2512 2513 2514 2515 2516 2517 2518 2519 2520 2521 2522 2523 2524 2525 2526 2527 2528 2529 2530 2531 2532 2533 2534 2535 2536 2537 2538 2539 2540 2541 2542 2543 2544 2545 2546 2547 2548 2549 2550 2551 2552 2553 2554 2555 2556 2557 2558 2559 2560 2561 2562 2563 2564 2565 2566 2567 2568 2569 2570 2571 2572 2573 2574 2575 2576 2577 2578 2579 2580 2581 2582 2583 2584 2585 2586 2587 2588 2589 2590 2591 2592 2593 2594 2595 2596 2597 2598 2599 2600 2601 2602 2603 2604 2605 2606 2607 2608 2609 2610 2611 2612 2613 2614 2615 2616 2617 2618 2619 2620 2621 2622 2623 2624 2625 2626 2627 2628 2629 2630 2631 2632 2633 2634 2635 2636 2637 2638 2639 2640 2641 2642 2643 2644 2645 2646 2647 2648 2649 2650 2651 2652 2653 2654 2655 2656 2657 2658 2659 2660 2661 2662 2663 2664 2665 2666 2667 2668 2669 2670 2671 2672 2673 2674 2675 2676 2677 2678 2679 2680 2681 2682 2683 2684 2685 2686 2687 2688 2689 2690 2691 2692 2693 2694 2695 2696 2697 2698 2699 2700 2701 2702 2703 2704 2705 2706 2707 2708 2709 2710 2711 2712 2713 2714 2715 2716 2717 2718 2719 2720 2721 2722 2723 2724 2725 2726 2727 2728 2729 2730 2731 2732 2733 2734 2735 2736 2737 2738 2739 2740 2741 2742 2743 2744 2745 2746 2747 2748 2749 2750 2751 2752 2753 2754 2755 2756 2757 2758 2759 2760 2761 2762 2763 2764 2765 2766 2767 2768 2769 2770 2771 2772 2773 2774 2775 2776 2777 2778 2779 2780 2781 2782 2783 2784 2785 2786 2787 2788 2789 2790 2791 2792 2793 2794 2795 2796 2797 2798 2799 2800 2801 2802 2803 2804 2805 2806 2807 2808 2809 2810 2811 2812 2813 2814 2815 2816 2817 2818 2819 2820 2821 2822 2823 2824 2825 2826 2827 2828 2829 2830 2831 2832 2833 2834 2835 2836 2837 2838 2839 2840 2841 2842 2843 2844 2845 2846 2847 2848 2849 2850 2851 2852 2853 2854 2855 2856 2857 2858 2859 2860 2861 2862 2863 2864 2865 2866 2867 2868 2869 2870 2871 2872 2873 2874 2875 2876 2877 2878 2879 2880 2881 2882 2883 2884 2885 2886 2887 2888 2889 2890 2891 2892 2893 2894 2895 2896 2897 2898 2899 2900 2901 2902 2903 2904 2905 2906 2907 2908 2909 2910 2911 2912 2913 2914 2915 2916 2917 2918 2919 2920 2921 2922 2923 2924 2925 2926 2927 2928 2929 2930 2931 2932 2933 2934 2935 2936 2937 2938 2939 2940 2941 2942 2943 2944 2945 2946 2947 2948 2949 2950 2951 2952 2953 2954 2955 2956 2957 2958 2959 2960 2961 2962 2963 2964 2965 2966 2967 2968 2969 2970 2971 2972 2973 2974 2975 2976 2977 2978 2979 2980 2981 2982 2983 2984 2985 2986 2987 2988 2989 2990 2991 2992 2993 2994 2995 2996 2997 2998 2999 3000 3001 3002 3003 3004 3005 3006 3007 3008 3009 3010 3011 3012 3013 3014 3015 3016 3017 3018 3019 3020 3021 3022 3023 3024 3025 3026 3027 3028 3029 3030 3031 3032 3033 3034 3035 3036 3037 3038 3039 3040 3041 3042 3043 3044 3045 3046 3047 3048 3049 3050 3051 3052 3053 3054 3055 3056 3057 3058 3059 3060 3061 3062 3063 3064 3065 3066 3067 3068 3069 3070 3071 3072 3073 3074 3075 3076 3077 3078 3079 3080 3081 3082 3083 3084 3085 3086 3087 3088 3089 3090 3091 3092 3093 3094 3095 3096 3097 3098 3099 3100 3101 3102 3103 3104 3105 3106 3107 3108 3109 3110 3111 3112 3113 3114 3115 3116 3117 3118 3119 3120 3121 3122 3123 3124 3125 3126 3127 3128 3129 3130 3131 3132 3133 3134 3135 3136 3137 3138 3139 3140 3141 3142 3143 3144 3145 3146 3147 3148 3149 3150 3151 3152 3153 3154 3155 3156 3157 3158 3159 3160 3161 3162 3163 3164 3165 3166 3167 3168 3169 3170 3171 3172 3173 3174 3175 3176 3177 3178 3179 3180 3181 3182 3183 3184 3185 3186 3187 3188 3189 3190 3191 3192 3193 3194 3195 3196 3197 3198 3199 3200 3201 3202 3203 3204 3205 3206 3207 3208 3209 3210 3211 3212 3213 3214 3215 3216 3217 3218 3219 3220 3221 3222 3223 3224 3225 3226 3227 3228 3229 3230 3231 3232 3233 3234 3235 3236 3237 3238 3239 3240 3241 3242 3243 3244 3245 3246 3247 3248 3249 3250 3251 3252 3253 3254 3255 3256 3257 3258 3259 3260 3261 3262 3263 3264 3265 3266 3267 3268 3269 3270 3271 3272 3273 3274 3275 3276 3277 3278 3279 3280 3281 3282 3283 3284 3285 3286 3287 3288 3289 3290 3291 3292 3293 3294 3295 3296 3297 3298 3299 3300 3301 3302 3303 3304 3305 3306 3307 3308 3309 3310 3311 3312 3313 3314 3315 3316 3317 3318 3319 3320 3321 3322 3323 3324 3325 3326 3327 3328 3329 3330 3331 3332 3333 3334 3335 3336 3337 3338 3339 3340 3341 3342 3343 3344 3345 3346 3347 3348 3349 3350 3351 3352 3353 3354 3355 3356 3357 3358 3359 3360 3361 3362 3363 3364 3365 3366 3367 3368 3369 3370 3371 3372 3373 3374 3375 3376 3377 3378 3379 3380 3381 3382 3383 3384 3385 3386 3387 3388 3389 3390 3391 3392 3393 3394 3395 3396 3397 3398 3399 3400 3401 3402 3403 3404 3405 3406 3407 3408 3409 3410 3411 3412 3413 3414 3415 3416 3417 3418 3419 3420 3421 3422 3423 3424 3425 3426 3427 3428 3429 3430 3431 3432 3433 3434 3435 3436 3437 3438 3439 3440 3441 3442 3443 3444 3445 3446 3447 3448 3449 3450 3451 3452 3453 3454 3455 3456 3457 3458 3459 3460 3461 3462 3463 3464 3465 3466 3467 3468 3469 3470 3471 3472 3473 3474 3475 3476 3477 3478 3479 3480 3481 3482 3483 3484 3485 3486 3487 3488 3489 3490 3491 3492 3493 3494 3495 3496 3497 3498 3499 3500 3501 3502 3503 3504 3505 3506 3507 3508 3509 3510 3511 3512 3513 3514 3515 3516 3517 3518 3519 3520 3521 3522 3523 3524 3525 3526 3527 3528 3529 3530 3531 3532 3533 3534 3535 3536 3537 3538 3539 3540 3541 3542 3543 3544 3545 3546 3547 3548 3549 3550 3551 3552 3553 3554 3555 3556 3557 3558 3559 3560 3561 3562 3563 3564 3565 3566 3567 3568 3569 3570 3571 3572 3573 3574 3575 3576 3577 3578 3579 3580 3581 3582 3583 3584 3585 3586 3587 3588 3589 3590 3591 3592 3593 3594 3595 3596 3597 3598 3599 3600 3601 3602 3603 3604 3605 3606 3607 3608 3609 3610 3611 3612 3613 3614 3615 3616 3617 3618 3619 3620 3621 3622 3623 3624 3625 3626 3627 3628 3629 3630 3631 3632 3633 3634 3635 3636 3637 3638 3639 3640 3641 3642 3643 3644 3645 3646 3647 3648 3649 3650 3651 3652 3653 3654 3655 3656 3657 3658 3659 3660 3661 3662 3663 3664 3665 3666 3667 3668 3669 3670 3671 3672 3673 3674 3675 3676 3677 3678 3679 3680 3681 3682 3683 3684 3685 3686 3687 3688 3689 3690 3691 3692 3693 3694 3695 3696 3697 3698 3699 3700 3701 3702 3703 3704 3705 3706 3707 3708 3709 3710 3711 3712 3713 3714 3715 3716 3717 3718 3719 3720 3721 3722 3723 3724 3725 3726 3727 3728 3729 3730 3731 3732 3733 3734 3735 3736 3737 3738 3739 3740 3741 3742 3743 3744 3745 3746 3747 3748 3749 3750 3751 3752 3753 3754 3755 3756 3757 3758 3759 3760 3761 3762 3763 3764 3765 3766 3767 3768 3769 3770 3771 3772 3773 3774 3775 3776 3777 3778 3779 3780 3781 3782 3783 3784 3785 3786 3787 3788 3789 3790 3791 3792 3793 3794 3795 3796 3797 3798 3799 3800 3801 3802 3803 3804 3805 3806 3807 3808 3809 3810 3811 3812 3813 3814 3815 3816 3817 3818 3819 3820 3821 3822 3823 3824 3825 3826 3827 3828 3829 3830 3831 3832 3833 3834 3835 3836 3837 3838 3839 3840 3841 3842 3843 3844 3845 3846 3847 3848 3849 3850 3851 3852 3853 3854 3855 3856 3857 3858 3859 3860 3861 3862 3863 3864 3865 3866 3867 3868 3869 3870 3871 3872 3873 3874 3875 3876 3877 3878 3879 3880 3881 3882 3883 3884 3885 3886 3887 3888 3889 3890 3891 3892 3893 3894 3895 3896 3897 3898 3899 3900 3901 3902 3903 3904 3905 3906 3907 3908 3909 3910 3911 3912 3913 3914 3915 3916 3917 3918 3919 3920 3921 3922 3923 3924 3925 3926 3927 3928 3929 3930 3931 3932 3933 3934 3935 3936 3937 3938 3939 3940 3941 3942 3943 3944 3945 3946 3947 3948 3949 3950 3951 3952 3953 3954 3955 3956 3957 3958 3959 3960 3961 3962 3963 3964 3965 3966 3967 3968 3969 3970 3971 3972 3973 3974 3975 3976 3977 3978 3979 3980 3981 3982 3983 3984 3985 3986 3987 3988 3989 3990 3991 3992 3993 3994 3995 3996 3997 3998 3999 4000 4001 4002 4003 4004 4005 4006 4007 4008 4009 4010 4011 4012 4013 4014 4015 4016 4017 4018 4019 4020 4021 4022 4023 4024 4025 4026 4027 4028 4029 4030 4031 4032 4033 4034 4035 4036 4037 4038 4039 4040 4041 4042 4043 4044 4045 4046 4047 4048 4049 4050 4051 4052 4053 4054 4055 4056 4057 4058 4059 4060 4061 4062 4063 4064 4065 4066 4067 4068 4069 4070 4071 4072 4073 4074 4075 4076 4077 4078 4079 4080 4081 4082 4083 4084 4085 4086 4087 4088 4089 4090 4091 4092 4093 4094 4095 4096 4097 4098 4099 4100 4101 4102 4103 4104 4105 4106 4107 4108 4109 4110 4111 4112 4113 4114 4115 4116 4117 4118 4119 4120 4121 4122 4123 4124 4125 4126 4127 4128 4129 4130 4131 4132 4133 4134 4135 4136 4137 4138 4139 4140 4141 4142 4143 4144 4145 4146 4147 4148 4149 4150 4151 4152 4153 4154 4155 4156 4157 4158 4159 4160 4161 4162 4163 4164 4165 4166 4167 4168 4169 4170 4171 4172 4173 4174 4175 4176 4177 4178 4179 4180 4181 4182 4183 4184 4185 4186 4187 4188 4189 4190 4191 4192 4193 4194 4195 4196 4197 4198 4199 4200 4201 4202 4203 4204 4205 4206 4207 4208 4209 4210 4211 4212 4213 4214 4215 4216 4217 4218 4219 4220 4221 4222 4223 4224 4225 4226 4227 4228 4229 4230 4231 4232 4233 4234 4235 4236 4237 4238 4239 4240 4241 4242 4243 4244 4245 4246 4247 4248 4249 4250 4251 4252 4253 4254 4255 4256 4257 4258 4259 4260 4261 4262 4263 4264 4265 4266 4267 4268 4269 4270 4271 4272 4273 4274 4275 4276 4277 4278 4279 4280 4281 4282 4283 4284 4285 4286 4287 4288 4289 4290 4291 4292 4293 4294 4295 4296 4297 4298 4299 4300 4301 4302 4303 4304 4305 4306 4307 4308 4309 4310 4311 4312 4313 4314 4315 4316 4317 4318 4319 4320 4321 4322 4323 4324 4325 4326 4327 4328 4329 4330 4331 4332 4333 4334 4335 4336 4337 4338 4339 4340 4341 4342 4343 4344 4345 4346 4347 4348 4349 4350 4351 4352 4353 4354 4355 4356 4357 4358 4359 4360 4361 4362 4363 4364 4365 4366 4367 4368 4369 4370 4371 4372 4373 4374 4375 4376 4377 4378 4379 4380 4381 4382 4383 4384 4385 4386 4387 4388 4389 4390 4391 4392 4393 4394 4395 4396 4397 4398 4399 4400 4401 4402 4403 4404 4405 4406 4407 4408 4409 4410 4411 4412 4413 4414 4415 4416 4417 4418 4419 4420 4421 4422 4423 4424 4425 4426 4427 4428 4429 4430 4431 4432 4433 4434 4435 4436 4437 4438 4439 4440 4441 4442 4443 4444 4445 4446 4447 4448 4449 4450 4451 4452 4453 4454 4455 4456 4457 4458 4459 4460 4461 4462 4463 4464 4465 4466 4467 4468 4469 4470 4471 4472 4473 4474 4475 4476 4477 4478 4479 4480 4481 4482 4483 4484 4485 4486 4487 4488 4489 4490 4491 4492 4493 4494 4495 4496 4497 4498 4499 4500 4501 4502 4503 4504 4505 4506 4507 4508 4509 4510 4511 4512 4513 4514 4515 4516 4517 4518 4519 4520 4521 4522 4523 4524 4525 4526 4527 4528 4529 4530 4531 4532 4533 4534 4535 4536 4537 4538 4539 4540 4541 4542 4543 4544 4545 4546 4547 4548 4549 4550 4551 4552 4553 4554 4555 4556 4557 4558 4559 4560 4561 4562 4563 4564 4565 4566 4567 4568 4569 4570 4571 4572 4573 4574 4575 4576 4577 4578 4579 4580 4581 4582 4583 4584 4585 4586 4587 4588 4589 4590 4591 4592 4593 4594 4595 4596 4597 4598 4599 4600 4601 4602 4603 4604 4605 4606 4607 4608 4609 4610 4611 4612 4613 4614 4615 4616 4617 4618 4619 4620 4621 4622 4623 4624 4625 4626 4627 4628 4629 4630 4631 4632 4633 4634 4635 4636 4637 4638 4639 4640 4641 4642 4643 4644 4645 4646 4647 4648 4649 4650 4651 4652 4653 4654 4655 4656 4657 4658 4659 4660 4661 4662 4663 4664 4665 4666 4667 4668 4669 4670 4671 4672 4673 4674 4675 4676 4677 4678 4679 4680 4681 4682 4683 4684 4685 4686 4687 4688 4689 4690 4691 4692 4693 4694 4695 4696 4697 4698 4699 4700 4701 4702 4703 4704 4705 4706 4707 4708 4709 4710 4711 4712 4713 4714 4715 4716 4717 4718 4719 4720 4721 4722 4723 4724 4725 4726 4727 4728 4729 4730 4731 4732 4733 4734 4735 4736 4737 4738 4739 4740 4741 4742 4743 4744 4745 4746 4747 4748 4749 4750 4751 4752 4753 4754 4755 4756 4757 4758 4759 4760 4761 4762 4763 4764 4765 4766 4767 4768 4769 4770 4771 4772 4773 4774 4775 4776 4777 4778 4779 4780 4781 4782 4783 4784 4785 4786 4787 4788 4789 4790 4791 4792 4793 4794 4795 4796 4797 4798 4799 4800 4801 4802 4803 4804 4805 4806 4807 4808 4809 4810 4811 4812 4813 4814 4815 4816 4817 4818 4819 4820 4821 4822 4823 4824 4825 4826 4827 4828 4829 4830 4831 4832 4833 4834 4835 4836 4837 4838 4839 4840 4841 4842 4843 4844 4845 4846 4847 4848 4849 4850 4851 4852 4853 4854 4855 4856 4857 4858 4859 4860 4861 4862 4863 4864 4865 4866 4867 4868 4869 4870 4871 4872 4873 4874 4875 4876 4877 4878 4879 4880 4881 4882 4883 4884 4885 4886 4887 4888 4889 4890 4891 4892 4893 4894 4895 4896 4897 4898 4899 4900 4901 4902 4903 4904 4905 4906 4907 4908 4909 4910 4911 4912 4913 4914 4915 4916 4917 4918 4919 4920 4921 4922 4923 4924 4925 4926 4927 4928 4929 4930 4931 4932 4933 4934 4935 4936 4937 4938 4939 4940 4941 4942 4943 4944 4945 4946 4947 4948 4949 4950 4951 4952 4953 4954 4955 4956 4957 4958 4959 4960 4961 4962 4963 4964 4965 4966 4967 4968 4969 4970 4971 4972 4973 4974 4975 4976 4977 4978 4979 4980 4981 4982 4983 4984 4985 4986 4987 4988 4989 4990 4991 4992 4993 4994 4995 4996 4997 4998 4999 5000 5001 5002 5003 5004 5005 5006 5007 5008 5009 5010 5011 5012 5013 5014 5015 5016 5017 5018 5019 5020 5021 5022 5023 5024 5025 5026 5027 5028 5029 5030 5031 5032 5033 5034 5035 5036 5037 5038 5039 5040 5041 5042 5043 5044 5045 5046 5047 5048 5049 5050 5051 5052 5053 5054 5055 5056 5057 5058 5059 5060 5061 5062 5063 5064 5065 5066 5067 5068 5069 5070 5071 5072 5073 5074 5075 5076 5077 5078 5079 5080 5081 5082 5083 5084 5085 5086 5087 5088 5089 5090 5091 5092 5093 5094 5095 5096 5097 5098 5099 5100 5101 5102 5103 5104 5105 5106 5107 5108 5109 5110 5111 5112 5113 5114 5115 5116 5117 5118 5119 5120 5121 5122 5123 5124 5125 5126 5127 5128 5129 5130 5131 5132 5133 5134 5135 5136 5137 5138 5139 5140 5141 5142 5143 5144 5145 5146 5147 5148 5149 5150 5151 5152 5153 5154 5155 5156 5157 5158 5159 5160 5161 5162 5163 5164 5165 5166 5167 5168 5169 5170 5171 5172 5173 5174 5175 5176 5177 5178 5179 5180 5181 5182 5183 5184 5185 5186 5187 5188 5189 5190 5191 5192 5193 5194 5195 5196 5197 5198 5199 5200 5201 5202 5203 5204 5205 5206 5207 5208 5209 5210 5211 5212 5213 5214 5215 5216 5217 5218 5219 5220 5221 5222 5223 5224 5225 5226 5227 5228 5229 5230 5231 5232 5233 5234 5235 5236 5237 5238 5239 5240 5241 5242 5243 5244 5245 5246 5247 5248 5249 5250 5251 5252 5253 5254 5255 5256 5257 5258 5259 5260 5261 5262 5263 5264 5265 5266 5267 5268 5269 5270 5271 5272 5273 5274 5275 5276 5277 5278 5279 5280 5281 5282 5283 5284 5285 5286 5287 5288 5289 5290 5291 5292 5293 5294 5295 5296 5297 5298 5299 5300 5301 5302 5303 5304 5305 5306 5307 5308 5309 5310 5311 5312 5313 5314 5315 5316 5317 5318 5319 5320 5321 5322 5323 5324 5325 5326 5327 5328 5329 5330 5331 5332 5333 5334 5335 5336 5337 5338 5339 5340 5341 5342 5343 5344 5345 5346 5347 5348 5349 5350 5351 5352 5353 5354 5355 5356 5357 5358 5359 5360 5361 5362 5363 5364 5365 5366 5367 5368 5369 5370 5371 5372 5373 5374 5375 5376 5377 5378 5379 5380 5381 5382 5383 5384 5385 5386 5387 5388 5389 5390 5391 5392 5393 5394 5395 5396 5397 5398 5399 5400 5401 5402 5403 5404 5405 5406 5407 5408 5409 5410 5411 5412 5413 5414 5415 5416 5417 5418 5419 5420 5421 5422 5423 5424 5425 5426 5427 5428 5429 5430 5431 5432 5433 5434 5435 5436 5437 5438 5439 5440 5441 5442 5443 5444 5445 5446 5447 5448 5449 5450 5451 5452 5453 5454 5455 5456 5457 5458 5459 5460 5461 5462 5463 5464 5465 5466 5467 5468 5469 5470 5471 5472 5473 5474 5475 5476 5477 5478 5479 5480 5481 5482 5483 5484 5485 5486 5487 5488 5489 5490 5491 5492 5493 5494 5495 5496 5497 5498 5499 5500 5501 5502 5503 5504 5505 5506 5507 5508 5509 5510 5511 5512 5513 5514 5515 5516 5517 5518 5519 5520 5521 5522 5523 5524 5525 5526 5527 5528 5529 5530 5531 5532 5533 5534 5535 5536 5537 5538 5539 5540 5541 5542 5543 5544 5545 5546 5547 5548 5549 5550 5551 5552 5553 5554 5555 5556 5557 5558 5559 5560 5561 5562 5563 5564 5565 5566 5567 5568 5569 5570 5571 5572 5573 5574 5575 5576 5577 5578 5579 5580 5581 5582 5583 5584 5585 5586 5587 5588 5589 5590 5591 5592 5593 5594 5595 5596 5597 5598 5599 5600 5601 5602 5603 5604 5605 5606 5607 5608 5609 5610 5611 5612 5613 5614 5615 5616 5617 5618 5619 5620 5621 5622 5623 5624 5625 5626 5627 5628 5629 5630 5631 5632 5633 5634 5635 5636 5637 5638 5639 5640 5641 5642 5643 5644 5645 5646 5647 5648 5649 5650 5651 5652 5653 5654 5655 5656 5657 5658 5659 5660 5661 5662 5663 5664 5665 5666 5667 5668 5669 5670 5671 5672 5673 5674 5675 5676 5677 5678 5679 5680 5681 5682 5683 5684 5685 5686 5687 5688 5689 5690 5691 5692 5693 5694 5695 5696 5697 5698 5699 5700 5701 5702 5703 5704 5705 5706 5707 5708 5709 5710 5711 5712 5713 5714 5715 5716 5717 5718 5719 5720 5721 5722 5723 5724 5725 5726 5727 5728 5729 5730 5731 5732 5733 5734 5735 5736 5737 5738 5739 5740 5741 5742 5743 5744 5745 5746 5747 5748 5749 5750 5751 5752 5753 5754 5755 5756 5757 5758 5759 5760 5761 5762 5763 5764 5765 5766 5767 5768 5769 5770 5771 5772 5773 5774 5775 5776 5777 5778 5779 5780 5781 5782 5783 5784 5785 5786 5787 5788 5789 5790 5791 5792 5793 5794 5795 5796 5797 5798 5799 5800 5801 5802 5803 5804 5805 5806 5807 5808 5809 5810 5811 5812 5813 5814 5815 5816 5817 5818 5819 5820 5821 5822 5823 5824 5825 5826 5827 5828 5829 5830 5831 5832 5833 5834 5835 5836 5837 5838 5839 5840 5841 5842 5843 5844 5845 5846 5847 5848 5849 5850 5851 5852 5853 5854 5855 5856 5857 5858 5859 5860 5861 5862 5863 5864 5865 5866 5867 5868 5869 5870 5871 5872 5873 5874 5875 5876 5877 5878 5879 5880 5881 5882 5883 5884 5885 5886 5887 5888 5889 5890 5891 5892 5893 5894 5895 5896 5897 5898 5899 5900 5901 5902 5903 5904 5905 5906 5907 5908 5909 5910 5911 5912 5913 5914 5915 5916 5917 5918 5919 5920 5921 5922 5923 5924 5925 5926 5927 5928 5929 5930 5931 5932 5933 5934 5935 5936 5937 5938 5939 5940 5941 5942 5943 5944 5945 5946 5947 5948 5949 5950 5951 5952 5953 5954 5955 5956 5957 5958 5959 5960 5961 5962 5963 5964 5965 5966 5967 5968 5969 5970 5971 5972 5973 5974 5975 5976 5977 5978 5979 5980 5981 5982 5983 5984 5985 5986 5987 5988 5989 5990 5991 5992 5993 5994 5995 5996 5997 5998 5999 6000 6001 6002 6003 6004 6005 6006 6007 6008 6009 6010 6011 6012 6013 6014 6015 6016 6017 6018 6019 6020 6021 6022 6023 6024 6025 6026 6027 6028 6029 6030 6031 6032 6033 6034 6035 6036 6037 6038 6039 6040 6041 6042 6043 6044 6045 6046 6047 6048 6049 6050 6051 6052 6053 6054 6055 6056 6057 6058 6059 6060 6061 6062 6063 6064 6065 6066 6067 6068 6069 6070 6071 6072 6073 6074 6075 6076 6077 6078 6079 6080 6081 6082 6083 6084 6085 6086 6087 6088 6089 6090 6091 6092 6093 6094 6095 6096 6097 6098 6099 6100 6101 6102 6103 6104 6105 6106 6107 6108 6109 6110 6111 6112 6113 6114 6115 6116 6117 6118 6119 6120 6121 6122 6123 6124 6125 6126 6127 6128 6129 6130 6131 6132 6133 6134 6135 6136 6137 6138 6139 6140 6141 6142 6143 6144 6145 6146 6147 6148 6149 6150 6151 6152 6153 6154 6155 6156 6157 6158 6159 6160 6161 6162 6163 6164 6165 6166 6167 6168 6169 6170 6171 6172 6173 6174 6175 6176 6177 6178 6179 6180 6181 6182 6183 6184 6185 6186 6187 6188 6189 6190 6191 6192 6193 6194 6195 6196 6197 6198 6199 6200 6201 6202 6203 6204 6205 6206 6207 6208 6209 6210 6211 6212 6213 6214 6215 6216 6217 6218 6219 6220 6221 6222 6223 6224 6225 6226 6227 6228 6229 6230 6231 6232 6233 6234 6235 6236 6237 6238 6239 6240 6241 6242 6243 6244 6245 6246 6247 6248 6249 6250 6251 6252 6253 6254 6255 6256 6257 6258 6259 6260 6261 6262 6263 6264 6265 6266 6267 6268 6269 6270 6271 6272 6273 6274 6275 6276 6277 6278 6279 6280 6281 6282 6283 6284 6285 6286 6287 6288 6289 6290 6291 6292 6293 6294 6295 6296 6297 6298 6299 6300 6301 6302 6303 6304 6305 6306 6307 6308 6309 6310 6311 6312 6313 6314 6315 6316 6317 6318 6319 6320 6321 6322 6323 6324 6325 6326 6327 6328 6329 6330 6331 6332 6333 6334 6335 6336 6337 6338 6339 6340 6341 6342 6343 6344 6345 6346 6347 6348 6349 6350 6351 6352 6353 6354 6355 6356 6357 6358 6359 6360 6361 6362 6363 6364 6365 6366 6367 6368 6369 6370 6371 6372 6373 6374 6375 6376 6377 6378 6379 6380 6381 6382 6383 6384 6385 6386 6387 6388 6389 6390 6391 6392 6393 6394 6395 6396 6397 6398 6399 6400 6401 6402 6403 6404 6405 6406 6407 6408 6409 6410 6411 6412 6413 6414 6415 6416 6417 6418 6419 6420 6421 6422 6423 6424 6425 6426 6427 6428 6429 6430 6431 6432 6433 6434 6435 6436 6437 6438 6439 6440 6441 6442 6443 6444 6445 6446 6447 6448 6449 6450 6451 6452 6453 6454 6455 6456 6457 6458 6459 6460 6461 6462 6463 6464 6465 6466 6467 6468 6469 6470 6471 6472 6473 6474 6475 6476 6477 6478 6479 6480 6481 6482 6483 6484 6485 6486 6487 6488 6489 6490 6491 6492 6493 6494 6495 6496 6497 6498 6499 6500 6501 6502 6503 6504 6505 6506 6507 6508 6509 6510 6511 6512 6513 6514 6515 6516 6517 6518 6519 6520 6521 6522 6523 6524 6525 6526 6527 6528 6529 6530 6531 6532 6533 6534 6535 6536 6537 6538 6539 6540 6541 6542 6543 6544 6545 6546 6547 6548 6549 6550 6551 6552 6553 6554 6555 6556 6557 6558 6559 6560 6561 6562 6563 6564 6565 6566 6567 6568 6569 6570 6571 6572 6573 6574 6575 6576 6577 6578 6579 6580 6581 6582 6583 6584 6585 6586 6587 6588 6589 6590 6591 6592 6593 6594 6595 6596 6597 6598 6599 6600 6601 6602 6603 6604 6605 6606 6607 6608 6609 6610 6611 6612 6613 6614 6615 6616 6617 6618 6619 6620 6621 6622 6623 6624 6625 6626 6627 6628 6629 6630 6631 6632 6633 6634 6635 6636 6637 6638 6639 6640 6641 6642 6643 6644 6645 6646 6647 6648 6649 6650 6651 6652 6653 6654 6655 6656 6657 6658 6659 6660 6661 6662 6663 6664 6665 6666 6667 6668 6669 6670 6671 6672 6673 6674 6675 6676 6677 6678 6679 6680 6681 6682 6683 6684 6685 6686 6687 6688 6689 6690 6691 6692 6693 6694 6695 6696 6697 6698 6699 6700 6701 6702 6703 6704 6705 6706 6707 6708 6709 6710 6711 6712 6713 6714 6715 6716 6717 6718 6719 6720 6721 6722 6723 6724 6725 6726 6727 6728 6729 6730 6731 6732 6733 6734 6735 6736 6737 6738 6739 6740 6741 6742 6743 6744 6745 6746 6747 6748 6749 6750 6751 6752 6753 6754 6755 6756 6757 6758 6759 6760 6761 6762 6763 6764 6765 6766 6767 6768 6769 6770 6771 6772 6773 6774 6775 6776 6777 6778 6779 6780 6781 6782 6783 6784 6785 6786 6787 6788 6789 6790 6791 6792 6793 6794 6795 6796 6797 6798 6799 6800 6801 6802 6803 6804 6805 6806 6807 6808 6809 6810 6811 6812 6813 6814 6815 6816 6817 6818 6819 6820 6821 6822 6823 6824 6825 6826 6827 6828 6829 6830 6831 6832 6833 6834 6835 6836 6837 6838 6839 6840 6841 6842 6843 6844 6845 6846 6847 6848 6849 6850 6851 6852 6853 6854 6855 6856 6857 6858 6859 6860 6861 6862 6863 6864 6865 6866 6867 6868 6869 6870 6871 6872 6873 6874 6875 6876 6877 6878 6879 6880 6881 6882 6883 6884 6885 6886 6887 6888 6889 6890 6891 6892 6893 6894 6895 6896 6897 6898 6899 6900 6901 6902 6903 6904 6905 6906 6907 6908 6909 6910 6911 6912 6913 6914 6915 6916 6917 6918 6919 6920 6921 6922 6923 6924 6925 6926 6927 6928 6929 6930 6931 6932 6933 6934 6935 6936 6937 6938 6939 6940 6941 6942 6943 6944 6945 6946 6947 6948 6949 6950 6951 6952 6953 6954 6955 6956 6957 6958 6959 6960 6961 6962 6963 6964 6965 6966 6967 6968 6969 6970 6971 6972 6973 6974 6975 6976 6977 6978 6979 6980 6981 6982 6983 6984 6985 6986 6987 6988 6989 6990 6991 6992 6993 6994 6995 6996 6997 6998 6999 7000 7001 7002 7003 7004 7005 7006 7007 7008 7009 7010 7011 7012 7013 7014 7015 7016 7017 7018 7019 7020 7021 7022 7023 7024 7025 7026 7027 7028 7029 7030 7031 7032 7033 7034 7035 7036 7037 7038 7039 7040 7041 7042 7043 7044 7045 7046 7047 7048 7049 7050 7051 7052 7053 7054 7055 7056 7057 7058 7059 7060 7061 7062 7063 7064 7065 7066 7067 7068 7069 7070 7071 7072 7073 7074 7075 7076 7077 7078 7079 7080 7081 7082 7083 7084 7085 7086 7087 7088 7089 7090 7091 7092 7093 7094 7095 7096 7097 7098 7099 7100 7101 7102 7103 7104 7105 7106 7107 7108 7109 7110 7111 7112 7113 7114 7115 7116 7117 7118 7119 7120 7121 7122 7123 7124 7125 7126 7127 7128 7129 7130 7131 7132 7133 7134 7135 7136 7137 7138 7139 7140 7141 7142 7143 7144 7145 7146 7147 7148 7149 7150 7151 7152 7153 7154 7155 7156 7157 7158 7159 7160 7161 7162 7163 7164 7165 7166 7167 7168 7169 7170 7171 7172 7173 7174 7175 7176 7177 7178 7179 7180 7181 7182 7183 7184 7185 7186 7187 7188 7189 7190 7191 7192 7193 7194 7195 7196 7197 7198 7199 7200 7201 7202 7203 7204 7205 7206 7207 7208 7209 7210 7211 7212 7213 7214 7215 7216 7217 7218 7219 7220 7221 7222 7223 7224 7225 7226 7227 7228 7229 7230 7231 7232 7233 7234 7235 7236 7237 7238 7239 7240 7241 7242 7243 7244 7245 7246 7247 7248 7249 7250 7251 7252 7253 7254 7255 7256 7257 7258 7259 7260 7261 7262 7263 7264 7265 7266 7267 7268 7269 7270 7271 7272 7273 7274 7275 7276 7277 7278 7279 7280 7281 7282 7283 7284 7285 7286 7287 7288 7289 7290 7291 7292 7293 7294 7295 7296 7297 7298 7299 7300 7301 7302 7303 7304 7305 7306 7307 7308 7309 7310 7311 7312 7313 7314 7315 7316 7317 7318 7319 7320 7321 7322 7323 7324 7325 7326 7327 7328 7329 7330 7331 7332 7333 7334 7335 7336 7337 7338 7339 7340 7341 7342 7343 7344 7345 7346 7347 7348 7349 7350 7351 7352 7353 7354 7355 7356 7357 7358 7359 7360 7361 7362 7363 7364 7365 7366 7367 7368 7369 7370 7371 7372 7373 7374 7375 7376 7377 7378 7379 7380 7381 7382 7383 7384 7385 7386 7387 7388 7389 7390 7391 7392 7393 7394 7395 7396 7397 7398 7399 7400 7401 7402 7403 7404 7405 7406 7407 7408 7409 7410 7411 7412 7413 7414 7415 7416 7417 7418 7419 7420 7421 7422 7423 7424 7425 7426 7427 7428 7429 7430 7431 7432 7433 7434 7435 7436 7437 7438 7439 7440 7441 7442 7443 7444 7445 7446 7447 7448 7449 7450 7451 7452 7453 7454 7455 7456 7457 7458 7459 7460 7461 7462 7463 7464 7465 7466 7467 7468 7469 7470 7471 7472 7473 7474 7475 7476 7477 7478 7479 7480 7481 7482 7483 7484 7485 7486 7487 7488 7489 7490 7491 7492 7493 7494 7495 7496 7497 7498 7499 7500 7501 7502 7503 7504 7505 7506 7507 7508 7509 7510 7511 7512 7513 7514 7515 7516 7517 7518 7519 7520 7521 7522 7523 7524 7525 7526 7527 7528 7529 7530 7531 7532 7533 7534 7535 7536 7537 7538 7539 7540 7541 7542 7543 7544 7545 7546 7547 7548 7549 7550 7551 7552 7553 7554 7555 7556 7557 7558 7559 7560 7561 7562 7563 7564 7565 7566 7567 7568 7569 7570 7571 7572 7573 7574 7575 7576 7577 7578 7579 7580 7581 7582 7583 7584 7585 7586 7587 7588 7589 7590 7591 7592 7593 7594 7595 7596 7597 7598 7599 7600 7601 7602 7603 7604 7605 7606 7607 7608 7609 7610 7611 7612 7613 7614 7615 7616 7617 7618 7619 7620 7621 7622 7623 7624 7625 7626 7627 7628 7629 7630 7631 7632 7633 7634 7635 7636 7637 7638 7639 7640 7641 7642 7643 7644 7645 7646 7647 7648 7649 7650 7651 7652 7653 7654 7655 7656 7657 7658 7659 7660 7661 7662 7663 7664 7665 7666 7667 7668 7669 7670 7671 7672 7673 7674 7675 7676 7677 7678 7679 7680 7681 7682 7683 7684 7685 7686 7687 7688 7689 7690 7691 7692 7693 7694 7695 7696 7697 7698 7699 7700 7701 7702 7703 7704 7705 7706 7707 7708 7709 7710 7711 7712 7713 7714 7715 7716 7717 7718 7719 7720 7721 7722 7723 7724 7725 7726 7727 7728 7729 7730 7731 7732 7733 7734 7735 7736 7737 7738 7739 7740 7741 7742 7743 7744 7745 7746 7747 7748 7749 7750 7751 7752 7753 7754 7755 7756 7757 7758 7759 7760 7761 7762 7763 7764 7765 7766 7767 7768 7769 7770 7771 7772 7773 7774 7775 7776 7777 7778 7779 7780 7781 7782 7783 7784 7785 7786 7787 7788 7789 7790 7791 7792 7793 7794 7795 7796 7797 7798 7799 7800 7801 7802 7803 7804 7805 7806 7807 7808 7809 7810 7811 7812 7813 7814 7815 7816 7817 7818 7819 7820 7821 7822 7823 7824 7825 7826 7827 7828 7829 7830 7831 7832 7833 7834 7835 7836 7837 7838 7839 7840 7841 7842 7843 7844 7845 7846 7847 7848 7849 7850 7851 7852 7853 7854 7855 7856 7857 7858 7859 7860 7861 7862 7863 7864 7865 7866 7867 7868 7869 7870 7871 7872 7873 7874 7875 7876 7877 7878 7879 7880 7881 7882 7883 7884 7885 7886 7887 7888 7889 7890 7891 7892 7893 7894 7895 7896 7897 7898 7899 7900 7901 7902 7903 7904 7905 7906 7907 7908 7909 7910 7911 7912 7913 7914 7915 7916 7917 7918 7919 7920 7921 7922 7923 7924 7925 7926 7927 7928 7929 7930 7931 7932 7933 7934 7935 7936 7937 7938 7939 7940 7941 7942 7943 7944 7945 7946 7947 7948 7949 7950 7951 7952 7953 7954 7955 7956 7957 7958 7959 7960 7961 7962 7963 7964 7965 7966 7967 7968 7969 7970 7971 7972 7973 7974 7975 7976 7977 7978 7979 7980 7981 7982 7983 7984 7985 7986 7987 7988 7989 7990 7991 7992 7993 7994 7995 7996 7997 7998 7999 8000 8001 8002 8003 8004 8005 8006 8007 8008 8009 8010 8011 8012 8013 8014 8015 8016 8017 8018 8019 8020 8021 8022 8023 8024 8025 8026 8027 8028 8029 8030 8031 8032 8033 8034 8035 8036 8037 8038 8039 8040 8041 8042 8043 8044 8045 8046 8047 8048 8049 8050 8051 8052 8053 8054 8055 8056 8057 8058 8059 8060 8061 8062 8063 8064 8065 8066 8067 8068 8069 8070 8071 8072 8073 8074 8075 8076 8077 8078 8079 8080 8081 8082 8083 8084 8085 8086 8087 8088 8089 8090 8091 8092 8093 8094 8095 8096 8097 8098 8099 8100 8101 8102 8103 8104 8105 8106 8107 8108 8109 8110 8111 8112 8113 8114 8115 8116 8117 8118 8119 8120 8121 8122 8123 8124 8125 8126 8127 8128 8129 8130 8131 8132 8133 8134 8135 8136 8137 8138 8139 8140 8141 8142 8143 8144 8145 8146 8147 8148 8149 8150 8151 8152 8153 8154 8155 8156 8157 8158 8159 8160 8161 8162 8163 8164 8165 8166 8167 8168 8169 8170 8171 8172 8173 8174 8175 8176 8177 8178 8179 8180 8181 8182 8183 8184 8185 8186 8187 8188 8189 8190 8191 8192 8193 8194 8195 8196 8197 8198 8199 8200 8201 8202 8203 8204 8205 8206 8207 8208 8209 8210 8211 8212 8213 8214 8215 8216 8217 8218 8219 8220 8221 8222 8223 8224 8225 8226 8227 8228 8229 8230 8231 8232 8233 8234 8235 8236 8237 8238 8239 8240 8241 8242 8243 8244 8245 8246 8247 8248 8249 8250 8251 8252 8253 8254 8255 8256 8257 8258 8259 8260 8261 8262 8263 8264 8265 8266 8267 8268 8269 8270 8271 8272 8273 8274 8275 8276 8277 8278 8279 8280 8281 8282 8283 8284 8285 8286 8287 8288 8289 8290 8291 8292 8293 8294 8295 8296 8297 8298 8299 8300 8301 8302 8303 8304 8305 8306 8307 8308 8309 8310 8311 8312 8313 8314 8315 8316 8317 8318 8319 8320 8321 8322 8323 8324 8325 8326 8327 8328 8329 8330 8331 8332 8333 8334 8335 8336 8337 8338 8339 8340 8341 8342 8343 8344 8345 8346 8347 8348 8349 8350 8351 8352 8353 8354 8355 8356 8357 8358 8359 8360 8361 8362 8363 8364 8365 8366 8367 8368 8369 8370 8371 8372 8373 8374 8375 8376 8377 8378 8379 8380 8381 8382 8383 8384 8385 8386 8387 8388 8389 8390 8391 8392 8393 8394 8395 8396 8397 8398 8399 8400 8401 8402 8403 8404 8405 8406 8407 8408 8409 8410 8411 8412 8413 8414 8415 8416 8417 8418 8419 8420 8421 8422 8423 8424 8425 8426 8427 8428 8429 8430 8431 8432 8433 8434 8435 8436 8437 8438 8439 8440 8441 8442 8443 8444 8445 8446 8447 8448 8449 8450 8451 8452 8453 8454 8455 8456 8457 8458 8459 8460 8461 8462 8463 8464 8465 8466 8467 8468 8469 8470 8471 8472 8473 8474 8475 8476 8477 8478 8479 8480 8481 8482 8483 8484 8485 8486 8487 8488 8489 8490 8491 8492 8493 8494 8495 8496 8497 8498 8499 8500 8501 8502 8503 8504 8505 8506 8507 8508 8509 8510 8511 8512 8513 8514 8515 8516 8517 8518 8519 8520 8521 8522 8523 8524 8525 8526 8527 8528 8529 8530 8531 8532 8533 8534 8535 8536 8537 8538 8539 8540 8541 8542 8543 8544 8545 8546 8547 8548 8549 8550 8551 8552 8553 8554 8555 8556 8557 8558 8559 8560 8561 8562 8563 8564 8565 8566 8567 8568 8569 8570 8571 8572 8573 8574 8575 8576 8577 8578 8579 8580 8581 8582 8583 8584 8585 8586 8587 8588 8589 8590 8591 8592 8593 8594 8595 8596 8597 8598 8599 8600 8601 8602 8603 8604 8605 8606 8607 8608 8609 8610 8611 8612 8613 8614 8615 8616 8617 8618 8619 8620 8621 8622 8623 8624 8625 8626 8627 8628 8629 8630 8631 8632 8633 8634 8635 8636 8637 8638 8639 8640 8641 8642 8643 8644 8645 8646 8647 8648 8649 8650 8651 8652 8653 8654 8655 8656 8657 8658 8659 8660 8661 8662 8663 8664 8665 8666 8667 8668 8669 8670 8671 8672 8673 8674 8675 8676 8677 8678 8679 8680 8681 8682 8683 8684 8685 8686 8687 8688 8689 8690 8691 8692 8693 8694 8695 8696 8697 8698 8699 8700 8701 8702 8703 8704 8705 8706 8707 8708 8709 8710 8711 8712 8713 8714 8715 8716 8717 8718 8719 8720 8721 8722 8723 8724 8725 8726 8727 8728 8729 8730 8731 8732 8733 8734 8735 8736 8737 8738 8739 8740 8741 8742 8743 8744 8745 8746 8747 8748 8749 8750 8751 8752 8753 8754 8755 8756 8757 8758 8759 8760 8761 8762 8763 8764 8765 8766 8767 8768 8769 8770 8771 8772 8773 8774 8775 8776 8777 8778 8779 8780 8781 8782 8783 8784 8785 8786 8787 8788 8789 8790 8791 8792 8793 8794 8795 8796 8797 8798 8799 8800 8801 8802 8803 8804 8805 8806 8807 8808 8809 8810 8811 8812 8813 8814 8815 8816 8817 8818 8819 8820 8821 8822 8823 8824 8825 8826 8827 8828 8829 8830 8831 8832 8833 8834 8835 8836 8837 8838 8839 8840 8841 8842 8843 8844 8845 8846 8847 8848 8849 8850 8851 8852 8853 8854 8855 8856 8857 8858 8859 8860 8861 8862 8863 8864 8865 8866 8867 8868 8869 8870 8871 8872 8873 8874 8875 8876 8877 8878 8879 8880 8881 8882 8883 8884 8885 8886 8887 8888 8889 8890 8891 8892 8893 8894 8895 8896 8897 8898 8899 8900 8901 8902 8903 8904 8905 8906 8907 8908 8909 8910 8911 8912 8913 8914 8915 8916 8917 8918 8919 8920 8921 8922 8923 8924 8925 8926 8927 8928 8929 8930 8931 8932 8933 8934 8935 8936 8937 8938 8939 8940 8941 8942 8943 8944 8945 8946 8947 8948 8949 8950 8951 8952 8953 8954 8955 8956 8957 8958 8959 8960 8961 8962 8963 8964 8965 8966 8967 8968 8969 8970 8971 8972 8973 8974 8975 8976 8977 8978 8979 8980 8981 8982 8983 8984 8985 8986 8987 8988 8989 8990 8991 8992 8993 8994 8995 8996 8997 8998 8999 9000 9001 9002 9003 9004 9005 9006 9007 9008 9009 9010 9011 9012 9013 9014 9015 9016 9017 9018 9019 9020 9021 9022 9023 9024 9025 9026 9027 9028 9029 9030 9031 9032 9033 9034 9035 9036 9037 9038 9039 9040 9041 9042 9043 9044 9045 9046 9047 9048 9049 9050 9051 9052 9053 9054 9055 9056 9057 9058 9059 9060 9061 9062 9063 9064 9065 9066 9067 9068 9069 9070 9071 9072 9073 9074 9075 9076 9077 9078 9079 9080 9081 9082 9083 9084 9085 9086 9087 9088 9089 9090 9091 9092 9093 9094 9095 9096 9097 9098 9099 9100 9101 9102 9103 9104 9105 9106 9107 9108 9109 9110 9111 9112 9113 9114 9115 9116 9117 9118 9119 9120 9121 9122 9123 9124 9125 9126 9127 9128 9129 9130 9131 9132 9133 9134 9135 9136 9137 9138 9139 9140 9141 9142 9143 9144 9145 9146 9147 9148 9149 9150 9151 9152 9153 9154 9155 9156 9157 9158 9159 9160 9161 9162 9163 9164 9165 9166 9167 9168 9169 9170 9171 9172 9173 9174 9175 9176 9177 9178 9179 9180 9181 9182 9183 9184 9185 9186 9187 9188 9189 9190 9191 9192 9193 9194 9195 9196 9197 9198 9199 9200 9201 9202 9203 9204 9205 9206 9207 9208 9209 9210 9211 9212 9213 9214 9215 9216 9217 9218 9219 9220 9221 9222 9223 9224 9225 9226 9227 9228 9229 9230 9231 9232 9233 9234 9235 9236 9237 9238 9239 9240 9241 9242 9243 9244 9245 9246 9247 9248 9249 9250 9251 9252 9253 9254 9255 9256 9257 9258 9259 9260 9261 9262 9263 9264 9265 9266 9267 9268 9269 9270 9271 9272 9273 9274 9275 9276 9277 9278 9279 9280 9281 9282 9283 9284 9285 9286 9287 9288 9289 9290 9291 9292 9293 9294 9295 9296 9297 9298 9299 9300 9301 9302 9303 9304 9305 9306 9307 9308 9309 9310 9311 9312 9313 9314 9315 9316 9317 9318 9319 9320 9321 9322 9323 9324 9325 9326 9327 9328 9329 9330 9331 9332 9333 9334 9335 9336 9337 9338 9339 9340 9341 9342 9343 9344 9345 9346 9347 9348 9349 9350 9351 9352 9353 9354 9355 9356 9357 9358 9359 9360 9361 9362 9363 9364 9365 9366 9367 9368 9369 9370 9371 9372 9373 9374 9375 9376 9377 9378 9379 9380 9381 9382 9383 9384 9385 9386 9387 9388 9389 9390 9391 9392 9393 9394 9395 9396 9397 9398 9399 9400 9401 9402 9403 9404 9405 9406 9407 9408 9409 9410 9411 9412 9413 9414 9415 9416 9417 9418 9419 9420 9421 9422 9423 9424 9425 9426 9427 9428 9429 9430 9431 9432 9433 9434 9435 9436 9437 9438 9439 9440 9441 9442 9443 9444 9445 9446 9447 9448 9449 9450 9451 9452 9453 9454 9455 9456 9457 9458 9459 9460 9461 9462 9463 9464 9465 9466 9467 9468 9469 9470 9471 9472 9473 9474 9475 9476 9477 9478 9479 9480 9481 9482 9483 9484 9485 9486 9487 9488 9489 9490 9491 9492 9493 9494 9495 9496 9497 9498 9499 9500 9501 9502 9503 9504 9505 9506 9507 9508 9509 9510 9511 9512 9513 9514 9515 9516 9517 9518 9519 9520 9521 9522 9523 9524 9525 9526 9527 9528 9529 9530 9531 9532 9533 9534 9535 9536 9537 9538 9539 9540 9541 9542 9543 9544 9545 9546 9547 9548 9549 9550 9551 9552 9553 9554 9555 9556 9557 9558 9559 9560 9561 9562 9563 9564 9565 9566 9567 9568 9569 9570 9571 9572 9573 9574 9575 9576 9577 9578 9579 9580 9581 9582 9583 9584 9585 9586 9587 9588 9589 9590 9591 9592 9593 9594 9595 9596 9597 9598 9599 9600 9601 9602 9603 9604 9605 9606 9607 9608 9609 9610 9611 9612 9613 9614 9615 9616 9617 9618 9619 9620 9621 9622 9623 9624 9625 9626 9627 9628 9629 9630 9631 9632 9633 9634 9635 9636 9637 9638 9639 9640 9641 9642 9643 9644 9645 9646 9647 9648 9649 9650 9651 9652 9653 9654 9655 9656 9657 9658 9659 9660 9661 9662 9663 9664 9665 9666 9667 9668 9669 9670 9671 9672 9673 9674 9675 9676 9677 9678 9679 9680 9681 9682 9683 9684 9685 9686 9687 9688 9689 9690 9691 9692 9693 9694 9695 9696 9697 9698 9699 9700 9701 9702 9703 9704 9705 9706 9707 9708 9709 9710 9711 9712 9713 9714 9715 9716 9717 9718 9719 9720 9721 9722 9723 9724 9725 9726 9727 9728 9729 9730 9731 9732 9733 9734 9735 9736 9737 9738 9739 9740 9741 9742 9743 9744 9745 9746 9747 9748 9749 9750 9751 9752 9753 9754 9755 9756 9757 9758 9759 9760 9761 9762 9763 9764 9765 9766 9767 9768 9769 9770 9771 9772 9773 9774 9775 9776 9777 9778 9779 9780 9781 9782 9783 9784 9785 9786 9787 9788 9789 9790 9791 9792 9793 9794 9795 9796 9797 9798 9799 9800 9801 9802 9803 9804 9805 9806 9807 9808 9809 9810 9811 9812 9813 9814 9815 9816 9817 9818 9819 9820 9821 9822 9823 9824 9825 9826 9827 9828 9829 9830 9831 9832 9833 9834 9835 9836 9837 9838 9839 9840 9841 9842 9843 9844 9845 9846 9847 9848 9849 9850 9851 9852 9853 9854 9855 9856 9857 9858 9859 9860 9861 9862 9863 9864 9865 9866 9867 9868 9869 9870 9871 9872 9873 9874 9875 9876 9877 9878 9879 9880 9881 9882 9883 9884 9885 9886 9887 9888 9889 9890 9891 9892 9893 9894 9895 9896 9897 9898 9899 9900 9901 9902 9903 9904 9905 9906 9907 9908 9909 9910 9911 9912 9913 9914 9915 9916 9917 9918 9919 9920 9921 9922 9923 9924 9925 9926 9927 9928 9929 9930 9931 9932 9933 9934 9935 9936 9937 9938 9939 9940 9941 9942 9943 9944 9945 9946 9947 9948 9949 9950 9951 9952 9953 9954 9955 9956 9957 9958 9959 9960 9961 9962 9963 9964 9965 9966 9967 9968 9969 9970 9971 9972 9973 9974 9975 9976 9977 9978 9979 9980 9981 9982 9983 9984 9985 9986 9987 9988 9989 9990 9991 9992 9993 9994 9995 9996 9997 9998 9999 10000 10001 10002 10003 10004 10005 10006 10007 10008 10009 10010 10011 10012 10013 10014 10015 10016 10017 10018 10019 10020 10021 10022 10023 10024 10025 10026 10027 10028 10029 10030 10031 10032 10033 10034 10035 10036 10037 10038 10039 10040 10041 10042 10043 10044 10045 10046 10047 10048 10049 10050 10051 10052 10053 10054 10055 10056 10057 10058 10059 10060 10061 10062 10063 10064 10065 10066 10067 10068 10069 10070 10071 10072 10073 10074 10075 10076 10077 10078 10079 10080 10081 10082 10083 10084 10085 10086 10087 10088 10089 10090 10091 10092 10093 10094 10095 10096 10097 10098 10099 10100 10101 10102 10103 10104 10105 10106 10107 10108 10109 10110 10111 10112 10113 10114 10115 10116 10117 10118 10119 10120 10121 10122 10123 10124 10125 10126 10127 10128 10129 10130 10131 10132 10133 10134 10135 10136 10137 10138 10139 10140 10141 10142 10143 10144 10145 10146 10147 10148 10149 10150 10151 10152 10153 10154 10155 10156 10157 10158 10159 10160 10161 10162 10163 10164 10165 10166 10167 10168 10169 10170 10171 10172 10173 10174 10175 10176 10177 10178 10179 10180 10181 10182 10183 10184 10185 10186 10187 10188 10189 10190 10191 10192 10193 10194 10195 10196 10197 10198 10199 10200 10201 10202 10203 10204 10205 10206 10207 10208 10209 10210 10211 10212 10213 10214 10215 10216 10217 10218 10219 10220 10221 10222 10223 10224 10225 10226 10227 10228 10229 10230 10231 10232 10233 10234 10235 10236 10237 10238 10239 10240 10241 10242 10243 10244 10245 10246 10247 10248 10249 10250 10251 10252 10253 10254 10255 10256 10257 10258 10259 10260 10261 10262 10263 10264 10265 10266 10267 10268 10269 10270 10271 10272 10273 10274 10275 10276 10277 10278 10279 10280 10281 10282 10283 10284 10285 10286 10287 10288 10289 10290 10291 10292 10293 10294 10295 10296 10297 10298 10299 10300 10301 10302 10303 10304 10305 10306 10307 10308 10309 10310 10311 10312 10313 10314 10315 10316 10317 10318 10319 10320 10321 10322 10323 10324 10325 10326 10327 10328 10329 10330 10331 10332 10333 10334 10335 10336 10337 10338 10339 10340 10341 10342 10343 10344 10345 10346 10347 10348 10349 10350 10351 10352 10353 10354 10355 10356 10357 10358 10359 10360 10361 10362 10363 10364 10365 10366 10367 10368 10369 10370 10371 10372 10373 10374 10375 10376 10377 10378 10379 10380 10381 10382 10383 10384 10385 10386 10387 10388 10389 10390 10391 10392 10393 10394 10395 10396 10397 10398 10399 10400 10401 10402 10403 10404 10405 10406 10407 10408 10409 10410 10411 10412 10413 10414 10415 10416 10417 10418 10419 10420 10421 10422 10423 10424 10425 10426 10427 10428 10429 10430 10431 10432 10433 10434 10435 10436 10437 10438 10439 10440 10441 10442 10443 10444 10445 10446 10447 10448 10449 10450 10451 10452 10453 10454 10455 10456 10457 10458 10459 10460 10461 10462 10463 10464 10465 10466 10467 10468 10469 10470 10471 10472 10473 10474 10475 10476 10477 10478 10479 10480 10481 10482 10483 10484 10485 10486 10487 10488 10489 10490 10491 10492 10493 10494 10495 10496 10497 10498 10499 10500 10501 10502 10503 10504 10505 10506 10507 10508 10509 10510 10511 10512 10513 10514 10515 10516 10517 10518 10519 10520 10521 10522 10523 10524 10525 10526 10527 10528 10529 10530 10531 10532 10533 10534 10535 10536 10537 10538 10539 10540 10541 10542 10543 10544 10545 10546 10547 10548 10549 10550 10551 10552 10553 10554 10555 10556 10557 10558 10559 10560 10561 10562 10563 10564 10565 10566 10567 10568 10569 10570 10571 10572 10573 10574 10575 10576 10577 10578 10579 10580 10581 10582 10583 10584 10585 10586 10587 10588 10589 10590 10591 10592 10593 10594 10595 10596 10597 10598 10599 10600 10601 10602 10603 10604 10605 10606 10607 10608 10609 10610 10611 10612 10613 10614 10615 10616 10617 10618 10619 10620 10621 10622 10623 10624 10625 10626 10627 10628 10629 10630 10631 10632 10633 10634 10635 10636 10637 10638 10639 10640 10641 10642 10643 10644 10645 10646 10647 10648 10649 10650 10651 10652 10653 10654 10655 10656 10657 10658 10659 10660 10661 10662 10663 10664 10665 10666 10667 10668 10669 10670 10671 10672 10673 10674 10675 10676 10677 10678 10679 10680 10681 10682 10683 10684 10685 10686 10687 10688 10689 10690 10691 10692 10693 10694 10695 10696 10697 10698 10699 10700 10701 10702 10703 10704 10705 10706 10707 10708 10709 10710 10711 10712 10713 10714 10715 10716 10717 10718 10719 10720 10721 10722 10723 10724 10725 10726 10727 10728 10729 10730 10731 10732 10733 10734 10735 10736 10737 10738 10739 10740 10741 10742 10743 10744 10745 10746 10747 10748 10749 10750 10751 10752 10753 10754 10755 10756 10757 10758 10759 10760 10761 10762 10763 10764 10765 10766 10767 10768 10769 10770 10771 10772 10773 10774 10775 10776 10777 10778 10779 10780 10781 10782 10783 10784 10785 10786 10787 10788 10789 10790 10791 10792 10793 10794 10795 10796 10797 10798 10799 10800 10801 10802 10803 10804 10805 10806 10807 10808 10809 10810 10811 10812 10813 10814 10815 10816 10817 10818 10819 10820 10821 10822 10823 10824 10825 10826 10827 10828 10829 10830 10831 10832 10833 10834 10835 10836 10837 10838 10839 10840 10841 10842 10843 10844 10845 10846 10847 10848 10849 10850 10851 10852 10853 10854 10855 10856 10857 10858 10859 10860 10861 10862 10863 10864 10865 10866 10867 10868 10869 10870 10871 10872 10873 10874 10875 10876 10877 10878 10879 10880 10881 10882 10883 10884 10885 10886 10887 10888 10889 10890 10891 10892 10893 10894 10895 10896 10897 10898 10899 10900 10901 10902 10903 10904 10905 10906 10907 10908 10909 10910 10911 10912 10913 10914 10915 10916 10917 10918 10919 10920 10921 10922 10923 10924 10925 10926 10927 10928 10929 10930 10931 10932 10933 10934 10935 10936 10937 10938 10939 10940 10941 10942 10943 10944 10945 10946 10947 10948 10949 10950 10951 10952 10953 10954 10955 10956 10957 10958 10959 10960 10961 10962 10963 10964 10965 10966 10967 10968 10969 10970 10971 10972 10973 10974 10975 10976 10977 10978 10979 10980 10981 10982 10983 10984 10985 10986 10987 10988 10989 10990 10991 10992 10993 10994 10995 10996 10997 10998 10999 11000 11001 11002 11003 11004 11005 11006 11007 11008 11009 11010 11011 11012 11013 11014 11015 11016 11017 11018 11019 11020 11021 11022 11023 11024 11025 11026 11027 11028 11029 11030 11031 11032 11033 11034 11035 11036 11037 11038 11039 11040 11041 11042 11043 11044 11045 11046 11047 11048 11049 11050 11051 11052 11053 11054 11055 11056 11057 11058 11059 11060 11061 11062 11063 11064 11065 11066 11067 11068 11069 11070 11071 11072 11073 11074 11075 11076 11077 11078 11079 11080 11081 11082 11083 11084 11085 11086 11087 11088 11089 11090 11091 11092 11093 11094 11095 11096 11097 11098 11099 11100 11101 11102 11103 11104 11105 11106 11107 11108 11109 11110 11111 11112 11113 11114 11115 11116 11117 11118 11119 11120 11121 11122 11123 11124 11125 11126 11127 11128 11129 11130 11131 11132 11133 11134 11135 11136 11137 11138 11139 11140 11141 11142 11143 11144 11145 11146 11147 11148 11149 11150 11151 11152 11153 11154 11155 11156 11157 11158 11159 11160 11161 11162 11163 11164 11165 11166 11167 11168 11169 11170 11171 11172 11173 11174 11175 11176 11177 11178 11179 11180 11181 11182 11183 11184 11185 11186 11187 11188 11189 11190 11191 11192 11193 11194 11195 11196 11197 11198 11199 11200 11201 11202 11203 11204 11205 11206 11207 11208 11209 11210 11211 11212 11213 11214 11215 11216 11217 11218 11219 11220 11221 11222 11223 11224 11225 11226 11227 11228 11229 11230 11231 11232 11233 11234 11235 11236 11237 11238 11239 11240 11241 11242 11243 11244 11245 11246 11247 11248 11249 11250 11251 11252 11253 11254 11255 11256 11257 11258 11259 11260 11261 11262 11263 11264 11265 11266 11267 11268 11269 11270 11271 11272 11273 11274 11275 11276 11277 11278 11279 11280 11281 11282 11283 11284 11285 11286 11287 11288 11289 11290 11291 11292 11293 11294 11295 11296 11297 11298 11299 11300 11301 11302 11303 11304 11305 11306 11307 11308 11309 11310 11311 11312 11313 11314 11315 11316 11317 11318 11319 11320 11321 11322 11323 11324 11325 11326 11327 11328 11329 11330 11331 11332 11333 11334 11335 11336 11337 11338 11339 11340 11341 11342 11343 11344 11345 11346 11347 11348 11349 11350 11351 11352 11353 11354 11355 11356 11357 11358 11359 11360 11361 11362 11363 11364 11365 11366 11367 11368 11369 11370 11371 11372 11373 11374 11375 11376 11377 11378 11379 11380 11381 11382 11383 11384 11385 11386 11387 11388 11389 11390 11391 11392 11393 11394 11395 11396 11397 11398 11399 11400 11401 11402 11403 11404 11405 11406 11407 11408 11409 11410 11411 11412 11413 11414 11415 11416 11417 11418 11419 11420 11421 11422 11423 11424 11425 11426 11427 11428 11429 11430 11431 11432 11433 11434 11435 11436 11437 11438 11439 11440 11441 11442 11443 11444 11445 11446 11447 11448 11449 11450 11451 11452 11453 11454 11455 11456 11457 11458 11459 11460 11461 11462 11463 11464 11465 11466 11467 11468 11469 11470 11471 11472 11473 11474 11475 11476 11477 11478 11479 11480 11481 11482 11483 11484 11485 11486 11487 11488 11489 11490 11491 11492 11493 11494 11495 11496 11497 11498 11499 11500 11501 11502 11503 11504 11505 11506 11507 11508 11509 11510 11511 11512 11513 11514 11515 11516 11517 11518 11519 11520 11521 11522 11523 11524 11525 11526 11527 11528 11529 11530 11531 11532 11533 11534 11535 11536 11537 11538 11539 11540 11541 11542 11543 11544 11545 11546 11547 11548 11549 11550 11551 11552 11553 11554 11555 11556 11557 11558 11559 11560 11561 11562 11563 11564 11565 11566 11567 11568 11569 11570 11571 11572 11573 11574 11575 11576 11577 11578 11579 11580 11581 11582 11583 11584 11585 11586 11587 11588 11589 11590 11591 11592 11593 11594 11595 11596 11597 11598 11599 11600 11601 11602 11603 11604 11605 11606 11607 11608 11609 11610 11611 11612 11613 11614 11615 11616 11617 11618 11619 11620 11621 11622 11623 11624 11625 11626 11627 11628 11629 11630 11631 11632 11633 11634 11635 11636 11637 11638 11639 11640 11641 11642 11643 11644 11645 11646 11647 11648 11649 11650 11651 11652 11653 11654 11655 11656 11657 11658 11659 11660 11661 11662 11663 11664 11665 11666 11667 11668 11669 11670 11671 11672 11673 11674 11675 11676 11677 11678 11679 11680 11681 11682 11683 11684 11685 11686 11687 11688 11689 11690 11691 11692 11693 11694 11695 11696 11697 11698 11699 11700 11701 11702 11703 11704 11705 11706 11707 11708 11709 11710 11711 11712 11713 11714 11715 11716 11717 11718 11719 11720 11721 11722 11723 11724 11725 11726 11727 11728 11729 11730 11731 11732 11733 11734 11735 11736 11737 11738 11739 11740 11741 11742 11743 11744 11745 11746 11747 11748 11749 11750 11751 11752 11753 11754 11755 11756 11757 11758 11759 11760 11761 11762 11763 11764 11765 11766 11767 11768 11769 11770 11771 11772 11773 11774 11775 11776 11777 11778 11779 11780 11781 11782 11783 11784 11785 11786 11787 11788 11789 11790 11791 11792 11793 11794 11795 11796 11797 11798 11799 11800 11801 11802 11803 11804 11805 11806 11807 11808 11809 11810 11811 11812 11813 11814 11815 11816 11817 11818 11819 11820 11821 11822 11823 11824 11825 11826 11827 11828 11829 11830 11831 11832 11833 11834 11835 11836 11837 11838 11839 11840 11841 11842 11843 11844 11845 11846 11847 11848 11849 11850 11851 11852 11853 11854 11855 11856 11857 11858 11859 11860 11861 11862 11863 11864 11865 11866 11867 11868 11869 11870 11871 11872 11873 11874 11875 11876 11877 11878 11879 11880 11881 11882 11883 11884 11885 11886 11887 11888 11889 11890 11891 11892 11893 11894 11895 11896 11897 11898 11899 11900 11901 11902 11903 11904 11905 11906 11907 11908 11909 11910 11911 11912 11913 11914 11915 11916 11917 11918 11919 11920 11921 11922 11923 11924 11925 11926 11927 11928 11929 11930 11931 11932 11933 11934 11935 11936 11937 11938 11939 11940 11941 11942 11943 11944 11945 11946 11947 11948 11949 11950 11951 11952 11953 11954 11955 11956 11957 11958 11959 11960 11961 11962 11963 11964 11965 11966 11967 11968 11969 11970 11971 11972 11973 11974 11975 11976 11977 11978 11979 11980 11981 11982 11983 11984 11985 11986 11987 11988 11989 11990 11991 11992 11993 11994 11995 11996 11997 11998 11999 12000 12001 12002 12003 12004 12005 12006 12007 12008 12009 12010 12011 12012 12013 12014 12015 12016 12017 12018 12019 12020 12021 12022 12023 12024 12025 12026 12027 12028 12029 12030 12031 12032 12033 12034 12035 12036 12037 12038 12039 12040 12041 12042 12043 12044 12045 12046 12047 12048 12049 12050 12051 12052 12053 12054 12055 12056 12057 12058 12059 12060 12061 12062 12063 12064 12065 12066 12067 12068 12069 12070 12071 12072 12073 12074 12075 12076 12077 12078 12079 12080 12081 12082 12083 12084 12085 12086 12087 12088 12089 12090 12091 12092 12093 12094 12095 12096 12097 12098 12099 12100 12101 12102 12103 12104 12105 12106 12107 12108 12109 12110 12111 12112 12113 12114 12115 12116 12117 12118 12119 12120 12121 12122 12123 12124 12125 12126 12127 12128 12129 12130 12131 12132 12133 12134 12135 12136 12137 12138 12139 12140 12141 12142 12143 12144 12145 12146 12147 12148 12149 12150 12151 12152 12153 12154 12155 12156 12157 12158 12159 12160 12161 12162 12163 12164 12165 12166 12167 12168 12169 12170 12171 12172 12173 12174 12175 12176 12177 12178 12179 12180 12181 12182 12183 12184 12185 12186 12187 12188 12189 12190 12191 12192 12193 12194 12195 12196 12197 12198 12199 12200 12201 12202 12203 12204 12205 12206 12207 12208 12209 12210 12211 12212 12213 12214 12215 12216 12217 12218 12219 12220 12221 12222 12223 12224 12225 12226 12227 12228 12229 12230 12231 12232 12233 12234 12235 12236 12237 12238 12239 12240 12241 12242 12243 12244 12245 12246 12247 12248 12249 12250 12251 12252 12253 12254 12255 12256 12257 12258 12259 12260 12261 12262 12263 12264 12265 12266 12267 12268 12269 12270 12271 12272 12273 12274 12275 12276 12277 12278 12279 12280 12281 12282 12283 12284 12285 12286 12287 12288 12289 12290 12291 12292 12293 12294 12295 12296 12297 12298 12299 12300 12301 12302 12303 12304 12305 12306 12307 12308 12309 12310 12311 12312 12313 12314 12315 12316 12317 12318 12319 12320 12321 12322 12323 12324 12325 12326 12327 12328 12329 12330 12331 12332 12333 12334 12335 12336 12337 12338 12339 12340 12341 12342 12343 12344 12345 12346 12347 12348 12349 12350 12351 12352 12353 12354 12355 12356 12357 12358 12359 12360 12361 12362 12363 12364 12365 12366 12367 12368 12369 12370 12371 12372 12373 12374 12375 12376 12377 12378 12379 12380 12381 12382 12383 12384 12385 12386 12387 12388 12389 12390 12391 12392 12393 12394 12395 12396 12397 12398 12399 12400 12401 12402 12403 12404 12405 12406 12407 12408 12409 12410 12411 12412 12413 12414 12415 12416 12417 12418 12419 12420 12421 12422 12423 12424 12425 12426 12427 12428 12429 12430 12431 12432 12433 12434 12435 12436 12437 12438 12439 12440 12441 12442 12443 12444 12445 12446 12447 12448 12449 12450 12451 12452 12453 12454 12455 12456 12457 12458 12459 12460 12461 12462 12463 12464 12465 12466 12467 12468 12469 12470 12471 12472 12473 12474 12475 12476 12477 12478 12479 12480 12481 12482 12483 12484 12485 12486 12487 12488 12489 12490 12491 12492 12493 12494 12495 12496 12497 12498 12499 12500 12501 12502 12503 12504 12505 12506 12507 12508 12509 12510 12511 12512 12513 12514 12515 12516 12517 12518 12519 12520 12521 12522 12523 12524 12525 12526 12527 12528 12529 12530 12531 12532 12533 12534 12535 12536 12537 12538 12539 12540 12541 12542 12543 12544 12545 12546 12547 12548 12549 12550 12551 12552 12553 12554 12555 12556 12557 12558 12559 12560 12561 12562 12563 12564 12565 12566 12567 12568 12569 12570 12571 12572 12573 12574 12575 12576 12577 12578 12579 12580 12581 12582 12583 12584 12585 12586 12587 12588 12589 12590 12591 12592 12593 12594 12595 12596 12597 12598 12599 12600 12601 12602 12603 12604 12605 12606 12607 12608 12609 12610 12611 12612 12613 12614 12615 12616 12617 12618 12619 12620 12621 12622 12623 12624 12625 12626 12627 12628 12629 12630 12631 12632 12633 12634 12635 12636 12637 12638 12639 12640 12641 12642 12643 12644 12645 12646 12647 12648 12649 12650 12651 12652 12653 12654 12655 12656 12657 12658 12659 12660 12661 12662 12663 12664 12665 12666 12667 12668 12669 12670 12671 12672 12673 12674 12675 12676 12677 12678 12679 12680 12681 12682 12683 12684 12685 12686 12687 12688 12689 12690 12691 12692 12693 12694 12695 12696 12697 12698 12699 12700 12701 12702 12703 12704 12705 12706 12707 12708 12709 12710 12711 12712 12713 12714 12715 12716 12717 12718 12719 12720 12721 12722 12723 12724 12725 12726 12727 12728 12729 12730 12731 12732 12733 12734 12735 12736 12737 12738 12739 12740 12741 12742 12743 12744 12745 12746 12747 12748 12749 12750 12751 12752 12753 12754 12755 12756 12757 12758 12759 12760 12761 12762 12763 12764 12765 12766 12767 12768 12769 12770 12771 12772 12773 12774 12775 12776 12777 12778 12779 12780 12781 12782 12783 12784 12785 12786 12787 12788 12789 12790 12791 12792 12793 12794 12795 12796 12797 12798 12799 12800 12801 12802 12803 12804 12805 12806 12807 12808 12809 12810 12811 12812 12813 12814 12815 12816 12817 12818 12819 12820 12821 12822 12823 12824 12825 12826 12827 12828 12829 12830 12831 12832 12833 12834 12835 12836 12837 12838 12839 12840 12841 12842 12843 12844 12845 12846 12847 12848 12849 12850 12851 12852 12853 12854 12855 12856 12857 12858 12859 12860 12861 12862 12863 12864 12865 12866 12867 12868 12869 12870 12871 12872 12873 12874 12875 12876 12877 12878 12879 12880 12881 12882 12883 12884 12885 12886 12887 12888 12889 12890 12891 12892 12893 12894 12895 12896 12897 12898 12899 12900 12901 12902 12903 12904 12905 12906 12907 12908 12909 12910 12911 12912 12913 12914 12915 12916 12917 12918 12919 12920 12921 12922 12923 12924 12925 12926 12927 12928 12929 12930 12931 12932 12933 12934 12935 12936 12937 12938 12939 12940 12941 12942 12943 12944 12945 12946 12947 12948 12949 12950 12951 12952 12953 12954 12955 12956 12957 12958 12959 12960 12961 12962 12963 12964 12965 12966 12967 12968 12969 12970 12971 12972 12973 12974 12975 12976 12977 12978 12979 12980 12981 12982 12983 12984 12985 12986 12987 12988 12989 12990 12991 12992 12993 12994 12995 12996 12997 12998 12999 13000 13001 13002 13003 13004 13005 13006 13007 13008 13009 13010 13011 13012 13013 13014 13015 13016 13017 13018 13019 13020 13021 13022 13023 13024 13025 13026 13027 13028 13029 13030 13031 13032 13033 13034 13035 13036 13037 13038 13039 13040 13041 13042 13043 13044 13045 13046 13047 13048 13049 13050 13051 13052 13053 13054 13055 13056 13057 13058 13059 13060 13061 13062 13063 13064 13065 13066 13067 13068 13069 13070 13071 13072 13073 13074 13075 13076 13077 13078 13079 13080 13081 13082 13083 13084 13085 13086 13087 13088 13089 13090 13091 13092 13093 13094 13095 13096 13097 13098 13099 13100 13101 13102 13103 13104 13105 13106 13107 13108 13109 13110 13111 13112 13113 13114 13115 13116 13117 13118 13119 13120 13121 13122 13123 13124 13125 13126 13127 13128 13129 13130 13131 13132 13133 13134 13135 13136 13137 13138 13139 13140 13141 13142 13143 13144 13145 13146 13147 13148 13149 13150 13151 13152 13153 13154 13155 13156 13157 13158 13159 13160 13161 13162 13163 13164 13165 13166 13167 13168 13169 13170 13171 13172 13173 13174 13175 13176 13177 13178 13179 13180 13181 13182 13183 13184 13185 13186 13187 13188 13189 13190 13191 13192 13193 13194 13195 13196 13197 13198 13199 13200 13201 13202 13203 13204 13205 13206 13207 13208 13209 13210 13211 13212 13213 13214 13215 13216 13217 13218 13219 13220 13221 13222 13223 13224 13225 13226 13227 13228 13229 13230 13231 13232 13233 13234 13235 13236 13237 13238 13239 13240 13241 13242 13243 13244 13245 13246 13247 13248 13249 13250 13251 13252 13253 13254 13255 13256 13257 13258 13259 13260 13261 13262 13263 13264 13265 13266 13267 13268 13269 13270 13271 13272 13273 13274 13275 13276 13277 13278 13279 13280 13281 13282 13283 13284 13285 13286 13287 13288 13289 13290 13291 13292 13293 13294 13295 13296 13297 13298 13299 13300 13301 13302 13303 13304 13305 13306 13307 13308 13309 13310 13311 13312 13313 13314 13315 13316 13317 13318 13319 13320 13321 13322 13323 13324 13325 13326 13327 13328 13329 13330 13331 13332 13333 13334 13335 13336 13337 13338 13339 13340 13341 13342 13343 13344 13345 13346 13347 13348 13349 13350 13351 13352 13353 13354 13355 13356 13357 13358 13359 13360 13361 13362 13363 13364 13365 13366 13367 13368 13369 13370 13371 13372 13373 13374 13375 13376 13377 13378 13379 13380 13381 13382 13383 13384 13385 13386 13387 13388 13389 13390 13391 13392 13393 13394 13395 13396 13397 13398 13399 13400 13401 13402 13403 13404 13405 13406 13407 13408 13409 13410 13411 13412 13413 13414 13415 13416 13417 13418 13419 13420 13421 13422 13423 13424 13425 13426 13427 13428 13429 13430 13431 13432 13433 13434 13435 13436 13437 13438 13439 13440 13441 13442 13443 13444 13445 13446 13447 13448 13449 13450 13451 13452 13453 13454 13455 13456 13457 13458 13459 13460 13461 13462 13463 13464 13465 13466 13467 13468 13469 13470 13471 13472 13473 13474 13475 13476 13477 13478 13479 13480 13481 13482 13483 13484 13485 13486 13487 13488 13489 13490 13491 13492 13493 13494 13495 13496 13497 13498 13499 13500 13501 13502 13503 13504 13505 13506 13507 13508 13509 13510 13511 13512 13513 13514 13515 13516 13517 13518 13519 13520 13521 13522 13523 13524 13525 13526 13527 13528 13529 13530 13531 13532 13533 13534 13535 13536 13537 13538 13539 13540 13541 13542 13543 13544 13545 13546 13547 13548 13549 13550 13551 13552 13553 13554 13555 13556 13557 13558 13559 13560 13561 13562 13563 13564 13565 13566 13567 13568 13569 13570 13571 13572 13573 13574 13575 13576 13577 13578 13579 13580 13581 13582 13583 13584 13585 13586 13587 13588 13589 13590 13591 13592 13593 13594 13595 13596 13597 13598 13599 13600 13601 13602 13603 13604 13605 13606 13607 13608 13609 13610 13611 13612 13613 13614 13615 13616 13617 13618 13619 13620 13621 13622 13623 13624 13625 13626 13627 13628 13629 13630 13631 13632 13633 13634 13635 13636 13637 13638 13639 13640 13641 13642 13643 13644 13645 13646 13647 13648 13649 13650 13651 13652 13653 13654 13655 13656 13657 13658 13659 13660 13661 13662 13663 13664 13665 13666 13667 13668 13669 13670 13671 13672 13673 13674 13675 13676 13677 13678 13679 13680 13681 13682 13683 13684 13685 13686 13687 13688 13689 13690 13691 13692 13693 13694 13695 13696 13697 13698 13699 13700 13701 13702 13703 13704 13705 13706 13707 13708 13709 13710 13711 13712 13713 13714 13715 13716 13717 13718 13719 13720 13721 13722 13723 13724 13725 13726 13727 13728 13729 13730 13731 13732 13733 13734 13735 13736 13737 13738 13739 13740 13741 13742 13743 13744 13745 13746 13747 13748 13749 13750 13751 13752 13753 13754 13755 13756 13757 13758 13759 13760 13761 13762 13763 13764 13765 13766 13767 13768 13769 13770 13771 13772 13773 13774 13775 13776 13777 13778 13779 13780 13781 13782 13783 13784 13785 13786 13787 13788 13789 13790 13791 13792 13793 13794 13795 13796 13797 13798 13799 13800 13801 13802 13803 13804 13805 13806 13807 13808 13809 13810 13811 13812 13813 13814 13815 13816 13817 13818 13819 13820 13821 13822 13823 13824 13825 13826 13827 13828 13829 13830 13831 13832 13833 13834 13835 13836 13837 13838 13839 13840 13841 13842 13843 13844 13845 13846 13847 13848 13849 13850 13851 13852 13853 13854 13855 13856 13857 13858 13859 13860 13861 13862 13863 13864 13865 13866 13867 13868 13869 13870 13871 13872 13873 13874 13875 13876 13877 13878 13879 13880 13881 13882 13883 13884 13885 13886 13887 13888 13889 13890 13891 13892 13893 13894 13895 13896 13897 13898 13899 13900 13901 13902 13903 13904 13905 13906 13907 13908 13909 13910 13911 13912 13913 13914 13915 13916 13917 13918 13919 13920 13921 13922 13923 13924 13925 13926 13927 13928 13929 13930 13931 13932 13933 13934 13935 13936 13937 13938 13939 13940 13941 13942 13943 13944 13945 13946 13947 13948 13949 13950 13951 13952 13953 13954 13955 13956 13957 13958 13959 13960 13961 13962 13963 13964 13965 13966 13967 13968 13969 13970 13971 13972 13973 13974 13975 13976 13977 13978 13979 13980 13981 13982 13983 13984 13985 13986 13987 13988 13989 13990 13991 13992 13993 13994 13995 13996 13997 13998 13999 14000 14001 14002 14003 14004 14005 14006 14007 14008 14009 14010 14011 14012 14013 14014 14015 14016 14017 14018 14019 14020 14021 14022 14023 14024 14025 14026 14027 14028 14029 14030 14031 14032 14033 14034 14035 14036 14037 14038 14039 14040 14041 14042 14043 14044 14045 14046 14047 14048 14049 14050 14051 14052 14053 14054 14055 14056 14057 14058 14059 14060 14061 14062 14063 14064 14065 14066 14067 14068 14069 14070 14071 14072 14073 14074 14075 14076 14077 14078 14079 14080 14081 14082 14083 14084 14085 14086 14087 14088 14089 14090 14091 14092 14093 14094 14095 14096 14097 14098 14099 14100 14101 14102 14103 14104 14105 14106 14107 14108 14109 14110 14111 14112 14113 14114 14115 14116 14117 14118 14119 14120 14121 14122 14123 14124 14125 14126 14127 14128 14129 14130 14131 14132 14133 14134 14135 14136 14137 14138 14139 14140 14141 14142 14143 14144 14145 14146 14147 14148 14149 14150 14151 14152 14153 14154 14155 14156 14157 14158 14159 14160 14161 14162 14163 14164 14165 14166 14167 14168 14169 14170 14171 14172 14173 14174 14175 14176 14177 14178 14179 14180 14181 14182 14183 14184 14185 14186 14187 14188 14189 14190 14191 14192 14193 14194 14195 14196 14197 14198 14199 14200 14201 14202 14203 14204 14205 14206 14207 14208 14209 14210 14211 14212 14213 14214 14215 14216 14217 14218 14219 14220 14221 14222 14223 14224 14225 14226 14227 14228 14229 14230 14231 14232 14233 14234 14235 14236 14237 14238 14239 14240 14241 14242 14243 14244 14245 14246 14247 14248 14249 14250 14251 14252 14253 14254 14255 14256 14257 14258 14259 14260 14261 14262 14263 14264 14265 14266 14267 14268 14269 14270 14271 14272 14273 14274 14275 14276 14277 14278 14279 14280 14281 14282 14283 14284 14285 14286 14287 14288 14289 14290 14291 14292 14293 14294 14295 14296 14297 14298 14299 14300 14301 14302 14303 14304 14305 14306 14307 14308 14309 14310 14311 14312 14313 14314 14315 14316 14317 14318 14319 14320 14321 14322 14323 14324 14325 14326 14327 14328 14329 14330 14331 14332 14333 14334 14335 14336 14337 14338 14339 14340 14341 14342 14343 14344 14345 14346 14347 14348 14349 14350 14351 14352 14353 14354 14355 14356 14357 14358 14359 14360 14361 14362 14363 14364 14365 14366 14367 14368 14369 14370 14371 14372 14373 14374 14375 14376 14377 14378 14379 14380 14381 14382 14383 14384 14385 14386 14387 14388 14389 14390 14391 14392 14393 14394 14395 14396 14397 14398 14399 14400 14401 14402 14403 14404 14405 14406 14407 14408 14409 14410 14411 14412 14413 14414 14415 14416 14417 14418 14419 14420 14421 14422 14423 14424 14425 14426 14427 14428 14429 14430 14431 14432 14433 14434 14435 14436 14437 14438 14439 14440 14441 14442 14443 14444 14445 14446 14447 14448 14449 14450 14451 14452 14453 14454 14455 14456 14457 14458 14459 14460 14461 14462 14463 14464 14465 14466 14467 14468 14469 14470 14471 14472 14473 14474 14475 14476 14477 14478 14479 14480 14481 14482 14483 14484 14485 14486 14487 14488 14489 14490 14491 14492 14493 14494 14495 14496 14497 14498 14499 14500 14501 14502 14503 14504 14505 14506 14507 14508 14509 14510 14511 14512 14513 14514 14515 14516 14517 14518 14519 14520 14521 14522 14523 14524 14525 14526 14527 14528 14529 14530 14531 14532 14533 14534 14535 14536 14537 14538 14539 14540 14541 14542 14543 14544 14545 14546 14547 14548 14549 14550 14551 14552 14553 14554 14555 14556 14557 14558 14559 14560 14561 14562 14563 14564 14565 14566 14567 14568 14569 14570 14571 14572 14573 14574 14575 14576 14577 14578 14579 14580 14581 14582 14583 14584 14585 14586 14587 14588 14589 14590 14591 14592 14593 14594 14595 14596 14597 14598 14599 14600 14601 14602 14603 14604 14605 14606 14607 14608 14609 14610 14611 14612 14613 14614 14615 14616 14617 14618 14619 14620 14621 14622 14623 14624 14625 14626 14627 14628 14629 14630 14631 14632 14633 14634 14635 14636 14637 14638 14639 14640 14641 14642 14643 14644 14645 14646 14647 14648 14649 14650 14651 14652 14653 14654 14655 14656 14657 14658 14659 14660 14661 14662 14663 14664 14665 14666 14667 14668 14669 14670 14671 14672 14673 14674 14675 14676 14677 14678 14679 14680 14681 14682 14683 14684 14685 14686 14687 14688 14689 14690 14691 14692 14693 14694 14695 14696 14697 14698 14699 14700 14701 14702 14703 14704 14705 14706 14707 14708 14709 14710 14711 14712 14713 14714 14715 14716 14717 14718 14719 14720 14721 14722 14723 14724 14725 14726 14727 14728 14729 14730 14731 14732 14733 14734 14735 14736 14737 14738 14739 14740 14741 14742 14743 14744 14745 14746 14747 14748 14749 14750 14751 14752 14753 14754 14755 14756 14757 14758 14759 14760 14761 14762 14763 14764 14765 14766 14767 14768 14769 14770 14771 14772 14773 14774 14775 14776 14777 14778 14779 14780 14781 14782 14783 14784 14785 14786 14787 14788 14789 14790 14791 14792 14793 14794 14795 14796 14797 14798 14799 14800 14801 14802 14803 14804 14805 14806 14807 14808 14809 14810 14811 14812 14813 14814 14815 14816 14817 14818 14819 14820 14821 14822 14823 14824 14825 14826 14827 14828 14829 14830 14831 14832 14833 14834 14835 14836 14837 14838 14839 14840 14841 14842 14843 14844 14845 14846 14847 14848 14849 14850 14851 14852 14853 14854 14855 14856 14857 14858 14859 14860 14861 14862 14863 14864 14865 14866 14867 14868 14869 14870 14871 14872 14873 14874 14875 14876 14877 14878 14879 14880 14881 14882 14883 14884 14885 14886 14887 14888 14889 14890 14891 14892 14893 14894 14895 14896 14897 14898 14899 14900 14901 14902 14903 14904 14905 14906 14907 14908 14909 14910 14911 14912 14913 14914 14915 14916 14917 14918 14919 14920 14921 14922 14923 14924 14925 14926 14927 14928 14929 14930 14931 14932 14933 14934 14935 14936 14937 14938 14939 14940 14941 14942 14943 14944 14945 14946 14947 14948 14949 14950 14951 14952 14953 14954 14955 14956 14957 14958 14959 14960 14961 14962 14963 14964 14965 14966 14967 14968 14969 14970 14971 14972 14973 14974 14975 14976 14977 14978 14979 14980 14981 14982 14983 14984 14985 14986 14987 14988 14989 14990 14991 14992 14993 14994 14995 14996 14997 14998 14999 15000 15001 15002 15003 15004 15005 15006 15007 15008 15009 15010 15011 15012 15013 15014 15015 15016 15017 15018 15019 15020 15021 15022 15023 15024 15025 15026 15027 15028 15029 15030 15031 15032 15033 15034 15035 15036 15037 15038 15039 15040 15041 15042 15043 15044 15045 15046 15047 15048 15049 15050 15051 15052 15053 15054 15055 15056 15057 15058 15059 15060 15061 15062 15063 15064 15065 15066 15067 15068 15069 15070 15071 15072 15073 15074 15075 15076 15077 15078 15079 15080 15081 15082 15083 15084 15085 15086 15087 15088 15089 15090 15091 15092 15093 15094 15095 15096 15097 15098 15099 15100 15101 15102 15103 15104 15105 15106 15107 15108 15109 15110 15111 15112 15113 15114 15115 15116 15117 15118 15119 15120 15121 15122 15123 15124 15125 15126 15127 15128 15129 15130 15131 15132 15133 15134 15135 15136 15137 15138 15139 15140 15141 15142 15143 15144 15145 15146 15147 15148 15149 15150 15151 15152 15153 15154 15155 15156 15157 15158 15159 15160 15161 15162 15163 15164 15165 15166 15167 15168 15169 15170 15171 15172 15173 15174 15175 15176 15177 15178 15179 15180 15181 15182 15183 15184 15185 15186 15187 15188 15189 15190 15191 15192 15193 15194 15195 15196 15197 15198 15199 15200 15201 15202 15203 15204 15205 15206 15207 15208 15209 15210 15211 15212 15213 15214 15215 15216 15217 15218 15219 15220 15221 15222 15223 15224 15225 15226 15227 15228 15229 15230 15231 15232 15233 15234 15235 15236 15237 15238 15239 15240 15241 15242 15243 15244 15245 15246 15247 15248 15249 15250 15251 15252 15253 15254 15255 15256 15257 15258 15259 15260 15261 15262 15263 15264 15265 15266 15267 15268 15269 15270 15271 15272 15273 15274 15275 15276 15277 15278 15279 15280 15281 15282 15283 15284 15285 15286 15287 15288 15289 15290 15291 15292 15293 15294 15295 15296 15297 15298 15299 15300 15301 15302 15303 15304 15305 15306 15307 15308 15309 15310 15311 15312 15313 15314 15315 15316 15317 15318 15319 15320 15321 15322 15323 15324 15325 15326 15327 15328 15329 15330 15331 15332 15333 15334 15335 15336 15337 15338 15339 15340 15341 15342 15343 15344 15345 15346 15347 15348 15349 15350 15351 15352 15353 15354 15355 15356 15357 15358 15359 15360 15361 15362 15363 15364 15365 15366 15367 15368 15369 15370 15371 15372 15373 15374 15375 15376 15377 15378 15379 15380 15381 15382 15383 15384 15385 15386 15387 15388 15389 15390 15391 15392 15393 15394 15395 15396 15397 15398 15399 15400 15401 15402 15403 15404 15405 15406 15407 15408 15409 15410 15411 15412 15413 15414 15415 15416 15417 15418 15419 15420 15421 15422 15423 15424 15425 15426 15427 15428 15429 15430 15431 15432 15433 15434 15435 15436 15437 15438 15439 15440 15441 15442 15443 15444 15445 15446 15447 15448 15449 15450 15451 15452 15453 15454 15455 15456 15457 15458 15459 15460 15461 15462 15463 15464 15465 15466 15467 15468 15469 15470 15471 15472 15473 15474 15475 15476 15477 15478 15479 15480 15481 15482 15483 15484 15485 15486 15487 15488 15489 15490 15491 15492 15493 15494 15495 15496 15497 15498 15499 15500 15501 15502 15503 15504 15505 15506 15507 15508 15509 15510 15511 15512 15513 15514 15515 15516 15517 15518 15519 15520 15521 15522 15523 15524 15525 15526 15527 15528 15529 15530 15531 15532 15533 15534 15535 15536 15537 15538 15539 15540 15541 15542 15543 15544 15545 15546 15547 15548 15549 15550 15551 15552 15553 15554 15555 15556 15557 15558 15559 15560 15561 15562 15563 15564 15565 15566 15567 15568 15569 15570 15571 15572 15573 15574 15575 15576 15577 15578 15579 15580 15581 15582 15583 15584 15585 15586 15587 15588 15589 15590 15591 15592 15593 15594 15595 15596 15597 15598 15599 15600 15601 15602 15603 15604 15605 15606 15607 15608 15609 15610 15611 15612 15613 15614 15615 15616 15617 15618 15619 15620 15621 15622 15623 15624 15625 15626 15627 15628 15629 15630 15631 15632 15633 15634 15635 15636 15637 15638 15639 15640 15641 15642 15643 15644 15645 15646 15647 15648 15649 15650 15651 15652 15653 15654 15655 15656 15657 15658 15659 15660 15661 15662 15663 15664 15665 15666 15667 15668 15669 15670 15671 15672 15673 15674 15675 15676 15677 15678 15679 15680 15681 15682 15683 15684 15685 15686 15687 15688 15689 15690 15691 15692 15693 15694 15695 15696 15697 15698 15699 15700 15701 15702 15703 15704 15705 15706 15707 15708 15709 15710 15711 15712 15713 15714 15715 15716 15717 15718 15719 15720 15721 15722 15723 15724 15725 15726 15727 15728 15729 15730 15731 15732 15733 15734 15735 15736 15737 15738 15739 15740 15741 15742 15743 15744 15745 15746 15747 15748 15749 15750 15751 15752 15753 15754 15755 15756 15757 15758 15759 15760 15761 15762 15763 15764 15765 15766 15767 15768 15769 15770 15771 15772 15773 15774 15775 15776 15777 15778 15779 15780 15781 15782 15783 15784 15785 15786 15787 15788 15789 15790 15791 15792 15793 15794 15795 15796 15797 15798 15799 15800 15801 15802 15803 15804 15805 15806 15807 15808 15809 15810 15811 15812 15813 15814 15815 15816 15817 15818 15819 15820 15821 15822 15823 15824 15825 15826 15827 15828 15829 15830 15831 15832 15833 15834 15835 15836 15837 15838 15839 15840 15841 15842 15843 15844 15845 15846 15847 15848 15849 15850 15851 15852 15853 15854 15855 15856 15857 15858 15859 15860 15861 15862 15863 15864 15865 15866 15867 15868 15869 15870 15871 15872 15873 15874 15875 15876 15877 15878 15879 15880 15881 15882 15883 15884 15885 15886 15887 15888 15889 15890 15891 15892 15893 15894 15895 15896 15897 15898 15899 15900 15901 15902 15903 15904 15905 15906 15907 15908 15909 15910 15911 15912 15913 15914 15915 15916 15917 15918 15919 15920 15921 15922 15923 15924 15925 15926 15927 15928 15929 15930 15931 15932 15933 15934 15935 15936 15937 15938 15939 15940 15941 15942 15943 15944 15945 15946 15947 15948 15949 15950 15951 15952 15953 15954 15955 15956 15957 15958 15959 15960 15961 15962 15963 15964 15965 15966 15967 15968 15969 15970 15971 15972 15973 15974 15975 15976 15977 15978 15979 15980 15981 15982 15983 15984 15985 15986 15987 15988 15989 15990 15991 15992 15993 15994 15995 15996 15997 15998 15999 16000 16001 16002 16003 16004 16005 16006 16007 16008 16009 16010 16011 16012 16013 16014 16015 16016 16017 16018 16019 16020 16021 16022 16023 16024 16025 16026 16027 16028 16029 16030 16031 16032 16033 16034 16035 16036 16037 16038 16039 16040 16041 16042 16043 16044 16045 16046 16047 16048 16049 16050 16051 16052 16053 16054 16055 16056 16057 16058 16059 16060 16061 16062 16063 16064 16065 16066 16067 16068 16069 16070 16071 16072 16073 16074 16075 16076 16077 16078 16079 16080 16081 16082 16083 16084 16085 16086 16087 16088 16089 16090 16091 16092 16093 16094 16095 16096 16097 16098 16099 16100 16101 16102 16103 16104 16105 16106 16107 16108 16109 16110 16111 16112 16113 16114 16115 16116 16117 16118 16119 16120 16121 16122 16123 16124 16125 16126 16127 16128 16129 16130 16131 16132 16133 16134 16135 16136 16137 16138 16139 16140 16141 16142 16143 16144 16145 16146 16147 16148 16149 16150 16151 16152 16153 16154 16155 16156 16157 16158 16159 16160 16161 16162 16163 16164 16165 16166 16167 16168 16169 16170 16171 16172 16173 16174 16175 16176 16177 16178 16179 16180 16181 16182 16183 16184 16185 16186 16187 16188 16189 16190 16191 16192 16193 16194 16195 16196 16197 16198 16199 16200 16201 16202 16203 16204 16205 16206 16207 16208 16209 16210 16211 16212 16213 16214 16215 16216 16217 16218 16219 16220 16221 16222 16223 16224 16225 16226 16227 16228 16229 16230 16231 16232 16233 16234 16235 16236 16237 16238 16239 16240 16241 16242 16243 16244 16245 16246 16247 16248 16249 16250 16251 16252 16253 16254 16255 16256 16257 16258 16259 16260 16261 16262 16263 16264 16265 16266 16267 16268 16269 16270 16271 16272 16273 16274 16275 16276 16277 16278 16279 16280 16281 16282 16283 16284 16285 16286 16287 16288 16289 16290 16291 16292 16293 16294 16295 16296 16297 16298 16299 16300 16301 16302 16303 16304 16305 16306 16307 16308 16309 16310 16311 16312 16313 16314 16315 16316 16317 16318 16319 16320 16321 16322 16323 16324 16325 16326 16327 16328 16329 16330 16331 16332 16333 16334 16335 16336 16337 16338 16339 16340 16341 16342 16343 16344 16345 16346 16347 16348 16349 16350 16351 16352 16353 16354 16355 16356 16357 16358 16359 16360 16361 16362 16363 16364 16365 16366 16367 16368 16369 16370 16371 16372 16373 16374 16375 16376 16377 16378 16379 16380 16381 16382 16383 16384 16385 16386 16387 16388 16389 16390 16391 16392 16393 16394 16395 16396 16397 16398 16399 16400 16401 16402 16403 16404 16405 16406 16407 16408 16409 16410 16411 16412 16413 16414 16415 16416 16417 16418 16419 16420 16421 16422 16423 16424 16425 16426 16427 16428 16429 16430 16431 16432 16433 16434 16435 16436 16437 16438 16439 16440 16441 16442 16443 16444 16445 16446 16447 16448 16449 16450 16451 16452 16453 16454 16455 16456 16457 16458 16459 16460 16461 16462 16463 16464 16465 16466 16467 16468 16469 16470 16471 16472 16473 16474 16475 16476 16477 16478 16479 16480 16481 16482 16483 16484 16485 16486 16487 16488 16489 16490 16491 16492 16493 16494 16495 16496 16497 16498 16499 16500 16501 16502 16503 16504 16505 16506 16507 16508 16509 16510 16511 16512 16513 16514 16515 16516 16517 16518 16519 16520 16521 16522 16523 16524 16525 16526 16527 16528 16529 16530 16531 16532 16533 16534 16535 16536 16537 16538 16539 16540 16541 16542 16543 16544 16545 16546 16547 16548 16549 16550 16551 16552 16553 16554 16555 16556 16557 16558 16559 16560 16561 16562 16563 16564 16565 16566 16567 16568 16569 16570 16571 16572 16573 16574 16575 16576 16577 16578 16579 16580 16581 16582 16583 16584 16585 16586 16587 16588 16589 16590 16591 16592 16593 16594 16595 16596 16597 16598 16599 16600 16601 16602 16603 16604 16605 16606 16607 16608 16609 16610 16611 16612 16613 16614 16615 16616 16617 16618 16619 16620 16621 16622 16623 16624 16625 16626 16627 16628 16629 16630 16631 16632 16633 16634 16635 16636 16637 16638 16639 16640 16641 16642 16643 16644 16645 16646 16647 16648 16649 16650 16651 16652 16653 16654 16655 16656 16657 16658 16659 16660 16661 16662 16663 16664 16665 16666 16667 16668 16669 16670 16671 16672 16673 16674 16675 16676 16677 16678 16679 16680 16681 16682 16683 16684 16685 16686 16687 16688 16689 16690 16691 16692 16693 16694 16695 16696 16697 16698 16699 16700 16701 16702 16703 16704 16705 16706 16707 16708 16709 16710 16711 16712 16713 16714 16715 16716 16717 16718 16719 16720 16721 16722 16723 16724 16725 16726 16727 16728 16729 16730 16731 16732 16733 16734 16735 16736 16737 16738 16739 16740 16741 16742 16743 16744 16745 16746 16747 16748 16749 16750 16751 16752 16753 16754 16755 16756 16757 16758 16759 16760 16761 16762 16763 16764 16765 16766 16767 16768 16769 16770 16771 16772 16773 16774 16775 16776 16777 16778 16779 16780 16781 16782 16783 16784 16785 16786 16787 16788 16789 16790 16791 16792 16793 16794 16795 16796 16797 16798 16799 16800 16801 16802 16803 16804 16805 16806 16807 16808 16809 16810 16811 16812 16813 16814 16815 16816 16817 16818 16819 16820 16821 16822 16823 16824 16825 16826 16827 16828 16829 16830 16831 16832 16833 16834 16835 16836 16837 16838 16839 16840 16841 16842 16843 16844 16845 16846 16847 16848 16849 16850 16851 16852 16853 16854 16855 16856 16857 16858 16859 16860 16861 16862 16863 16864 16865 16866 16867 16868 16869 16870 16871 16872 16873 16874 16875 16876 16877 16878 16879 16880 16881 16882 16883 16884 16885 16886 16887 16888 16889 16890 16891 16892 16893 16894 16895 16896 16897 16898 16899 16900 16901 16902 16903 16904 16905 16906 16907 16908 16909 16910 16911 16912 16913 16914 16915 16916 16917 16918 16919 16920 16921 16922 16923 16924 16925 16926 16927 16928 16929 16930 16931 16932 16933 16934 16935 16936 16937 16938 16939 16940 16941 16942 16943 16944 16945 16946 16947 16948 16949 16950 16951 16952 16953 16954 16955 16956 16957 16958 16959 16960 16961 16962 16963 16964 16965 16966 16967 16968 16969 16970 16971 16972 16973 16974 16975 16976 16977 16978 16979 16980 16981 16982 16983 16984 16985 16986 16987 16988 16989 16990 16991 16992 16993 16994 16995 16996 16997 16998 16999 17000 17001 17002 17003 17004 17005 17006 17007 17008 17009 17010 17011 17012 17013 17014 17015 17016 17017 17018 17019 17020 17021 17022 17023 17024 17025 17026 17027 17028 17029 17030 17031 17032 17033 17034 17035 17036 17037 17038 17039 17040 17041 17042 17043 17044 17045 17046 17047 17048 17049 17050 17051 17052 17053 17054 17055 17056 17057 17058 17059 17060 17061 17062 17063 17064 17065 17066 17067 17068 17069 17070 17071 17072 17073 17074 17075 17076 17077 17078 17079 17080 17081 17082 17083 17084 17085 17086 17087 17088 17089 17090 17091 17092 17093 17094 17095 17096 17097 17098 17099 17100 17101 17102 17103 17104 17105 17106 17107 17108 17109 17110 17111 17112 17113 17114 17115 17116 17117 17118 17119 17120 17121 17122 17123 17124 17125 17126 17127 17128 17129 17130 17131 17132 17133 17134 17135 17136 17137 17138 17139 17140 17141 17142 17143 17144 17145 17146 17147 17148 17149 17150 17151 17152 17153 17154 17155 17156 17157 17158 17159 17160 17161 17162 17163 17164 17165 17166 17167 17168 17169 17170 17171 17172 17173 17174 17175 17176 17177 17178 17179 17180 17181 17182 17183 17184 17185 17186 17187 17188 17189 17190 17191 17192 17193 17194 17195 17196 17197 17198 17199 17200 17201 17202 17203 17204 17205 17206 17207 17208 17209 17210 17211 17212 17213 17214 17215 17216 17217 17218 17219 17220 17221 17222 17223 17224 17225 17226 17227 17228 17229 17230 17231 17232 17233 17234 17235 17236 17237 17238 17239 17240 17241 17242 17243 17244 17245 17246 17247 17248 17249 17250 17251 17252 17253 17254 17255 17256 17257 17258 17259 17260 17261 17262 17263 17264 17265 17266 17267 17268 17269 17270 17271 17272 17273 17274 17275 17276 17277 17278 17279 17280 17281 17282 17283 17284 17285 17286 17287 17288 17289 17290 17291 17292 17293 17294 17295 17296 17297 17298 17299 17300 17301 17302 17303 17304 17305 17306 17307 17308 17309 17310 17311 17312 17313 17314 17315 17316 17317 17318 17319 17320 17321 17322 17323 17324 17325 17326 17327 17328 17329 17330 17331 17332 17333 17334 17335 17336 17337 17338 17339 17340 17341 17342 17343 17344 17345 17346 17347 17348 17349 17350 17351 17352 17353 17354 17355 17356 17357 17358 17359 17360 17361 17362 17363 17364 17365 17366 17367 17368 17369 17370 17371 17372 17373 17374 17375 17376 17377 17378 17379 17380 17381 17382 17383 17384 17385 17386 17387 17388 17389 17390 17391 17392 17393 17394 17395 17396 17397 17398 17399 17400 17401 17402 17403 17404 17405 17406 17407 17408 17409 17410 17411 17412 17413 17414 17415 17416 17417 17418 17419 17420 17421 17422 17423 17424 17425 17426 17427 17428 17429 17430 17431 17432 17433 17434 17435 17436 17437 17438 17439 17440 17441 17442 17443 17444 17445 17446 17447 17448 17449 17450 17451 17452 17453 17454 17455 17456 17457 17458 17459 17460 17461 17462 17463 17464 17465 17466 17467 17468 17469 17470 17471 17472 17473 17474 17475 17476 17477 17478 17479 17480 17481 17482 17483 17484 17485 17486 17487 17488 17489 17490 17491 17492 17493 17494 17495 17496 17497 17498 17499 17500 17501 17502 17503 17504 17505 17506 17507 17508 17509 17510 17511 17512 17513 17514 17515 17516 17517 17518 17519 17520 17521 17522 17523 17524 17525 17526 17527 17528 17529 17530 17531 17532 17533 17534 17535 17536 17537 17538 17539 17540 17541 17542 17543 17544 17545 17546 17547 17548 17549 17550 17551 17552 17553 17554 17555 17556 17557 17558 17559 17560 17561 17562 17563 17564 17565 17566 17567 17568 17569 17570 17571 17572 17573 17574 17575 17576 17577 17578 17579 17580 17581 17582 17583 17584 17585 17586 17587 17588 17589 17590 17591 17592 17593 17594 17595 17596 17597 17598 17599 17600 17601 17602 17603 17604 17605 17606 17607 17608 17609 17610 17611 17612 17613 17614 17615 17616 17617 17618 17619 17620 17621 17622 17623 17624 17625 17626 17627 17628 17629 17630 17631 17632 17633 17634 17635 17636 17637 17638 17639 17640 17641 17642 17643 17644 17645 17646 17647 17648 17649 17650 17651 17652 17653 17654 17655 17656 17657 17658 17659 17660 17661 17662 17663 17664 17665 17666 17667 17668 17669 17670 17671 17672 17673 17674 17675 17676 17677 17678 17679 17680 17681 17682 17683 17684 17685 17686 17687 17688 17689 17690 17691 17692 17693 17694 17695 17696 17697 17698 17699 17700 17701 17702 17703 17704 17705 17706 17707 17708 17709 17710 17711 17712 17713 17714 17715 17716 17717 17718 17719 17720 17721 17722 17723 17724 17725 17726 17727 17728 17729 17730 17731 17732 17733 17734 17735 17736 17737 17738 17739 17740 17741 17742 17743 17744 17745 17746 17747 17748 17749 17750 17751 17752 17753 17754 17755 17756 17757 17758 17759 17760 17761 17762 17763 17764 17765 17766 17767 17768 17769 17770 17771 17772 17773 17774 17775 17776 17777 17778 17779 17780 17781 17782 17783 17784 17785 17786 17787 17788 17789 17790 17791 17792 17793 17794 17795 17796 17797 17798 17799 17800 17801 17802 17803 17804 17805 17806 17807 17808 17809 17810 17811 17812 17813 17814 17815 17816 17817 17818 17819 17820 17821 17822 17823 17824 17825 17826 17827 17828 17829 17830 17831 17832 17833 17834 17835 17836 17837 17838 17839 17840 17841 17842 17843 17844 17845 17846 17847 17848 17849 17850 17851 17852 17853 17854 17855 17856 17857 17858 17859 17860 17861 17862 17863 17864 17865 17866 17867 17868 17869 17870 17871 17872 17873 17874 17875 17876 17877 17878 17879 17880 17881 17882 17883 17884 17885 17886 17887 17888 17889 17890 17891 17892 17893 17894 17895 17896 17897 17898 17899 17900 17901 17902 17903 17904 17905 17906 17907 17908 17909 17910 17911 17912 17913 17914 17915 17916 17917 17918 17919 17920 17921 17922 17923 17924 17925 17926 17927 17928 17929 17930 17931 17932 17933 17934 17935 17936 17937 17938 17939 17940 17941 17942 17943 17944 17945 17946 17947 17948 17949 17950 17951 17952 17953 17954 17955 17956 17957 17958 17959 17960 17961 17962 17963 17964 17965 17966 17967 17968 17969 17970 17971 17972 17973 17974 17975 17976 17977 17978 17979 17980 17981 17982 17983 17984 17985 17986 17987 17988 17989 17990 17991 17992 17993 17994 17995 17996 17997 17998 17999 18000 18001 18002 18003 18004 18005 18006 18007 18008 18009 18010 18011 18012 18013 18014 18015 18016 18017 18018 18019 18020 18021 18022 18023 18024 18025 18026 18027 18028 18029 18030 18031 18032 18033 18034 18035 18036 18037 18038 18039 18040 18041 18042 18043 18044 18045 18046 18047 18048 18049 18050 18051 18052 18053 18054 18055 18056 18057 18058 18059 18060 18061 18062 18063 18064 18065 18066 18067 18068 18069 18070 18071 18072 18073 18074 18075 18076 18077 18078 18079 18080 18081 18082 18083 18084 18085 18086 18087 18088 18089 18090 18091 18092 18093 18094 18095 18096 18097 18098 18099 18100 18101 18102 18103 18104 18105 18106 18107 18108 18109 18110 18111 18112 18113 18114 18115 18116 18117 18118 18119 18120 18121 18122 18123 18124 18125 18126 18127 18128 18129 18130 18131 18132 18133 18134 18135 18136 18137 18138 18139 18140 18141 18142 18143 18144 18145 18146 18147 18148 18149 18150 18151 18152 18153 18154 18155 18156 18157 18158 18159 18160 18161 18162 18163 18164 18165 18166 18167 18168 18169 18170 18171 18172 18173 18174 18175 18176 18177 18178 18179 18180 18181 18182 18183 18184 18185 18186 18187 18188 18189 18190 18191 18192 18193 18194 18195 18196 18197 18198 18199 18200 18201 18202 18203 18204 18205 18206 18207 18208 18209 18210 18211 18212 18213 18214 18215 18216 18217 18218 18219 18220 18221 18222 18223 18224 18225 18226 18227 18228 18229 18230 18231 18232 18233 18234 18235 18236 18237 18238 18239 18240 18241 18242 18243 18244 18245 18246 18247 18248 18249 18250 18251 18252 18253 18254 18255 18256 18257 18258 18259 18260 18261 18262 18263 18264 18265 18266 18267 18268 18269 18270 18271 18272 18273 18274 18275 18276 18277 18278 18279 18280 18281 18282 18283 18284 18285 18286 18287 18288 18289 18290 18291 18292 18293 18294 18295 18296 18297 18298 18299 18300 18301 18302 18303 18304 18305 18306 18307 18308 18309 18310 18311 18312 18313 18314 18315 18316 18317 18318 18319 18320 18321 18322 18323 18324 18325 18326 18327 18328 18329 18330 18331 18332 18333 18334 18335 18336 18337 18338 18339 18340 18341 18342 18343 18344 18345 18346 18347 18348 18349 18350 18351 18352 18353 18354 18355 18356 18357 18358 18359 18360 18361 18362 18363 18364 18365 18366 18367 18368 18369 18370 18371 18372 18373 18374 18375 18376 18377 18378 18379 18380 18381 18382 18383 18384 18385 18386 18387 18388 18389 18390 18391 18392 18393 18394 18395 18396 18397 18398 18399 18400 18401 18402 18403 18404 18405 18406 18407 18408 18409 18410 18411 18412 18413 18414 18415 18416 18417 18418 18419 18420 18421 18422 18423 18424 18425 18426 18427 18428 18429 18430 18431 18432 18433 18434 18435 18436 18437 18438 18439 18440 18441 18442 18443 18444 18445 18446 18447 18448 18449 18450 18451 18452 18453 18454 18455 18456 18457 18458 18459 18460 18461 18462 18463 18464 18465 18466 18467 18468 18469 18470 18471 18472 18473 18474 18475 18476 18477 18478 18479 18480 18481 18482 18483 18484 18485 18486 18487 18488 18489 18490 18491 18492 18493 18494 18495 18496 18497 18498 18499 18500 18501 18502 18503 18504 18505 18506 18507 18508 18509 18510 18511 18512 18513 18514 18515 18516 18517 18518 18519 18520 18521 18522 18523 18524 18525 18526 18527 18528 18529 18530 18531 18532 18533 18534 18535 18536 18537 18538 18539 18540 18541 18542 18543 18544 18545 18546 18547 18548 18549 18550 18551 18552 18553 18554 18555 18556 18557 18558 18559 18560 18561 18562 18563 18564 18565 18566 18567 18568 18569 18570 18571 18572 18573 18574 18575 18576 18577 18578 18579 18580 18581 18582 18583 18584 18585 18586 18587 18588 18589 18590 18591 18592 18593 18594 18595 18596 18597 18598 18599 18600 18601 18602 18603 18604 18605 18606 18607 18608 18609 18610 18611 18612 18613 18614 18615 18616 18617 18618 18619 18620 18621 18622 18623 18624 18625 18626 18627 18628 18629 18630 18631 18632 18633 18634 18635 18636 18637 18638 18639 18640 18641 18642 18643 18644 18645 18646 18647 18648 18649 18650 18651 18652 18653 18654 18655 18656 18657 18658 18659 18660 18661 18662 18663 18664 18665 18666 18667 18668 18669 18670 18671 18672 18673 18674 18675 18676 18677 18678 18679 18680 18681 18682 18683 18684 18685 18686 18687 18688 18689 18690 18691 18692 18693 18694 18695 18696 18697 18698 18699 18700 18701 18702 18703 18704 18705 18706 18707 18708 18709 18710 18711 18712 18713 18714 18715 18716 18717 18718 18719 18720 18721 18722 18723 18724 18725 18726 18727 18728 18729 18730 18731 18732 18733 18734 18735 18736 18737 18738 18739 18740 18741 18742 18743 18744 18745 18746 18747 18748 18749 18750 18751 18752 18753 18754 18755 18756 18757 18758 18759 18760 18761 18762 18763 18764 18765 18766 18767 18768 18769 18770 18771 18772 18773 18774 18775 18776 18777 18778 18779 18780 18781 18782 18783 18784 18785 18786 18787 18788 18789 18790 18791 18792 18793 18794 18795 18796 18797 18798 18799 18800 18801 18802 18803 18804 18805 18806 18807 18808 18809 18810 18811 18812 18813 18814 18815 18816 18817 18818 18819 18820 18821 18822 18823 18824 18825 18826 18827 18828 18829 18830 18831 18832 18833 18834 18835 18836 18837 18838 18839 18840 18841 18842 18843 18844 18845 18846 18847 18848 18849 18850 18851 18852 18853 18854 18855 18856 18857 18858 18859 18860 18861 18862 18863 18864 18865 18866 18867 18868 18869 18870 18871 18872 18873 18874 18875 18876 18877 18878 18879 18880 18881 18882 18883 18884 18885 18886 18887 18888 18889 18890 18891 18892 18893 18894 18895 18896 18897 18898 18899 18900 18901 18902 18903 18904 18905 18906 18907 18908 18909 18910 18911 18912 18913 18914 18915 18916 18917 18918 18919 18920 18921 18922 18923 18924 18925 18926 18927 18928 18929 18930 18931 18932 18933 18934 18935 18936 18937 18938 18939 18940 18941 18942 18943 18944 18945 18946 18947 18948 18949 18950 18951 18952 18953 18954 18955 18956 18957 18958 18959 18960 18961 18962 18963 18964 18965 18966 18967 18968 18969 18970 18971 18972 18973 18974 18975 18976 18977 18978 18979 18980 18981 18982 18983 18984 18985 18986 18987 18988 18989 18990 18991 18992 18993 18994 18995 18996 18997 18998 18999 19000 19001 19002 19003 19004 19005 19006 19007 19008 19009 19010 19011 19012 19013 19014 19015 19016 19017 19018 19019 19020 19021 19022 19023 19024 19025 19026 19027 19028 19029 19030 19031 19032 19033 19034 19035 19036 19037 19038 19039 19040 19041 19042 19043 19044 19045 19046 19047 19048 19049 19050 19051 19052 19053 19054 19055 19056 19057 19058 19059 19060 19061 19062 19063 19064 19065 19066 19067 19068 19069 19070 19071 19072 19073 19074 19075 19076 19077 19078 19079 19080 19081 19082 19083 19084 19085 19086 19087 19088 19089 19090 19091 19092 19093 19094 19095 19096 19097 19098 19099 19100 19101 19102 19103 19104 19105 19106 19107 19108 19109 19110 19111 19112 19113 19114 19115 19116 19117 19118 19119 19120 19121 19122 19123 19124 19125 19126 19127 19128 19129 19130 19131 19132 19133 19134 19135 19136 19137 19138 19139 19140 19141 19142 19143 19144 19145 19146 19147 19148 19149 19150 19151 19152 19153 19154 19155 19156 19157 19158 19159 19160 19161 19162 19163 19164 19165 19166 19167 19168 19169 19170 19171 19172 19173 19174 19175 19176 19177 19178 19179 19180 19181 19182 19183 19184 19185 19186 19187 19188 19189 19190 19191 19192 19193 19194 19195 19196 19197 19198 19199 19200 19201 19202 19203 19204 19205 19206 19207 19208 19209 19210 19211 19212 19213 19214 19215 19216 19217 19218 19219 19220 19221 19222 19223 19224 19225 19226 19227 19228 19229 19230 19231 19232 19233 19234 19235 19236 19237 19238 19239 19240 19241 19242 19243 19244 19245 19246 19247 19248 19249 19250 19251 19252 19253 19254 19255 19256 19257 19258 19259 19260 19261 19262 19263 19264 19265 19266 19267 19268 19269 19270 19271 19272 19273 19274 19275 19276 19277 19278 19279 19280 19281 19282 19283 19284 19285 19286 19287 19288 19289 19290 19291 19292 19293 19294 19295 19296 19297 19298 19299 19300 19301 19302 19303 19304 19305 19306 19307 19308 19309 19310 19311 19312 19313 19314 19315 19316 19317 19318 19319 19320 19321 19322 19323 19324 19325 19326 19327 19328 19329 19330 19331 19332 19333 19334 19335 19336 19337 19338 19339 19340 19341 19342 19343 19344 19345 19346 19347 19348 19349 19350 19351 19352 19353 19354 19355 19356 19357 19358 19359 19360 19361 19362 19363 19364 19365 19366 19367 19368 19369 19370 19371 19372 19373 19374 19375 19376 19377 19378 19379 19380 19381 19382 19383 19384 19385 19386 19387 19388 19389 19390 19391 19392 19393 19394 19395 19396 19397 19398 19399 19400 19401 19402 19403 19404 19405 19406 19407 19408 19409 19410 19411 19412 19413 19414 19415 19416 19417 19418 19419 19420 19421 19422 19423 19424 19425 19426 19427 19428 19429 19430 19431 19432 19433 19434 19435 19436 19437 19438 19439 19440 19441 19442 19443 19444 19445 19446 19447 19448 19449 19450 19451 19452 19453 19454 19455 19456 19457 19458 19459 19460 19461 19462 19463 19464 19465 19466 19467 19468 19469 19470 19471 19472 19473 19474 19475 19476 19477 19478 19479 19480 19481 19482 19483 19484 19485 19486 19487 19488 19489 19490 19491 19492 19493 19494 19495 19496 19497 19498 19499 19500 19501 19502 19503 19504 19505 19506 19507 19508 19509 19510 19511 19512 19513 19514 19515 19516 19517 19518 19519 19520 19521 19522 19523 19524 19525 19526 19527 19528 19529 19530 19531 19532 19533 19534 19535 19536 19537 19538 19539 19540 19541 19542 19543 19544 19545 19546 19547 19548 19549 19550 19551 19552 19553 19554 19555 19556 19557 19558 19559 19560 19561 19562 19563 19564 19565 19566 19567 19568 19569 19570 19571 19572 19573 19574 19575 19576 19577 19578 19579 19580 19581 19582 19583 19584 19585 19586 19587 19588 19589 19590 19591 19592 19593 19594 19595 19596 19597 19598 19599 19600 19601 19602 19603 19604 19605 19606 19607 19608 19609 19610 19611 19612 19613 19614 19615 19616 19617 19618 19619 19620 19621 19622 19623 19624 19625 19626 19627 19628 19629 19630 19631 19632 19633 19634 19635 19636 19637 19638 19639 19640 19641 19642 19643 19644 19645 19646 19647 19648 19649 19650 19651 19652 19653 19654 19655 19656 19657 19658 19659 19660 19661 19662 19663 19664 19665 19666 19667 19668 19669 19670 19671 19672 19673 19674 19675 19676 19677 19678 19679 19680 19681 19682 19683 19684 19685 19686 19687 19688 19689 19690 19691 19692 19693 19694 19695 19696 19697 19698 19699 19700 19701 19702 19703 19704 19705 19706 19707 19708 19709 19710 19711 19712 19713 19714 19715 19716 19717 19718 19719 19720 19721 19722 19723 19724 19725 19726 19727 19728 19729 19730 19731 19732 19733 19734 19735 19736 19737 19738 19739 19740 19741 19742 19743 19744 19745 19746 19747 19748 19749 19750 19751 19752 19753 19754 19755 19756 19757 19758 19759 19760 19761 19762 19763 19764 19765 19766 19767 19768 19769 19770 19771 19772 19773 19774 19775 19776 19777 19778 19779 19780 19781 19782 19783 19784 19785 19786 19787 19788 19789 19790 19791 19792 19793 19794 19795 19796 19797 19798 19799 19800 19801 19802 19803 19804 19805 19806 19807 19808 19809 19810 19811 19812 19813 19814 19815 19816 19817 19818 19819 19820 19821 19822 19823 19824 19825 19826 19827 19828 19829 19830 19831 19832 19833 19834 19835 19836 19837 19838 19839 19840 19841 19842 19843 19844 19845 19846 19847 19848 19849 19850 19851 19852 19853 19854 19855 19856 19857 19858 19859 19860 19861 19862 19863 19864 19865 19866 19867 19868 19869 19870 19871 19872 19873 19874 19875 19876 19877 19878 19879 19880 19881 19882 19883 19884 19885 19886 19887 19888 19889 19890 19891 19892 19893 19894 19895 19896 19897 19898 19899 19900 19901 19902 19903 19904 19905 19906 19907 19908 19909 19910 19911 19912 19913 19914 19915 19916 19917 19918 19919 19920 19921 19922 19923 19924 19925 19926 19927 19928 19929 19930 19931 19932 19933 19934 19935 19936 19937 19938 19939 19940 19941 19942 19943 19944 19945 19946 19947 19948 19949 19950 19951 19952 19953 19954 19955 19956 19957 19958 19959 19960 19961 19962 19963 19964 19965 19966 19967 19968 19969 19970 19971 19972 19973 19974 19975 19976 19977 19978 19979 19980 19981 19982 19983 19984 19985 19986 19987 19988 19989 19990 19991 19992 19993 19994 19995 19996 19997 19998 19999 20000 20001 20002 20003 20004 20005 20006 20007 20008 20009 20010 20011 20012 20013 20014 20015 20016 20017 20018 20019 20020 20021 20022 20023 20024 20025 20026 20027 20028 20029 20030 20031 20032 20033 20034 20035 20036 20037 20038 20039 20040 20041 20042 20043 20044 20045 20046 20047 20048 20049 20050 20051 20052 20053 20054 20055 20056 20057 20058 20059 20060 20061 20062 20063 20064 20065 20066 20067 20068 20069 20070 20071 20072 20073 20074 20075 20076 20077 20078 20079 20080 20081 20082 20083 20084 20085 20086 20087 20088 20089 20090 20091 20092 20093 20094 20095 20096 20097 20098 20099 20100 20101 20102 20103 20104 20105 20106 20107 20108 20109 20110 20111 20112 20113 20114 20115 20116 20117 20118 20119 20120 20121 20122 20123 20124 20125 20126 20127 20128 20129 20130 20131 20132 20133 20134 20135 20136 20137 20138 20139 20140 20141 20142 20143 20144 20145 20146 20147 20148 20149 20150 20151 20152 20153 20154 20155 20156 20157 20158 20159 20160 20161 20162 20163 20164 20165 20166 20167 20168 20169 20170 20171 20172 20173 20174 20175 20176 20177 20178 20179 20180 20181 20182 20183 20184 20185 20186 20187 20188 20189 20190 20191 20192 20193 20194 20195 20196 20197 20198 20199 20200 20201 20202 20203 20204 20205 20206 20207 20208 20209 20210 20211 20212 20213 20214 20215 20216 20217 20218 20219 20220 20221 20222 20223 20224 20225 20226 20227 20228 20229 20230 20231 20232 20233 20234 20235 20236 20237 20238 20239 20240 20241 20242 20243 20244 20245 20246 20247 20248 20249 20250 20251 20252 20253 20254 20255 20256 20257 20258 20259 20260 20261 20262 20263 20264 20265 20266 20267 20268 20269 20270 20271 20272 20273 20274 20275 20276 20277 20278 20279 20280 20281 20282 20283 20284 20285 20286 20287 20288 20289 20290 20291 20292 20293 20294 20295 20296 20297 20298 20299 20300 20301 20302 20303 20304 20305 20306 20307 20308 20309 20310 20311 20312 20313 20314 20315 20316 20317 20318 20319 20320 20321 20322 20323 20324 20325 20326 20327 20328 20329 20330 20331 20332 20333 20334 20335 20336 20337 20338 20339 20340 20341 20342 20343 20344 20345 20346 20347 20348 20349 20350 20351 20352 20353 20354 20355 20356 20357 20358 20359 20360 20361 20362 20363 20364 20365 20366 20367 20368 20369 20370 20371 20372 20373 20374 20375 20376 20377 20378 20379 20380 20381 20382 20383 20384 20385 20386 20387 20388 20389 20390 20391 20392 20393 20394 20395 20396 20397 20398 20399 20400 20401 20402 20403 20404 20405 20406 20407 20408 20409 20410 20411 20412 20413 20414 20415 20416 20417 20418 20419 20420 20421 20422 20423 20424 20425 20426 20427 20428 20429 20430 20431 20432 20433 20434 20435 20436 20437 20438 20439 20440 20441 20442 20443 20444 20445 20446 20447 20448 20449 20450 20451 20452 20453 20454 20455 20456 20457 20458 20459 20460 20461 20462 20463 20464 20465 20466 20467 20468 20469 20470 20471 20472 20473 20474 20475 20476 20477 20478 20479 20480 20481 20482 20483 20484 20485 20486 20487 20488 20489 20490 20491 20492 20493 20494 20495 20496 20497 20498 20499 20500 20501 20502 20503 20504 20505 20506 20507 20508 20509 20510 20511 20512 20513 20514 20515 20516 20517 20518 20519 20520 20521 20522 20523 20524 20525 20526 20527 20528 20529 20530 20531 20532 20533 20534 20535 20536 20537 20538 20539 20540 20541 20542 20543 20544 20545 20546 20547 20548 20549 20550 20551 20552 20553 20554 20555 20556 20557 20558 20559 20560 20561 20562 20563 20564 20565 20566 20567 20568 20569 20570 20571 20572 20573 20574 20575 20576 20577 20578 20579 20580 20581 20582 20583 20584 20585 20586 20587 20588 20589 20590 20591 20592 20593 20594 20595 20596 20597 20598 20599 20600 20601 20602 20603 20604 20605 20606 20607 20608 20609 20610 20611 20612 20613 20614 20615 20616 20617 20618 20619 20620 20621 20622 20623 20624 20625 20626 20627 20628 20629 20630 20631 20632 20633 20634 20635 20636 20637 20638 20639 20640 20641 20642 20643 20644 20645 20646 20647 20648 20649 20650 20651 20652 20653 20654 20655 20656 20657 20658 20659 20660 20661 20662 20663 20664 20665 20666 20667 20668 20669 20670 20671 20672 20673 20674 20675 20676 20677 20678 20679 20680 20681 20682 20683 20684 20685 20686 20687 20688 20689 20690 20691 20692 20693 20694 20695 20696 20697 20698 20699 20700 20701 20702 20703 20704 20705 20706 20707 20708 20709 20710 20711 20712 20713 20714 20715 20716 20717 20718 20719 20720 20721 20722 20723 20724 20725 20726 20727 20728 20729 20730 20731 20732 20733 20734 20735 20736 20737 20738 20739 20740 20741 20742 20743 20744 20745 20746 20747 20748 20749 20750 20751 20752 20753 20754 20755 20756 20757 20758 20759 20760 20761 20762 20763 20764 20765 20766 20767 20768 20769 20770 20771 20772 20773 20774 20775 20776 20777 20778 20779 20780 20781 20782 20783 20784 20785 20786 20787 20788 20789 20790 20791 20792 20793 20794 20795 20796 20797 20798 20799 20800 20801 20802 20803 20804 20805 20806 20807 20808 20809 20810 20811 20812 20813 20814 20815 20816 20817 20818 20819 20820 20821 20822 20823 20824 20825 20826 20827 20828 20829 20830 20831 20832 20833 20834 20835 20836 20837 20838 20839 20840 20841 20842 20843 20844 20845 20846 20847 20848 20849 20850 20851 20852 20853 20854 20855 20856 20857 20858 20859 20860 20861 20862 20863 20864 20865 20866 20867 20868 20869 20870 20871 20872 20873 20874 20875 20876 20877 20878 20879 20880 20881 20882 20883 20884 20885 20886 20887 20888 20889 20890 20891 20892 20893 20894 20895 20896 20897 20898 20899 20900 20901 20902 20903 20904 20905 20906 20907 20908 20909 20910 20911 20912 20913 20914 20915 20916 20917 20918 20919 20920 20921 20922 20923 20924 20925 20926 20927 20928 20929 20930 20931 20932 20933 20934 20935 20936 20937 20938 20939 20940 20941 20942 20943 20944 20945 20946 20947 20948 20949 20950 20951 20952 20953 20954 20955 20956 20957 20958 20959 20960 20961 20962 20963 20964 20965 20966 20967 20968 20969 20970 20971 20972 20973 20974 20975 20976 20977 20978 20979 20980 20981 20982 20983 20984 20985 20986 20987 20988 20989 20990 20991 20992 20993 20994 20995 20996 20997 20998 20999 21000 21001 21002 21003 21004 21005 21006 21007 21008 21009 21010 21011 21012 21013 21014 21015 21016 21017 21018 21019 21020 21021 21022 21023 21024 21025 21026 21027 21028 21029 21030 21031 21032 21033 21034 21035 21036 21037 21038 21039 21040 21041 21042 21043 21044 21045 21046 21047 21048 21049 21050 21051 21052 21053 21054 21055 21056 21057 21058 21059 21060 21061 21062 21063 21064 21065 21066 21067 21068 21069 21070 21071 21072 21073 21074 21075 21076 21077 21078 21079 21080 21081 21082 21083 21084 21085 21086 21087 21088 21089 21090 21091 21092 21093 21094 21095 21096 21097 21098 21099 21100 21101 21102 21103 21104 21105 21106 21107 21108 21109 21110 21111 21112 21113 21114 21115 21116 21117 21118 21119 21120 21121 21122 21123 21124 21125 21126 21127 21128 21129 21130 21131 21132 21133 21134 21135 21136 21137 21138 21139 21140 21141 21142 21143 21144 21145 21146 21147 21148 21149 21150 21151 21152 21153 21154 21155 21156 21157 21158 21159 21160 21161 21162 21163 21164 21165 21166 21167 21168 21169 21170 21171 21172 21173 21174 21175 21176 21177 21178 21179 21180 21181 21182 21183 21184 21185 21186 21187 21188 21189 21190 21191 21192 21193 21194 21195 21196 21197 21198 21199 21200 21201 21202 21203 21204 21205 21206 21207 21208 21209 21210 21211 21212 21213 21214 21215 21216 21217 21218 21219 21220 21221 21222 21223 21224 21225 21226 21227 21228 21229 21230 21231 21232 21233 21234 21235 21236 21237 21238 21239 21240 21241 21242 21243 21244 21245 21246 21247 21248 21249 21250 21251 21252 21253 21254 21255 21256 21257 21258 21259 21260 21261 21262 21263 21264 21265 21266 21267 21268 21269 21270 21271 21272 21273 21274 21275 21276 21277 21278 21279 21280 21281 21282 21283 21284 21285 21286 21287 21288 21289 21290 21291 21292 21293 21294 21295 21296 21297 21298 21299 21300 21301 21302 21303 21304 21305 21306 21307 21308 21309 21310 21311 21312 21313 21314 21315 21316 21317 21318 21319 21320 21321 21322 21323 21324 21325 21326 21327 21328 21329 21330 21331 21332 21333 21334 21335 21336 21337 21338 21339 21340 21341 21342 21343 21344 21345 21346 21347 21348 21349 21350 21351 21352 21353 21354 21355 21356 21357 21358 21359 21360 21361 21362 21363 21364 21365 21366 21367 21368 21369 21370 21371 21372 21373 21374 21375 21376 21377 21378 21379 21380 21381 21382 21383 21384 21385 21386 21387 21388 21389 21390 21391 21392 21393 21394 21395 21396 21397 21398 21399 21400 21401 21402 21403 21404 21405 21406 21407 21408 21409 21410 21411 21412 21413 21414 21415 21416 21417 21418 21419 21420 21421 21422 21423 21424 21425 21426 21427 21428 21429 21430 21431 21432 21433 21434 21435 21436 21437 21438 21439 21440 21441 21442 21443 21444 21445 21446 21447 21448 21449 21450 21451 21452 21453 21454 21455 21456 21457 21458 21459 21460 21461 21462 21463 21464 21465 21466 21467 21468 21469 21470 21471 21472 21473 21474 21475 21476 21477 21478 21479 21480 21481 21482 21483 21484 21485 21486 21487 21488 21489 21490 21491 21492 21493 21494 21495 21496 21497 21498 21499 21500 21501 21502 21503 21504 21505 21506 21507 21508 21509 21510 21511 21512 21513 21514 21515 21516 21517 21518 21519 21520 21521 21522 21523 21524 21525 21526 21527 21528 21529 21530 21531 21532 21533 21534 21535 21536 21537 21538 21539 21540 21541 21542 21543 21544 21545 21546 21547 21548 21549 21550 21551 21552 21553 21554 21555 21556 21557 21558 21559 21560 21561 21562 21563 21564 21565 21566 21567 21568 21569 21570 21571 21572 21573 21574 21575 21576 21577 21578 21579 21580 21581 21582 21583 21584 21585 21586 21587 21588 21589 21590 21591 21592 21593 21594 21595 21596 21597 21598 21599 21600 21601 21602 21603 21604 21605 21606 21607 21608 21609 21610 21611 21612 21613 21614 21615 21616 21617 21618 21619 21620 21621 21622 21623 21624 21625 21626 21627 21628 21629 21630 21631 21632 21633 21634 21635 21636 21637 21638 21639 21640 21641 21642 21643 21644 21645 21646 21647 21648 21649 21650 21651 21652 21653 21654 21655 21656 21657 21658 21659 21660 21661 21662 21663 21664 21665 21666 21667 21668 21669 21670 21671 21672 21673 21674 21675 21676 21677 21678 21679 21680 21681 21682 21683 21684 21685 21686 21687 21688 21689 21690 21691 21692 21693 21694 21695 21696 21697 21698 21699 21700 21701 21702 21703 21704 21705 21706 21707 21708 21709 21710 21711 21712 21713 21714 21715 21716 21717 21718 21719 21720 21721 21722 21723 21724 21725 21726 21727 21728 21729 21730 21731 21732 21733 21734 21735 21736 21737 21738 21739 21740 21741 21742 21743 21744 21745 21746 21747 21748 21749 21750 21751 21752 21753 21754 21755 21756 21757 21758 21759 21760 21761 21762 21763 21764 21765 21766 21767 21768 21769 21770 21771 21772 21773 21774 21775 21776 21777 21778 21779 21780 21781 21782 21783 21784 21785 21786 21787 21788 21789 21790 21791 21792 21793 21794 21795 21796 21797 21798 21799 21800 21801 21802 21803 21804 21805 21806 21807 21808 21809 21810 21811 21812 21813 21814 21815 21816 21817 21818 21819 21820 21821 21822 21823 21824 21825 21826 21827 21828 21829 21830 21831 21832 21833 21834 21835 21836 21837 21838 21839 21840 21841 21842 21843 21844 21845 21846 21847 21848 21849 21850 21851 21852 21853 21854 21855 21856 21857 21858 21859 21860 21861 21862 21863 21864 21865 21866 21867 21868 21869 21870 21871 21872 21873 21874 21875 21876 21877 21878 21879 21880 21881 21882 21883 21884 21885 21886 21887 21888 21889 21890 21891 21892 21893 21894 21895 21896 21897 21898 21899 21900 21901 21902 21903 21904 21905 21906 21907 21908 21909 21910 21911 21912 21913 21914 21915 21916 21917 21918 21919 21920 21921 21922 21923 21924 21925 21926 21927 21928 21929 21930 21931 21932 21933 21934 21935 21936 21937 21938 21939 21940 21941 21942 21943 21944 21945 21946 21947 21948 21949 21950 21951 21952 21953 21954 21955 21956 21957 21958 21959 21960 21961 21962 21963 21964 21965 21966 21967 21968 21969 21970 21971 21972 21973 21974 21975 21976 21977 21978 21979 21980 21981 21982 21983 21984 21985 21986 21987 21988 21989 21990 21991 21992 21993 21994 21995 21996 21997 21998 21999 22000 22001 22002 22003 22004 22005 22006 22007 22008 22009 22010 22011 22012 22013 22014 22015 22016 22017 22018 22019 22020 22021 22022 22023 22024 22025 22026 22027 22028 22029 22030 22031 22032 22033 22034 22035 22036 22037 22038 22039 22040 22041 22042 22043 22044 22045 22046 22047 22048 22049 22050 22051 22052 22053 22054 22055 22056 22057 22058 22059 22060 22061 22062 22063 22064 22065 22066 22067 22068 22069 22070 22071 22072 22073 22074 22075 22076 22077 22078 22079 22080 22081 22082 22083 22084 22085 22086 22087 22088 22089 22090 22091 22092 22093 22094 22095 22096 22097 22098 22099 22100 22101 22102 22103 22104 22105 22106 22107 22108 22109 22110 22111 22112 22113 22114 22115 22116 22117 22118 22119 22120 22121 22122 22123 22124 22125 22126 22127 22128 22129 22130 22131 22132 22133 22134 22135 22136 22137 22138 22139 22140 22141 22142 22143 22144 22145 22146 22147 22148 22149 22150 22151 22152 22153 22154 22155 22156 22157 22158 22159 22160 22161 22162 22163 22164 22165 22166 22167 22168 22169 22170 22171 22172 22173 22174 22175 22176 22177 22178 22179 22180 22181 22182 22183 22184 22185 22186 22187 22188 22189 22190 22191 22192 22193 22194 22195 22196 22197 22198 22199 22200 22201 22202 22203 22204 22205 22206 22207 22208 22209 22210 22211 22212 22213 22214 22215 22216 22217 22218 22219 22220 22221 22222 22223 22224 22225 22226 22227 22228 22229 22230 22231 22232 22233 22234 22235 22236 22237 22238 22239 22240 22241 22242 22243 22244 22245 22246 22247 22248 22249 22250 22251 22252 22253 22254 22255 22256 22257 22258 22259 22260 22261 22262 22263 22264 22265 22266 22267 22268 22269 22270 22271 22272 22273 22274 22275 22276 22277 22278 22279 22280 22281 22282 22283 22284 22285 22286 22287 22288 22289 22290 22291 22292 22293 22294 22295 22296 22297 22298 22299 22300 22301 22302 22303 22304 22305 22306 22307 22308 22309 22310 22311 22312 22313 22314 22315 22316 22317 22318 22319 22320 22321 22322 22323 22324 22325 22326 22327 22328 22329 22330 22331 22332 22333 22334 22335 22336 22337 22338 22339 22340 22341 22342 22343 22344 22345 22346 22347 22348 22349 22350 22351 22352 22353 22354 22355 22356 22357 22358 22359 22360 22361 22362 22363 22364 22365 22366 22367 22368 22369 22370 22371 22372 22373 22374 22375 22376 22377 22378 22379 22380 22381 22382 22383 22384 22385 22386 22387 22388 22389 22390 22391 22392 22393 22394 22395 22396 22397 22398 22399 22400 22401 22402 22403 22404 22405 22406 22407 22408 22409 22410 22411 22412 22413 22414 22415 22416 22417 22418 22419 22420 22421 22422 22423 22424 22425 22426 22427 22428 22429 22430 22431 22432 22433 22434 22435 22436 22437 22438 22439 22440 22441 22442 22443 22444 22445 22446 22447 22448 22449 22450 22451 22452 22453 22454 22455 22456 22457 22458 22459 22460 22461 22462 22463 22464 22465 22466 22467 22468 22469 22470 22471 22472 22473 22474 22475 22476 22477 22478 22479 22480 22481 22482 22483 22484 22485 22486 22487 22488 22489 22490 22491 22492 22493 22494 22495 22496 22497 22498 22499 22500 22501 22502 22503 22504 22505 22506 22507 22508 22509 22510 22511 22512 22513 22514 22515 22516 22517 22518 22519 22520 22521 22522 22523 22524 22525 22526 22527 22528 22529 22530 22531 22532 22533 22534 22535 22536 22537 22538 22539 22540 22541 22542 22543 22544 22545 22546 22547 22548 22549 22550 22551 22552 22553 22554 22555 22556 22557 22558 22559 22560 22561 22562 22563 22564 22565 22566 22567 22568 22569 22570 22571 22572 22573 22574 22575 22576 22577 22578 22579 22580 22581 22582 22583 22584 22585 22586 22587 22588 22589 22590 22591 22592 22593 22594 22595 22596 22597 22598 22599 22600 22601 22602 22603 22604 22605 22606 22607 22608 22609 22610 22611 22612 22613 22614 22615 22616 22617 22618 22619 22620 22621 22622 22623 22624 22625 22626 22627 22628 22629 22630 22631 22632 22633 22634 22635 22636 22637 22638 22639 22640 22641 22642 22643 22644 22645 22646 22647 22648 22649 22650 22651 22652 22653 22654 22655 22656 22657 22658 22659 22660 22661 22662 22663 22664 22665 22666 22667 22668 22669 22670 22671 22672 22673 22674 22675 22676 22677 22678 22679 22680 22681 22682 22683 22684 22685 22686 22687 22688 22689 22690 22691 22692 22693 22694 22695 22696 22697 22698 22699 22700 22701 22702 22703 22704 22705 22706 22707 22708 22709 22710 22711 22712 22713 22714 22715 22716 22717 22718 22719 22720 22721 22722 22723 22724 22725 22726 22727 22728 22729 22730 22731 22732 22733 22734 22735 22736 22737 22738 22739 22740 22741 22742 22743 22744 22745 22746 22747 22748 22749 22750 22751 22752 22753 22754 22755 22756 22757 22758 22759 22760 22761 22762 22763 22764 22765 22766 22767 22768 22769 22770 22771 22772 22773 22774 22775 22776 22777 22778 22779 22780 22781 22782 22783 22784 22785 22786 22787 22788 22789 22790 22791 22792 22793 22794 22795 22796 22797 22798 22799 22800 22801 22802 22803 22804 22805 22806 22807 22808 22809 22810 22811 22812 22813 22814 22815 22816 22817 22818 22819 22820 22821 22822 22823 22824 22825 22826 22827 22828 22829 22830 22831 22832 22833 22834 22835 22836 22837 22838 22839 22840 22841 22842 22843 22844 22845 22846 22847 22848 22849 22850 22851 22852 22853 22854 22855 22856 22857 22858 22859 22860 22861 22862 22863 22864 22865 22866 22867 22868 22869 22870 22871 22872 22873 22874 22875 22876 22877 22878 22879 22880 22881 22882 22883 22884 22885 22886 22887 22888 22889 22890 22891 22892 22893 22894 22895 22896 22897 22898 22899 22900 22901 22902 22903 22904 22905 22906 22907 22908 22909 22910 22911 22912 22913 22914 22915 22916 22917 22918 22919 22920 22921 22922 22923 22924 22925 22926 22927 22928 22929 22930 22931 22932 22933 22934 22935 22936 22937 22938 22939 22940 22941 22942 22943 22944 22945 22946 22947 22948 22949 22950 22951 22952 22953 22954 22955 22956 22957 22958 22959 22960 22961 22962 22963 22964 22965 22966 22967 22968 22969 22970 22971 22972 22973 22974 22975 22976 22977 22978 22979 22980 22981 22982 22983 22984 22985 22986 22987 22988 22989 22990 22991 22992 22993 22994 22995 22996 22997 22998 22999 23000 23001 23002 23003 23004 23005 23006 23007 23008 23009 23010 23011 23012 23013 23014 23015 23016 23017 23018 23019 23020 23021 23022 23023 23024 23025 23026 23027 23028 23029 23030 23031 23032 23033 23034 23035 23036 23037 23038 23039 23040 23041 23042 23043 23044 23045 23046 23047 23048 23049 23050 23051 23052 23053 23054 23055 23056 23057 23058 23059 23060 23061 23062 23063 23064 23065 23066 23067 23068 23069 23070 23071 23072 23073 23074 23075 23076 23077 23078 23079 23080 23081 23082 23083 23084 23085 23086 23087 23088 23089 23090 23091 23092 23093 23094 23095 23096 23097 23098 23099 23100 23101 23102 23103 23104 23105 23106 23107 23108 23109 23110 23111 23112 23113 23114 23115 23116 23117 23118 23119 23120 23121 23122 23123 23124 23125 23126 23127 23128 23129 23130 23131 23132 23133 23134 23135 23136 23137 23138 23139 23140 23141 23142 23143 23144 23145 23146 23147 23148 23149 23150 23151 23152 23153 23154 23155 23156 23157 23158 23159 23160 23161 23162 23163 23164 23165 23166 23167 23168 23169 23170 23171 23172 23173 23174 23175 23176 23177 23178 23179 23180 23181 23182 23183 23184 23185 23186 23187 23188 23189 23190 23191 23192 23193 23194 23195 23196 23197 23198 23199 23200 23201 23202 23203 23204 23205 23206 23207 23208 23209 23210 23211 23212 23213 23214 23215 23216 23217 23218 23219 23220 23221 23222 23223 23224 23225 23226 23227 23228 23229 23230 23231 23232 23233 23234 23235 23236 23237 23238 23239 23240 23241 23242 23243 23244 23245 23246 23247 23248 23249 23250 23251 23252 23253 23254 23255 23256 23257 23258 23259 23260 23261 23262 23263 23264 23265 23266 23267 23268 23269 23270 23271 23272 23273 23274 23275 23276 23277 23278 23279 23280 23281 23282 23283 23284 23285 23286 23287 23288 23289 23290 23291 23292 23293 23294 23295 23296 23297 23298 23299 23300 23301 23302 23303 23304 23305 23306 23307 23308 23309 23310 23311 23312 23313 23314 23315 23316 23317 23318 23319 23320 23321 23322 23323 23324 23325 23326 23327 23328 23329 23330 23331 23332 23333 23334 23335 23336 23337 23338 23339 23340 23341 23342 23343 23344 23345 23346 23347 23348 23349 23350 23351 23352 23353 23354 23355 23356 23357 23358 23359 23360 23361 23362 23363 23364 23365 23366 23367 23368 23369 23370 23371 23372 23373 23374 23375 23376 23377 23378 23379 23380 23381 23382 23383 23384 23385 23386 23387 23388 23389 23390 23391 23392 23393 23394 23395 23396 23397 23398 23399 23400 23401 23402 23403 23404 23405 23406 23407 23408 23409 23410 23411 23412 23413 23414 23415 23416 23417 23418 23419 23420 23421 23422 23423 23424 23425 23426 23427 23428 23429 23430 23431 23432 23433 23434 23435 23436 23437 23438 23439 23440 23441 23442 23443 23444 23445 23446 23447 23448 23449 23450 23451 23452 23453 23454 23455 23456 23457 23458 23459 23460 23461 23462 23463 23464 23465 23466 23467 23468 23469 23470 23471 23472 23473 23474 23475 23476 23477 23478 23479 23480 23481 23482 23483 23484 23485 23486 23487 23488 23489 23490 23491 23492 23493 23494 23495 23496 23497 23498 23499 23500 23501 23502 23503 23504 23505 23506 23507 23508 23509 23510 23511 23512 23513 23514 23515 23516 23517 23518 23519 23520 23521 23522 23523 23524 23525 23526 23527 23528 23529 23530 23531 23532 23533 23534 23535 23536 23537 23538 23539 23540 23541 23542 23543 23544 23545 23546 23547 23548 23549 23550 23551 23552 23553 23554 23555 23556 23557 23558 23559 23560 23561 23562 23563 23564 23565 23566 23567 23568 23569 23570 23571 23572 23573 23574 23575 23576 23577 23578 23579 23580 23581 23582 23583 23584 23585 23586 23587 23588 23589 23590 23591 23592 23593 23594 23595 23596 23597 23598 23599 23600 23601 23602 23603 23604 23605 23606 23607 23608 23609 23610 23611 23612 23613 23614 23615 23616 23617 23618 23619 23620 23621 23622 23623 23624 23625 23626 23627 23628 23629 23630 23631 23632 23633 23634 23635 23636 23637 23638 23639 23640 23641 23642 23643 23644 23645 23646 23647 23648 23649 23650 23651 23652 23653 23654 23655 23656 23657 23658 23659 23660 23661 23662 23663 23664 23665 23666 23667 23668 23669 23670 23671 23672 23673 23674 23675 23676 23677 23678 23679 23680 23681 23682 23683 23684 23685 23686 23687 23688 23689 23690 23691 23692 23693 23694 23695 23696 23697 23698 23699 23700 23701 23702 23703 23704 23705 23706 23707 23708 23709 23710 23711 23712 23713 23714 23715 23716 23717 23718 23719 23720 23721 23722 23723 23724 23725 23726 23727 23728 23729 23730 23731 23732 23733 23734 23735 23736 23737 23738 23739 23740 23741 23742 23743 23744 23745 23746 23747 23748 23749 23750 23751 23752 23753 23754 23755 23756 23757 23758 23759 23760 23761 23762 23763 23764 23765 23766 23767 23768 23769 23770 23771 23772 23773 23774 23775 23776 23777 23778 23779 23780 23781 23782 23783 23784 23785 23786 23787 23788 23789 23790 23791 23792 23793 23794 23795 23796 23797 23798 23799 23800 23801 23802 23803 23804 23805 23806 23807 23808 23809 23810 23811 23812 23813 23814 23815 23816 23817 23818 23819 23820 23821 23822 23823 23824 23825 23826 23827 23828 23829 23830 23831 23832 23833 23834 23835 23836 23837 23838 23839 23840 23841 23842 23843 23844 23845 23846 23847 23848 23849 23850 23851 23852 23853 23854 23855 23856 23857 23858 23859 23860 23861 23862 23863 23864 23865 23866 23867 23868 23869 23870 23871 23872 23873 23874 23875 23876 23877 23878 23879 23880 23881 23882 23883 23884 23885 23886 23887 23888 23889 23890 23891 23892 23893 23894 23895 23896 23897 23898 23899 23900 23901 23902 23903 23904 23905 23906 23907 23908 23909 23910 23911 23912 23913 23914 23915 23916 23917 23918 23919 23920 23921 23922 23923 23924 23925 23926 23927 23928 23929 23930 23931 23932 23933 23934 23935 23936 23937 23938 23939 23940 23941 23942 23943 23944 23945 23946 23947 23948 23949 23950 23951 23952 23953 23954 23955 23956 23957 23958 23959 23960 23961 23962 23963 23964 23965 23966 23967 23968 23969 23970 23971 23972 23973 23974 23975 23976 23977 23978 23979 23980 23981 23982 23983 23984 23985 23986 23987 23988 23989 23990 23991 23992 23993 23994 23995 23996 23997 23998 23999 24000 24001 24002 24003 24004 24005 24006 24007 24008 24009 24010 24011 24012 24013 24014 24015 24016 24017 24018 24019 24020 24021 24022 24023 24024 24025 24026 24027 24028 24029 24030 24031 24032 24033 24034 24035 24036 24037 24038 24039 24040 24041 24042 24043 24044 24045 24046 24047 24048 24049 24050 24051 24052 24053 24054 24055 24056 24057 24058 24059 24060 24061 24062 24063 24064 24065 24066 24067 24068 24069 24070 24071 24072 24073 24074 24075 24076 24077 24078 24079 24080 24081 24082 24083 24084 24085 24086 24087 24088 24089 24090 24091 24092 24093 24094 24095 24096 24097 24098 24099 24100 24101 24102 24103 24104 24105 24106 24107 24108 24109 24110 24111 24112 24113 24114 24115 24116 24117 24118 24119 24120 24121 24122 24123 24124 24125 24126 24127 24128 24129 24130 24131 24132 24133 24134 24135 24136 24137 24138 24139 24140 24141 24142 24143 24144 24145 24146 24147 24148 24149 24150 24151 24152 24153 24154 24155 24156 24157 24158 24159 24160 24161 24162 24163 24164 24165 24166 24167 24168 24169 24170 24171 24172 24173 24174 24175 24176 24177 24178 24179 24180 24181 24182 24183 24184 24185 24186 24187 24188 24189 24190 24191 24192 24193 24194 24195 24196 24197 24198 24199 24200 24201 24202 24203 24204 24205 24206 24207 24208 24209 24210 24211 24212 24213 24214 24215 24216 24217 24218 24219 24220 24221 24222 24223 24224 24225 24226 24227 24228 24229 24230 24231 24232 24233 24234 24235 24236 24237 24238 24239 24240 24241 24242 24243 24244 24245 24246 24247 24248 24249 24250 24251 24252 24253 24254 24255 24256 24257 24258 24259 24260 24261 24262 24263 24264 24265 24266 24267 24268 24269 24270 24271 24272 24273 24274 24275 24276 24277 24278 24279 24280 24281 24282 24283 24284 24285 24286 24287 24288 24289 24290 24291 24292 24293 24294 24295 24296 24297 24298 24299 24300 24301 24302 24303 24304 24305 24306 24307 24308 24309 24310 24311 24312 24313 24314 24315 24316 24317 24318 24319 24320 24321 24322 24323 24324 24325 24326 24327 24328 24329 24330 24331 24332 24333 24334 24335 24336 24337 24338 24339 24340 24341 24342 24343 24344 24345 24346 24347 24348 24349 24350 24351 24352 24353 24354 24355 24356 24357 24358 24359 24360 24361 24362 24363 24364 24365 24366 24367 24368 24369 24370 24371 24372 24373 24374 24375 24376 24377 24378 24379 24380 24381 24382 24383 24384 24385 24386 24387 24388 24389 24390 24391 24392 24393 24394 24395 24396 24397 24398 24399 24400 24401 24402 24403 24404 24405 24406 24407 24408 24409 24410 24411 24412 24413 24414 24415 24416 24417 24418 24419 24420 24421 24422 24423 24424 24425 24426 24427 24428 24429 24430 24431 24432 24433 24434 24435 24436 24437 24438 24439 24440 24441 24442 24443 24444 24445 24446 24447 24448 24449 24450 24451 24452 24453 24454 24455 24456 24457 24458 24459 24460 24461 24462 24463 24464 24465 24466 24467 24468 24469 24470 24471 24472 24473 24474 24475 24476 24477 24478 24479 24480 24481 24482 24483 24484 24485 24486 24487 24488 24489 24490 24491 24492 24493 24494 24495 24496 24497 24498 24499 24500 24501 24502 24503 24504 24505 24506 24507 24508 24509 24510 24511 24512 24513 24514 24515 24516 24517 24518 24519 24520 24521 24522 24523 24524 24525 24526 24527 24528 24529 24530 24531 24532 24533 24534 24535 24536 24537 24538 24539 24540 24541 24542 24543 24544 24545 24546 24547 24548 24549 24550 24551 24552 24553 24554 24555 24556 24557 24558 24559 24560 24561 24562 24563 24564 24565 24566 24567 24568 24569 24570 24571 24572 24573 24574 24575 24576 24577 24578 24579 24580 24581 24582 24583 24584 24585 24586 24587 24588 24589 24590 24591 24592 24593 24594 24595 24596 24597 24598 24599 24600 24601 24602 24603 24604 24605 24606 24607 24608 24609 24610 24611 24612 24613 24614 24615 24616 24617 24618 24619 24620 24621 24622 24623 24624 24625 24626 24627 24628 24629 24630 24631 24632 24633 24634 24635 24636 24637 24638 24639 24640 24641 24642 24643 24644 24645 24646 24647 24648 24649 24650 24651 24652 24653 24654 24655 24656 24657 24658 24659 24660 24661 24662 24663 24664 24665 24666 24667 24668 24669 24670 24671 24672 24673 24674 24675 24676 24677 24678 24679 24680 24681 24682 24683 24684 24685 24686 24687 24688 24689 24690 24691 24692 24693 24694 24695 24696 24697 24698 24699 24700 24701 24702 24703 24704 24705 24706 24707 24708 24709 24710 24711 24712 24713 24714 24715 24716 24717 24718 24719 24720 24721 24722 24723 24724 24725 24726 24727 24728 24729 24730 24731 24732 24733 24734 24735 24736 24737 24738 24739 24740 24741 24742 24743 24744 24745 24746 24747 24748 24749 24750 24751 24752 24753 24754 24755 24756 24757 24758 24759 24760 24761 24762 24763 24764 24765 24766 24767 24768 24769 24770 24771 24772 24773 24774 24775 24776 24777 24778 24779 24780 24781 24782 24783 24784 24785 24786 24787 24788 24789 24790 24791 24792 24793 24794 24795 24796 24797 24798 24799 24800 24801 24802 24803 24804 24805 24806 24807 24808 24809 24810 24811 24812 24813 24814 24815 24816 24817 24818 24819 24820 24821 24822 24823 24824 24825 24826 24827 24828 24829 24830 24831 24832 24833 24834 24835 24836 24837 24838 24839 24840 24841 24842 24843 24844 24845 24846 24847 24848 24849 24850 24851 24852 24853 24854 24855 24856 24857 24858 24859 24860 24861 24862 24863 24864 24865 24866 24867 24868 24869 24870 24871 24872 24873 24874 24875 24876 24877 24878 24879 24880 24881 24882 24883 24884 24885 24886 24887 24888 24889 24890 24891 24892 24893 24894 24895 24896 24897 24898 24899 24900 24901 24902 24903 24904 24905 24906 24907 24908 24909 24910 24911 24912 24913 24914 24915 24916 24917 24918 24919 24920 24921 24922 24923 24924 24925 24926 24927 24928 24929 24930 24931 24932 24933 24934 24935 24936 24937 24938 24939 24940 24941 24942 24943 24944 24945 24946 24947 24948 24949 24950 24951 24952 24953 24954 24955 24956 24957 24958 24959 24960 24961 24962 24963 24964 24965 24966 24967 24968 24969 24970 24971 24972 24973 24974 24975 24976 24977 24978 24979 24980 24981 24982 24983 24984 24985 24986 24987 24988 24989 24990 24991 24992 24993 24994 24995 24996 24997 24998 24999 25000 25001 25002 25003 25004 25005 25006 25007 25008 25009 25010 25011 25012 25013 25014 25015 25016 25017 25018 25019 25020 25021 25022 25023 25024 25025 25026 25027 25028 25029 25030 25031 25032 25033 25034 25035 25036 25037 25038 25039 25040 25041 25042 25043 25044 25045 25046 25047 25048 25049 25050 25051 25052 25053 25054 25055 25056 25057 25058 25059 25060 25061 25062 25063 25064 25065 25066 25067 25068 25069 25070 25071 25072 25073 25074 25075 25076 25077 25078 25079 25080 25081 25082 25083 25084 25085 25086 25087 25088 25089 25090 25091 25092 25093 25094 25095 25096 25097 25098 25099 25100 25101 25102 25103 25104 25105 25106 25107 25108 25109 25110 25111 25112 25113 25114 25115 25116 25117 25118 25119 25120 25121 25122 25123 25124 25125 25126 25127 25128 25129 25130 25131 25132 25133 25134 25135 25136 25137 25138 25139 25140 25141 25142 25143 25144 25145 25146 25147 25148 25149 25150 25151 25152 25153 25154 25155 25156 25157 25158 25159 25160 25161 25162 25163 25164 25165 25166 25167 25168 25169 25170 25171 25172 25173 25174 25175 25176 25177 25178 25179 25180 25181 25182 25183 25184 25185 25186 25187 25188 25189 25190 25191 25192 25193 25194 25195 25196 25197 25198 25199 25200 25201 25202 25203 25204 25205 25206 25207 25208 25209 25210 25211 25212 25213 25214 25215 25216 25217 25218 25219 25220 25221 25222 25223 25224 25225 25226 25227 25228 25229 25230 25231 25232 25233 25234 25235 25236 25237 25238 25239 25240 25241 25242 25243 25244 25245 25246 25247 25248 25249 25250 25251 25252 25253 25254 25255 25256 25257 25258 25259 25260 25261 25262 25263 25264 25265 25266 25267 25268 25269 25270 25271 25272 25273 25274 25275 25276 25277 25278 25279 25280 25281 25282 25283 25284 25285 25286 25287 25288 25289 25290 25291 25292 25293 25294 25295 25296 25297 25298 25299 25300 25301 25302 25303 25304 25305 25306 25307 25308 25309 25310 25311 25312 25313 25314 25315 25316 25317 25318 25319 25320 25321 25322 25323 25324 25325 25326 25327 25328 25329 25330 25331 25332 25333 25334 25335 25336 25337 25338 25339 25340 25341 25342 25343 25344 25345 25346 25347 25348 25349 25350 25351 25352 25353 25354 25355 25356 25357 25358 25359 25360 25361 25362 25363 25364 25365 25366 25367 25368 25369 25370 25371 25372 25373 25374 25375 25376 25377 25378 25379 25380 25381 25382 25383 25384 25385 25386 25387 25388 25389 25390 25391 25392 25393 25394 25395 25396 25397 25398 25399 25400 25401 25402 25403 25404 25405 25406 25407 25408 25409 25410 25411 25412 25413 25414 25415 25416 25417 25418 25419 25420 25421 25422 25423 25424 25425 25426 25427 25428 25429 25430 25431 25432 25433 25434 25435 25436 25437 25438 25439 25440 25441 25442 25443 25444 25445 25446 25447 25448 25449 25450 25451 25452 25453 25454 25455 25456 25457 25458 25459 25460 25461 25462 25463 25464 25465 25466 25467 25468 25469 25470 25471 25472 25473 25474 25475 25476 25477 25478 25479 25480 25481 25482 25483 25484 25485 25486 25487 25488 25489 25490 25491 25492 25493 25494 25495 25496 25497 25498 25499 25500 25501 25502 25503 25504 25505 25506 25507 25508 25509 25510 25511 25512 25513 25514 25515 25516 25517 25518 25519 25520 25521 25522 25523 25524 25525 25526 25527 25528 25529 25530 25531 25532 25533 25534 25535 25536 25537 25538 25539 25540 25541 25542 25543 25544 25545 25546 25547 25548 25549 25550 25551 25552 25553 25554 25555 25556 25557 25558 25559 25560 25561 25562 25563 25564 25565 25566 25567 25568 25569 25570 25571 25572 25573 25574 25575 25576 25577 25578 25579 25580 25581 25582 25583 25584 25585 25586 25587 25588 25589 25590 25591 25592 25593 25594 25595 25596 25597 25598 25599 25600 25601 25602 25603 25604 25605 25606 25607 25608 25609 25610 25611 25612 25613 25614 25615 25616 25617 25618 25619 25620 25621 25622 25623 25624 25625 25626 25627 25628 25629 25630 25631 25632 25633 25634 25635 25636 25637 25638 25639 25640 25641 25642 25643 25644 25645 25646 25647 25648 25649 25650 25651 25652 25653 25654 25655 25656 25657 25658 25659 25660 25661 25662 25663 25664 25665 25666 25667 25668 25669 25670 25671 25672 25673 25674 25675 25676 25677 25678 25679 25680 25681 25682 25683 25684 25685 25686 25687 25688 25689 25690 25691 25692 25693 25694 25695 25696 25697 25698 25699 25700 25701 25702 25703 25704 25705 25706 25707 25708 25709 25710 25711 25712 25713 25714 25715 25716 25717 25718 25719 25720 25721 25722 25723 25724 25725 25726 25727 25728 25729 25730 25731 25732 25733 25734 25735 25736 25737 25738 25739 25740 25741 25742 25743 25744 25745 25746 25747 25748 25749 25750 25751 25752 25753 25754 25755 25756 25757 25758 25759 25760 25761 25762 25763 25764 25765 25766 25767 25768 25769 25770 25771 25772 25773 25774 25775 25776 25777 25778 25779 25780 25781 25782 25783 25784 25785 25786 25787 25788 25789 25790 25791 25792 25793 25794 25795 25796 25797 25798 25799 25800 25801 25802 25803 25804 25805 25806 25807 25808 25809 25810 25811 25812 25813 25814 25815 25816 25817 25818 25819 25820 25821 25822 25823 25824 25825 25826 25827 25828 25829 25830 25831 25832 25833 25834 25835 25836 25837 25838 25839 25840 25841 25842 25843 25844 25845 25846 25847 25848 25849 25850 25851 25852 25853 25854 25855 25856 25857 25858 25859 25860 25861 25862 25863 25864 25865 25866 25867 25868 25869 25870 25871 25872 25873 25874 25875 25876 25877 25878 25879 25880 25881 25882 25883 25884 25885 25886 25887 25888 25889 25890 25891 25892 25893 25894 25895 25896 25897 25898 25899 25900 25901 25902 25903 25904 25905 25906 25907 25908 25909 25910 25911 25912 25913 25914 25915 25916 25917 25918 25919 25920 25921 25922 25923 25924 25925 25926 25927 25928 25929 25930 25931 25932 25933 25934 25935 25936 25937 25938 25939 25940 25941 25942 25943 25944 25945 25946 25947 25948 25949 25950 25951 25952 25953 25954 25955 25956 25957 25958 25959 25960 25961 25962 25963 25964 25965 25966 25967 25968 25969 25970 25971 25972 25973 25974 25975 25976 25977 25978 25979 25980 25981 25982 25983 25984 25985 25986 25987 25988 25989 25990 25991 25992 25993 25994 25995 25996 25997 25998 25999 26000 26001 26002 26003 26004 26005 26006 26007 26008 26009 26010 26011 26012 26013 26014 26015 26016 26017 26018 26019 26020 26021 26022 26023 26024 26025 26026 26027 26028 26029 26030 26031 26032 26033 26034 26035 26036 26037 26038 26039 26040 26041 26042 26043 26044 26045 26046 26047 26048 26049 26050 26051 26052 26053 26054 26055 26056 26057 26058 26059 26060 26061 26062 26063 26064 26065 26066 26067 26068 26069 26070 26071 26072 26073 26074 26075 26076 26077 26078 26079 26080 26081 26082 26083 26084 26085 26086 26087 26088 26089 26090 26091 26092 26093 26094 26095 26096 26097 26098 26099 26100 26101 26102 26103 26104 26105 26106 26107 26108 26109 26110 26111 26112 26113 26114 26115 26116 26117 26118 26119 26120 26121 26122 26123 26124 26125 26126 26127 26128 26129 26130 26131 26132 26133 26134 26135 26136 26137 26138 26139 26140 26141 26142 26143 26144 26145 26146 26147 26148 26149 26150 26151 26152 26153 26154 26155 26156 26157 26158 26159 26160 26161 26162 26163 26164 26165 26166 26167 26168 26169 26170 26171 26172 26173 26174 26175 26176 26177 26178 26179 26180 26181 26182 26183 26184 26185 26186 26187 26188 26189 26190 26191 26192 26193 26194 26195 26196 26197 26198 26199 26200 26201 26202 26203 26204 26205 26206 26207 26208 26209 26210 26211 26212 26213 26214 26215 26216 26217 26218 26219 26220 26221 26222 26223 26224 26225 26226 26227 26228 26229 26230 26231 26232 26233 26234 26235 26236 26237 26238 26239 26240 26241 26242 26243 26244 26245 26246 26247 26248 26249 26250 26251 26252 26253 26254 26255 26256 26257 26258 26259 26260 26261 26262 26263 26264 26265 26266 26267 26268 26269 26270 26271 26272 26273 26274 26275 26276 26277 26278 26279 26280 26281 26282 26283 26284 26285 26286 26287 26288 26289 26290 26291 26292 26293 26294 26295 26296 26297 26298 26299 26300 26301 26302 26303 26304 26305 26306 26307 26308 26309 26310 26311 26312 26313 26314 26315 26316 26317 26318 26319 26320 26321 26322 26323 26324 26325 26326 26327 26328 26329 26330 26331 26332 26333 26334 26335 26336 26337 26338 26339 26340 26341 26342 26343 26344 26345 26346 26347 26348 26349 26350 26351 26352 26353 26354 26355 26356 26357 26358 26359 26360 26361 26362 26363 26364 26365 26366 26367 26368 26369 26370 26371 26372 26373 26374 26375 26376 26377 26378 26379 26380 26381 26382 26383 26384 26385 26386 26387 26388 26389 26390 26391 26392 26393 26394 26395 26396 26397 26398 26399 26400 26401 26402 26403 26404 26405 26406 26407 26408 26409 26410 26411 26412 26413 26414 26415 26416 26417 26418 26419 26420 26421 26422 26423 26424 26425 26426 26427 26428 26429 26430 26431 26432 26433 26434 26435 26436 26437 26438 26439 26440 26441 26442 26443 26444 26445 26446 26447 26448 26449 26450 26451 26452 26453 26454 26455 26456 26457 26458 26459 26460 26461 26462 26463 26464 26465 26466 26467 26468 26469 26470 26471 26472 26473 26474 26475 26476 26477 26478 26479 26480 26481 26482 26483 26484 26485 26486 26487 26488 26489 26490 26491 26492 26493 26494 26495 26496 26497 26498 26499 26500 26501 26502 26503 26504 26505 26506 26507 26508 26509 26510 26511 26512 26513 26514 26515 26516 26517 26518 26519 26520 26521 26522 26523 26524 26525 26526 26527 26528 26529 26530 26531 26532 26533 26534 26535 26536 26537 26538 26539 26540 26541 26542 26543 26544 26545 26546 26547 26548 26549 26550 26551 26552 26553 26554 26555 26556 26557 26558 26559 26560 26561 26562 26563 26564 26565 26566 26567 26568 26569 26570 26571 26572 26573 26574 26575 26576 26577 26578 26579 26580 26581 26582 26583 26584 26585 26586 26587 26588 26589 26590 26591 26592 26593 26594 26595 26596 26597 26598 26599 26600 26601 26602 26603 26604 26605 26606 26607 26608 26609 26610 26611 26612 26613 26614 26615 26616 26617 26618 26619 26620 26621 26622 26623 26624 26625 26626 26627 26628 26629 26630 26631 26632 26633 26634 26635 26636 26637 26638 26639 26640 26641 26642 26643 26644 26645 26646 26647 26648 26649 26650 26651 26652 26653 26654 26655 26656 26657 26658 26659 26660 26661 26662 26663 26664 26665 26666 26667 26668 26669 26670 26671 26672 26673 26674 26675 26676 26677 26678 26679 26680 26681 26682 26683 26684 26685 26686 26687 26688 26689 26690 26691 26692 26693 26694 26695 26696 26697 26698 26699 26700 26701 26702 26703 26704 26705 26706 26707 26708 26709 26710 26711 26712 26713 26714 26715 26716 26717 26718 26719 26720 26721 26722 26723 26724 26725 26726 26727 26728 26729 26730 26731 26732 26733 26734 26735 26736 26737 26738 26739 26740 26741 26742 26743 26744 26745 26746 26747 26748 26749 26750 26751 26752 26753 26754 26755 26756 26757 26758 26759 26760 26761 26762 26763 26764 26765 26766 26767 26768 26769 26770 26771 26772 26773 26774 26775 26776 26777 26778 26779 26780 26781 26782 26783 26784 26785 26786 26787 26788 26789 26790 26791 26792 26793 26794 26795 26796 26797 26798 26799 26800 26801 26802 26803 26804 26805 26806 26807 26808 26809 26810 26811 26812 26813 26814 26815 26816 26817 26818 26819 26820 26821 26822 26823 26824 26825 26826 26827 26828 26829 26830 26831 26832 26833 26834 26835 26836 26837 26838 26839 26840 26841 26842 26843 26844 26845 26846 26847 26848 26849 26850 26851 26852 26853 26854 26855 26856 26857 26858 26859 26860 26861 26862 26863 26864 26865 26866 26867 26868 26869 26870 26871 26872 26873 26874 26875 26876 26877 26878 26879 26880 26881 26882 26883 26884 26885 26886 26887 26888 26889 26890 26891 26892 26893 26894 26895 26896 26897 26898 26899 26900 26901 26902 26903 26904 26905 26906 26907 26908 26909 26910 26911 26912 26913 26914 26915 26916 26917 26918 26919 26920 26921 26922 26923 26924 26925 26926 26927 26928 26929 26930 26931 26932 26933 26934 26935 26936 26937 26938 26939 26940 26941 26942 26943 26944 26945 26946 26947 26948 26949 26950 26951 26952 26953 26954 26955 26956 26957 26958 26959 26960 26961 26962 26963 26964 26965 26966 26967 26968 26969 26970 26971 26972 26973 26974 26975 26976 26977 26978 26979 26980 26981 26982 26983 26984 26985 26986 26987 26988 26989 26990 26991 26992 26993 26994 26995 26996 26997 26998 26999 27000 27001 27002 27003 27004 27005 27006 27007 27008 27009 27010 27011 27012 27013 27014 27015 27016 27017 27018 27019 27020 27021 27022 27023 27024 27025 27026 27027 27028 27029 27030 27031 27032 27033 27034 27035 27036 27037 27038 27039 27040 27041 27042 27043 27044 27045 27046 27047 27048 27049 27050 27051 27052 27053 27054 27055 27056 27057 27058 27059 27060 27061 27062 27063 27064 27065 27066 27067 27068 27069 27070 27071 27072 27073 27074 27075 27076 27077 27078 27079 27080 27081 27082 27083 27084 27085 27086 27087 27088 27089 27090 27091 27092 27093 27094 27095 27096 27097 27098 27099 27100 27101 27102 27103 27104 27105 27106 27107 27108 27109 27110 27111 27112 27113 27114 27115 27116 27117 27118 27119 27120 27121 27122 27123 27124 27125 27126 27127 27128 27129 27130 27131 27132 27133 27134 27135 27136 27137 27138 27139 27140 27141 27142 27143 27144 27145 27146 27147 27148 27149 27150 27151 27152 27153 27154 27155 27156 27157 27158 27159 27160 27161 27162 27163 27164 27165 27166 27167 27168 27169 27170 27171 27172 27173 27174 27175 27176 27177 27178 27179 27180 27181 27182 27183 27184 27185 27186 27187 27188 27189 27190 27191 27192 27193 27194 27195 27196 27197 27198 27199 27200 27201 27202 27203 27204 27205 27206 27207 27208 27209 27210 27211 27212 27213 27214 27215 27216 27217 27218 27219 27220 27221 27222 27223 27224 27225 27226 27227 27228 27229 27230 27231 27232 27233 27234 27235 27236 27237 27238 27239 27240 27241 27242 27243 27244 27245 27246 27247 27248 27249 27250 27251 27252 27253 27254 27255 27256 27257 27258 27259 27260 27261 27262 27263 27264 27265 27266 27267 27268 27269 27270 27271 27272 27273 27274 27275 27276 27277 27278 27279 27280 27281 27282 27283 27284 27285 27286 27287 27288 27289 27290 27291 27292 27293 27294 27295 27296 27297 27298 27299 27300 27301 27302 27303 27304 27305 27306 27307 27308 27309 27310 27311 27312 27313 27314 27315 27316 27317 27318 27319 27320 27321 27322 27323 27324 27325 27326 27327 27328 27329 27330 27331 27332 27333 27334 27335 27336 27337 27338 27339 27340 27341 27342 27343 27344 27345 27346 27347 27348 27349 27350 27351 27352 27353 27354 27355 27356 27357 27358 27359 27360 27361 27362 27363 27364 27365 27366 27367 27368 27369 27370 27371 27372 27373 27374 27375 27376 27377 27378 27379 27380 27381 27382 27383 27384 27385 27386 27387 27388 27389 27390 27391 27392 27393 27394 27395 27396 27397 27398 27399 27400 27401 27402 27403 27404 27405 27406 27407 27408 27409 27410 27411 27412 27413 27414 27415 27416 27417 27418 27419 27420 27421 27422 27423 27424 27425 27426 27427 27428 27429 27430 27431 27432 27433 27434 27435 27436 27437 27438 27439 27440 27441 27442 27443 27444 27445 27446 27447 27448 27449 27450 27451 27452 27453 27454 27455 27456 27457 27458 27459 27460 27461 27462 27463 27464 27465 27466 27467 27468 27469 27470 27471 27472 27473 27474 27475 27476 27477 27478 27479 27480 27481 27482 27483 27484 27485 27486 27487 27488 27489 27490 27491 27492 27493 27494 27495 27496 27497 27498 27499 27500 27501 27502 27503 27504 27505 27506 27507 27508 27509 27510 27511 27512 27513 27514 27515 27516 27517 27518 27519 27520 27521 27522 27523 27524 27525 27526 27527 27528 27529 27530 27531 27532 27533 27534 27535 27536 27537 27538 27539 27540 27541 27542 27543 27544 27545 27546 27547 27548 27549 27550 27551 27552 27553 27554 27555 27556 27557 27558 27559 27560 27561 27562 27563 27564 27565 27566 27567 27568 27569 27570 27571 27572 27573 27574 27575 27576 27577 27578 27579 27580 27581 27582 27583 27584 27585 27586 27587 27588 27589 27590 27591 27592 27593 27594 27595 27596 27597 27598 27599 27600 27601 27602 27603 27604 27605 27606 27607 27608 27609 27610 27611 27612 27613 27614 27615 27616 27617 27618 27619 27620 27621 27622 27623 27624 27625 27626 27627 27628 27629 27630 27631 27632 27633 27634 27635 27636 27637 27638 27639 27640 27641 27642 27643 27644 27645 27646 27647 27648 27649 27650 27651 27652 27653 27654 27655 27656 27657 27658 27659 27660 27661 27662 27663 27664 27665 27666 27667 27668 27669 27670 27671 27672 27673 27674 27675 27676 27677 27678 27679 27680 27681 27682 27683 27684 27685 27686 27687 27688 27689 27690 27691 27692 27693 27694 27695 27696 27697 27698 27699 27700 27701 27702 27703 27704 27705 27706 27707 27708 27709 27710 27711 27712 27713 27714 27715 27716 27717 27718 27719 27720 27721 27722 27723 27724 27725 27726 27727 27728 27729 27730 27731 27732 27733 27734 27735 27736 27737 27738 27739 27740 27741 27742 27743 27744 27745 27746 27747 27748 27749 27750 27751 27752 27753 27754 27755 27756 27757 27758 27759 27760 27761 27762 27763 27764 27765 27766 27767 27768 27769 27770 27771 27772 27773 27774 27775 27776 27777 27778 27779 27780 27781 27782 27783 27784 27785 27786 27787 27788 27789 27790 27791 27792 27793 27794 27795 27796 27797 27798 27799 27800 27801 27802 27803 27804 27805 27806 27807 27808 27809 27810 27811 27812 27813 27814 27815 27816 27817 27818 27819 27820 27821 27822 27823 27824 27825 27826 27827 27828 27829 27830 27831 27832 27833 27834 27835 27836 27837 27838 27839 27840 27841 27842 27843 27844 27845 27846 27847 27848 27849 27850 27851 27852 27853 27854 27855 27856 27857 27858 27859 27860 27861 27862 27863 27864 27865 27866 27867 27868 27869 27870 27871 27872 27873 27874 27875 27876 27877 27878 27879 27880 27881 27882 27883 27884 27885 27886 27887 27888 27889 27890 27891 27892 27893 27894 27895 27896 27897 27898 27899 27900 27901 27902 27903 27904 27905 27906 27907 27908 27909 27910 27911 27912 27913 27914 27915 27916 27917 27918 27919 27920 27921 27922 27923 27924 27925 27926 27927 27928 27929 27930 27931 27932 27933 27934 27935 27936 27937 27938 27939 27940 27941 27942 27943 27944 27945 27946 27947 27948 27949 27950 27951 27952 27953 27954 27955 27956 27957 27958 27959 27960 27961 27962 27963 27964 27965 27966 27967 27968 27969 27970 27971 27972 27973 27974 27975 27976 27977 27978 27979 27980 27981 27982 27983 27984 27985 27986 27987 27988 27989 27990 27991 27992 27993 27994 27995 27996 27997 27998 27999 28000 28001 28002 28003 28004 28005 28006 28007 28008 28009 28010 28011 28012 28013 28014 28015 28016 28017 28018 28019 28020 28021 28022 28023 28024 28025 28026 28027 28028 28029 28030 28031 28032 28033 28034 28035 28036 28037 28038 28039 28040 28041 28042 28043 28044 28045 28046 28047 28048 28049 28050 28051 28052 28053 28054 28055 28056 28057 28058 28059 28060 28061 28062 28063 28064 28065 28066 28067 28068 28069 28070 28071 28072 28073 28074 28075 28076 28077 28078 28079 28080 28081 28082 28083 28084 28085 28086 28087 28088 28089 28090 28091 28092 28093 28094 28095 28096 28097 28098 28099 28100 28101 28102 28103 28104 28105 28106 28107 28108 28109 28110 28111 28112 28113 28114 28115 28116 28117 28118 28119 28120 28121 28122 28123 28124 28125 28126 28127 28128 28129 28130 28131 28132 28133 28134 28135 28136 28137 28138 28139 28140 28141 28142 28143 28144 28145 28146 28147 28148 28149 28150 28151 28152 28153 28154 28155 28156 28157 28158 28159 28160 28161 28162 28163 28164 28165 28166 28167 28168 28169 28170 28171 28172 28173 28174 28175 28176 28177 28178 28179 28180 28181 28182 28183 28184 28185 28186 28187 28188 28189 28190 28191 28192 28193 28194 28195 28196 28197 28198 28199 28200 28201 28202 28203 28204 28205 28206 28207 28208 28209 28210 28211 28212 28213 28214 28215 28216 28217 28218 28219 28220 28221 28222 28223 28224 28225 28226 28227 28228 28229 28230 28231 28232 28233 28234 28235 28236 28237 28238 28239 28240 28241 28242 28243 28244 28245 28246 28247 28248 28249 28250 28251 28252 28253 28254 28255 28256 28257 28258 28259 28260 28261 28262 28263 28264 28265 28266 28267 28268 28269 28270 28271 28272 28273 28274 28275 28276 28277 28278 28279 28280 28281 28282 28283 28284 28285 28286 28287 28288 28289 28290 28291 28292 28293 28294 28295 28296 28297 28298 28299 28300 28301 28302 28303 28304 28305 28306 28307 28308 28309 28310 28311 28312 28313 28314 28315 28316 28317 28318 28319 28320 28321 28322 28323 28324 28325 28326 28327 28328 28329 28330 28331 28332 28333 28334 28335 28336 28337 28338 28339 28340 28341 28342 28343 28344 28345 28346 28347 28348 28349 28350 28351 28352 28353 28354 28355 28356 28357 28358 28359 28360 28361 28362 28363 28364 28365 28366 28367 28368 28369 28370 28371 28372 28373 28374 28375 28376 28377 28378 28379 28380 28381 28382 28383 28384 28385 28386 28387 28388 28389 28390 28391 28392 28393 28394 28395 28396 28397 28398 28399 28400 28401 28402 28403 28404 28405 28406 28407 28408 28409 28410 28411 28412 28413 28414 28415 28416 28417 28418 28419 28420 28421 28422 28423 28424 28425 28426 28427 28428 28429 28430 28431 28432 28433 28434 28435 28436 28437 28438 28439 28440 28441 28442 28443 28444 28445 28446 28447 28448 28449 28450 28451 28452 28453 28454 28455 28456 28457 28458 28459 28460 28461 28462 28463 28464 28465 28466 28467 28468 28469 28470 28471 28472 28473 28474 28475 28476 28477 28478 28479 28480 28481 28482 28483 28484 28485 28486 28487 28488 28489 28490 28491 28492 28493 28494 28495 28496 28497 28498 28499 28500 28501 28502 28503 28504 28505 28506 28507 28508 28509 28510 28511 28512 28513 28514 28515 28516 28517 28518 28519 28520 28521 28522 28523 28524 28525 28526 28527 28528 28529 28530 28531 28532 28533 28534 28535 28536 28537 28538 28539 28540 28541 28542 28543 28544 28545 28546 28547 28548 28549 28550 28551 28552 28553 28554 28555 28556 28557 28558 28559 28560 28561 28562 28563 28564 28565 28566 28567 28568 28569 28570 28571 28572 28573 28574 28575 28576 28577 28578 28579 28580 28581 28582 28583 28584 28585 28586 28587 28588 28589 28590 28591 28592 28593 28594 28595 28596 28597 28598 28599 28600 28601 28602 28603 28604 28605 28606 28607 28608 28609 28610 28611 28612 28613 28614 28615 28616 28617 28618 28619 28620 28621 28622 28623 28624 28625 28626 28627 28628 28629 28630 28631 28632 28633 28634 28635 28636 28637 28638 28639 28640 28641 28642 28643 28644 28645 28646 28647 28648 28649 28650 28651 28652 28653 28654 28655 28656 28657 28658 28659 28660 28661 28662 28663 28664 28665 28666 28667 28668 28669 28670 28671 28672 28673 28674 28675 28676 28677 28678 28679 28680 28681 28682 28683 28684 28685 28686 28687 28688 28689 28690 28691 28692 28693 28694 28695 28696 28697 28698 28699 28700 28701 28702 28703 28704 28705 28706 28707 28708 28709 28710 28711 28712 28713 28714 28715 28716 28717 28718 28719 28720 28721 28722 28723 28724 28725 28726 28727 28728 28729 28730 28731 28732 28733 28734 28735 28736 28737 28738 28739 28740 28741 28742 28743 28744 28745 28746 28747 28748 28749 28750 28751 28752 28753 28754 28755 28756 28757 28758 28759 28760 28761 28762 28763 28764 28765 28766 28767 28768 28769 28770 28771 28772 28773 28774 28775 28776 28777 28778 28779 28780 28781 28782 28783 28784 28785 28786 28787 28788 28789 28790 28791 28792 28793 28794 28795 28796 28797 28798 28799 28800 28801 28802 28803 28804 28805 28806 28807 28808 28809 28810 28811 28812 28813 28814 28815 28816 28817 28818 28819 28820 28821 28822 28823 28824 28825 28826 28827 28828 28829 28830 28831 28832 28833 28834 28835 28836 28837 28838 28839 28840 28841 28842 28843 28844 28845 28846 28847 28848 28849 28850 28851 28852 28853 28854 28855 28856 28857 28858 28859 28860 28861 28862 28863 28864 28865 28866 28867 28868 28869 28870 28871 28872 28873 28874 28875 28876 28877 28878 28879 28880 28881 28882 28883 28884 28885 28886 28887 28888 28889 28890 28891 28892 28893 28894 28895 28896 28897 28898 28899 28900 28901 28902 28903 28904 28905 28906 28907 28908 28909 28910 28911 28912 28913 28914 28915 28916 28917 28918 28919 28920 28921 28922 28923 28924 28925 28926 28927 28928 28929 28930 28931 28932 28933 28934 28935 28936 28937 28938 28939 28940 28941 28942 28943 28944 28945 28946 28947 28948 28949 28950 28951 28952 28953 28954 28955 28956 28957 28958 28959 28960 28961 28962 28963 28964 28965 28966 28967 28968 28969 28970 28971 28972 28973 28974 28975 28976 28977 28978 28979 28980 28981 28982 28983 28984 28985 28986 28987 28988 28989 28990 28991 28992 28993 28994 28995 28996 28997 28998 28999 29000 29001 29002 29003 29004 29005 29006 29007 29008 29009 29010 29011 29012 29013 29014 29015 29016 29017 29018 29019 29020 29021 29022 29023 29024 29025 29026 29027 29028 29029 29030 29031 29032 29033 29034 29035 29036 29037 29038 29039 29040 29041 29042 29043 29044 29045 29046 29047 29048 29049 29050 29051 29052 29053 29054 29055 29056 29057 29058 29059 29060 29061 29062 29063 29064 29065 29066 29067 29068 29069 29070 29071 29072 29073 29074 29075 29076 29077 29078 29079 29080 29081 29082 29083 29084 29085 29086 29087 29088 29089 29090 29091 29092 29093 29094 29095 29096 29097 29098 29099 29100 29101 29102 29103 29104 29105 29106 29107 29108 29109 29110 29111 29112 29113 29114 29115 29116 29117 29118 29119 29120 29121 29122 29123 29124 29125 29126 29127 29128 29129 29130 29131 29132 29133 29134 29135 29136 29137 29138 29139 29140 29141 29142 29143 29144 29145 29146 29147 29148 29149 29150 29151 29152 29153 29154 29155 29156 29157 29158 29159 29160 29161 29162 29163 29164 29165 29166 29167 29168 29169 29170 29171 29172 29173 29174 29175 29176 29177 29178 29179 29180 29181 29182 29183 29184 29185 29186 29187 29188 29189 29190 29191 29192 29193 29194 29195 29196 29197 29198 29199 29200 29201 29202 29203 29204 29205 29206 29207 29208 29209 29210 29211 29212 29213 29214 29215 29216 29217 29218 29219 29220 29221 29222 29223 29224 29225 29226 29227 29228 29229 29230 29231 29232 29233 29234 29235 29236 29237 29238 29239 29240 29241 29242 29243 29244 29245 29246 29247 29248 29249 29250 29251 29252 29253 29254 29255 29256 29257 29258 29259 29260 29261 29262 29263 29264 29265 29266 29267 29268 29269 29270 29271 29272 29273 29274 29275 29276 29277 29278 29279 29280 29281 29282 29283 29284 29285 29286 29287 29288 29289 29290 29291 29292 29293 29294 29295 29296 29297 29298 29299 29300 29301 29302 29303 29304 29305 29306 29307 29308 29309 29310 29311 29312 29313 29314 29315 29316 29317 29318 29319 29320 29321 29322 29323 29324 29325 29326 29327 29328 29329 29330 29331 29332 29333 29334 29335 29336 29337 29338 29339 29340 29341 29342 29343 29344 29345 29346 29347 29348 29349 29350 29351 29352 29353 29354 29355 29356 29357 29358 29359 29360 29361 29362 29363 29364 29365 29366 29367 29368 29369 29370 29371 29372 29373 29374 29375 29376 29377 29378 29379 29380 29381 29382 29383 29384 29385 29386 29387 29388 29389 29390 29391 29392 29393 29394 29395 29396 29397 29398 29399 29400 29401 29402 29403 29404 29405 29406 29407 29408 29409 29410 29411 29412 29413 29414 29415 29416 29417 29418 29419 29420 29421 29422 29423 29424 29425 29426 29427 29428 29429 29430 29431 29432 29433 29434 29435 29436 29437 29438 29439 29440 29441 29442 29443 29444 29445 29446 29447 29448 29449 29450 29451 29452 29453 29454 29455 29456 29457 29458 29459 29460 29461 29462 29463 29464 29465 29466 29467 29468 29469 29470 29471 29472 29473 29474 29475 29476 29477 29478 29479 29480 29481 29482 29483 29484 29485 29486 29487 29488 29489 29490 29491 29492 29493 29494 29495 29496 29497 29498 29499 29500 29501 29502 29503 29504 29505 29506 29507 29508 29509 29510 29511 29512 29513 29514 29515 29516 29517 29518 29519 29520 29521 29522 29523 29524 29525 29526 29527 29528 29529 29530 29531 29532 29533 29534 29535 29536 29537 29538 29539 29540 29541 29542 29543 29544 29545 29546 29547 29548 29549 29550 29551 29552 29553 29554 29555 29556 29557 29558 29559 29560 29561 29562 29563 29564 29565 29566 29567 29568 29569 29570 29571 29572 29573 29574 29575 29576 29577 29578 29579 29580 29581 29582 29583 29584 29585 29586 29587 29588 29589 29590 29591 29592 29593 29594 29595 29596 29597 29598 29599 29600 29601 29602 29603 29604 29605 29606 29607 29608 29609 29610 29611 29612 29613 29614 29615 29616 29617 29618 29619 29620 29621 29622 29623 29624 29625 29626 29627 29628 29629 29630 29631 29632 29633 29634 29635 29636 29637 29638 29639 29640 29641 29642 29643 29644 29645 29646 29647 29648 29649 29650 29651 29652 29653 29654 29655 29656 29657 29658 29659 29660 29661 29662 29663 29664 29665 29666 29667 29668 29669 29670 29671 29672 29673 29674 29675 29676 29677 29678 29679 29680 29681 29682 29683 29684 29685 29686 29687 29688 29689 29690 29691 29692 29693 29694 29695 29696 29697 29698 29699 29700 29701 29702 29703 29704 29705 29706 29707 29708 29709 29710 29711 29712 29713 29714 29715 29716 29717 29718 29719 29720 29721 29722 29723 29724 29725 29726 29727 29728 29729 29730 29731 29732 29733 29734 29735 29736 29737 29738 29739 29740 29741 29742 29743 29744 29745 29746 29747 29748 29749 29750 29751 29752 29753 29754 29755 29756 29757 29758 29759 29760 29761 29762 29763 29764 29765 29766 29767 29768 29769 29770 29771 29772 29773 29774 29775 29776 29777 29778 29779 29780 29781 29782 29783 29784 29785 29786 29787 29788 29789 29790 29791 29792 29793 29794 29795 29796 29797 29798 29799 29800 29801 29802 29803 29804 29805 29806 29807 29808 29809 29810 29811 29812 29813 29814 29815 29816 29817 29818 29819 29820 29821 29822 29823 29824 29825 29826 29827 29828 29829 29830 29831 29832 29833 29834 29835 29836 29837 29838 29839 29840 29841 29842 29843 29844 29845 29846 29847 29848 29849 29850 29851 29852 29853 29854 29855 29856 29857 29858 29859 29860 29861 29862 29863 29864 29865 29866 29867 29868 29869 29870 29871 29872 29873 29874 29875 29876 29877 29878 29879 29880 29881 29882 29883 29884 29885 29886 29887 29888 29889 29890 29891 29892 29893 29894 29895 29896 29897 29898 29899 29900 29901 29902 29903 29904 29905 29906 29907 29908 29909 29910 29911 29912 29913 29914 29915 29916 29917 29918 29919 29920 29921 29922 29923 29924 29925 29926 29927 29928 29929 29930 29931 29932 29933 29934 29935 29936 29937 29938 29939 29940 29941 29942 29943 29944 29945 29946 29947 29948 29949 29950 29951 29952 29953 29954 29955 29956 29957 29958 29959 29960 29961 29962 29963 29964 29965 29966 29967 29968 29969 29970 29971 29972 29973 29974 29975 29976 29977 29978 29979 29980 29981 29982 29983 29984 29985 29986 29987 29988 29989 29990 29991 29992 29993 29994 29995 29996 29997 29998 29999 30000 30001 30002 30003 30004 30005 30006 30007 30008 30009 30010 30011 30012 30013 30014 30015 30016 30017 30018 30019 30020 30021 30022 30023 30024 30025 30026 30027 30028 30029 30030 30031 30032 30033 30034 30035 30036 30037 30038 30039 30040 30041 30042 30043 30044 30045 30046 30047 30048 30049 30050 30051 30052 30053 30054 30055 30056 30057 30058 30059 30060 30061 30062 30063 30064 30065 30066 30067 30068 30069 30070 30071 30072 30073 30074 30075 30076 30077 30078 30079 30080 30081 30082 30083 30084 30085 30086 30087 30088 30089 30090 30091 30092 30093 30094 30095 30096 30097 30098 30099 30100 30101 30102 30103 30104 30105 30106 30107 30108 30109 30110 30111 30112 30113 30114 30115 30116 30117 30118 30119 30120 30121 30122 30123 30124 30125 30126 30127 30128 30129 30130 30131 30132 30133 30134 30135 30136 30137 30138 30139 30140 30141 30142 30143 30144 30145 30146 30147 30148 30149 30150 30151 30152 30153 30154 30155 30156 30157 30158 30159 30160 30161 30162 30163 30164 30165 30166 30167 30168 30169 30170 30171 30172 30173 30174 30175 30176 30177 30178 30179 30180 30181 30182 30183 30184 30185 30186 30187 30188 30189 30190 30191 30192 30193 30194 30195 30196 30197 30198 30199 30200 30201 30202 30203 30204 30205 30206 30207 30208 30209 30210 30211 30212 30213 30214 30215 30216 30217 30218 30219 30220 30221 30222 30223 30224 30225 30226 30227 30228 30229 30230 30231 30232 30233 30234 30235 30236 30237 30238 30239 30240 30241 30242 30243 30244 30245 30246 30247 30248 30249 30250 30251 30252 30253 30254 30255 30256 30257 30258 30259 30260 30261 30262 30263 30264 30265 30266 30267 30268 30269 30270 30271 30272 30273 30274 30275 30276 30277 30278 30279 30280 30281 30282 30283 30284 30285 30286 30287 30288 30289 30290 30291 30292 30293 30294 30295 30296 30297 30298 30299 30300 30301 30302 30303 30304 30305 30306 30307 30308 30309 30310 30311 30312 30313 30314 30315 30316 30317 30318 30319 30320 30321 30322 30323 30324 30325 30326 30327 30328 30329 30330 30331 30332 30333 30334 30335 30336 30337 30338 30339 30340 30341 30342 30343 30344 30345 30346 30347 30348 30349 30350 30351 30352 30353 30354 30355 30356 30357 30358 30359 30360 30361 30362 30363 30364 30365 30366 30367 30368 30369 30370 30371 30372 30373 30374 30375 30376 30377 30378 30379 30380 30381 30382 30383 30384 30385 30386 30387 30388 30389 30390 30391 30392 30393 30394 30395 30396 30397 30398 30399 30400 30401 30402 30403 30404 30405 30406 30407 30408 30409 30410 30411 30412 30413 30414 30415 30416 30417 30418 30419 30420 30421 30422 30423 30424 30425 30426 30427 30428 30429 30430 30431 30432 30433 30434 30435 30436 30437 30438 30439 30440 30441 30442 30443 30444 30445 30446 30447 30448 30449 30450 30451 30452 30453 30454 30455 30456 30457 30458 30459 30460 30461 30462 30463 30464 30465 30466 30467 30468 30469 30470 30471 30472 30473 30474 30475 30476 30477 30478 30479 30480 30481 30482 30483 30484 30485 30486 30487 30488 30489 30490 30491 30492 30493 30494 30495 30496 30497 30498 30499 30500 30501 30502 30503 30504 30505 30506 30507 30508 30509 30510 30511 30512 30513 30514 30515 30516 30517 30518 30519 30520 30521 30522 30523 30524 30525 30526 30527 30528 30529 30530 30531 30532 30533 30534 30535 30536 30537 30538 30539 30540 30541 30542 30543 30544 30545 30546 30547 30548 30549 30550 30551 30552 30553 30554 30555 30556 30557 30558 30559 30560 30561 30562 30563 30564 30565 30566 30567 30568 30569 30570 30571 30572 30573 30574 30575 30576 30577 30578 30579 30580 30581 30582 30583 30584 30585 30586 30587 30588 30589 30590 30591 30592 30593 30594 30595 30596 30597 30598 30599 30600 30601 30602 30603 30604 30605 30606 30607 30608 30609 30610 30611 30612 30613 30614 30615 30616 30617 
</DataArray>
<DataArray type="UInt32" Name="offsets" format="ascii">
2 5 8 11 14 17 20 23 26 28 31 34 37 39 42 45 48 51 54 57 60 63 66 69 72 75 78 81 84 86 89 92 94 97 100 103 105 108 111 114 116 119 122 125 128 131 134 137 140 142 145 148 151 154 157 160 162 165 168 171 174 177 180 183 186 189 191 194 197 199 202 205 208 210 213 215 218 220 222 225 228 231 234 237 240 243 246 249 251 254 256 259 262 264 267 270 273 276 279 282 285 288 291 294 297 300 303 306 309 311 314 317 320 323 325 328 331 333 335 338 341 343 346 349 352 354 356 358 361 363 366 369 372 375 378 381 384 387 390 392 394 397 400 403 406 409 412 414 417 420 423 426 429 431 433 436 439 441 444 447 449 451 454 456 458 461 464 467 470 473 476 479 482 485 488 491 494 496 499 502 504 507 510 513 516 519 522 525 528 531 534 537 540 543 546 549 552 555 558 561 564 566 569 572 575 578 581 584 587 590 593 596 599 602 605 608 611 613 616 619 621 624 627 630 633 635 637 640 643 646 649 652 655 658 661 664 667 670 673 676 679 682 684 687 690 693 695 698 701 704 707 710 713 716 719 721 723 726 729 732 735 738 741 744 747 750 752 755 758 761 764 767 769 772 774 777 780 783 786 789 791 793 796 799 802 804 807 809 812 815 818 820 823 825 828 831 833 836 839 842 844 847 850 853 856 859 861 863 866 869 871 874 876 878 881 884 886 889 891 894 897 900 903 905 908 910 913 916 918 920 922 925 927 930 932 934 937 940 943 946 949 952 955 958 961 963 966 969 972 975 978 981 984 987 990 993 996 999 1002 1005 1008 1011 1014 1017 1020 1023 1026 1029 1032 1035 1037 1040 1042 1045 1048 1051 1054 1057 1059 1062 1064 1067 1070 1072 1075 1078 1081 1084 1086 1089 1091 1094 1097 1100 1103 1106 1109 1112 1115 1118 1121 1124 1127 1130 1132 1135 1138 1140 1143 1146 1149 1152 1155 1158 1161 1164 1167 1170 1173 1176 1179 1182 1185 1188 1191 1193 1196 1199 1202 1205 1208 1211 1214 1217 1220 1223 1225 1228 1231 1234 1236 1238 1241 1244 1247 1250 1253 1256 1259 1262 1265 1268 1271 1274 1277 1280 1283 1286 1289 1292 1295 1298 1301 1304 1307 1309 1312 1315 1317 1320 1323 1325 1328 1330 1333 1336 1339 1341 1344 1346 1348 1351 1354 1357 1360 1363 1366 1369 1372 1375 1378 1380 1383 1386 1389 1392 1395 1398 1401 1404 1407 1410 1413 1416 1419 1422 1425 1428 1431 1434 1437 1440 1443 1446 1449 1452 1455 1458 1461 1464 1467 1470 1473 1476 1478 1481 1484 1487 1490 1492 1495 1498 1501 1504 1507 1510 1513 1515 1518 1521 1524 1527 1530 1533 1536 1539 1542 1544 1547 1549 1551 1554 1557 1559 1562 1564 1567 1570 1573 1576 1579 1582 1585 1588 1590 1593 1596 1599 1602 1605 1607 1610 1613 1616 1619 1622 1625 1627 1630 1633 1636 1639 1642 1645 1648 1651 1653 1656 1658 1661 1664 1667 1670 1673 1675 1678 1680 1683 1686 1689 1692 1695 1698 1700 1703 1706 1709 1712 1715 1718 1721 1724 1727 1730 1732 1734 1737 1740 1743 1746 1748 1751 1754 1757 1760 1763 1766 1769 1772 1775 1778 1781 1784 1786 1789 1792 1794 1797 1800 1803 1806 1809 1812 1815 1818 1821 1824 1826 1828 1831 1834 1837 1840 1843 1846 1849 1852 1855 1858 1860 1863 1865 1868 1871 1874 1877 1880 1883 1886 1889 1892 1895 1898 1901 1904 1907 1910 1913 1916 1919 1922 1925 1928 1931 1934 1937 1940 1943 1946 1949 1952 1955 1958 1961 1964 1967 1970 1973 1976 1979 1982 1984 1987 1990 1993 1995 1998 2000 2003 2005 2008 2011 2013 2016 2018 2021 2023 2026 2029 2031 2034 2037 2040 2043 2046 2049 2052 2055 2057 2060 2063 2065 2068 2071 2074 2077 2079 2082 2085 2088 2091 2094 2097 2100 2103 2106 2109 2111 2114 2116 2119 2121 2124 2126 2129 2131 2134 2137 2140 2142 2145 2147 2150 2153 2156 2159 2162 2165 2168 2171 2174 2177 2180 2183 2185 2188 2191 2193 2195 2198 2201 2204 2206 2209 2212 2214 2217 2220 2222 2225 2228 2231 2233 2236 2239 2242 2245 2248 2250 2253 2256 2258 2260 2263 2266 2269 2271 2273 2275 2278 2281 2283 2286 2289 2291 2294 2297 2300 2303 2306 2309 2311 2314 2317 2319 2322 2325 2327 2330 2333 2336 2339 2342 2345 2348 2351 2353 2356 2359 2362 2365 2368 2370 2372 2374 2377 2380 2383 2386 2389 2392 2395 2398 2401 2404 2407 2409 2412 2415 2418 2421 2423 2426 2429 2432 2435 2438 2441 2444 2446 2449 2452 2455 2457 2460 2462 2465 2467 2470 2472 2475 2478 2481 2484 2487 2490 2493 2496 2499 2502 2504 2507 2510 2513 2516 2519 2522 2525 2528 2530 2533 2536 2538 2541 2544 2547 2550 2552 2555 2558 2561 2564 2567 2570 2572 2575 2577 2580 2583 2586 2589 2592 2595 2597 2599 2602 2605 2608 2611 2613 2616 2618 2621 2624 2627 2629 2632 2635 2638 2641 2644 2647 2650 2652 2654 2657 2660 2662 2665 2667 2669 2671 2674 2677 2680 2683 2686 2689 2692 2694 2697 2700 2703 2706 2709 2712 2715 2718 2721 2724 2727 2730 2733 2735 2738 2741 2744 2747 2750 2753 2756 2759 2762 2765 2767 2770 2773 2775 2778 2781 2784 2787 2790 2792 2795 2798 2801 2804 2807 2810 2813 2816 2818 2821 2823 2826 2829 2831 2834 2837 2839 2842 2845 2848 2851 2853 2856 2859 2862 2865 2868 2870 2873 2876 2879 2882 2885 2888 2891 2894 2897 2899 2902 2905 2907 2909 2912 2915 2918 2921 2923 2926 2928 2931 2934 2936 2938 2941 2943 2946 2948 2951 2954 2957 2960 2963 2965 2968 2971 2974 2976 2979 2982 2985 2987 2990 2993 2996 2999 3002 3005 3008 3011 3014 3017 3019 3022 3025 3028 3031 3034 3037 3040 3043 3046 3049 3052 3055 3058 3061 3064 3067 3070 3073 3075 3078 3081 3083 3086 3089 3092 3095 3097 3100 3103 3106 3109 3112 3115 3118 3121 3124 3127 3130 3133 3136 3139 3142 3145 3148 3151 3154 3157 3160 3163 3166 3169 3172 3175 3178 3181 3184 3187 3190 3193 3196 3199 3202 3205 3208 3211 3214 3217 3220 3223 3226 3229 3232 3235 3238 3241 3244 3247 3250 3253 3256 3259 3262 3265 3268 3271 3273 3276 3279 3282 3285 3288 3291 3294 3297 3300 3303 3306 3309 3312 3315 3318 3321 3324 3327 3330 3332 3335 3338 3341 3344 3346 3349 3352 3355 3358 3361 3364 3367 3370 3373 3376 3379 3382 3385 3388 3391 3394 3397 3400 3402 3405 3408 3411 3414 3416 3419 3422 3425 3428 3431 3433 3435 3438 3441 3444 3447 3450 3453 3456 3459 3462 3465 3468 3471 3474 3477 3480 3483 3486 3489 3491 3494 3497 3500 3502 3505 3507 3510 3513 3516 3519 3522 3525 3528 3531 3534 3536 3539 3542 3545 3548 3550 3552 3555 3558 3561 3564 3567 3570 3573 3576 3579 3582 3585 3588 3591 3594 3597 3600 3603 3606 3609 3611 3614 3617 3620 3623 3626 3629 3632 3635 3638 3641 3644 3647 3650 3652 3655 3658 3661 3664 3667 3670 3673 3676 3679 3682 3685 3688 3691 3694 3697 3700 3703 3706 3709 3712 3715 3718 3720 3723 3726 3729 3732 3735 3738 3741 3743 3746 3749 3752 3754 3757 3760 3763 3766 3769 3772 3775 3778 3781 3784 3787 3790 3793 3796 3799 3802 3805 3808 3811 3814 3817 3820 3823 3826 3828 3831 3833 3836 3839 3842 3845 3847 3850 3852 3855 3858 3861 3864 3867 3870 3873 3875 3878 3881 3884 3887 3889 3892 3895 3898 3901 3904 3907 3910 3913 3916 3919 3922 3924 3927 3930 3933 3936 3939 3942 3944 3947 3949 3952 3955 3958 3961 3964 3966 3969 3972 3974 3977 3980 3982 3985 3988 3991 3994 3997 4000 4003 4006 4009 4012 4015 4018 4021 4024 4027 4030 4033 4036 4039 4042 4045 4048 4051 4054 4057 4060 4063 4065 4068 4071 4074 4076 4079 4081 4084 4087 4089 4091 4094 4097 4100 4102 4105 4108 4111 4114 4116 4119 4121 4124 4127 4129 4132 4135 4138 4141 4144 4146 4149 4152 4155 4158 4161 4163 4166 4169 4172 4175 4178 4181 4184 4187 4190 4193 4196 4199 4202 4205 4208 4211 4214 4217 4220 4223 4226 4229 4232 4235 4238 4241 4244 4247 4250 4253 4256 4259 4262 4265 4268 4271 4274 4277 4280 4283 4286 4289 4292 4294 4296 4299 4302 4305 4308 4311 4314 4317 4320 4323 4326 4329 4332 4335 4338 4341 4344 4347 4350 4353 4356 4359 4362 4365 4368 4371 4374 4377 4380 4382 4385 4388 4391 4394 4396 4399 4402 4405 4408 4410 4413 4416 4419 4422 4425 4428 4431 4433 4436 4438 4441 4444 4447 4450 4453 4455 4458 4461 4464 4467 4470 4473 4476 4479 4482 4485 4487 4490 4493 4496 4499 4502 4505 4508 4511 4514 4517 4520 4523 4526 4529 4532 4535 4538 4541 4544 4547 4550 4553 4556 4559 4562 4564 4567 4570 4573 4576 4578 4581 4583 4586 4589 4591 4594 4596 4599 4602 4605 4608 4611 4614 4616 4619 4622 4625 4627 4630 4633 4636 4639 4642 4645 4648 4651 4654 4657 4660 4663 4666 4669 4672 4675 4678 4680 4683 4685 4688 4691 4694 4697 4700 4702 4705 4707 4710 4713 4716 4719 4722 4725 4728 4731 4733 4736 4739 4742 4745 4748 4751 4754 4757 4760 4763 4766 4769 4772 4775 4778 4781 4784 4787 4790 4793 4796 4799 4802 4804 4807 4809 4812 4815 4818 4821 4824 4827 4830 4833 4836 4839 4842 4845 4847 4850 4853 4856 4859 4862 4865 4868 4871 4874 4877 4880 4883 4886 4889 4892 4895 4898 4901 4904 4907 4910 4913 4916 4919 4922 4925 4928 4930 4933 4936 4939 4941 4944 4946 4948 4951 4954 4957 4960 4963 4965 4968 4971 4974 4977 4980 4983 4986 4989 4992 4995 4998 5001 5004 5007 5010 5013 5016 5019 5022 5025 5028 5031 5034 5037 5039 5042 5045 5047 5050 5053 5056 5059 5062 5065 5068 5071 5073 5075 5078 5081 5084 5087 5090 5093 5096 5099 5102 5105 5107 5110 5113 5115 5117 5120 5122 5125 5128 5131 5134 5137 5139 5142 5144 5146 5148 5151 5154 5157 5160 5163 5166 5168 5171 5174 5177 5180 5183 5186 5189 5192 5195 5197 5200 5202 5205 5208 5210 5213 5216 5219 5222 5225 5228 5231 5234 5237 5240 5243 5246 5249 5252 5255 5258 5261 5264 5267 5270 5273 5276 5279 5282 5285 5288 5290 5292 5295 5298 5301 5304 5307 5310 5313 5316 5319 5322 5325 5328 5331 5334 5337 5340 5343 5346 5349 5352 5355 5358 5361 5364 5367 5370 5373 5376 5379 5382 5385 5388 5391 5394 5397 5400 5403 5406 5409 5412 5415 5418 5421 5424 5427 5430 5433 5436 5439 5442 5445 5448 5451 5454 5457 5460 5462 5465 5468 5471 5474 5477 5480 5483 5486 5489 5491 5493 5496 5499 5502 5504 5507 5510 5513 5516 5519 5522 5525 5528 5531 5534 5537 5540 5543 5546 5549 5552 5555 5558 5561 5564 5567 5570 5573 5576 5579 5582 5585 5588 5591 5594 5596 5599 5602 5605 5608 5611 5614 5617 5619 5622 5625 5628 5631 5634 5637 5640 5642 5645 5648 5650 5653 5656 5659 5662 5665 5668 5671 5674 5677 5679 5682 5685 5687 5689 5692 5695 5698 5700 5703 5706 5709 5712 5715 5718 5721 5724 5727 5730 5733 5735 5738 5741 5744 5747 5749 5752 5754 5757 5760 5762 5765 5768 5770 5772 5775 5778 5781 5784 5787 5790 5793 5796 5799 5802 5804 5806 5809 5812 5815 5818 5821 5824 5826 5829 5832 5835 5838 5841 5844 5846 5849 5851 5854 5857 5860 5863 5866 5868 5870 5873 5876 5879 5882 5885 5888 5891 5894 5897 5900 5903 5906 5909 5912 5915 5918 5921 5924 5927 5929 5931 5934 5937 5939 5942 5945 5948 5951 5954 5957 5960 5963 5966 5969 5972 5974 5977 5980 5983 5986 5989 5992 5995 5998 6001 6004 6007 6010 6013 6016 6019 6022 6025 6028 6031 6034 6037 6040 6043 6046 6049 6052 6055 6058 6060 6063 6066 6069 6072 6074 6076 6079 6082 6085 6088 6091 6094 6097 6099 6102 6104 6107 6110 6113 6116 6119 6122 6125 6128 6131 6134 6137 6140 6143 6146 6149 6152 6155 6158 6161 6164 6166 6168 6171 6173 6176 6179 6182 6185 6188 6190 6193 6196 6199 6202 6205 6208 6211 6214 6217 6220 6223 6226 6229 6232 6235 6238 6241 6243 6246 6249 6252 6255 6258 6261 6264 6267 6270 6273 6276 6278 6281 6284 6287 6290 6293 6296 6299 6302 6305 6308 6310 6313 6316 6319 6322 6325 6328 6331 6334 6337 6339 6342 6345 6348 6351 6353 6356 6359 6362 6364 6367 6370 6373 6376 6378 6381 6384 6387 6390 6393 6396 6399 6402 6405 6407 6410 6413 6416 6419 6421 6424 6427 6430 6433 6436 6439 6442 6445 6447 6450 6452 6454 6457 6459 6461 6464 6467 6470 6472 6475 6478 6481 6483 6486 6488 6491 6494 6497 6500 6503 6505 6508 6511 6514 6516 6519 6522 6525 6528 6531 6534 6536 6538 6541 6544 6547 6550 6553 6556 6559 6562 6565 6568 6571 6573 6576 6578 6580 6583 6586 6589 6592 6595 6597 6599 6602 6605 6607 6610 6613 6616 6619 6621 6624 6627 6630 6633 6636 6638 6641 6644 6647 6650 6652 6654 6657 6660 6662 6665 6667 6669 6672 6675 6678 6681 6684 6687 6690 6693 6696 6699 6702 6705 6708 6711 6714 6717 6720 6723 6726 6729 6732 6734 6737 6740 6742 6745 6747 6750 6753 6756 6758 6761 6764 6767 6770 6773 6776 6778 6780 6783 6786 6789 6792 6795 6798 6800 6803 6806 6808 6811 6814 6817 6820 6823 6826 6828 6831 6834 6837 6839 6842 6845 6848 6851 6854 6857 6859 6862 6865 6868 6871 6874 6877 6880 6883 6886 6889 6892 6895 6898 6900 6903 6905 6908 6911 6914 6917 6920 6923 6926 6929 6932 6934 6937 6940 6943 6945 6948 6951 6954 6957 6960 6963 6966 6969 6972 6975 6977 6980 6983 6986 6989 6992 6995 6998 7001 7004 7007 7010 7013 7016 7019 7022 7025 7028 7031 7034 7037 7040 7043 7046 7049 7052 7054 7057 7060 7063 7065 7068 7071 7073 7076 7079 7082 7085 7088 7090 7093 7096 7099 7101 7104 7107 7110 7113 7116 7119 7122 7124 7127 7130 7133 7136 7139 7142 7145 7148 7151 7154 7157 7160 7163 7166 7169 7172 7175 7177 7180 7182 7185 7188 7191 7194 7197 7200 7203 7206 7209 7211 7214 7216 7219 7221 7224 7226 7228 7231 7234 7237 7240 7242 7245 7248 7251 7254 7256 7259 7262 7265 7268 7271 7273 7276 7278 7281 7284 7286 7289 7292 7295 7298 7301 7304 7307 7310 7313 7316 7319 7322 7325 7328 7331 7334 7337 7339 7342 7345 7348 7351 7354 7357 7359 7362 7365 7368 7371 7374 7376 7379 7382 7385 7388 7391 7394 7397 7399 7402 7405 7407 7410 7413 7416 7419 7422 7425 7427 7430 7433 7436 7438 7441 7444 7447 7450 7453 7456 7459 7462 7465 7468 7471 7474 7477 7480 7483 7486 7489 7491 7494 7497 7500 7503 7506 7508 7510 7513 7516 7519 7522 7525 7527 7530 7532 7535 7537 7540 7542 7544 7547 7550 7553 7555 7557 7560 7563 7566 7569 7572 7575 7578 7581 7584 7587 7590 7593 7596 7599 7602 7605 7608 7611 7614 7617 7620 7623 7626 7629 7632 7635 7638 7641 7644 7647 7650 7653 7656 7659 7662 7665 7668 7671 7673 7676 7679 7682 7685 7688 7691 7694 7696 7699 7701 7704 7707 7710 7713 7716 7719 7721 7724 7727 7730 7732 7735 7738 7741 7743 7745 7748 7750 7753 7756 7759 7762 7765 7768 7770 7773 7776 7778 7781 7784 7787 7790 7793 7796 7799 7802 7805 7808 7811 7814 7816 7818 7820 7823 7826 7829 7831 7834 7837 7840 7843 7846 7849 7852 7855 7858 7861 7864 7867 7870 7873 7876 7879 7882 7885 7888 7891 7894 7897 7899 7902 7905 7908 7911 7913 7916 7919 7922 7925 7928 7931 7934 7936 7939 7942 7945 7948 7951 7953 7956 7959 7962 7965 7968 7970 7973 7976 7979 7982 7985 7988 7991 7994 7997 7999 8002 8005 8008 8011 8013 8016 8019 8022 8025 8028 8031 8034 8037 8040 8043 8045 8048 8051 8053 8056 8059 8062 8065 8068 8071 8074 8077 8080 8083 8086 8089 8092 8095 8098 8101 8104 8107 8110 8113 8115 8118 8121 8124 8127 8129 8132 8135 8138 8141 8144 8147 8150 8153 8155 8158 8161 8164 8167 8170 8172 8175 8178 8180 8183 8186 8189 8192 8195 8198 8201 8204 8207 8210 8213 8216 8218 8221 8224 8227 8230 8233 8236 8239 8242 8245 8248 8251 8254 8257 8260 8263 8266 8269 8272 8275 8278 8281 8284 8287 8290 8293 8296 8299 8302 8304 8307 8310 8313 8316 8319 8322 8325 8328 8331 8334 8337 8340 8343 8346 8348 8351 8354 8357 8360 8363 8366 8369 8372 8375 8378 8381 8384 8387 8390 8393 8396 8399 8402 8405 8407 8410 8413 8416 8419 8422 8425 8428 8430 8433 8436 8439 8442 8445 8448 8451 8454 8457 8460 8463 8466 8469 8472 8475 8478 8481 8484 8487 8490 8493 8496 8499 8502 8504 8507 8510 8513 8516 8519 8521 8524 8527 8530 8533 8536 8539 8542 8545 8548 8551 8553 8556 8559 8561 8564 8566 8569 8572 8575 8578 8581 8584 8587 8589 8592 8594 8597 8599 8602 8605 8608 8611 8614 8617 8620 8623 8626 8629 8632 8635 8638 8641 8644 8647 8650 8653 8656 8659 8662 8665 8668 8671 8674 8677 8680 8683 8686 8689 8692 8695 8698 8701 8704 8707 8709 8712 8715 8718 8721 8724 8727 8730 8733 8736 8739 8742 8745 8748 8751 8754 8757 8760 8763 8766 8769 8772 8775 8778 8781 8784 8787 8790 8793 8796 8799 8802 8804 8807 8810 8813 8816 8819 8822 8824 8826 8829 8832 8835 8838 8841 8844 8847 8850 8853 8856 8859 8862 8865 8867 8870 8873 8876 8879 8882 8885 8888 8891 8894 8897 8899 8901 8904 8906 8909 8912 8915 8917 8920 8922 8924 8927 8929 8932 8935 8938 8941 8944 8947 8950 8952 8954 8957 8960 8963 8966 8968 8971 8974 8977 8980 8982 8985 8987 8990 8992 8994 8997 8999 9002 9005 9008 9011 9014 9016 9019 9021 9023 9025 9027 9030 9033 9036 9039 9042 9044 9047 9050 9052 9054 9057 9060 9063 9065 9068 9071 9073 9076 9079 9082 9085 9087 9090 9093 9095 9098 9101 9103 9106 9109 9112 9115 9118 9121 9124 9127 9130 9133 9136 9139 9142 9145 9147 9150 9152 9155 9158 9161 9164 9167 9169 9172 9175 9177 9180 9183 9186 9189 9192 9194 9197 9200 9203 9206 9209 9212 9215 9218 9221 9224 9226 9229 9232 9235 9238 9241 9244 9247 9250 9253 9256 9259 9261 9264 9267 9270 9273 9276 9279 9281 9284 9287 9290 9293 9296 9299 9302 9305 9308 9311 9314 9317 9320 9323 9325 9328 9331 9334 9336 9339 9342 9345 9348 9351 9354 9357 9359 9362 9364 9367 9370 9373 9376 9379 9382 9385 9388 9391 9394 9397 9400 9403 9406 9409 9412 9415 9418 9421 9424 9427 9430 9433 9436 9439 9442 9445 9448 9451 9454 9457 9460 9463 9466 9469 9472 9474 9477 9479 9482 9485 9487 9490 9492 9495 9498 9501 9504 9507 9510 9512 9515 9518 9520 9522 9525 9528 9531 9534 9537 9540 9542 9545 9548 9551 9554 9557 9560 9563 9565 9568 9571 9574 9577 9580 9583 9586 9589 9592 9595 9598 9601 9604 9607 9610 9613 9616 9619 9622 9624 9627 9630 9633 9635 9638 9640 9643 9645 9648 9651 9654 9657 9659 9662 9665 9668 9671 9674 9677 9679 9682 9685 9688 9691 9694 9697 9699 9702 9705 9707 9710 9713 9716 9719 9722 9725 9727 9730 9733 9736 9739 9742 9745 9748 9751 9754 9756 9759 9761 9764 9767 9770 9773 9776 9778 9780 9783 9786 9789 9791 9793 9796 9799 9802 9805 9808 9811 9813 9816 9819 9821 9823 9826 9829 9831 9834 9837 9839 9842 9845 9848 9851 9853 9856 9859 9862 9865 9868 9871 9873 9876 9879 9882 9885 9888 9891 9894 9897 9900 9903 9905 9908 9911 9914 9916 9918 9921 9924 9927 9930 9933 9936 9939 9942 9945 9947 9950 9953 9956 9959 9962 9965 9968 9971 9974 9977 9980 9982 9984 9987 9990 9993 9996 9998 10001 10004 10007 10010 10012 10015 10018 10021 10024 10026 10029 10032 10035 10037 10040 10043 10046 10049 10051 10054 10057 10060 10063 10066 10068 10071 10074 10077 10080 10082 10085 10088 10091 10094 10097 10100 10103 10106 10109 10112 10115 10118 10121 10124 10127 10130 10133 10136 10139 10142 10145 10148 10151 10154 10157 10160 10163 10166 10169 10172 10175 10178 10180 10183 10186 10189 10192 10194 10197 10200 10203 10206 10209 10212 10214 10217 10220 10223 10225 10228 10230 10233 10236 10239 10242 10245 10248 10251 10254 10257 10260 10263 10266 10269 10272 10275 10278 10281 10284 10287 10290 10293 10296 10299 10301 10304 10306 10309 10312 10315 10317 10320 10323 10326 10329 10332 10335 10338 10341 10344 10347 10350 10353 10356 10358 10361 10364 10366 10369 10372 10374 10376 10379 10381 10384 10387 10390 10393 10396 10399 10402 10405 10408 10411 10414 10417 10420 10423 10426 10429 10432 10434 10437 10440 10443 10446 10449 10451 10454 10457 10460 10463 10466 10469 10472 10474 10477 10480 10483 10486 10489 10492 10495 10497 10500 10503 10506 10509 10512 10515 10518 10521 10524 10527 10530 10533 10536 10539 10542 10544 10547 10550 10553 10555 10558 10561 10564 10567 10570 10573 10576 10579 10582 10585 10588 10590 10593 10596 10599 10602 10605 10608 10610 10613 10616 10618 10621 10623 10626 10629 10632 10634 10637 10640 10643 10646 10649 10652 10655 10658 10661 10664 10667 10669 10672 10675 10678 10681 10684 10686 10689 10692 10695 10697 10700 10703 10706 10708 10711 10714 10717 10720 10723 10725 10728 10730 10733 10736 10739 10742 10745 10748 10751 10754 10756 10759 10761 10764 10767 10769 10772 10774 10777 10779 10782 10785 10788 10791 10794 10797 10800 10803 10806 10809 10811 10814 10816 10819 10822 10825 10828 10830 10833 10836 10839 10841 10843 10846 10849 10852 10854 10857 10859 10861 10864 10867 10869 10871 10874 10876 10878 10881 10884 10886 10888 10891 10894 10896 10899 10902 10904 10907 10909 10912 10915 10917 10920 10923 10925 10928 10930 10933 10936 10939 10941 10944 10946 10949 10952 10954 10956 10959 10962 10965 10967 10969 10972 10974 10977 10980 10983 10986 10989 10992 10995 10998 11000 11003 11006 11008 11010 11013 11015 11018 11020 11022 11025 11028 11031 11033 11036 11039 11041 11044 11047 11050 11053 11056 11059 11061 11063 11066 11069 11072 11075 11078 11081 11084 11086 11088 11091 11094 11097 11100 11102 11105 11108 11111 11113 11116 11119 11121 11124 11127 11130 11133 11136 11138 11141 11144 11146 11149 11152 11155 11157 11159 11162 11165 11167 11170 11173 11176 11178 11181 11184 11187 11189 11191 11194 11197 11199 11202 11205 11208 11211 11213 11215 11218 11221 11223 11225 11228 11230 11232 11235 11238 11241 11244 11247 11250 11252 11255 11258 11261 11264 11267 11270 11273 11276 11279 11282 11284 11286 11289 11292 11295 11298 11301 11304 11307 11309 11312 11315 11318 11321 11324 11327 11330 11333 11336 11338 11341 11344 11346 11349 11352 11354 11357 11360 11363 11366 11369 11372 11375 11378 11381 11384 11387 11390 11393 11396 11399 11402 11405 11408 11410 11412 11415 11418 11421 11424 11426 11429 11432 11434 11437 11440 11443 11446 11449 11452 11455 11458 11461 11463 11466 11469 11471 11474 11477 11480 11483 11486 11489 11492 11495 11498 11501 11504 11506 11509 11511 11514 11517 11520 11523 11526 11529 11532 11535 11538 11541 11543 11546 11549 11552 11555 11558 11561 11564 11567 11570 11573 11576 11579 11582 11585 11588 11591 11594 11597 11600 11603 11606 11609 11612 11615 11618 11621 11624 11627 11630 11633 11636 11639 11642 11645 11648 11651 11654 11657 11660 11662 11665 11668 11671 11674 11677 11680 11683 11686 11689 11691 11694 11697 11699 11702 11705 11708 11711 11714 11717 11720 11723 11726 11729 11732 11735 11738 11741 11744 11747 11749 11752 11754 11757 11760 11762 11765 11768 11771 11773 11775 11778 11780 11782 11785 11787 11790 11793 11795 11798 11801 11803 11806 11809 11812 11815 11818 11821 11824 11827 11830 11833 11836 11839 11842 11845 11848 11851 11854 11857 11860 11863 11866 11868 11871 11874 11877 11880 11883 11886 11889 11892 11895 11898 11901 11904 11907 11910 11913 11916 11919 11922 11925 11927 11930 11933 11936 11939 11942 11944 11947 11950 11953 11956 11959 11962 11965 11968 11971 11974 11977 11980 11983 11986 11989 11992 11995 11998 12001 12004 12007 12010 12013 12016 12018 12021 12024 12027 12030 12033 12036 12038 12041 12044 12047 12050 12053 12056 12059 12062 12065 12068 12071 12074 12077 12080 12083 12085 12088 12091 12094 12096 12098 12101 12104 12107 12109 12112 12115 12118 12121 12124 12127 12130 12133 12135 12138 12141 12144 12147 12149 12152 12155 12158 12161 12164 12167 12170 12173 12176 12179 12182 12185 12188 12190 12193 12196 12199 12202 12205 12208 12211 12214 12217 12220 12223 12226 12229 12232 12235 12238 12241 12244 12247 12250 12253 12256 12259 12262 12265 12268 12271 12273 12276 12279 12282 12285 12288 12291 12294 12297 12300 12303 12306 12309 12312 12315 12318 12320 12322 12325 12328 12331 12333 12336 12339 12342 12345 12348 12351 12354 12357 12360 12363 12366 12369 12372 12375 12378 12381 12384 12387 12390 12393 12396 12399 12402 12405 12408 12411 12414 12417 12420 12423 12425 12428 12431 12434 12437 12440 12443 12446 12449 12452 12455 12458 12461 12464 12467 12470 12473 12476 12479 12482 12485 12488 12491 12494 12497 12500 12502 12505 12508 12511 12514 12517 12520 12523 12525 12528 12531 12534 12536 12539 12542 12544 12547 12550 12553 12556 12559 12562 12565 12568 12570 12572 12575 12578 12581 12584 12587 12589 12592 12595 12598 12601 12604 12607 12610 12613 12616 12619 12622 12625 12628 12631 12634 12637 12640 12643 12646 12648 12651 12653 12656 12658 12661 12664 12667 12669 12672 12674 12677 12680 12683 12686 12689 12692 12695 12698 12701 12704 12707 12710 12712 12715 12718 12721 12724 12726 12729 12732 12734 12737 12739 12742 12745 12747 12750 12753 12756 12758 12761 12764 12767 12770 12773 12776 12779 12782 12785 12787 12790 12793 12796 12799 12801 12804 12807 12810 12813 12815 12818 12821 12824 12827 12830 12833 12835 12838 12840 12843 12845 12848 12851 12854 12856 12859 12862 12865 12868 12871 12874 12876 12878 12881 12884 12887 12890 12893 12895 12898 12901 12904 12907 12910 12913 12916 12919 12922 12925 12928 12931 12934 12937 12940 12943 12946 12949 12952 12954 12957 12960 12963 12966 12969 12972 12975 12978 12981 12983 12986 12988 12991 12993 12996 12999 13002 13005 13008 13011 13014 13017 13020 13023 13026 13029 13031 13034 13037 13039 13042 13045 13048 13051 13054 13057 13060 13063 13066 13068 13071 13073 13076 13079 13082 13085 13088 13091 13093 13096 13099 13102 13105 13108 13111 13114 13117 13120 13123 13126 13129 13132 13135 13138 13141 13144 13147 13150 13153 13156 13159 13162 13165 13168 13171 13174 13177 13180 13183 13186 13189 13192 13195 13198 13201 13204 13207 13210 13213 13216 13218 13221 13224 13226 13229 13231 13234 13237 13240 13242 13244 13247 13250 13252 13255 13258 13261 13264 13267 13270 13273 13276 13279 13282 13285 13288 13290 13293 13296 13299 13302 13305 13308 13311 13314 13317 13320 13323 13326 13328 13331 13334 13337 13340 13343 13346 13349 13352 13355 13358 13361 13364 13367 13370 13373 13375 13378 13381 13384 13387 13390 13392 13395 13398 13401 13404 13407 13410 13413 13416 13419 13421 13424 13427 13430 13433 13435 13438 13441 13444 13447 13450 13453 13456 13459 13462 13465 13468 13470 13473 13475 13478 13480 13483 13486 13489 13491 13494 13497 13500 13503 13506 13509 13512 13515 13518 13521 13524 13527 13530 13533 13536 13539 13542 13545 13548 13551 13553 13556 13559 13562 13565 13568 13571 13574 13577 13580 13583 13586 13589 13592 13595 13598 13601 13604 13607 13609 13612 13615 13618 13621 13624 13626 13629 13632 13635 13638 13641 13644 13647 13650 13652 13655 13658 13660 13663 13666 13669 13672 13675 13678 13681 13683 13686 13689 13692 13695 13698 13701 13704 13707 13710 13712 13715 13718 13721 13724 13727 13730 13733 13736 13739 13742 13745 13748 13751 13754 13757 13760 13763 13766 13769 13772 13775 13778 13781 13784 13786 13789 13791 13794 13797 13799 13802 13805 13808 13811 13814 13817 13820 13823 13825 13828 13831 13834 13837 13840 13843 13845 13848 13851 13854 13857 13860 13863 13866 13869 13872 13875 13878 13881 13883 13886 13889 13892 13895 13898 13901 13904 13907 13910 13913 13916 13919 13922 13925 13927 13930 13933 13936 13938 13941 13944 13947 13950 13952 13955 13958 13961 13964 13967 13970 13973 13976 13979 13982 13985 13988 13991 13994 13997 14000 14003 14006 14009 14012 14015 14018 14021 14024 14027 14030 14032 14035 14038 14040 14043 14046 14049 14052 14055 14058 14061 14064 14067 14069 14072 14075 14077 14080 14083 14085 14088 14091 14094 14097 14100 14103 14106 14109 14112 14115 14118 14121 14124 14127 14130 14133 14136 14139 14142 14145 14148 14151 14154 14157 14160 14163 14166 14169 14172 14175 14178 14181 14184 14187 14190 14193 14196 14199 14202 14205 14208 14211 14214 14217 14220 14223 14226 14229 14232 14235 14238 14241 14244 14247 14250 14253 14256 14259 14262 14265 14268 14271 14274 14276 14279 14282 14285 14288 14291 14294 14296 14299 14302 14305 14308 14311 14314 14317 14320 14323 14326 14329 14331 14333 14336 14339 14341 14344 14346 14349 14352 14354 14357 14360 14362 14365 14368 14371 14374 14377 14380 14383 14386 14388 14391 14394 14397 14400 14403 14406 14409 14412 14415 14417 14420 14423 14426 14429 14431 14434 14437 14440 14443 14446 14449 14452 14455 14458 14461 14464 14467 14470 14473 14476 14478 14481 14484 14487 14490 14492 14495 14497 14500 14503 14506 14508 14511 14514 14516 14519 14522 14525 14528 14531 14534 14537 14540 14543 14546 14549 14551 14554 14557 14559 14562 14565 14568 14570 14573 14576 14578 14580 14583 14586 14588 14591 14594 14597 14600 14603 14606 14609 14612 14614 14617 14620 14623 14626 14628 14631 14633 14636 14638 14641 14644 14647 14650 14652 14655 14658 14661 14663 14666 14669 14672 14675 14678 14681 14684 14687 14690 14693 14696 14699 14702 14705 14708 14711 14714 14717 14719 14722 14725 14728 14731 14734 14737 14740 14743 14746 14749 14752 14755 14758 14761 14764 14767 14770 14773 14776 14779 14782 14785 14788 14791 14794 14797 14800 14803 14806 14809 14812 14815 14818 14821 14824 14827 14830 14833 14836 14839 14841 14844 14847 14850 14853 14856 14858 14861 14864 14867 14870 14873 14876 14879 14882 14885 14888 14891 14894 14897 14899 14902 14905 14907 14910 14913 14916 14918 14921 14923 14926 14929 14932 14935 14937 14940 14943 14946 14949 14952 14955 14958 14961 14964 14966 14969 14972 14974 14976 14979 14981 14984 14987 14990 14993 14996 14999 15002 15005 15008 15011 15014 15017 15020 15023 15026 15029 15032 15035 15038 15041 15044 15047 15050 15052 15055 15058 15061 15063 15066 15069 15072 15075 15078 15081 15084 15086 15089 15092 15095 15098 15101 15104 15107 15110 15113 15116 15119 15122 15125 15128 15131 15134 15137 15140 15143 15146 15149 15152 15155 15157 15160 15163 15166 15169 15172 15174 15177 15179 15181 15184 15187 15190 15192 15195 15198 15200 15203 15206 15209 15212 15215 15218 15221 15224 15227 15230 15233 15235 15238 15241 15244 15246 15249 15251 15254 15257 15260 15263 15266 15268 15271 15273 15276 15278 15281 15284 15287 15290 15293 15296 15299 15302 15304 15306 15308 15311 15314 15316 15319 15322 15325 15328 15331 15334 15337 15340 15343 15346 15349 15352 15355 15358 15361 15364 15367 15370 15373 15376 15379 15382 15385 15388 15391 15394 15397 15400 15403 15406 15409 15412 15415 15418 15421 15424 15427 15429 15432 15435 15438 15441 15444 15447 15450 15452 15455 15458 15460 15463 15466 15469 15472 15475 15478 15481 15484 15487 15490 15493 15496 15499 15502 15505 15508 15511 15514 15517 15520 15523 15526 15529 15531 15534 15537 15540 15543 15546 15549 15552 15555 15558 15561 15563 15566 15569 15572 15575 15577 15580 15583 15586 15589 15591 15594 15596 15598 15601 15604 15607 15610 15612 15615 15618 15620 15623 15626 15628 15630 15633 15636 15639 15642 15645 15648 15651 15653 15656 15659 15662 15665 15668 15671 15674 15677 15680 15683 15686 15689 15692 15694 15697 15700 15703 15706 15709 15712 15715 15717 15719 15722 15724 15727 15729 15732 15735 15738 15740 15743 15746 15749 15752 15755 15757 15760 15763 15765 15768 15771 15774 15777 15780 15783 15786 15788 15791 15794 15797 15800 15803 15806 15809 15812 15814 15817 15820 15823 15825 15828 15831 15834 15837 15840 15842 15844 15847 15850 15852 15855 15858 15861 15864 15867 15870 15873 15876 15879 15882 15885 15888 15891 15894 15896 15899 15902 15904 15907 15909 15912 15915 15918 15921 15923 15926 15929 15932 15935 15938 15940 15943 15946 15948 15950 15953 15956 15959 15962 15964 15967 15970 15973 15976 15979 15982 15985 15988 15990 15993 15995 15998 16001 16004 16007 16010 16013 16016 16019 16021 16024 16027 16030 16033 16035 16038 16041 16044 16047 16050 16053 16056 16059 16062 16065 16068 16071 16074 16077 16080 16083 16086 16089 16092 16095 16098 16101 16104 16107 16110 16113 16116 16119 16122 16125 16128 16131 16134 16136 16139 16142 16145 16148 16151 16154 16157 16159 16162 16165 16168 16171 16174 16177 16180 16183 16186 16189 16192 16195 16197 16200 16203 16206 16209 16211 16214 16217 16220 16223 16226 16229 16232 16235 16238 16241 16244 16247 16250 16252 16255 16258 16260 16263 16266 16269 16272 16274 16277 16280 16283 16286 16289 16292 16295 16298 16301 16304 16307 16309 16312 16314 16317 16320 16322 16325 16328 16331 16334 16336 16339 16342 16345 16348 16351 16354 16357 16360 16363 16366 16369 16372 16375 16378 16381 16384 16387 16390 16393 16396 16399 16402 16405 16408 16411 16414 16417 16420 16422 16425 16428 16431 16434 16436 16439 16442 16445 16448 16451 16454 16457 16460 16463 16465 16468 16471 16474 16476 16479 16482 16485 16488 16491 16494 16496 16499 16501 16504 16506 16509 16512 16515 16518 16521 16524 16527 16530 16533 16536 16539 16542 16545 16548 16551 16554 16557 16560 16563 16566 16569 16572 16575 16578 16581 16584 16587 16590 16593 16596 16599 16602 16605 16608 16611 16613 16616 16618 16621 16624 16627 16630 16633 16636 16639 16642 16644 16647 16650 16653 16656 16659 16662 16665 16668 16671 16674 16677 16680 16682 16685 16688 16691 16694 16697 16700 16703 16706 16709 16712 16715 16718 16721 16723 16726 16729 16731 16734 16737 16740 16743 16745 16748 16751 16754 16757 16759 16762 16765 16768 16771 16774 16776 16778 16781 16783 16786 16789 16791 16794 16797 16800 16803 16805 16808 16810 16813 16816 16819 16822 16825 16828 16831 16834 16836 16839 16842 16845 16848 16850 16853 16856 16859 16862 16865 16868 16871 16874 16877 16880 16883 16886 16889 16892 16895 16898 16901 16904 16907 16910 16913 16916 16918 16921 16924 16927 16930 16933 16936 16939 16942 16945 16948 16951 16954 16957 16960 16963 16966 16969 16972 16975 16978 16981 16983 16986 16989 16992 16995 16998 17001 17004 17006 17009 17011 17014 17017 17020 17023 17026 17029 17032 17035 17038 17041 17044 17047 17050 17053 17056 17059 17062 17065 17068 17071 17074 17077 17080 17083 17086 17089 17091 17094 17097 17100 17103 17106 17108 17111 17113 17116 17119 17122 17125 17127 17129 17131 17134 17136 17139 17142 17145 17147 17150 17153 17156 17159 17161 17164 17166 17169 17172 17175 17178 17180 17183 17186 17189 17191 17193 17195 17198 17200 17203 17205 17208 17211 17213 17216 17219 17222 17225 17228 17231 17234 17237 17240 17243 17245 17248 17250 17253 17255 17258 17261 17264 17267 17269 17272 17275 17278 17281 17283 17286 17289 17292 17295 17298 17301 17304 17307 17310 17313 17315 17318 17320 17323 17326 17328 17331 17334 17336 17339 17342 17345 17348 17351 17353 17356 17359 17362 17365 17368 17371 17374 17377 17380 17383 17386 17389 17391 17394 17397 17400 17402 17405 17408 17411 17414 17417 17419 17422 17425 17428 17431 17434 17437 17440 17443 17446 17449 17452 17455 17458 17461 17464 17467 17470 17473 17476 17479 17482 17484 17487 17490 17493 17496 17498 17501 17504 17507 17509 17512 17514 17517 17520 17522 17525 17527 17530 17533 17536 17539 17542 17545 17547 17550 17553 17556 17559 17561 17564 17566 17569 17572 17575 17578 17581 17584 17587 17589 17592 17595 17598 17601 17604 17607 17610 17612 17615 17618 17621 17624 17627 17630 17633 17636 17639 17642 17645 17648 17651 17654 17657 17660 17663 17665 17668 17671 17674 17676 17679 17682 17685 17688 17691 17694 17697 17700 17703 17706 17709 17712 17715 17718 17720 17723 17726 17729 17732 17735 17738 17741 17744 17747 17750 17753 17756 17759 17762 17765 17768 17771 17774 17777 17780 17783 17786 17789 17792 17795 17798 17801 17803 17806 17808 17811 17814 17817 17819 17822 17825 17828 17830 17833 17836 17838 17840 17843 17846 17849 17852 17855 17858 17861 17864 17866 17869 17872 17874 17877 17880 17883 17886 17888 17891 17893 17896 17899 17902 17904 17907 17910 17913 17916 17919 17922 17925 17928 17931 17934 17936 17939 17942 17944 17947 17950 17952 17955 17958 17961 17964 17967 17970 17973 17975 17978 17981 17983 17985 17988 17991 17994 17996 17999 18002 18005 18008 18011 18014 18016 18019 18022 18025 18028 18030 18033 18036 18039 18041 18044 18047 18050 18053 18055 18058 18061 18063 18066 18069 18072 18075 18078 18081 18084 18087 18090 18093 18096 18098 18101 18104 18107 18110 18112 18115 18117 18120 18122 18125 18127 18130 18133 18136 18139 18142 18145 18148 18151 18154 18157 18160 18162 18164 18167 18170 18173 18176 18179 18182 18184 18187 18190 18192 18195 18198 18201 18204 18207 18210 18212 18215 18218 18221 18223 18226 18228 18231 18234 18237 18239 18242 18245 18248 18251 18254 18257 18259 18262 18265 18268 18271 18274 18277 18279 18282 18284 18287 18290 18293 18295 18298 18301 18304 18307 18309 18312 18315 18318 18321 18324 18327 18330 18332 18335 18337 18340 18342 18345 18348 18351 18353 18355 18358 18361 18363 18366 18369 18372 18375 18378 18380 18383 18385 18387 18389 18391 18394 18397 18400 18403 18406 18408 18410 18413 18416 18418 18421 18424 18427 18429 18432 18435 18438 18441 18444 18447 18450 18453 18456 18458 18461 18464 18467 18469 18472 18475 18478 18481 18484 18487 18490 18492 18495 18497 18500 18503 18506 18509 18511 18514 18516 18519 18522 18525 18528 18530 18533 18536 18539 18542 18545 18548 18551 18554 18557 18559 18562 18565 18568 18571 18574 18577 18580 18583 18586 18589 18592 18595 18598 18601 18604 18607 18610 18613 18616 18619 18622 18624 18627 18630 18633 18636 18638 18641 18644 18647 18650 18653 18655 18658 18660 18663 18666 18669 18672 18675 18678 18681 18684 18687 18690 18693 18695 18698 18700 18703 18705 18707 18710 18712 18715 18717 18720 18723 18726 18728 18731 18734 18737 18739 18742 18745 18748 18751 18753 18756 18758 18761 18764 18767 18770 18773 18776 18779 18782 18784 18787 18790 18793 18796 18799 18802 18805 18808 18810 18813 18816 18819 18822 18825 18828 18831 18834 18837 18839 18842 18845 18847 18850 18853 18856 18858 18861 18864 18867 18870 18873 18876 18879 18882 18885 18888 18891 18894 18896 18899 18902 18905 18908 18910 18913 18916 18919 18922 18925 18928 18930 18933 18936 18939 18942 18944 18947 18949 18952 18955 18958 18961 18964 18967 18970 18972 18975 18978 18981 18983 18985 18988 18991 18994 18997 18999 19002 19004 19007 19010 19012 19015 19018 19021 19024 19027 19030 19033 19036 19039 19042 19045 19048 19051 19054 19057 19060 19063 19066 19069 19072 19075 19078 19081 19084 19087 19090 19093 19096 19099 19102 19105 19108 19111 19114 19117 19119 19122 19125 19128 19130 19133 19136 19139 19142 19145 19148 19151 19154 19157 19160 19163 19166 19169 19171 19174 19176 19179 19182 19185 19188 19191 19194 19197 19200 19203 19206 19209 19212 19215 19217 19220 19223 19225 19228 19231 19234 19237 19240 19242 19245 19248 19251 19254 19257 19260 19263 19266 19269 19272 19275 19278 19281 19284 19287 19290 19293 19296 19299 19301 19303 19306 19309 19311 19314 19317 19319 19322 19325 19328 19331 19334 19337 19340 19342 19345 19348 19351 19354 19356 19359 19362 19365 19368 19371 19374 19377 19380 19383 19386 19389 19392 19395 19398 19400 19403 19406 19408 19411 19414 19417 19420 19423 19426 19429 19431 19433 19436 19439 19442 19445 19448 19451 19454 19457 19460 19463 19466 19469 19472 19475 19478 19481 19483 19486 19489 19492 19495 19497 19500 19503 19505 19508 19511 19513 19516 19519 19522 19525 19528 19531 19534 19537 19540 19543 19546 19549 19551 19554 19557 19560 19563 19565 19568 19571 19574 19577 19580 19583 19586 19589 19592 19594 19596 19598 19601 19604 19607 19609 19612 19615 19617 19619 19622 19624 19627 19630 19633 19635 19638 19641 19644 19647 19650 19653 19656 19659 19662 19665 19668 19671 19674 19677 19680 19683 19686 19689 19692 19695 19698 19701 19704 19707 19710 19713 19716 19719 19722 19725 19728 19731 19734 19737 19740 19743 19746 19749 19752 19755 19758 19761 19764 19767 19770 19773 19776 19779 19781 19784 19786 19789 19792 19795 19798 19801 19804 19807 19810 19813 19815 19818 19821 19824 19827 19830 19833 19835 19838 19841 19844 19847 19850 19852 19855 19858 19861 19864 19867 19870 19873 19876 19879 19882 19885 19888 19891 19894 19897 19899 19902 19905 19908 19911 19914 19917 19920 19922 19925 19928 19931 19934 19937 19939 19941 19944 19947 19950 19953 19955 19958 19961 19964 19967 19970 19973 19976 19979 19982 19985 19988 19991 19994 19997 20000 20003 20006 20009 20012 20015 20018 20020 20023 20026 20029 20032 20035 20038 20040 20043 20046 20049 20051 20054 20057 20060 20063 20066 20069 20072 20075 20078 20081 20084 20087 20090 20093 20096 20099 20102 20105 20107 20110 20112 20115 20118 20121 20124 20127 20129 20131 20134 20137 20140 20142 20145 20148 20151 20154 20157 20160 20162 20165 20168 20171 20174 20177 20179 20182 20184 20187 20190 20192 20195 20198 20201 20204 20206 20209 20212 20215 20218 20220 20223 20226 20229 20232 20234 20237 20240 20243 20246 20249 20252 20255 20258 20261 20264 20267 20270 20273 20275 20278 20281 20284 20287 20290 20293 20296 20299 20302 20305 20308 20311 20314 20317 20320 20323 20325 20328 20331 20334 20337 20339 20342 20345 20348 20351 20353 20356 20359 20362 20365 20368 20371 20374 20377 20380 20383 20385 20388 20391 20394 20397 20399 20402 20405 20408 20411 20414 20417 20420 20423 20426 20429 20432 20435 20438 20441 20444 20446 20449 20452 20455 20457 20460 20463 20466 20469 20472 20475 20478 20481 20484 20487 20490 20493 20496 20499 20501 20504 20507 20510 20513 20516 20519 20522 20525 20528 20531 20534 20536 20539 20542 20544 20547 20550 20553 20556 20559 20562 20564 20566 20569 20572 20575 20578 20580 20583 20585 20588 20591 20594 20596 20599 20602 20604 20607 20610 20613 20616 20619 20622 20625 20628 20631 20634 20637 20640 20643 20646 20649 20652 20654 20657 20660 20663 20666 20669 20672 20675 20678 20680 20682 20685 20688 20691 20693 20695 20698 20700 20703 20705 20708 20711 20714 20717 20719 20722 20725 20728 20731 20734 20737 20740 20743 20746 20749 20752 20755 20758 20760 20763 20765 20768 20771 20774 20777 20780 20783 20786 20789 20791 20793 20796 20799 20801 20803 20805 20808 20811 20814 20817 20820 20823 20825 20828 20831 20833 20836 20839 20841 20843 20845 20847 20850 20853 20856 20859 20862 20865 20868 20871 20874 20877 20880 20883 20886 20888 20891 20894 20896 20899 20901 20904 20907 20910 20913 20916 20919 20922 20924 20926 20929 20932 20934 20937 20940 20942 20945 20948 20951 20954 20956 20958 20960 20962 20965 20968 20971 20974 20977 20980 20983 20986 20989 20992 20995 20998 21001 21004 21006 21009 21012 21014 21017 21020 21023 21026 21028 21031 21034 21037 21039 21042 21045 21047 21050 21053 21055 21058 21061 21063 21065 21068 21070 21073 21076 21079 21082 21085 21088 21090 21093 21096 21099 21102 21104 21107 21110 21113 21116 21119 21121 21124 21127 21129 21132 21134 21136 21139 21142 21145 21147 21150 21153 21156 21159 21162 21164 21167 21170 21173 21175 21178 21181 21184 21186 21189 21192 21195 21198 21201 21204 21207 21209 21212 21215 21218 21221 21224 21226 21229 21232 21235 21238 21241 21244 21247 21249 21252 21254 21256 21259 21262 21264 21267 21270 21273 21276 21279 21282 21284 21287 21290 21293 21296 21299 21302 21304 21307 21310 21313 21316 21319 21322 21324 21327 21329 21332 21334 21337 21340 21342 21345 21348 21351 21354 21356 21358 21360 21362 21365 21368 21371 21374 21377 21380 21383 21386 21388 21391 21394 21397 21399 21402 21404 21407 21410 21413 21416 21419 21422 21425 21428 21431 21434 21437 21440 21443 21446 21449 21452 21454 21457 21459 21462 21465 21468 21471 21474 21477 21480 21483 21485 21488 21491 21494 21497 21500 21502 21505 21508 21510 21513 21516 21519 21522 21525 21528 21530 21532 21535 21538 21540 21543 21546 21549 21552 21555 21558 21561 21564 21567 21570 21573 21575 21577 21580 21583 21586 21589 21591 21594 21597 21600 21603 21606 21609 21612 21615 21617 21620 21623 21626 21629 21631 21634 21637 21640 21643 21646 21649 21651 21654 21656 21659 21661 21664 21667 21670 21673 21676 21679 21682 21685 21688 21691 21694 21697 21700 21703 21706 21709 21712 21715 21717 21720 21723 21726 21729 21732 21735 21738 21741 21744 21747 21750 21753 21756 21759 21762 21765 21768 21770 21772 21775 21778 21781 21784 21787 21790 21793 21796 21799 21802 21805 21808 21811 21814 21817 21820 21823 21826 21829 21832 21835 21838 21841 21844 21847 21850 21853 21856 21859 21862 21865 21868 21871 21874 21877 21880 21883 21886 21889 21892 21895 21898 21901 21904 21907 21909 21912 21914 21917 21920 21923 21926 21929 21932 21935 21937 21940 21943 21946 21948 21951 21953 21955 21957 21960 21962 21964 21967 21970 21972 21974 21976 21979 21982 21985 21988 21991 21993 21996 21998 22000 22003 22006 22009 22012 22015 22018 22021 22023 22026 22029 22031 22034 22037 22039 22041 22044 22047 22050 22053 22056 22059 22061 22064 22067 22069 22071 22074 22077 22079 22082 22085 22088 22090 22093 22096 22099 22102 22104 22107 22110 22113 22115 22118 22121 22123 22126 22129 22132 22135 22138 22141 22144 22147 22150 22153 22156 22159 22162 22165 22168 22171 22174 22177 22180 22182 22184 22187 22190 22193 22195 22198 22201 22204 22207 22209 22212 22215 22218 22221 22224 22226 22228 22231 22234 22237 22240 22243 22246 22249 22252 22255 22257 22260 22263 22266 22269 22272 22275 22278 22281 22284 22287 22290 22293 22296 22299 22302 22305 22308 22311 22314 22317 22320 22323 22326 22329 22332 22335 22338 22340 22343 22345 22347 22350 22353 22356 22359 22362 22365 22368 22371 22374 22377 22380 22383 22386 22389 22392 22395 22398 22401 22404 22407 22410 22413 22416 22419 22422 22425 22428 22430 22433 22436 22438 22441 22444 22446 22449 22452 22454 22457 22459 22462 22465 22468 22471 22474 22477 22480 22482 22485 22488 22491 22494 22497 22500 22503 22506 22509 22512 22515 22518 22520 22523 22525 22528 22530 22533 22536 22539 22542 22545 22547 22550 22553 22556 22559 22561 22564 22567 22569 22572 22575 22578 22581 22584 22587 22590 22593 22595 22598 22601 22604 22607 22610 22613 22615 22618 22621 22624 22627 22629 22632 22635 22638 22640 22643 22646 22649 22652 22655 22658 22661 22664 22667 22670 22673 22676 22679 22682 22685 22688 22691 22694 22696 22699 22701 22704 22707 22710 22712 22715 22718 22721 22724 22727 22730 22733 22736 22739 22742 22745 22748 22751 22754 22757 22760 22763 22766 22769 22771 22774 22777 22780 22782 22785 22788 22791 22793 22796 22799 22802 22805 22808 22811 22814 22817 22820 22823 22826 22829 22832 22835 22838 22840 22843 22846 22849 22852 22854 22857 22860 22862 22865 22868 22871 22874 22877 22880 22882 22885 22887 22890 22892 22894 22896 22899 22902 22905 22907 22909 22912 22915 22918 22921 22924 22927 22930 22932 22935 22938 22941 22943 22946 22948 22951 22954 22957 22960 22963 22966 22969 22972 22975 22977 22980 22983 22986 22989 22992 22995 22998 23001 23003 23006 23009 23012 23015 23017 23020 23023 23026 23029 23032 23035 23038 23041 23044 23047 23050 23053 23056 23059 23062 23065 23068 23071 23074 23077 23080 23082 23084 23087 23090 23093 23096 23099 23102 23105 23108 23110 23113 23116 23119 23122 23125 23128 23131 23134 23137 23140 23142 23145 23148 23151 23154 23157 23160 23162 23165 23168 23171 23174 23177 23179 23182 23184 23187 23190 23192 23194 23197 23200 23203 23206 23209 23212 23215 23218 23221 23224 23227 23230 23233 23236 23239 23242 23245 23248 23251 23254 23257 23260 23263 23266 23269 23272 23275 23278 23281 23284 23287 23290 23293 23296 23299 23302 23305 23308 23311 23314 23317 23320 23323 23326 23329 23332 23335 23338 23340 23342 23345 23348 23350 23353 23356 23359 23362 23365 23367 23369 23372 23375 23377 23379 23382 23385 23388 23391 23394 23397 23400 23403 23406 23409 23411 23414 23417 23420 23423 23426 23429 23432 23435 23438 23441 23444 23447 23450 23453 23456 23458 23461 23464 23467 23470 23473 23476 23479 23482 23485 23488 23491 23494 23497 23499 23502 23504 23506 23508 23511 23514 23517 23520 23523 23526 23529 23532 23534 23536 23539 23542 23545 23548 23550 23553 23556 23559 23562 23565 23568 23571 23574 23576 23579 23582 23585 23588 23591 23594 23597 23600 23603 23606 23609 23612 23615 23618 23621 23624 23627 23629 23632 23635 23638 23641 23644 23647 23649 23652 23655 23657 23660 23663 23666 23669 23672 23675 23678 23681 23684 23687 23690 23693 23696 23699 23702 23705 23708 23711 23713 23716 23719 23722 23724 23727 23730 23732 23735 23737 23739 23742 23745 23747 23750 23753 23756 23758 23761 23764 23766 23769 23771 23773 23776 23779 23782 23785 23787 23790 23793 23796 23799 23802 23805 23807 23810 23812 23815 23818 23821 23823 23826 23829 23832 23835 23837 23840 23842 23844 23847 23850 23853 23856 23859 23861 23864 23866 23869 23871 23874 23876 23878 23881 23884 23887 23890 23893 23896 23899 23901 23904 23906 23909 23912 23914 23917 23920 23922 23925 23928 23931 23934 23937 23940 23943 23946 23949 23952 23955 23958 23961 23964 23967 23970 23973 23976 23979 23982 23985 23988 23991 23994 23997 24000 24003 24006 24009 24012 24015 24017 24020 24023 24026 24029 24032 24035 24038 24041 24044 24047 24050 24053 24056 24059 24062 24065 24068 24071 24074 24077 24080 24083 24086 24088 24091 24094 24097 24100 24103 24105 24107 24110 24113 24116 24119 24122 24125 24128 24131 24134 24137 24140 24143 24146 24149 24152 24155 24158 24161 24164 24167 24170 24172 24175 24178 24181 24184 24187 24190 24193 24196 24199 24202 24205 24208 24211 24213 24216 24218 24221 24224 24227 24229 24232 24235 24238 24241 24244 24247 24250 24253 24255 24258 24260 24263 24266 24269 24272 24275 24277 24280 24283 24286 24289 24292 24295 24298 24301 24304 24307 24310 24312 24315 24318 24321 24324 24327 24330 24333 24336 24339 24342 24345 24347 24350 24353 24356 24359 24362 24365 24368 24371 24373 24376 24379 24382 24385 24388 24391 24394 24397 24400 24403 24406 24409 24412 24415 24418 24421 24424 24427 24430 24433 24436 24439 24442 24445 24448 24451 24453 24456 24459 24461 24464 24467 24470 24473 24476 24479 24482 24485 24488 24491 24494 24497 24500 24503 24506 24509 24512 24515 24518 24521 24524 24527 24530 24533 24536 24539 24542 24545 24547 24550 24552 24555 24557 24560 24563 24566 24569 24572 24574 24577 24580 24583 24586 24588 24591 24594 24597 24599 24602 24605 24608 24611 24614 24617 24620 24623 24626 24629 24632 24635 24638 24641 24644 24647 24650 24653 24655 24657 24659 24662 24665 24668 24671 24674 24677 24680 24683 24686 24689 24692 24695 24698 24700 24703 24706 24709 24712 24715 24718 24721 24724 24727 24730 24733 24736 24738 24741 24744 24746 24749 24752 24755 24758 24761 24764 24767 24770 24773 24776 24779 24782 24785 24788 24791 24794 24797 24800 24803 24806 24809 24811 24813 24816 24819 24822 24825 24828 24831 24834 24837 24840 24843 24846 24849 24852 24855 24857 24860 24863 24865 24868 24871 24874 24877 24879 24882 24885 24888 24891 24894 24897 24899 24902 24905 24908 24911 24914 24917 24920 24923 24926 24929 24932 24935 24938 24941 24944 24947 24950 24953 24955 24958 24961 24964 24967 24970 24972 24975 24978 24981 24984 24987 24990 24993 24996 24999 25002 25005 25008 25011 25014 25017 25020 25023 25026 25029 25032 25035 25038 25041 25044 25047 25050 25053 25056 25058 25061 25063 25066 25069 25072 25075 25077 25079 25082 25085 25088 25091 25094 25097 25100 25103 25106 25109 25112 25115 25118 25121 25124 25127 25130 25133 25136 25139 25142 25145 25148 25151 25154 25157 25160 25163 25166 25169 25172 25175 25178 25181 25184 25186 25189 25192 25195 25198 25200 25203 25206 25209 25212 25215 25218 25221 25224 25227 25230 25233 25235 25238 25241 25244 25247 25250 25253 25256 25259 25262 25265 25268 25271 25274 25277 25280 25283 25286 25288 25290 25293 25295 25298 25301 25304 25307 25310 25313 25316 25319 25322 25325 25327 25330 25333 25336 25339 25342 25345 25348 25351 25354 25357 25360 25363 25366 25369 25372 25375 25378 25380 25383 25386 25389 25392 25394 25397 25400 25403 25406 25409 25412 25415 25418 25421 25424 25427 25430 25433 25436 25439 25442 25445 25448 25451 25454 25457 25460 25463 25466 25469 25472 25475 25478 25481 25484 25487 25490 25493 25496 25499 25502 25505 25508 25511 25514 25517 25520 25523 25526 25529 25532 25535 25538 25541 25544 25547 25550 25553 25556 25559 25562 25565 25568 25571 25574 25577 25580 25583 25586 25589 25592 25595 25598 25601 25604 25607 25610 25613 25616 25619 25622 25625 25628 25631 25634 25637 25639 25642 25645 25648 25651 25654 25657 25660 25662 25665 25668 25670 25673 25676 25679 25682 25685 25688 25691 25694 25697 25700 25703 25706 25708 25711 25713 25716 25718 25721 25724 25727 25730 25733 25736 25739 25742 25744 25747 25750 25753 25756 25759 25762 25765 25768 25771 25773 25776 25779 25782 25785 25788 25791 25794 25797 25800 25803 25806 25809 25812 25815 25818 25821 25824 25827 25830 25833 25836 25838 25841 25844 25847 25850 25853 25856 25859 25862 25865 25868 25871 25874 25876 25879 25882 25885 25888 25891 25893 25896 25899 25901 25904 25907 25910 25913 25915 25917 25920 25923 25925 25928 25931 25934 25937 25940 25943 25946 25948 25950 25953 25956 25959 25962 25965 25968 25971 25974 25977 25980 25983 25986 25988 25991 25994 25997 26000 26002 26005 26008 26011 26014 26017 26020 26023 26026 26028 26031 26034 26037 26040 26042 26045 26048 26051 26054 26056 26059 26062 26065 26068 26071 26074 26077 26079 26082 26085 26088 26091 26094 26096 26099 26102 26105 26107 26110 26113 26116 26119 26122 26124 26127 26130 26133 26136 26139 26142 26145 26148 26151 26154 26157 26160 26163 26166 26168 26171 26174 26176 26179 26182 26185 26188 26191 26194 26197 26200 26203 26206 26209 26212 26215 26218 26221 26224 26227 26230 26233 26236 26239 26241 26244 26247 26249 26252 26255 26257 26260 26263 26266 26269 26272 26275 26278 26281 26284 26287 26290 26293 26296 26299 26302 26305 26308 26311 26314 26317 26320 26323 26326 26329 26332 26335 26338 26341 26344 26347 26349 26352 26355 26358 26361 26363 26366 26369 26371 26374 26376 26379 26382 26385 26388 26390 26393 26395 26398 26401 26403 26406 26408 26411 26413 26415 26418 26421 26423 26426 26428 26431 26433 26436 26439 26441 26444 26447 26450 26453 26456 26459 26461 26464 26466 26469 26472 26474 26476 26479 26482 26484 26487 26489 26492 26495 26497 26500 26503 26505 26508 26511 26513 26515 26517 26520 26522 26525 26528 26531 26534 26537 26540 26543 26546 26548 26551 26554 26557 26560 26563 26566 26569 26571 26574 26577 26580 26583 26586 26589 26592 26595 26598 26601 26604 26607 26610 26613 26615 26618 26621 26624 26627 26630 26633 26636 26639 26642 26645 26648 26651 26654 26657 26660 26663 26666 26669 26672 26674 26677 26680 26683 26686 26689 26692 26695 26698 26701 26704 26707 26710 26713 26716 26719 26722 26725 26728 26731 26734 26737 26740 26743 26746 26749 26752 26755 26758 26761 26764 26767 26769 26772 26775 26778 26780 26783 26785 26787 26790 26792 26795 26798 26801 26803 26806 26809 26812 26815 26817 26819 26821 26824 26827 26830 26833 26836 26839 26842 26845 26848 26851 26854 26857 26860 26863 26866 26869 26872 26874 26877 26880 26883 26886 26889 26892 26895 26898 26901 26903 26906 26909 26912 26914 26917 26920 26923 26926 26929 26932 26935 26938 26941 26944 26947 26950 26952 26955 26958 26960 26963 26966 26969 26972 26975 26978 26981 26984 26987 26990 26993 26996 26999 27002 27005 27008 27011 27014 27017 27020 27023 27026 27028 27031 27034 27037 27040 27043 27046 27049 27052 27055 27058 27061 27064 27067 27070 27073 27076 27079 27082 27084 27087 27090 27093 27096 27099 27102 27105 27107 27110 27113 27116 27119 27121 27124 27127 27130 27133 27136 27139 27142 27145 27148 27151 27154 27157 27160 27163 27166 27169 27172 27175 27178 27181 27184 27187 27190 27193 27196 27199 27202 27205 27208 27211 27214 27217 27220 27223 27226 27228 27230 27233 27236 27239 27242 27244 27247 27249 27252 27255 27258 27261 27264 27266 27269 27272 27275 27278 27281 27284 27287 27290 27292 27294 27297 27300 27303 27306 27308 27311 27314 27317 27320 27323 27326 27329 27332 27335 27338 27341 27344 27347 27350 27353 27356 27359 27362 27365 27368 27371 27373 27376 27379 27382 27385 27388 27391 27393 27396 27399 27401 27404 27407 27410 27413 27416 27419 27422 27425 27428 27430 27433 27436 27439 27442 27445 27448 27451 27454 27456 27459 27462 27465 27468 27471 27474 27477 27480 27483 27486 27489 27492 27495 27498 27501 27504 27507 27509 27512 27515 27517 27520 27523 27526 27529 27532 27535 27538 27541 27544 27547 27550 27553 27556 27559 27562 27565 27568 27571 27574 27577 27580 27583 27586 27589 27592 27595 27598 27601 27604 27606 27609 27611 27614 27617 27620 27623 27626 27629 27632 27635 27638 27641 27644 27647 27650 27653 27656 27659 27662 27665 27668 27671 27674 27677 27679 27682 27685 27688 27690 27693 27696 27699 27702 27705 27708 27711 27714 27717 27720 27723 27726 27728 27731 27734 27737 27739 27741 27744 27747 27749 27752 27755 27758 27761 27764 27767 27770 27773 27776 27778 27781 27784 27787 27790 27793 27796 27799 27802 27805 27808 27811 27814 27817 27819 27822 27824 27827 27830 27833 27836 27839 27842 27845 27848 27851 27854 27857 27860 27863 27866 27869 27872 27875 27878 27881 27884 27887 27890 27893 27896 27899 27902 27905 27908 27911 27913 27916 27919 27922 27925 27928 27931 27933 27936 27939 27942 27945 27948 27951 27954 27957 27960 27963 27966 27969 27972 27975 27978 27981 27983 27986 27988 27991 27994 27997 28000 28003 28006 28009 28011 28014 28017 28020 28022 28025 28028 28031 28034 28036 28039 28042 28045 28048 28051 28054 28056 28059 28062 28065 28068 28070 28073 28075 28078 28081 28084 28087 28090 28093 28096 28099 28101 28103 28106 28109 28112 28114 28116 28119 28122 28125 28128 28131 28134 28137 28139 28141 28144 28146 28148 28151 28154 28157 28160 28162 28165 28167 28170 28173 28176 28179 28182 28185 28187 28190 28193 28196 28199 28201 28204 28207 28210 28213 28215 28218 28221 28224 28227 28230 28232 28235 28238 28240 28243 28246 28249 28252 28254 28257 28260 28263 28266 28269 28272 28275 28278 28281 28283 28285 28288 28291 28294 28297 28300 28303 28306 28309 28312 28315 28318 28321 28324 28326 28329 28331 28334 28337 28340 28343 28346 28349 28352 28355 28358 28361 28364 28367 28370 28373 28376 28379 28382 28385 28388 28391 28394 28396 28399 28402 28405 28408 28411 28414 28417 28420 28423 28426 28429 28432 28435 28438 28441 28444 28447 28450 28453 28456 28459 28462 28465 28468 28471 28474 28476 28479 28482 28485 28488 28491 28494 28497 28500 28502 28505 28507 28510 28513 28516 28519 28522 28525 28527 28530 28533 28536 28539 28542 28545 28548 28551 28554 28557 28560 28563 28566 28569 28572 28575 28578 28581 28584 28587 28590 28593 28596 28599 28602 28605 28607 28610 28613 28616 28619 28622 28625 28628 28631 28633 28636 28639 28641 28644 28647 28649 28652 28655 28658 28661 28664 28666 28669 28672 28675 28678 28681 28684 28687 28690 28693 28695 28698 28701 28704 28707 28710 28713 28716 28719 28722 28725 28728 28731 28734 28737 28740 28742 28745 28748 28751 28754 28757 28760 28763 28766 28768 28771 28774 28777 28780 28783 28786 28789 28792 28795 28798 28801 28804 28807 28810 28813 28816 28819 28822 28824 28827 28829 28832 28834 28837 28840 28842 28844 28847 28850 28853 28856 28859 28862 28865 28868 28871 28874 28877 28880 28883 28886 28888 28891 28894 28897 28900 28903 28906 28908 28911 28914 28917 28919 28922 28925 28928 28931 28934 28937 28940 28943 28946 28949 28952 28955 28957 28960 28963 28966 28969 28971 28973 28975 28978 28981 28984 28987 28990 28993 28996 28998 29001 29004 29006 29009 29011 29014 29016 29019 29022 29025 29028 29031 29033 29036 29039 29042 29045 29048 29051 29054 29057 29060 29063 29066 29069 29072 29075 29078 29081 29084 29087 29090 29093 29095 29098 29101 29104 29106 29109 29111 29113 29115 29118 29121 29124 29127 29130 29132 29135 29138 29141 29144 29147 29150 29153 29156 29159 29162 29165 29168 29171 29174 29177 29180 29183 29186 29189 29192 29195 29198 29201 29204 29207 29210 29212 29215 29218 29220 29223 29226 29229 29232 29235 29238 29241 29244 29246 29249 29251 29254 29257 29260 29263 29266 29269 29272 29275 29277 29280 29283 29286 29289 29291 29294 29297 29299 29302 29305 29307 29310 29313 29316 29318 29321 29324 29327 29330 29333 29336 29339 29342 29345 29348 29351 29354 29357 29360 29363 29366 29369 29372 29375 29378 29380 29383 29386 29389 29392 29395 29398 29400 29403 29406 29409 29412 29415 29417 29420 29423 29426 29429 29432 29434 29437 29439 29441 29444 29447 29450 29453 29456 29459 29462 29465 29468 29471 29474 29477 29479 29482 29485 29488 29491 29493 29496 29498 29500 29503 29506 29509 29511 29514 29517 29520 29523 29526 29529 29532 29535 29538 29541 29544 29547 29550 29553 29556 29559 29562 29565 29568 29571 29574 29577 29579 29582 29584 29587 29590 29592 29595 29598 29600 29603 29606 29608 29611 29614 29617 29619 29621 29624 29627 29630 29633 29636 29639 29642 29644 29647 29650 29653 29656 29659 29662 29665 29668 29670 29673 29676 29679 29682 29685 29688 29691 29693 29696 29699 29702 29704 29707 29709 29711 29714 29717 29720 29722 29725 29728 29731 29734 29737 29740 29743 29746 29749 29752 29755 29758 29761 29764 29767 29770 29773 29776 29779 29782 29785 29788 29790 29793 29796 29798 29801 29804 29807 29809 29812 29815 29818 29821 29824 29827 29830 29832 29834 29837 29840 29842 29845 29848 29851 29854 29857 29860 29863 29866 29869 29872 29875 29878 29881 29884 29887 29890 29893 29896 29899 29902 29905 29908 29911 29914 29917 29920 29923 29926 29929 29932 29935 29938 29941 29944 29947 29949 29952 29955 29958 29961 29964 29967 29970 29972 29975 29978 29980 29983 29986 29988 29991 29994 29997 30000 30003 30006 30009 30012 30015 30018 30021 30024 30027 30030 30033 30036 30039 30042 30045 30047 30050 30053 30056 30059 30061 30064 30067 30070 30073 30076 30079 30082 30085 30088 30091 30093 30096 30099 30102 30105 30107 30110 30113 30116 30119 30121 30123 30126 30128 30131 30134 30137 30140 30143 30146 30149 30152 30155 30158 30161 30164 30167 30170 30172 30175 30178 30181 30184 30187 30190 30193 30196 30199 30201 30204 30207 30210 30213 30216 30219 30222 30225 30228 30231 30234 30237 30240 30243 30246 30249 30252 30255 30258 30261 30264 30267 30270 30273 30276 30279 30282 30285 30288 30291 30294 30297 30300 30303 30306 30309 30312 30315 30318 30321 30324 30326 30329 30332 30335 30338 30340 30343 30346 30348 30351 30354 30357 30360 30363 30366 30368 30370 30373 30376 30379 30382 30384 30387 30390 30393 30396 30399 30402 30405 30408 30411 30414 30417 30420 30423 30426 30429 30432 30435 30438 30441 30444 30447 30450 30453 30456 30459 30462 30465 30468 30471 30474 30477 30480 30483 30486 30489 30492 30495 30498 30501 30504 30507 30510 30513 30516 30519 30522 30525 30528 30531 30534 30537 30540 30543 30546 30549 30552 30555 30558 30561 30564 30567 30569 30572 30575 30578 30581 30584 30586 30589 30591 30594 30597 30600 30603 30606 30609 30612 30615 30618 
</DataArray>
<DataArray type="UInt32" Name="types" format="ascii">
3 5 5 5 5 5 5 5 5 3 5 5 5 3 5 5 5 5 5 5 5 5 5 5 5 5 5 5 5 3 5 5 3 5 5 5 3 5 5 5 3 5 5 5 5 5 5 5 5 3 5 5 5 5 5 5 3 5 5 5 5 5 5 5 5 5 3 5 5 3 5 5 5 3 5 3 5 3 3 5 5 5 5 5 5 5 5 5 3 5 3 5 5 3 5 5 5 5 5 5 5 5 5 5 5 5 5 5 5 3 5 5 5 5 3 5 5 3 3 5 5 3 5 5 5 3 3 3 5 3 5 5 5 5 5 5 5 5 5 3 3 5 5 5 5 5 5 3 5 5 5 5 5 3 3 5 5 3 5 5 3 3 5 3 3 5 5 5 5 5 5 5 5 5 5 5 5 3 5 5 3 5 5 5 5 5 5 5 5 5 5 5 5 5 5 5 5 5 5 5 5 3 5 5 5 5 5 5 5 5 5 5 5 5 5 5 5 3 5 5 3 5 5 5 5 3 3 5 5 5 5 5 5 5 5 5 5 5 5 5 5 5 3 5 5 5 3 5 5 5 5 5 5 5 5 3 3 5 5 5 5 5 5 5 5 5 3 5 5 5 5 5 3 5 3 5 5 5 5 5 3 3 5 5 5 3 5 3 5 5 5 3 5 3 5 5 3 5 5 5 3 5 5 5 5 5 3 3 5 5 3 5 3 3 5 5 3 5 3 5 5 5 5 3 5 3 5 5 3 3 3 5 3 5 3 3 5 5 5 5 5 5 5 5 5 3 5 5 5 5 5 5 5 5 5 5 5 5 5 5 5 5 5 5 5 5 5 5 5 5 3 5 3 5 5 5 5 5 3 5 3 5 5 3 5 5 5 5 3 5 3 5 5 5 5 5 5 5 5 5 5 5 5 5 3 5 5 3 5 5 5 5 5 5 5 5 5 5 5 5 5 5 5 5 5 3 5 5 5 5 5 5 5 5 5 5 3 5 5 5 3 3 5 5 5 5 5 5 5 5 5 5 5 5 5 5 5 5 5 5 5 5 5 5 5 3 5 5 3 5 5 3 5 3 5 5 5 3 5 3 3 5 5 5 5 5 5 5 5 5 5 3 5 5 5 5 5 5 5 5 5 5 5 5 5 5 5 5 5 5 5 5 5 5 5 5 5 5 5 5 5 5 5 5 3 5 5 5 5 3 5 5 5 5 5 5 5 3 5 5 5 5 5 5 5 5 5 3 5 3 3 5 5 3 5 3 5 5 5 5 5 5 5 5 3 5 5 5 5 5 3 5 5 5 5 5 5 3 5 5 5 5 5 5 5 5 3 5 3 5 5 5 5 5 3 5 3 5 5 5 5 5 5 3 5 5 5 5 5 5 5 5 5 5 3 3 5 5 5 5 3 5 5 5 5 5 5 5 5 5 5 5 5 3 5 5 3 5 5 5 5 5 5 5 5 5 5 3 3 5 5 5 5 5 5 5 5 5 5 3 5 3 5 5 5 5 5 5 5 5 5 5 5 5 5 5 5 5 5 5 5 5 5 5 5 5 5 5 5 5 5 5 5 5 5 5 5 5 5 5 5 3 5 5 5 3 5 3 5 3 5 5 3 5 3 5 3 5 5 3 5 5 5 5 5 5 5 5 3 5 5 3 5 5 5 5 3 5 5 5 5 5 5 5 5 5 5 3 5 3 5 3 5 3 5 3 5 5 5 3 5 3 5 5 5 5 5 5 5 5 5 5 5 5 3 5 5 3 3 5 5 5 3 5 5 3 5 5 3 5 5 5 3 5 5 5 5 5 3 5 5 3 3 5 5 5 3 3 3 5 5 3 5 5 3 5 5 5 5 5 5 3 5 5 3 5 5 3 5 5 5 5 5 5 5 5 3 5 5 5 5 5 3 3 3 5 5 5 5 5 5 5 5 5 5 5 3 5 5 5 5 3 5 5 5 5 5 5 5 3 5 5 5 3 5 3 5 3 5 3 5 5 5 5 5 5 5 5 5 5 3 5 5 5 5 5 5 5 5 3 5 5 3 5 5 5 5 3 5 5 5 5 5 5 3 5 3 5 5 5 5 5 5 3 3 5 5 5 5 3 5 3 5 5 5 3 5 5 5 5 5 5 5 3 3 5 5 3 5 3 3 3 5 5 5 5 5 5 5 3 5 5 5 5 5 5 5 5 5 5 5 5 5 3 5 5 5 5 5 5 5 5 5 5 3 5 5 3 5 5 5 5 5 3 5 5 5 5 5 5 5 5 3 5 3 5 5 3 5 5 3 5 5 5 5 3 5 5 5 5 5 3 5 5 5 5 5 5 5 5 5 3 5 5 3 3 5 5 5 5 3 5 3 5 5 3 3 5 3 5 3 5 5 5 5 5 3 5 5 5 3 5 5 5 3 5 5 5 5 5 5 5 5 5 5 3 5 5 5 5 5 5 5 5 5 5 5 5 5 5 5 5 5 5 3 5 5 3 5 5 5 5 3 5 5 5 5 5 5 5 5 5 5 5 5 5 5 5 5 5 5 5 5 5 5 5 5 5 5 5 5 5 5 5 5 5 5 5 5 5 5 5 5 5 5 5 5 5 5 5 5 5 5 5 5 5 5 5 5 5 5 3 5 5 5 5 5 5 5 5 5 5 5 5 5 5 5 5 5 5 5 3 5 5 5 5 3 5 5 5 5 5 5 5 5 5 5 5 5 5 5 5 5 5 5 3 5 5 5 5 3 5 5 5 5 5 3 3 5 5 5 5 5 5 5 5 5 5 5 5 5 5 5 5 5 5 3 5 5 5 3 5 3 5 5 5 5 5 5 5 5 5 3 5 5 5 5 3 3 5 5 5 5 5 5 5 5 5 5 5 5 5 5 5 5 5 5 5 3 5 5 5 5 5 5 5 5 5 5 5 5 5 3 5 5 5 5 5 5 5 5 5 5 5 5 5 5 5 5 5 5 5 5 5 5 3 5 5 5 5 5 5 5 3 5 5 5 3 5 5 5 5 5 5 5 5 5 5 5 5 5 5 5 5 5 5 5 5 5 5 5 5 3 5 3 5 5 5 5 3 5 3 5 5 5 5 5 5 5 3 5 5 5 5 3 5 5 5 5 5 5 5 5 5 5 5 3 5 5 5 5 5 5 3 5 3 5 5 5 5 5 3 5 5 3 5 5 3 5 5 5 5 5 5 5 5 5 5 5 5 5 5 5 5 5 5 5 5 5 5 5 5 5 5 5 3 5 5 5 3 5 3 5 5 3 3 5 5 5 3 5 5 5 5 3 5 3 5 5 3 5 5 5 5 5 3 5 5 5 5 5 3 5 5 5 5 5 5 5 5 5 5 5 5 5 5 5 5 5 5 5 5 5 5 5 5 5 5 5 5 5 5 5 5 5 5 5 5 5 5 5 5 5 5 5 3 3 5 5 5 5 5 5 5 5 5 5 5 5 5 5 5 5 5 5 5 5 5 5 5 5 5 5 5 5 3 5 5 5 5 3 5 5 5 5 3 5 5 5 5 5 5 5 3 5 3 5 5 5 5 5 3 5 5 5 5 5 5 5 5 5 5 3 5 5 5 5 5 5 5 5 5 5 5 5 5 5 5 5 5 5 5 5 5 5 5 5 5 3 5 5 5 5 3 5 3 5 5 3 5 3 5 5 5 5 5 5 3 5 5 5 3 5 5 5 5 5 5 5 5 5 5 5 5 5 5 5 5 5 3 5 3 5 5 5 5 5 3 5 3 5 5 5 5 5 5 5 5 3 5 5 5 5 5 5 5 5 5 5 5 5 5 5 5 5 5 5 5 5 5 5 5 3 5 3 5 5 5 5 5 5 5 5 5 5 5 5 3 5 5 5 5 5 5 5 5 5 5 5 5 5 5 5 5 5 5 5 5 5 5 5 5 5 5 5 3 5 5 5 3 5 3 3 5 5 5 5 5 3 5 5 5 5 5 5 5 5 5 5 5 5 5 5 5 5 5 5 5 5 5 5 5 5 3 5 5 3 5 5 5 5 5 5 5 5 3 3 5 5 5 5 5 5 5 5 5 5 3 5 5 3 3 5 3 5 5 5 5 5 3 5 3 3 3 5 5 5 5 5 5 3 5 5 5 5 5 5 5 5 5 3 5 3 5 5 3 5 5 5 5 5 5 5 5 5 5 5 5 5 5 5 5 5 5 5 5 5 5 5 5 5 5 3 3 5 5 5 5 5 5 5 5 5 5 5 5 5 5 5 5 5 5 5 5 5 5 5 5 5 5 5 5 5 5 5 5 5 5 5 5 5 5 5 5 5 5 5 5 5 5 5 5 5 5 5 5 5 5 5 5 3 5 5 5 5 5 5 5 5 5 3 3 5 5 5 3 5 5 5 5 5 5 5 5 5 5 5 5 5 5 5 5 5 5 5 5 5 5 5 5 5 5 5 5 5 5 3 5 5 5 5 5 5 5 3 5 5 5 5 5 5 5 3 5 5 3 5 5 5 5 5 5 5 5 5 3 5 5 3 3 5 5 5 3 5 5 5 5 5 5 5 5 5 5 5 3 5 5 5 5 3 5 3 5 5 3 5 5 3 3 5 5 5 5 5 5 5 5 5 5 3 3 5 5 5 5 5 5 3 5 5 5 5 5 5 3 5 3 5 5 5 5 5 3 3 5 5 5 5 5 5 5 5 5 5 5 5 5 5 5 5 5 5 5 3 3 5 5 3 5 5 5 5 5 5 5 5 5 5 5 3 5 5 5 5 5 5 5 5 5 5 5 5 5 5 5 5 5 5 5 5 5 5 5 5 5 5 5 5 3 5 5 5 5 3 3 5 5 5 5 5 5 5 3 5 3 5 5 5 5 5 5 5 5 5 5 5 5 5 5 5 5 5 5 5 5 3 3 5 3 5 5 5 5 5 3 5 5 5 5 5 5 5 5 5 5 5 5 5 5 5 5 5 3 5 5 5 5 5 5 5 5 5 5 5 3 5 5 5 5 5 5 5 5 5 5 3 5 5 5 5 5 5 5 5 5 3 5 5 5 5 3 5 5 5 3 5 5 5 5 3 5 5 5 5 5 5 5 5 5 3 5 5 5 5 3 5 5 5 5 5 5 5 5 3 5 3 3 5 3 3 5 5 5 3 5 5 5 3 5 3 5 5 5 5 5 3 5 5 5 3 5 5 5 5 5 5 3 3 5 5 5 5 5 5 5 5 5 5 5 3 5 3 3 5 5 5 5 5 3 3 5 5 3 5 5 5 5 3 5 5 5 5 5 3 5 5 5 5 3 3 5 5 3 5 3 3 5 5 5 5 5 5 5 5 5 5 5 5 5 5 5 5 5 5 5 5 5 3 5 5 3 5 3 5 5 5 3 5 5 5 5 5 5 3 3 5 5 5 5 5 5 3 5 5 3 5 5 5 5 5 5 3 5 5 5 3 5 5 5 5 5 5 3 5 5 5 5 5 5 5 5 5 5 5 5 5 3 5 3 5 5 5 5 5 5 5 5 5 3 5 5 5 3 5 5 5 5 5 5 5 5 5 5 3 5 5 5 5 5 5 5 5 5 5 5 5 5 5 5 5 5 5 5 5 5 5 5 5 5 3 5 5 5 3 5 5 3 5 5 5 5 5 3 5 5 5 3 5 5 5 5 5 5 5 3 5 5 5 5 5 5 5 5 5 5 5 5 5 5 5 5 5 3 5 3 5 5 5 5 5 5 5 5 5 3 5 3 5 3 5 3 3 5 5 5 5 3 5 5 5 5 3 5 5 5 5 5 3 5 3 5 5 3 5 5 5 5 5 5 5 5 5 5 5 5 5 5 5 5 5 3 5 5 5 5 5 5 3 5 5 5 5 5 3 5 5 5 5 5 5 5 3 5 5 3 5 5 5 5 5 5 3 5 5 5 3 5 5 5 5 5 5 5 5 5 5 5 5 5 5 5 5 5 3 5 5 5 5 5 3 3 5 5 5 5 5 3 5 3 5 3 5 3 3 5 5 5 3 3 5 5 5 5 5 5 5 5 5 5 5 5 5 5 5 5 5 5 5 5 5 5 5 5 5 5 5 5 5 5 5 5 5 5 5 5 5 5 3 5 5 5 5 5 5 5 3 5 3 5 5 5 5 5 5 3 5 5 5 3 5 5 5 3 3 5 3 5 5 5 5 5 5 3 5 5 3 5 5 5 5 5 5 5 5 5 5 5 5 3 3 3 5 5 5 3 5 5 5 5 5 5 5 5 5 5 5 5 5 5 5 5 5 5 5 5 5 5 3 5 5 5 5 3 5 5 5 5 5 5 5 3 5 5 5 5 5 3 5 5 5 5 5 3 5 5 5 5 5 5 5 5 5 3 5 5 5 5 3 5 5 5 5 5 5 5 5 5 5 3 5 5 3 5 5 5 5 5 5 5 5 5 5 5 5 5 5 5 5 5 5 5 5 3 5 5 5 5 3 5 5 5 5 5 5 5 5 3 5 5 5 5 5 3 5 5 3 5 5 5 5 5 5 5 5 5 5 5 5 3 5 5 5 5 5 5 5 5 5 5 5 5 5 5 5 5 5 5 5 5 5 5 5 5 5 5 5 5 3 5 5 5 5 5 5 5 5 5 5 5 5 5 5 3 5 5 5 5 5 5 5 5 5 5 5 5 5 5 5 5 5 5 5 3 5 5 5 5 5 5 5 3 5 5 5 5 5 5 5 5 5 5 5 5 5 5 5 5 5 5 5 5 5 5 5 5 3 5 5 5 5 5 3 5 5 5 5 5 5 5 5 5 5 3 5 5 3 5 3 5 5 5 5 5 5 5 3 5 3 5 3 5 5 5 5 5 5 5 5 5 5 5 5 5 5 5 5 5 5 5 5 5 5 5 5 5 5 5 5 5 5 5 5 5 5 5 5 3 5 5 5 5 5 5 5 5 5 5 5 5 5 5 5 5 5 5 5 5 5 5 5 5 5 5 5 5 5 5 5 3 5 5 5 5 5 5 3 3 5 5 5 5 5 5 5 5 5 5 5 5 5 3 5 5 5 5 5 5 5 5 5 5 3 3 5 3 5 5 5 3 5 3 3 5 3 5 5 5 5 5 5 5 3 3 5 5 5 5 3 5 5 5 5 3 5 3 5 3 3 5 3 5 5 5 5 5 3 5 3 3 3 3 5 5 5 5 5 3 5 5 3 3 5 5 5 3 5 5 3 5 5 5 5 3 5 5 3 5 5 3 5 5 5 5 5 5 5 5 5 5 5 5 5 5 3 5 3 5 5 5 5 5 3 5 5 3 5 5 5 5 5 3 5 5 5 5 5 5 5 5 5 5 3 5 5 5 5 5 5 5 5 5 5 5 3 5 5 5 5 5 5 3 5 5 5 5 5 5 5 5 5 5 5 5 5 5 3 5 5 5 3 5 5 5 5 5 5 5 3 5 3 5 5 5 5 5 5 5 5 5 5 5 5 5 5 5 5 5 5 5 5 5 5 5 5 5 5 5 5 5 5 5 5 5 5 5 5 3 5 3 5 5 3 5 3 5 5 5 5 5 5 3 5 5 3 3 5 5 5 5 5 5 3 5 5 5 5 5 5 5 3 5 5 5 5 5 5 5 5 5 5 5 5 5 5 5 5 5 5 5 3 5 5 5 3 5 3 5 3 5 5 5 5 3 5 5 5 5 5 5 3 5 5 5 5 5 5 3 5 5 3 5 5 5 5 5 5 3 5 5 5 5 5 5 5 5 5 3 5 3 5 5 5 5 5 3 3 5 5 5 3 3 5 5 5 5 5 5 3 5 5 3 3 5 5 3 5 5 3 5 5 5 5 3 5 5 5 5 5 5 3 5 5 5 5 5 5 5 5 5 5 3 5 5 5 3 3 5 5 5 5 5 5 5 5 5 3 5 5 5 5 5 5 5 5 5 5 5 3 3 5 5 5 5 3 5 5 5 5 3 5 5 5 5 3 5 5 5 3 5 5 5 5 3 5 5 5 5 5 3 5 5 5 5 3 5 5 5 5 5 5 5 5 5 5 5 5 5 5 5 5 5 5 5 5 5 5 5 5 5 5 5 5 5 5 5 5 3 5 5 5 5 3 5 5 5 5 5 5 3 5 5 5 3 5 3 5 5 5 5 5 5 5 5 5 5 5 5 5 5 5 5 5 5 5 5 5 5 5 3 5 3 5 5 5 3 5 5 5 5 5 5 5 5 5 5 5 5 5 3 5 5 3 5 5 3 3 5 3 5 5 5 5 5 5 5 5 5 5 5 5 5 5 5 5 5 3 5 5 5 5 5 3 5 5 5 5 5 5 5 3 5 5 5 5 5 5 5 3 5 5 5 5 5 5 5 5 5 5 5 5 5 5 5 3 5 5 5 3 5 5 5 5 5 5 5 5 5 5 5 3 5 5 5 5 5 5 3 5 5 3 5 3 5 5 5 3 5 5 5 5 5 5 5 5 5 5 5 3 5 5 5 5 5 3 5 5 5 3 5 5 5 3 5 5 5 5 5 3 5 3 5 5 5 5 5 5 5 5 3 5 3 5 5 3 5 3 5 3 5 5 5 5 5 5 5 5 5 5 3 5 3 5 5 5 5 3 5 5 5 3 3 5 5 5 3 5 3 3 5 5 3 3 5 3 3 5 5 3 3 5 5 3 5 5 3 5 3 5 5 3 5 5 3 5 3 5 5 5 3 5 3 5 5 3 3 5 5 5 3 3 5 3 5 5 5 5 5 5 5 5 3 5 5 3 3 5 3 5 3 3 5 5 5 3 5 5 3 5 5 5 5 5 5 3 3 5 5 5 5 5 5 5 3 3 5 5 5 5 3 5 5 5 3 5 5 3 5 5 5 5 5 3 5 5 3 5 5 5 3 3 5 5 3 5 5 5 3 5 5 5 3 3 5 5 3 5 5 5 5 3 3 5 5 3 3 5 3 3 5 5 5 5 5 5 3 5 5 5 5 5 5 5 5 5 5 3 3 5 5 5 5 5 5 5 3 5 5 5 5 5 5 5 5 5 3 5 5 3 5 5 3 5 5 5 5 5 5 5 5 5 5 5 5 5 5 5 5 5 5 3 3 5 5 5 5 3 5 5 3 5 5 5 5 5 5 5 5 5 3 5 5 3 5 5 5 5 5 5 5 5 5 5 5 3 5 3 5 5 5 5 5 5 5 5 5 5 3 5 5 5 5 5 5 5 5 5 5 5 5 5 5 5 5 5 5 5 5 5 5 5 5 5 5 5 5 5 5 5 5 5 5 5 5 5 5 5 3 5 5 5 5 5 5 5 5 5 3 5 5 3 5 5 5 5 5 5 5 5 5 5 5 5 5 5 5 5 3 5 3 5 5 3 5 5 5 3 3 5 3 3 5 3 5 5 3 5 5 3 5 5 5 5 5 5 5 5 5 5 5 5 5 5 5 5 5 5 5 5 5 3 5 5 5 5 5 5 5 5 5 5 5 5 5 5 5 5 5 5 5 3 5 5 5 5 5 3 5 5 5 5 5 5 5 5 5 5 5 5 5 5 5 5 5 5 5 5 5 5 5 5 3 5 5 5 5 5 5 3 5 5 5 5 5 5 5 5 5 5 5 5 5 5 5 3 5 5 5 3 3 5 5 5 3 5 5 5 5 5 5 5 5 3 5 5 5 5 3 5 5 5 5 5 5 5 5 5 5 5 5 5 3 5 5 5 5 5 5 5 5 5 5 5 5 5 5 5 5 5 5 5 5 5 5 5 5 5 5 5 3 5 5 5 5 5 5 5 5 5 5 5 5 5 5 5 3 3 5 5 5 3 5 5 5 5 5 5 5 5 5 5 5 5 5 5 5 5 5 5 5 5 5 5 5 5 5 5 5 5 5 5 3 5 5 5 5 5 5 5 5 5 5 5 5 5 5 5 5 5 5 5 5 5 5 5 5 5 3 5 5 5 5 5 5 5 3 5 5 5 3 5 5 3 5 5 5 5 5 5 5 5 3 3 5 5 5 5 5 3 5 5 5 5 5 5 5 5 5 5 5 5 5 5 5 5 5 5 5 3 5 3 5 3 5 5 5 3 5 3 5 5 5 5 5 5 5 5 5 5 5 5 3 5 5 5 5 3 5 5 3 5 3 5 5 3 5 5 5 3 5 5 5 5 5 5 5 5 5 3 5 5 5 5 3 5 5 5 5 3 5 5 5 5 5 5 3 5 3 5 3 5 5 5 3 5 5 5 5 5 5 3 3 5 5 5 5 5 3 5 5 5 5 5 5 5 5 5 5 5 5 5 5 5 5 5 5 5 3 5 5 5 5 5 5 5 5 5 3 5 3 5 3 5 5 5 5 5 5 5 5 5 5 5 5 3 5 5 3 5 5 5 5 5 5 5 5 5 3 5 3 5 5 5 5 5 5 3 5 5 5 5 5 5 5 5 5 5 5 5 5 5 5 5 5 5 5 5 5 5 5 5 5 5 5 5 5 5 5 5 5 5 5 5 5 5 5 5 5 3 5 5 3 5 3 5 5 5 3 3 5 5 3 5 5 5 5 5 5 5 5 5 5 5 5 3 5 5 5 5 5 5 5 5 5 5 5 5 3 5 5 5 5 5 5 5 5 5 5 5 5 5 5 5 3 5 5 5 5 5 3 5 5 5 5 5 5 5 5 5 3 5 5 5 5 3 5 5 5 5 5 5 5 5 5 5 5 3 5 3 5 3 5 5 5 3 5 5 5 5 5 5 5 5 5 5 5 5 5 5 5 5 5 5 5 5 3 5 5 5 5 5 5 5 5 5 5 5 5 5 5 5 5 5 5 3 5 5 5 5 5 3 5 5 5 5 5 5 5 5 3 5 5 3 5 5 5 5 5 5 5 3 5 5 5 5 5 5 5 5 5 3 5 5 5 5 5 5 5 5 5 5 5 5 5 5 5 5 5 5 5 5 5 5 5 5 3 5 3 5 5 3 5 5 5 5 5 5 5 5 3 5 5 5 5 5 5 3 5 5 5 5 5 5 5 5 5 5 5 5 3 5 5 5 5 5 5 5 5 5 5 5 5 5 5 3 5 5 5 3 5 5 5 5 3 5 5 5 5 5 5 5 5 5 5 5 5 5 5 5 5 5 5 5 5 5 5 5 5 5 5 3 5 5 3 5 5 5 5 5 5 5 5 5 3 5 5 3 5 5 3 5 5 5 5 5 5 5 5 5 5 5 5 5 5 5 5 5 5 5 5 5 5 5 5 5 5 5 5 5 5 5 5 5 5 5 5 5 5 5 5 5 5 5 5 5 5 5 5 5 5 5 5 5 5 5 5 5 5 5 5 5 5 5 3 5 5 5 5 5 5 3 5 5 5 5 5 5 5 5 5 5 5 3 3 5 5 3 5 3 5 5 3 5 5 3 5 5 5 5 5 5 5 5 3 5 5 5 5 5 5 5 5 5 3 5 5 5 5 3 5 5 5 5 5 5 5 5 5 5 5 5 5 5 5 3 5 5 5 5 3 5 3 5 5 5 3 5 5 3 5 5 5 5 5 5 5 5 5 5 5 3 5 5 3 5 5 5 3 5 5 3 3 5 5 3 5 5 5 5 5 5 5 5 3 5 5 5 5 3 5 3 5 3 5 5 5 5 3 5 5 5 3 5 5 5 5 5 5 5 5 5 5 5 5 5 5 5 5 5 5 3 5 5 5 5 5 5 5 5 5 5 5 5 5 5 5 5 5 5 5 5 5 5 5 5 5 5 5 5 5 5 5 5 5 5 5 5 5 5 5 5 3 5 5 5 5 5 3 5 5 5 5 5 5 5 5 5 5 5 5 5 3 5 5 3 5 5 5 3 5 3 5 5 5 5 3 5 5 5 5 5 5 5 5 5 3 5 5 3 3 5 3 5 5 5 5 5 5 5 5 5 5 5 5 5 5 5 5 5 5 5 5 5 5 5 3 5 5 5 3 5 5 5 5 5 5 5 3 5 5 5 5 5 5 5 5 5 5 5 5 5 5 5 5 5 5 5 5 5 5 5 3 5 5 5 5 5 3 5 3 3 5 5 5 3 5 5 3 5 5 5 5 5 5 5 5 5 5 5 3 5 5 5 3 5 3 5 5 5 5 5 3 5 3 5 3 5 5 5 5 5 5 5 5 3 3 3 5 5 3 5 5 5 5 5 5 5 5 5 5 5 5 5 5 5 5 5 5 5 5 5 5 5 5 5 5 5 5 5 5 5 5 5 5 5 5 5 3 5 5 5 5 5 5 5 3 5 5 3 5 5 5 5 5 5 5 5 5 5 5 5 5 5 5 5 5 5 5 5 5 5 5 3 5 5 5 5 5 5 5 5 5 5 3 5 5 5 5 3 5 5 5 5 3 5 3 3 5 5 5 5 3 5 5 3 5 5 3 3 5 5 5 5 5 5 5 3 5 5 5 5 5 5 5 5 5 5 5 5 5 3 5 5 5 5 5 5 5 3 3 5 3 5 3 5 5 5 3 5 5 5 5 5 3 5 5 3 5 5 5 5 5 5 5 3 5 5 5 5 5 5 5 5 3 5 5 5 3 5 5 5 5 5 3 3 5 5 3 5 5 5 5 5 5 5 5 5 5 5 5 5 5 3 5 5 3 5 3 5 5 5 5 3 5 5 5 5 5 3 5 5 3 3 5 5 5 5 3 5 5 5 5 5 5 5 5 3 5 3 5 5 5 5 5 5 5 5 3 5 5 5 5 3 5 5 5 5 5 5 5 5 5 5 5 5 5 5 5 5 5 5 5 5 5 5 5 5 5 5 5 5 5 5 5 5 5 3 5 5 5 5 5 5 5 3 5 5 5 5 5 5 5 5 5 5 5 5 3 5 5 5 5 3 5 5 5 5 5 5 5 5 5 5 5 5 5 3 5 5 3 5 5 5 5 3 5 5 5 5 5 5 5 5 5 5 5 3 5 3 5 5 3 5 5 5 5 3 5 5 5 5 5 5 5 5 5 5 5 5 5 5 5 5 5 5 5 5 5 5 5 5 5 5 5 5 3 5 5 5 5 3 5 5 5 5 5 5 5 5 5 3 5 5 5 3 5 5 5 5 5 5 3 5 3 5 3 5 5 5 5 5 5 5 5 5 5 5 5 5 5 5 5 5 5 5 5 5 5 5 5 5 5 5 5 5 5 5 5 5 5 5 3 5 3 5 5 5 5 5 5 5 5 3 5 5 5 5 5 5 5 5 5 5 5 5 3 5 5 5 5 5 5 5 5 5 5 5 5 5 3 5 5 3 5 5 5 5 3 5 5 5 5 3 5 5 5 5 5 3 3 5 3 5 5 3 5 5 5 5 3 5 3 5 5 5 5 5 5 5 5 3 5 5 5 5 3 5 5 5 5 5 5 5 5 5 5 5 5 5 5 5 5 5 5 5 5 5 5 3 5 5 5 5 5 5 5 5 5 5 5 5 5 5 5 5 5 5 5 5 5 3 5 5 5 5 5 5 5 3 5 3 5 5 5 5 5 5 5 5 5 5 5 5 5 5 5 5 5 5 5 5 5 5 5 5 5 5 3 5 5 5 5 5 3 5 3 5 5 5 5 3 3 3 5 3 5 5 5 3 5 5 5 5 3 5 3 5 5 5 5 3 5 5 5 3 3 3 5 3 5 3 5 5 3 5 5 5 5 5 5 5 5 5 5 3 5 3 5 3 5 5 5 5 3 5 5 5 5 3 5 5 5 5 5 5 5 5 5 5 3 5 3 5 5 3 5 5 3 5 5 5 5 5 3 5 5 5 5 5 5 5 5 5 5 5 5 3 5 5 5 3 5 5 5 5 5 3 5 5 5 5 5 5 5 5 5 5 5 5 5 5 5 5 5 5 5 5 5 3 5 5 5 5 3 5 5 5 3 5 3 5 5 3 5 3 5 5 5 5 5 5 3 5 5 5 5 3 5 3 5 5 5 5 5 5 5 3 5 5 5 5 5 5 5 3 5 5 5 5 5 5 5 5 5 5 5 5 5 5 5 5 5 3 5 5 5 3 5 5 5 5 5 5 5 5 5 5 5 5 5 5 3 5 5 5 5 5 5 5 5 5 5 5 5 5 5 5 5 5 5 5 5 5 5 5 5 5 5 5 3 5 3 5 5 5 3 5 5 5 3 5 5 3 3 5 5 5 5 5 5 5 5 3 5 5 3 5 5 5 5 3 5 3 5 5 5 3 5 5 5 5 5 5 5 5 5 5 3 5 5 3 5 5 3 5 5 5 5 5 5 5 3 5 5 3 3 5 5 5 3 5 5 5 5 5 5 3 5 5 5 5 3 5 5 5 3 5 5 5 5 3 5 5 3 5 5 5 5 5 5 5 5 5 5 5 3 5 5 5 5 3 5 3 5 3 5 3 5 5 5 5 5 5 5 5 5 5 5 3 3 5 5 5 5 5 5 3 5 5 3 5 5 5 5 5 5 3 5 5 5 3 5 3 5 5 5 3 5 5 5 5 5 5 3 5 5 5 5 5 5 3 5 3 5 5 5 3 5 5 5 5 3 5 5 5 5 5 5 5 3 5 3 5 3 5 5 5 3 3 5 5 3 5 5 5 5 5 3 5 3 3 3 3 5 5 5 5 5 3 3 5 5 3 5 5 5 3 5 5 5 5 5 5 5 5 5 3 5 5 5 3 5 5 5 5 5 5 5 3 5 3 5 5 5 5 3 5 3 5 5 5 5 3 5 5 5 5 5 5 5 5 5 3 5 5 5 5 5 5 5 5 5 5 5 5 5 5 5 5 5 5 5 5 5 3 5 5 5 5 3 5 5 5 5 5 3 5 3 5 5 5 5 5 5 5 5 5 5 5 3 5 3 5 3 3 5 3 5 3 5 5 5 3 5 5 5 3 5 5 5 5 3 5 3 5 5 5 5 5 5 5 5 3 5 5 5 5 5 5 5 5 3 5 5 5 5 5 5 5 5 5 3 5 5 3 5 5 5 3 5 5 5 5 5 5 5 5 5 5 5 5 3 5 5 5 5 3 5 5 5 5 5 5 3 5 5 5 5 3 5 3 5 5 5 5 5 5 5 3 5 5 5 3 3 5 5 5 5 3 5 3 5 5 3 5 5 5 5 5 5 5 5 5 5 5 5 5 5 5 5 5 5 5 5 5 5 5 5 5 5 5 5 5 5 5 5 5 5 5 3 5 5 5 3 5 5 5 5 5 5 5 5 5 5 5 5 5 3 5 3 5 5 5 5 5 5 5 5 5 5 5 5 5 3 5 5 3 5 5 5 5 5 3 5 5 5 5 5 5 5 5 5 5 5 5 5 5 5 5 5 5 5 3 3 5 5 3 5 5 3 5 5 5 5 5 5 5 3 5 5 5 5 3 5 5 5 5 5 5 5 5 5 5 5 5 5 5 3 5 5 3 5 5 5 5 5 5 5 3 3 5 5 5 5 5 5 5 5 5 5 5 5 5 5 5 5 3 5 5 5 5 3 5 5 3 5 5 3 5 5 5 5 5 5 5 5 5 5 5 5 3 5 5 5 5 3 5 5 5 5 5 5 5 5 5 3 3 3 5 5 5 3 5 5 3 3 5 3 5 5 5 3 5 5 5 5 5 5 5 5 5 5 5 5 5 5 5 5 5 5 5 5 5 5 5 5 5 5 5 5 5 5 5 5 5 5 5 5 5 5 5 5 5 5 5 5 5 5 5 5 3 5 3 5 5 5 5 5 5 5 5 5 3 5 5 5 5 5 5 3 5 5 5 5 5 3 5 5 5 5 5 5 5 5 5 5 5 5 5 5 5 3 5 5 5 5 5 5 5 3 5 5 5 5 5 3 3 5 5 5 5 3 5 5 5 5 5 5 5 5 5 5 5 5 5 5 5 5 5 5 5 5 5 3 5 5 5 5 5 5 3 5 5 5 3 5 5 5 5 5 5 5 5 5 5 5 5 5 5 5 5 5 5 3 5 3 5 5 5 5 5 3 3 5 5 5 3 5 5 5 5 5 5 3 5 5 5 5 5 3 5 3 5 5 3 5 5 5 5 3 5 5 5 5 3 5 5 5 5 3 5 5 5 5 5 5 5 5 5 5 5 5 5 3 5 5 5 5 5 5 5 5 5 5 5 5 5 5 5 5 3 5 5 5 5 3 5 5 5 5 3 5 5 5 5 5 5 5 5 5 5 3 5 5 5 5 3 5 5 5 5 5 5 5 5 5 5 5 5 5 5 5 3 5 5 5 3 5 5 5 5 5 5 5 5 5 5 5 5 5 5 3 5 5 5 5 5 5 5 5 5 5 5 3 5 5 3 5 5 5 5 5 5 3 3 5 5 5 5 3 5 3 5 5 5 3 5 5 3 5 5 5 5 5 5 5 5 5 5 5 5 5 5 5 5 3 5 5 5 5 5 5 5 5 3 3 5 5 5 3 3 5 3 5 3 5 5 5 5 3 5 5 5 5 5 5 5 5 5 5 5 5 5 3 5 3 5 5 5 5 5 5 5 5 3 3 5 5 3 3 3 5 5 5 5 5 5 3 5 5 3 5 5 3 3 3 3 5 5 5 5 5 5 5 5 5 5 5 5 5 3 5 5 3 5 3 5 5 5 5 5 5 5 3 3 5 5 3 5 5 3 5 5 5 5 3 3 3 3 5 5 5 5 5 5 5 5 5 5 5 5 5 5 3 5 5 3 5 5 5 5 3 5 5 5 3 5 5 3 5 5 3 5 5 3 3 5 3 5 5 5 5 5 5 3 5 5 5 5 3 5 5 5 5 5 3 5 5 3 5 3 3 5 5 5 3 5 5 5 5 5 3 5 5 5 3 5 5 5 3 5 5 5 5 5 5 5 3 5 5 5 5 5 3 5 5 5 5 5 5 5 3 5 3 3 5 5 3 5 5 5 5 5 5 3 5 5 5 5 5 5 3 5 5 5 5 5 5 3 5 3 5 3 5 5 3 5 5 5 5 3 3 3 3 5 5 5 5 5 5 5 5 3 5 5 5 3 5 3 5 5 5 5 5 5 5 5 5 5 5 5 5 5 5 5 3 5 3 5 5 5 5 5 5 5 5 3 5 5 5 5 5 3 5 5 3 5 5 5 5 5 5 3 3 5 5 3 5 5 5 5 5 5 5 5 5 5 5 3 3 5 5 5 5 3 5 5 5 5 5 5 5 5 3 5 5 5 5 3 5 5 5 5 5 5 3 5 3 5 3 5 5 5 5 5 5 5 5 5 5 5 5 5 5 5 5 5 5 3 5 5 5 5 5 5 5 5 5 5 5 5 5 5 5 5 5 3 3 5 5 5 5 5 5 5 5 5 5 5 5 5 5 5 5 5 5 5 5 5 5 5 5 5 5 5 5 5 5 5 5 5 5 5 5 5 5 5 5 5 5 5 5 5 3 5 3 5 5 5 5 5 5 5 3 5 5 5 3 5 3 3 3 5 3 3 5 5 3 3 3 5 5 5 5 5 3 5 3 3 5 5 5 5 5 5 5 3 5 5 3 5 5 3 3 5 5 5 5 5 5 3 5 5 3 3 5 5 3 5 5 5 3 5 5 5 5 3 5 5 5 3 5 5 3 5 5 5 5 5 5 5 5 5 5 5 5 5 5 5 5 5 5 5 3 3 5 5 5 3 5 5 5 5 3 5 5 5 5 5 3 3 5 5 5 5 5 5 5 5 5 3 5 5 5 5 5 5 5 5 5 5 5 5 5 5 5 5 5 5 5 5 5 5 5 5 5 5 5 3 5 3 3 5 5 5 5 5 5 5 5 5 5 5 5 5 5 5 5 5 5 5 5 5 5 5 5 5 5 5 3 5 5 3 5 5 3 5 5 3 5 3 5 5 5 5 5 5 5 3 5 5 5 5 5 5 5 5 5 5 5 5 3 5 3 5 3 5 5 5 5 5 3 5 5 5 5 3 5 5 3 5 5 5 5 5 5 5 5 3 5 5 5 5 5 5 3 5 5 5 5 3 5 5 5 3 5 5 5 5 5 5 5 5 5 5 5 5 5 5 5 5 5 5 3 5 3 5 5 5 3 5 5 5 5 5 5 5 5 5 5 5 5 5 5 5 5 5 5 5 3 5 5 5 3 5 5 5 3 5 5 5 5 5 5 5 5 5 5 5 5 5 5 5 3 5 5 5 5 3 5 5 3 5 5 5 5 5 5 3 5 3 5 3 3 3 5 5 5 3 3 5 5 5 5 5 5 5 3 5 5 5 3 5 3 5 5 5 5 5 5 5 5 5 3 5 5 5 5 5 5 5 5 3 5 5 5 5 3 5 5 5 5 5 5 5 5 5 5 5 5 5 5 5 5 5 5 5 5 5 3 3 5 5 5 5 5 5 5 5 3 5 5 5 5 5 5 5 5 5 5 3 5 5 5 5 5 5 3 5 5 5 5 5 3 5 3 5 5 3 3 5 5 5 5 5 5 5 5 5 5 5 5 5 5 5 5 5 5 5 5 5 5 5 5 5 5 5 5 5 5 5 5 5 5 5 5 5 5 5 5 5 5 5 5 5 5 5 5 3 3 5 5 3 5 5 5 5 5 3 3 5 5 3 3 5 5 5 5 5 5 5 5 5 5 3 5 5 5 5 5 5 5 5 5 5 5 5 5 5 5 3 5 5 5 5 5 5 5 5 5 5 5 5 5 3 5 3 3 3 5 5 5 5 5 5 5 5 3 3 5 5 5 5 3 5 5 5 5 5 5 5 5 3 5 5 5 5 5 5 5 5 5 5 5 5 5 5 5 5 5 3 5 5 5 5 5 5 3 5 5 3 5 5 5 5 5 5 5 5 5 5 5 5 5 5 5 5 5 5 3 5 5 5 3 5 5 3 5 3 3 5 5 3 5 5 5 3 5 5 3 5 3 3 5 5 5 5 3 5 5 5 5 5 5 3 5 3 5 5 5 3 5 5 5 5 3 5 3 3 5 5 5 5 5 3 5 3 5 3 5 3 3 5 5 5 5 5 5 5 3 5 3 5 5 3 5 5 3 5 5 5 5 5 5 5 5 5 5 5 5 5 5 5 5 5 5 5 5 5 5 5 5 5 5 5 5 5 5 5 3 5 5 5 5 5 5 5 5 5 5 5 5 5 5 5 5 5 5 5 5 5 5 5 3 5 5 5 5 5 3 3 5 5 5 5 5 5 5 5 5 5 5 5 5 5 5 5 5 5 5 5 5 3 5 5 5 5 5 5 5 5 5 5 5 5 5 3 5 3 5 5 5 3 5 5 5 5 5 5 5 5 3 5 3 5 5 5 5 5 3 5 5 5 5 5 5 5 5 5 5 5 3 5 5 5 5 5 5 5 5 5 5 5 3 5 5 5 5 5 5 5 5 3 5 5 5 5 5 5 5 5 5 5 5 5 5 5 5 5 5 5 5 5 5 5 5 5 5 5 3 5 5 3 5 5 5 5 5 5 5 5 5 5 5 5 5 5 5 5 5 5 5 5 5 5 5 5 5 5 5 5 3 5 3 5 3 5 5 5 5 5 3 5 5 5 5 3 5 5 5 3 5 5 5 5 5 5 5 5 5 5 5 5 5 5 5 5 5 5 3 3 3 5 5 5 5 5 5 5 5 5 5 5 5 5 3 5 5 5 5 5 5 5 5 5 5 5 5 3 5 5 3 5 5 5 5 5 5 5 5 5 5 5 5 5 5 5 5 5 5 5 5 5 3 3 5 5 5 5 5 5 5 5 5 5 5 5 5 5 3 5 5 3 5 5 5 5 3 5 5 5 5 5 5 3 5 5 5 5 5 5 5 5 5 5 5 5 5 5 5 5 5 5 3 5 5 5 5 5 3 5 5 5 5 5 5 5 5 5 5 5 5 5 5 5 5 5 5 5 5 5 5 5 5 5 5 5 5 3 5 3 5 5 5 5 3 3 5 5 5 5 5 5 5 5 5 5 5 5 5 5 5 5 5 5 5 5 5 5 5 5 5 5 5 5 5 5 5 5 5 5 5 3 5 5 5 5 3 5 5 5 5 5 5 5 5 5 5 5 3 5 5 5 5 5 5 5 5 5 5 5 5 5 5 5 5 5 3 3 5 3 5 5 5 5 5 5 5 5 5 5 3 5 5 5 5 5 5 5 5 5 5 5 5 5 5 5 5 5 3 5 5 5 5 3 5 5 5 5 5 5 5 5 5 5 5 5 5 5 5 5 5 5 5 5 5 5 5 5 5 5 5 5 5 5 5 5 5 5 5 5 5 5 5 5 5 5 5 5 5 5 5 5 5 5 5 5 5 5 5 5 5 5 5 5 5 5 5 5 5 5 5 5 5 5 5 5 5 5 5 5 5 5 5 5 5 3 5 5 5 5 5 5 5 3 5 5 3 5 5 5 5 5 5 5 5 5 5 5 5 3 5 3 5 3 5 5 5 5 5 5 5 5 3 5 5 5 5 5 5 5 5 5 3 5 5 5 5 5 5 5 5 5 5 5 5 5 5 5 5 5 5 5 5 5 3 5 5 5 5 5 5 5 5 5 5 5 5 3 5 5 5 5 5 3 5 5 3 5 5 5 5 3 3 5 5 3 5 5 5 5 5 5 5 3 3 5 5 5 5 5 5 5 5 5 5 5 5 3 5 5 5 5 3 5 5 5 5 5 5 5 5 3 5 5 5 5 3 5 5 5 5 3 5 5 5 5 5 5 5 3 5 5 5 5 5 3 5 5 5 3 5 5 5 5 5 3 5 5 5 5 5 5 5 5 5 5 5 5 5 5 3 5 5 3 5 5 5 5 5 5 5 5 5 5 5 5 5 5 5 5 5 5 5 5 5 3 5 5 3 5 5 3 5 5 5 5 5 5 5 5 5 5 5 5 5 5 5 5 5 5 5 5 5 5 5 5 5 5 5 5 5 5 3 5 5 5 5 3 5 5 3 5 3 5 5 5 5 3 5 3 5 5 3 5 3 5 3 3 5 5 3 5 3 5 3 5 5 3 5 5 5 5 5 5 3 5 3 5 5 3 3 5 5 3 5 3 5 5 3 5 5 3 5 5 3 3 3 5 3 5 5 5 5 5 5 5 5 3 5 5 5 5 5 5 5 3 5 5 5 5 5 5 5 5 5 5 5 5 5 5 3 5 5 5 5 5 5 5 5 5 5 5 5 5 5 5 5 5 5 5 3 5 5 5 5 5 5 5 5 5 5 5 5 5 5 5 5 5 5 5 5 5 5 5 5 5 5 5 5 5 5 5 3 5 5 5 3 5 3 3 5 3 5 5 5 3 5 5 5 5 3 3 3 5 5 5 5 5 5 5 5 5 5 5 5 5 5 5 5 5 3 5 5 5 5 5 5 5 5 5 3 5 5 5 3 5 5 5 5 5 5 5 5 5 5 5 5 3 5 5 3 5 5 5 5 5 5 5 5 5 5 5 5 5 5 5 5 5 5 5 5 5 5 3 5 5 5 5 5 5 5 5 5 5 5 5 5 5 5 5 5 5 3 5 5 5 5 5 5 5 3 5 5 5 5 3 5 5 5 5 5 5 5 5 5 5 5 5 5 5 5 5 5 5 5 5 5 5 5 5 5 5 5 5 5 5 5 5 5 5 5 3 3 5 5 5 5 3 5 3 5 5 5 5 5 3 5 5 5 5 5 5 5 5 3 3 5 5 5 5 3 5 5 5 5 5 5 5 5 5 5 5 5 5 5 5 5 5 5 5 5 5 3 5 5 5 5 5 5 3 5 5 3 5 5 5 5 5 5 5 5 5 3 5 5 5 5 5 5 5 5 3 5 5 5 5 5 5 5 5 5 5 5 5 5 5 5 5 5 3 5 5 3 5 5 5 5 5 5 5 5 5 5 5 5 5 5 5 5 5 5 5 5 5 5 5 5 5 5 5 5 5 3 5 3 5 5 5 5 5 5 5 5 5 5 5 5 5 5 5 5 5 5 5 5 5 5 3 5 5 5 3 5 5 5 5 5 5 5 5 5 5 5 5 3 5 5 5 3 3 5 5 3 5 5 5 5 5 5 5 5 5 3 5 5 5 5 5 5 5 5 5 5 5 5 5 3 5 3 5 5 5 5 5 5 5 5 5 5 5 5 5 5 5 5 5 5 5 5 5 5 5 5 5 5 5 5 5 3 5 5 5 5 5 5 3 5 5 5 5 5 5 5 5 5 5 5 5 5 5 5 5 3 5 3 5 5 5 5 5 5 5 3 5 5 5 3 5 5 5 5 3 5 5 5 5 5 5 3 5 5 5 5 3 5 3 5 5 5 5 5 5 5 5 3 3 5 5 5 3 3 5 5 5 5 5 5 5 3 3 5 3 3 5 5 5 5 3 5 3 5 5 5 5 5 5 3 5 5 5 5 3 5 5 5 5 3 5 5 5 5 5 3 5 5 3 5 5 5 5 3 5 5 5 5 5 5 5 5 5 3 3 5 5 5 5 5 5 5 5 5 5 5 5 5 3 5 3 5 5 5 5 5 5 5 5 5 5 5 5 5 5 5 5 5 5 5 5 5 3 5 5 5 5 5 5 5 5 5 5 5 5 5 5 5 5 5 5 5 5 5 5 5 5 5 5 3 5 5 5 5 5 5 5 5 3 5 3 5 5 5 5 5 5 3 5 5 5 5 5 5 5 5 5 5 5 5 5 5 5 5 5 5 5 5 5 5 5 5 5 5 3 5 5 5 5 5 5 5 5 3 5 5 3 5 5 3 5 5 5 5 5 3 5 5 5 5 5 5 5 5 5 3 5 5 5 5 5 5 5 5 5 5 5 5 5 5 5 3 5 5 5 5 5 5 5 5 3 5 5 5 5 5 5 5 5 5 5 5 5 5 5 5 5 5 5 3 5 3 5 3 5 5 3 3 5 5 5 5 5 5 5 5 5 5 5 5 5 5 3 5 5 5 5 5 5 3 5 5 5 3 5 5 5 5 5 5 5 5 5 5 5 5 3 5 5 5 5 3 3 3 5 5 5 5 5 5 5 3 5 5 3 5 3 5 3 5 5 5 5 5 3 5 5 5 5 5 5 5 5 5 5 5 5 5 5 5 5 5 5 5 5 3 5 5 5 3 5 3 3 3 5 5 5 5 5 3 5 5 5 5 5 5 5 5 5 5 5 5 5 5 5 5 5 5 5 5 5 5 5 5 5 5 3 5 5 3 5 5 5 5 5 5 5 5 3 5 3 5 5 5 5 5 5 5 5 3 5 5 5 5 3 5 5 3 5 5 3 5 5 5 3 5 5 5 5 5 5 5 5 5 5 5 5 5 5 5 5 5 5 5 5 3 5 5 5 5 5 5 3 5 5 5 5 5 3 5 5 5 5 5 3 5 3 3 5 5 5 5 5 5 5 5 5 5 5 5 3 5 5 5 5 3 5 3 3 5 5 5 3 5 5 5 5 5 5 5 5 5 5 5 5 5 5 5 5 5 5 5 5 5 5 3 5 3 5 5 3 5 5 3 5 5 3 5 5 5 3 3 5 5 5 5 5 5 5 3 5 5 5 5 5 5 5 5 3 5 5 5 5 5 5 5 3 5 5 5 3 5 3 3 5 5 5 3 5 5 5 5 5 5 5 5 5 5 5 5 5 5 5 5 5 5 5 5 5 5 3 5 5 3 5 5 5 3 5 5 5 5 5 5 5 3 3 5 5 3 5 5 5 5 5 5 5 5 5 5 5 5 5 5 5 5 5 5 5 5 5 5 5 5 5 5 5 5 5 5 5 5 5 5 5 3 5 5 5 5 5 5 5 3 5 5 3 5 5 3 5 5 5 5 5 5 5 5 5 5 5 5 5 5 5 5 5 5 5 3 5 5 5 5 3 5 5 5 5 5 5 5 5 5 5 3 5 5 5 5 3 5 5 5 5 3 3 5 3 5 5 5 5 5 5 5 5 5 5 5 5 5 5 3 5 5 5 5 5 5 5 5 5 3 5 5 5 5 5 5 5 5 5 5 5 5 5 5 5 5 5 5 5 5 5 5 5 5 5 5 5 5 5 5 5 5 5 5 5 5 5 5 5 5 5 3 5 5 5 5 3 5 5 3 5 5 5 5 5 5 3 3 5 5 5 5 3 5 5 5 5 5 5 5 5 5 5 5 5 5 5 5 5 5 5 5 5 5 5 5 5 5 5 5 5 5 5 5 5 5 5 5 5 5 5 5 5 5 5 5 5 5 5 5 5 5 5 5 5 5 5 5 5 5 5 5 5 5 3 5 5 5 5 5 3 5 3 5 5 5 5 5 5 5 5 5 
</DataArray>
</Cells>
<PointData Scalars="" Vectors="displacement," Tensors="">
<DataArray type="Float64" Name="displacement" NumberOfComponents="3" format="ascii">
-0.024999735829626626 -0.024713959876611111 0 -0.024611252172577178 -0.024621277893905572 0 -0.024999410336076704 -0.024717135333905623 0 -0.025000377935533107 -0.02499791891972597 0 -0.023703313930652621 -0.025257224542474529 0 -0.025000377935533107 -0.02499791891972597 0 -0.023703313930652621 -0.025257224542474529 0 -0.022074624261838063 -0.025001085773917037 0 -0.025000076650957749 -0.024713225782987267 0 -0.025657218805777121 -0.024017137327341301 0 -0.025398903578685135 -0.024086513527449623 0 -0.025000076650957749 -0.024713225782987267 0 -0.024999877837470073 -0.023825048807586853 0 -0.025398903578685135 -0.024086513527449623 0 -0.025657218805777121 -0.024017137327341301 0 -0.025677165504344998 -0.023825824554291126 0 -0.025398903578685135 -0.024086513527449623 0 -0.025677165504344998 -0.023825824554291126 0 -0.024999877837470073 -0.023825048807586853 0 -0.025398903578685135 -0.024086513527449623 0 -0.02522547944884268 -0.02365041981901048 0 -0.024999540950904779 -0.022935222460072291 0 -0.025153039677790447 -0.022991159495006866 0 -0.025677165504344998 -0.023825824554291126 0 -0.024999877837470073 -0.023825048807586853 0 -0.024999962806669791 -0.022936559359654222 0 -0.025441860817601625 -0.02371062059283922 0 -0.025000074032801047 -0.022936328688667219 0 -0.02522547944884268 -0.02365041981901048 0 -0.025153039677790447 -0.022991159495006866 0 -0.025268098721712536 -0.023437497208547309 0 -0.025114920325280666 -0.02282832625541565 0 -0.025153039677790447 -0.022991159495006866 0 -0.025268098721712536 -0.023437497208547309 0 -0.025114920325280666 -0.02282832625541565 0 -0.02499985638986571 -0.022147571134481958 0 -0.025153039677790447 -0.022991159495006866 0 -0.025313715923766213 -0.022375122990544696 0 -0.024999907327362361 -0.022145683914096437 0 -0.024999540950904779 -0.022935222460072291 0 -0.02499985638986571 -0.022147571134481958 0 -0.025153039677790447 -0.022991159495006866 0 -0.025519703933207891 -0.023783761799654732 0 -0.02563798785139659 -0.022510433645050558 0 -0.025891515893350214 -0.02305938741255302 0 -0.025519703933207891 -0.023783761799654732 0 -0.025745177088922766 -0.023679430293423689 0 -0.025891515893350214 -0.02305938741255302 0 -0.025519703933207891 -0.023783761799654732 0 -0.025268098721712536 -0.023437497208547309 0 -0.025358176899809765 -0.023818130172175607 0 -0.025519703933207891 -0.023783761799654732 0 -0.025268098721712536 -0.023437497208547309 0 -0.02563798785139659 -0.022510433645050558 0 -0.025114920325280666 -0.02282832625541565 0 -0.025268098721712536 -0.023437497208547309 0 -0.02563798785139659 -0.022510433645050558 0 -0.02522547944884268 -0.02365041981901048 0 -0.025268098721712536 -0.023437497208547309 0 -0.025322904658793263 -0.023903845637086349 0 -0.025268098721712536 -0.023437497208547309 0 -0.025358176899809765 -0.023818130172175607 0 -0.025322904658793263 -0.023903845637086349 0 -0.025519703933207891 -0.023783761799654732 0 -0.025169724971288988 -0.024321422648596238 0 -0.024791285915718837 -0.025088899106724728 0 -0.025519703933207891 -0.023783761799654732 0 -0.025358176899809765 -0.023818130172175607 0 -0.025169724971288988 -0.024321422648596238 0 -0.025358176899809765 -0.023818130172175607 0 -0.025322904658793263 -0.023903845637086349 0 -0.025169724971288988 -0.024321422648596238 0 -0.023703313930652621 -0.025257224542474529 0 -0.022074624261838063 -0.025001085773917037 0 -0.022355877426901986 -0.025274742831890667 0 -0.025169724971288988 -0.024321422648596238 0 -0.024773428136917377 -0.023902514277372704 0 -0.024231845759810855 -0.02412063034307986 0 -0.025169724971288988 -0.024321422648596238 0 -0.025330385429716353 -0.023935690848331082 0 -0.024773428136917377 -0.023902514277372704 0 -0.025322904658793263 -0.023903845637086349 0 -0.025169724971288988 -0.024321422648596238 0 -0.025330385429716353 -0.023935690848331082 0 -0.025441860817601625 -0.02371062059283922 0 -0.025351875046542006 -0.023908029220555894 0 -0.025657218805777121 -0.024017137327341301 0 -0.025677165504344998 -0.023825824554291126 0 -0.025330385429716353 -0.023935690848331082 0 -0.02522547944884268 -0.02365041981901048 0 -0.025322904658793263 -0.023903845637086349 0 -0.025330385429716353 -0.023935690848331082 0 -0.024611252172577178 -0.024621277893905572 0 -0.023747518590310338 -0.024392820454225361 0 -0.025657218805777121 -0.024017137327341301 0 -0.025330385429716353 -0.023935690848331082 0 -0.025193022535541464 -0.023497991382775744 0 -0.025330385429716353 -0.023935690848331082 0 -0.024773428136917377 -0.023902514277372704 0 -0.025193022535541464 -0.023497991382775744 0 -0.022074624261838063 -0.025001085773917037 0 -0.021005117149139767 -0.025266320551366597 0 -0.019830326146906524 -0.024997500471805465 0 -0.023747518590310338 -0.024392820454225361 0 -0.022127631187667651 -0.024377126128693572 0 -0.024773428136917377 -0.023902514277372704 0 -0.023257408615239575 -0.023324908964450317 0 -0.024231845759810855 -0.02412063034307986 0 -0.022074624261838063 -0.025001085773917037 0 -0.022355877426901986 -0.025274742831890667 0 -0.021005117149139767 -0.025266320551366597 0 -0.024773428136917377 -0.023902514277372704 0 -0.025193022535541464 -0.023497991382775744 0 -0.023257408615239575 -0.023324908964450317 0 -0.022127631187667651 -0.024377126128693572 0 -0.020087228473574352 -0.024818519933500066 0 -0.023257408615239575 -0.023324908964450317 0 -0.021690840959396371 -0.024612821273704774 0 -0.019838254801826636 -0.024954275725784451 0 -0.023257408615239575 -0.023324908964450317 0 -0.021690840959396371 -0.024612821273704774 0 -0.023363375324073055 -0.024781860583743737 0 -0.021690840959396371 -0.024612821273704774 0 -0.023363375324073055 -0.024781860583743737 0 -0.02059871331529858 -0.02527442543111966 0 -0.025169724971288988 -0.024321422648596238 0 -0.023363375324073055 -0.024781860583743737 0 -0.024231845759810855 -0.02412063034307986 0 -0.023257408615239575 -0.023324908964450317 0 -0.023363375324073055 -0.024781860583743737 0 -0.024231845759810855 -0.02412063034307986 0 -0.019830326146906524 -0.024997500471805465 0 -0.019838254801826636 -0.024954275725784451 0 -0.018678650800742515 -0.025604574235331919 0 -0.021005117149139767 -0.025266320551366597 0 -0.019830326146906524 -0.024997500471805465 0 -0.019838254801826636 -0.024954275725784451 0 -0.021690840959396371 -0.024612821273704774 0 -0.019838254801826636 -0.024954275725784451 0 -0.02059871331529858 -0.02527442543111966 0 -0.020431117337339658 -0.025307221714432081 0 -0.018925280483952776 -0.025166605450693821 0 -0.019838254801826636 -0.024954275725784451 0 -0.02059871331529858 -0.02527442543111966 0 -0.018678650800742515 -0.025604574235331919 0 -0.02059871331529858 -0.02527442543111966 0 -0.01967852105940094 -0.025814635334407678 0 -0.019078619707421276 -0.024819554371988111 0 -0.01967852105940094 -0.025814635334407678 0 -0.021850956364451231 -0.025979233552344532 0 -0.01997713549340591 -0.027135938428237527 0 -0.02059871331529858 -0.02527442543111966 0 -0.01967852105940094 -0.025814635334407678 0 -0.021850956364451231 -0.025979233552344532 0 -0.021850956364451231 -0.025979233552344532 0 -0.021768839069098895 -0.027676396788780772 0 -0.01997713549340591 -0.027135938428237527 0 -0.020853754965843751 -0.022141166388409211 0 -0.020780984377385094 -0.022065980326578888 0 -0.020900528397649342 -0.022063994419118032 0 -0.021081474027801514 -0.025011868502400243 0 -0.020719150119884313 -0.024583838964817289 0 -0.025169724971288988 -0.024321422648596238 0 -0.023363375324073055 -0.024781860583743737 0 -0.024791285915718837 -0.025088899106724728 0 -0.023363375324073055 -0.024781860583743737 0 -0.02059871331529858 -0.02527442543111966 0 -0.021850956364451231 -0.025979233552344532 0 -0.023363375324073055 -0.024781860583743737 0 -0.021850956364451231 -0.025979233552344532 0 -0.024791285915718837 -0.025088899106724728 0 -0.021850956364451231 -0.025979233552344532 0 -0.024791285915718837 -0.025088899106724728 0 -0.023407231014972722 -0.027130668753653019 0 -0.021850956364451231 -0.025979233552344532 0 -0.021768839069098895 -0.027676396788780772 0 -0.023407231014972722 -0.027130668753653019 0 -0.021768839069098895 -0.027676396788780772 0 -0.023407231014972722 -0.027130668753653019 0 -0.024337210998021257 -0.028566913371709333 0 -0.025519703933207891 -0.023783761799654732 0 -0.024791285915718837 -0.025088899106724728 0 -0.025745177088922766 -0.023679430293423689 0 -0.024791285915718837 -0.025088899106724728 0 -0.025745177088922766 -0.023679430293423689 0 -0.026841075662057304 -0.022753930302021233 0 -0.024791285915718837 -0.025088899106724728 0 -0.023407231014972722 -0.027130668753653019 0 -0.02472263331439193 -0.028681489104681965 0 -0.025186957723462244 -0.025656025402009234 0 -0.024821729650699124 -0.024074838956747488 0 -0.025745177088922766 -0.023679430293423689 0 -0.026511545370714481 -0.022597106421535076 0 -0.025891515893350214 -0.02305938741255302 0 -0.025745177088922766 -0.023679430293423689 0 -0.026511545370714481 -0.022597106421535076 0 -0.026841075662057304 -0.022753930302021233 0 -0.025807962051217548 -0.023875345708338561 0 -0.024821729650699124 -0.024074838956747488 0 -0.026511545370714481 -0.022597106421535076 0 -0.027009619996335502 -0.022178174743093262 0 -0.026617217539920433 -0.021840782401878062 0 -0.026511545370714481 -0.022597106421535076 0 -0.027009619996335502 -0.022178174743093262 0 -0.026992045867707131 -0.022743442566186413 0 -0.019868243150023425 -0.021696258403778781 0 -0.020004179053051328 -0.021989610204580408 0 -0.020242851589870284 -0.021577182053417809 0 -0.024798955016392815 -0.021778468354341433 0 -0.02331701850940477 -0.023636981413693029 0 -0.024209079269639212 -0.022378680413111363 0 -0.024832161768078856 -0.023921493823014433 0 -0.024220445904882683 -0.023755855089254225 0 -0.024798955016392815 -0.021778468354341433 0 -0.024821729650699124 -0.024074838956747488 0 -0.023407231014972722 -0.027130668753653019 0 -0.024337210998021257 -0.028566913371709333 0 -0.02472263331439193 -0.028681489104681965 0 -0.02331701850940477 -0.023636981413693029 0 -0.024821729650699124 -0.024074838956747488 0 -0.021081474027801514 -0.025011868502400243 0 -0.02331701850940477 -0.023636981413693029 0 -0.020853754965843751 -0.022141166388409211 0 -0.020004179053051328 -0.021989610204580408 0 -0.020495580953869861 -0.021792951098402732 0 -0.020853754965843751 -0.022141166388409211 0 -0.020495580953869861 -0.021792951098402732 0 -0.020771342582832922 -0.021840238131789296 0 -0.020495580953869861 -0.021792951098402732 0 -0.020242851589870284 -0.021577182053417809 0 -0.020578261518819047 -0.021342998772074195 0 -0.020495580953869861 -0.021792951098402732 0 -0.020578261518819047 -0.021342998772074195 0 -0.020771342582832922 -0.021840238131789296 0 -0.020004179053051328 -0.021989610204580408 0 -0.020495580953869861 -0.021792951098402732 0 -0.020242851589870284 -0.021577182053417809 0 -0.020578261518819047 -0.021342998772074195 0 -0.020193800784291852 -0.021196576045243904 0 -0.020470931522754074 -0.020651273096729993 0 -0.020578261518819047 -0.021342998772074195 0 -0.020906803349142196 -0.0208182627378754 0 -0.020470931522754074 -0.020651273096729993 0 -0.020242851589870284 -0.021577182053417809 0 -0.020578261518819047 -0.021342998772074195 0 -0.020193800784291852 -0.021196576045243904 0 -0.027009619996335502 -0.022178174743093262 0 -0.026617217539920433 -0.021840782401878062 0 -0.026948131526260143 -0.020745673282235606 0 -0.024798955016392815 -0.021778468354341433 0 -0.027286756338910385 -0.020236558739712574 0 -0.027456902343972536 -0.020568996189734325 0 -0.027181686278637682 -0.019704534385292186 0 -0.027502193946213175 -0.019626968880255821 0 -0.024798955016392815 -0.021778468354341433 0 -0.023549339680204534 -0.019980882310409655 0 -0.019868243150023425 -0.021696258403778781 0 -0.020193800784291852 -0.021196576045243904 0 -0.019810425372789649 -0.020694588931916471 0 -0.019868243150023425 -0.021696258403778781 0 -0.020242851589870284 -0.021577182053417809 0 -0.020193800784291852 -0.021196576045243904 0 -0.022055093978048432 -0.021464297416531358 0 -0.018569456112945536 -0.023143098792319586 0 -0.020900528397649342 -0.022063994419118032 0 -0.0213085204710835 -0.021409426163117241 0 -0.021893588398386819 -0.021457830708483398 0 -0.020764343046698282 -0.022132795718789608 0 -0.020900528397649342 -0.022063994419118032 0 -0.020712413075211041 -0.022263673370884703 0 -0.020780984377385094 -0.022065980326578888 0 -0.020764343046698282 -0.022132795718789608 0 -0.020900528397649342 -0.022063994419118032 0 -0.020764343046698282 -0.022132795718789608 0 -0.020712413075211041 -0.022263673370884703 0 -0.020645142025301665 -0.022143222056904551 0 -0.020780984377385094 -0.022065980326578888 0 -0.020764343046698282 -0.022132795718789608 0 -0.020645142025301665 -0.022143222056904551 0 -0.020900528397649342 -0.022063994419118032 0 -0.020903813305965586 -0.021573284007201238 0 -0.0213085204710835 -0.021409426163117241 0 -0.020853754965843751 -0.022141166388409211 0 -0.020900528397649342 -0.022063994419118032 0 -0.020771342582832922 -0.021840238131789296 0 -0.020900528397649342 -0.022063994419118032 0 -0.020771342582832922 -0.021840238131789296 0 -0.020903813305965586 -0.021573284007201238 0 -0.020578261518819047 -0.021342998772074195 0 -0.020771342582832922 -0.021840238131789296 0 -0.020903813305965586 -0.021573284007201238 0 -0.021177278943261196 -0.020903575608798689 0 -0.0213085204710835 -0.021409426163117241 0 -0.021577922991245509 -0.020680378778526784 0 -0.020578261518819047 -0.021342998772074195 0 -0.020903813305965586 -0.021573284007201238 0 -0.020973687695072688 -0.021210458014623998 0 -0.020578261518819047 -0.021342998772074195 0 -0.020973687695072688 -0.021210458014623998 0 -0.020906803349142196 -0.0208182627378754 0 -0.020973687695072688 -0.021210458014623998 0 -0.021177278943261196 -0.020903575608798689 0 -0.020906803349142196 -0.0208182627378754 0 -0.020973687695072688 -0.021210458014623998 0 -0.021177278943261196 -0.020903575608798689 0 -0.0213085204710835 -0.021409426163117241 0 -0.020903813305965586 -0.021573284007201238 0 -0.020973687695072688 -0.021210458014623998 0 -0.0213085204710835 -0.021409426163117241 0 -0.021322497727648049 -0.021375138218170463 0 -0.020035908246703777 -0.020057941568948134 0 -0.0213085204710835 -0.021409426163117241 0 -0.021695952221546105 -0.021082566556201637 0 -0.021502988197698792 -0.020715814860750737 0 -0.0213085204710835 -0.021409426163117241 0 -0.021701584428185029 -0.021328500479383651 0 -0.021893588398386819 -0.021457830708483398 0 -0.0213085204710835 -0.021409426163117241 0 -0.02169870932539833 -0.021188115353040979 0 -0.021701584428185029 -0.021328500479383651 0 -0.0213085204710835 -0.021409426163117241 0 -0.02169870932539833 -0.021188115353040979 0 -0.021695952221546105 -0.021082566556201637 0 -0.018643807412906947 -0.021262240647536061 0 -0.019063167195240198 -0.020646984578518098 0 -0.02169870932539833 -0.021188115353040979 0 -0.021780725531953721 -0.021247388775758685 0 -0.021693960372557341 -0.021082435928828913 0 -0.01694579434794085 -0.019854032151913486 0 -0.016856041553386457 -0.019678328256041898 0 -0.017509005720967877 -0.019300967406037522 0 -0.019223403125525351 -0.020758807673886152 0 -0.019063167195240198 -0.020646984578518098 0 -0.018643807412906947 -0.021262240647536061 0 -0.018569456112945536 -0.023143098792319586 0 -0.021780965350373965 -0.021250704719366801 0 -0.021701584428185029 -0.021328500479383651 0 -0.021893588398386819 -0.021457830708483398 0 -0.02169870932539833 -0.021188115353040979 0 -0.021780725531953721 -0.021247388775758685 0 -0.021701584428185029 -0.021328500479383651 0 -0.018643807412906947 -0.021262240647536061 0 -0.019165900471394569 -0.020986581546526627 0 -0.018596451953467163 -0.020649046514077909 0 -0.018569260056352087 -0.018039350826198262 0 -0.017973178098979286 -0.019433006354551106 0 -0.0192919050826795 -0.018490679586457816 0 -0.019207578376543386 -0.018696358989614949 0 -0.019010288910465894 -0.01828897333084788 0 -0.016856041553386457 -0.019678328256041898 0 -0.016844741096934259 -0.018833889011724159 0 -0.017509005720967877 -0.019300967406037522 0 -0.019063167195240198 -0.020646984578518098 0 -0.017075600388666679 -0.017415927246735213 0 -0.019063167195240198 -0.020646984578518098 0 -0.020035908246703777 -0.020057941568948134 0 -0.017075600388666679 -0.017415927246735213 0 -0.020035908246703777 -0.020057941568948134 0 -0.021577922991245509 -0.020680378778526784 0 -0.021137692847600278 -0.020403634523180392 0 -0.021153149926298902 -0.019824071251514128 0 -0.020035908246703777 -0.020057941568948134 0 -0.019733208435466359 -0.018163134777638312 0 -0.021177278943261196 -0.020903575608798689 0 -0.021137692847600278 -0.020403634523180392 0 -0.020906803349142196 -0.0208182627378754 0 -0.021177278943261196 -0.020903575608798689 0 -0.021577922991245509 -0.020680378778526784 0 -0.021137692847600278 -0.020403634523180392 0 -0.021137692847600278 -0.020403634523180392 0 -0.020906803349142196 -0.0208182627378754 0 -0.020857263377721969 -0.020468270992084488 0 -0.020906803349142196 -0.0208182627378754 0 -0.020857263377721969 -0.020468270992084488 0 -0.020470931522754074 -0.020651273096729993 0 -0.020857263377721969 -0.020468270992084488 0 -0.020974016442209857 -0.020073342228912324 0 -0.020702411453269766 -0.020172827450957619 0 -0.021137692847600278 -0.020403634523180392 0 -0.020857263377721969 -0.020468270992084488 0 -0.020974016442209857 -0.020073342228912324 0 -0.020813168280574529 -0.019731089965375939 0 -0.020979887118997318 -0.019736080658810939 0 -0.020702411453269766 -0.020172827450957619 0 -0.020979887118997318 -0.019736080658810939 0 -0.021261092519608234 -0.019643036388522432 0 -0.020702411453269766 -0.020172827450957619 0 -0.020974016442209857 -0.020073342228912324 0 -0.021070956310996782 -0.01977118583023154 0 -0.020702411453269766 -0.020172827450957619 0 -0.019918295763098687 -0.017894098301068095 0 -0.020447185782799915 -0.019906563675524368 0 -0.019918295763098687 -0.017894098301068095 0 -0.019877441279748997 -0.015713803304481945 0 -0.02107144282699239 -0.019418114368723309 0 -0.021258108080670655 -0.019638504626676198 0 -0.021110565787081075 -0.019170838875462198 0 -0.020813168280574529 -0.019731089965375939 0 -0.020979887118997318 -0.019736080658810939 0 -0.020968700164651927 -0.019552738606406533 0 -0.020813168280574529 -0.019731089965375939 0 -0.020834249179063614 -0.019407847077726279 0 -0.020968700164651927 -0.019552738606406533 0 -0.020834249179063614 -0.019407847077726279 0 -0.020968700164651927 -0.019552738606406533 0 -0.02107144282699239 -0.019418114368723309 0 -0.020968700164651927 -0.019552738606406533 0 -0.02107144282699239 -0.019418114368723309 0 -0.021152937447457151 -0.019564124263040866 0 -0.02107144282699239 -0.019418114368723309 0 -0.021152937447457151 -0.019564124263040866 0 -0.021258108080670655 -0.019638504626676198 0 -0.020207709100156811 -0.018134538321016729 0 -0.019918295763098687 -0.017894098301068095 0 -0.020979887118997318 -0.019736080658810939 0 -0.021152937447457151 -0.019564124263040866 0 -0.021261092519608234 -0.019643036388522432 0 -0.020979887118997318 -0.019736080658810939 0 -0.020968700164651927 -0.019552738606406533 0 -0.021152937447457151 -0.019564124263040866 0 -0.019781656020355923 -0.016024542809752934 0 -0.019860462417007233 -0.015939980974516554 0 -0.019726269419852231 -0.015858044215478755 0 -0.018615188408006668 -0.016277109453846975 0 -0.01836036771064762 -0.01696257619622997 0 -0.016737724929419433 -0.016007309279523579 0 -0.018615188408006668 -0.016277109453846975 0 -0.018868919444889914 -0.016450019893978724 0 -0.01836036771064762 -0.01696257619622997 0 -0.019733208435466359 -0.018163134777638312 0 -0.019918295763098687 -0.017894098301068095 0 -0.019918295763098687 -0.017894098301068095 0 -0.018967623079674124 -0.015047316530375691 0 -0.021137692847600278 -0.020403634523180392 0 -0.020974016442209857 -0.020073342228912324 0 -0.021153149926298902 -0.019824071251514128 0 -0.020974016442209857 -0.020073342228912324 0 -0.021153149926298902 -0.019824071251514128 0 -0.021070956310996782 -0.01977118583023154 0 -0.017075600388666679 -0.017415927246735213 0 -0.019733208435466359 -0.018163134777638312 0 -0.018615188408006668 -0.016277109453846975 0 -0.016737724929419433 -0.016007309279523579 0 -0.016734054808840156 -0.01546893182723213 0 -0.016730513766939004 -0.01500478334310108 0 -0.018615188408006668 -0.016277109453846975 0 -0.016734054808840156 -0.01546893182723213 0 -0.018967623079674124 -0.015047316530375691 0 -0.014734506838468544 -0.012944573377588682 0 -0.014734506838468544 -0.012944573377588682 0 -0.012994260216896534 -0.010027637555442925 0 -0.010901009337813947 -0.010155800843956448 0 -0.011404051379345217 -0.009607388457228425 0 -0.011350285368614708 -0.0091507649301716745 0 -0.014734506838468544 -0.012944573377588682 0 -0.015977836851771919 -0.01558501589544125 0 -0.017075600388666679 -0.017415927246735213 0 -0.015977836851771919 -0.01558501589544125 0 -0.027268256465530334 -0.019216866096283827 0 -0.027181686278637682 -0.019704534385292186 0 -0.027502193946213175 -0.019626968880255821 0 -0.020193800784291852 -0.021196576045243904 0 -0.019810425372789649 -0.020694588931916471 0 -0.020470931522754074 -0.020651273096729993 0 -0.019810425372789649 -0.020694588931916471 0 -0.020470931522754074 -0.020651273096729993 0 -0.02025905137657829 -0.020066833369423102 0 -0.020470931522754074 -0.020651273096729993 0 -0.02025905137657829 -0.020066833369423102 0 -0.020702411453269766 -0.020172827450957619 0 -0.020857263377721969 -0.020468270992084488 0 -0.020470931522754074 -0.020651273096729993 0 -0.020702411453269766 -0.020172827450957619 0 -0.020813168280574529 -0.019731089965375939 0 -0.020702411453269766 -0.020172827450957619 0 -0.020551044700051348 -0.019799767178612798 0 -0.02025905137657829 -0.020066833369423102 0 -0.020702411453269766 -0.020172827450957619 0 -0.020551044700051348 -0.019799767178612798 0 -0.020813168280574529 -0.019731089965375939 0 -0.020834249179063614 -0.019407847077726279 0 -0.020551044700051348 -0.019799767178612798 0 -0.02025905137657829 -0.020066833369423102 0 -0.020551044700051348 -0.019799767178612798 0 -0.020244206562651555 -0.019446856649396688 0 -0.02025905137657829 -0.020066833369423102 0 -0.019795805629146672 -0.019635994694176484 0 -0.020244206562651555 -0.019446856649396688 0 -0.027268256465530334 -0.019216866096283827 0 -0.027519769342190317 -0.018770060588258704 0 -0.026945439570825996 -0.018903722214402528 0 -0.019810425372789649 -0.020694588931916471 0 -0.02025905137657829 -0.020066833369423102 0 -0.019795805629146672 -0.019635994694176484 0 -0.023549339680204534 -0.019980882310409655 0 -0.023754617553027903 -0.01942103320883869 0 -0.027268256465530334 -0.019216866096283827 0 -0.027502193946213175 -0.019626968880255821 0 -0.027519769342190317 -0.018770060588258704 0 -0.027519769342190317 -0.018770060588258704 0 -0.026945439570825996 -0.018903722214402528 0 -0.027192055298384827 -0.01828799613427284 0 -0.027286756338910385 -0.020236558739712574 0 -0.026892953777989167 -0.019148768964322067 0 -0.026948131526260143 -0.020745673282235606 0 -0.026923230961732433 -0.019479704536511891 0 -0.026531045052042308 -0.020413088757748776 0 -0.026923230961732433 -0.019479704536511891 0 -0.026531045052042308 -0.020413088757748776 0 -0.026183659595127667 -0.019955413414661231 0 -0.027268256465530334 -0.019216866096283827 0 -0.027181686278637682 -0.019704534385292186 0 -0.026945439570825996 -0.018903722214402528 0 -0.026531045052042308 -0.020413088757748776 0 -0.026397018413098494 -0.021039890639092604 0 -0.026097874103001854 -0.020834127922788492 0 -0.026948131526260143 -0.020745673282235606 0 -0.026531045052042308 -0.020413088757748776 0 -0.026397018413098494 -0.021039890639092604 0 -0.026183659595127667 -0.019955413414661231 0 -0.025783721190506068 -0.020449743436086236 0 -0.026097874103001854 -0.020834127922788492 0 -0.026531045052042308 -0.020413088757748776 0 -0.026183659595127667 -0.019955413414661231 0 -0.026097874103001854 -0.020834127922788492 0 -0.026923230961732433 -0.019479704536511891 0 -0.026183659595127667 -0.019955413414661231 0 -0.026204027398830571 -0.018975320685066913 0 -0.026183659595127667 -0.019955413414661231 0 -0.025693946076262127 -0.019586930762693057 0 -0.026204027398830571 -0.018975320685066913 0 -0.025693946076262127 -0.019586930762693057 0 -0.025760998260018656 -0.018467766836479382 0 -0.026204027398830571 -0.018975320685066913 0 -0.025693946076262127 -0.019586930762693057 0 -0.02499959451291954 -0.019325070581680277 0 -0.025760998260018656 -0.018467766836479382 0 -0.02499959451291954 -0.019325070581680277 0 -0.025375847110237253 -0.020312217437787761 0 -0.024999742234446259 -0.020735769729011363 0 -0.025693946076262127 -0.019586930762693057 0 -0.02499959451291954 -0.019325070581680277 0 -0.025375847110237253 -0.020312217437787761 0 -0.026183659595127667 -0.019955413414661231 0 -0.025693946076262127 -0.019586930762693057 0 -0.025783721190506068 -0.020449743436086236 0 -0.025693946076262127 -0.019586930762693057 0 -0.025375847110237253 -0.020312217437787761 0 -0.025783721190506068 -0.020449743436086236 0 -0.025375847110237253 -0.020312217437787761 0 -0.025783721190506068 -0.020449743436086236 0 -0.025615372012636337 -0.021248153910922066 0 -0.025375847110237253 -0.020312217437787761 0 -0.025615372012636337 -0.021248153910922066 0 -0.024999742234446259 -0.020735769729011363 0 -0.025532283392978965 -0.021933787300562658 0 -0.024999679270573963 -0.022144859140198127 0 -0.024999742234446259 -0.020735769729011363 0 -0.025532283392978965 -0.021933787300562658 0 -0.025615372012636337 -0.021248153910922066 0 -0.024999742234446259 -0.020735769729011363 0 -0.025532283392978965 -0.021933787300562658 0 -0.025615372012636337 -0.021248153910922066 0 -0.02563798785139659 -0.022510433645050558 0 -0.025313715923766213 -0.022375122990544696 0 -0.025671023653097196 -0.022458723812431029 0 -0.025615372012636337 -0.021248153910922066 0 -0.02563798785139659 -0.022510433645050558 0 -0.026031443903445719 -0.021644349342107513 0 -0.02563798785139659 -0.022510433645050558 0 -0.025891515893350214 -0.02305938741255302 0 -0.026145551440849568 -0.022249585730227325 0 -0.026511545370714481 -0.022597106421535076 0 -0.025891515893350214 -0.02305938741255302 0 -0.026145551440849568 -0.022249585730227325 0 -0.026511545370714481 -0.022597106421535076 0 -0.026617217539920433 -0.021840782401878062 0 -0.026145551440849568 -0.022249585730227325 0 -0.02563798785139659 -0.022510433645050558 0 -0.026145551440849568 -0.022249585730227325 0 -0.026031443903445719 -0.021644349342107513 0 -0.026031443903445719 -0.021644349342107513 0 -0.026431760676740374 -0.021565581994341079 0 -0.026397018413098494 -0.021039890639092604 0 -0.026617217539920433 -0.021840782401878062 0 -0.026948131526260143 -0.020745673282235606 0 -0.026431760676740374 -0.021565581994341079 0 -0.026145551440849568 -0.022249585730227325 0 -0.026031443903445719 -0.021644349342107513 0 -0.026431760676740374 -0.021565581994341079 0 -0.026617217539920433 -0.021840782401878062 0 -0.026145551440849568 -0.022249585730227325 0 -0.026431760676740374 -0.021565581994341079 0 -0.026948131526260143 -0.020745673282235606 0 -0.026431760676740374 -0.021565581994341079 0 -0.026397018413098494 -0.021039890639092604 0 -0.026031443903445719 -0.021644349342107513 0 -0.026397018413098494 -0.021039890639092604 0 -0.026097874103001854 -0.020834127922788492 0 -0.025615372012636337 -0.021248153910922066 0 -0.026031443903445719 -0.021644349342107513 0 -0.026097874103001854 -0.020834127922788492 0 -0.025783721190506068 -0.020449743436086236 0 -0.025615372012636337 -0.021248153910922066 0 -0.026097874103001854 -0.020834127922788492 0 -0.01255621611648363 -0.01714763961644971 0 -0.013072236106059053 -0.016555432877897944 0 -0.013520230938154873 -0.017836776140985024 0 -0.01255621611648363 -0.01714763961644971 0 -0.013072236106059053 -0.016555432877897944 0 -0.012400357476469268 -0.01628979053371012 0 -0.012793322259713079 -0.019158288752460412 0 -0.01215108705062967 -0.019025774175548325 0 -0.013194420256194037 -0.021653172328905099 0 -0.013192904614333674 -0.021663295927951347 0 -0.013191691233572955 -0.021589534379784035 0 -0.013194420256194037 -0.021653172328905099 0 -0.013193412425803424 -0.021580237970360214 0 -0.013191691233572955 -0.021589534379784035 0 -0.013263877846434347 -0.024406033045561097 0 -0.013571314027369708 -0.024357921761258956 0 -0.01255621611648363 -0.01714763961644971 0 -0.011517711604278133 -0.016486183179086487 0 -0.012400357476469268 -0.01628979053371012 0 -0.01380178450816141 -0.026373120344533568 0 -0.013253544930063962 -0.02682548095401693 0 -0.013302221413685316 -0.025903190780479719 0 -0.01380178450816141 -0.026373120344533568 0 -0.013253544930063962 -0.02682548095401693 0 -0.014011020130967377 -0.027082683825955103 0 -0.013194420256194037 -0.021653172328905099 0 -0.013192904614333674 -0.021663295927951347 0 -0.013255057685296865 -0.021779773960926521 0 -0.012793322259713079 -0.019158288752460412 0 -0.01322723677200693 -0.022136844076864254 0 -0.013263877846434347 -0.024406033045561097 0 -0.01322723677200693 -0.022136844076864254 0 -0.013253544930063962 -0.02682548095401693 0 -0.013302221413685316 -0.025903190780479719 0 -0.012363910052254257 -0.026438858180381001 0 -0.013302221413685316 -0.025903190780479719 0 -0.012504258961508792 -0.025583701389305422 0 -0.012363910052254257 -0.026438858180381001 0 -0.013302221413685316 -0.025903190780479719 0 -0.013085561223175701 -0.025374667306468195 0 -0.012504258961508792 -0.025583701389305422 0 -0.013085561223175701 -0.025374667306468195 0 -0.012575323091981842 -0.02499987108961545 0 -0.013975752004297725 -0.024999926519668099 0 -0.013085561223175701 -0.025374667306468195 0 -0.012575323091981842 -0.02499987108961545 0 -0.012504258961508792 -0.025583701389305422 0 -0.013302221413685316 -0.025903190780479719 0 -0.013975752004297725 -0.024999926519668099 0 -0.014321877942680817 -0.025622732048028802 0 -0.013302221413685316 -0.025903190780479719 0 -0.013085561223175701 -0.025374667306468195 0 -0.013975752004297725 -0.024999926519668099 0 -0.01380178450816141 -0.026373120344533568 0 -0.013302221413685316 -0.025903190780479719 0 -0.014321877942680817 -0.025622732048028802 0 -0.01380178450816141 -0.026373120344533568 0 -0.014534100201373783 -0.026249998288708335 0 -0.014321877942680817 -0.025622732048028802 0 -0.014534100201373783 -0.026249998288708335 0 -0.014321877942680817 -0.025622732048028802 0 -0.014772131414733547 -0.025683661153661233 0 -0.013975752004297725 -0.024999926519668099 0 -0.015376374735728093 -0.024999962701665535 0 -0.014970420208057519 -0.025181483267816905 0 -0.013975752004297725 -0.024999926519668099 0 -0.014321877942680817 -0.025622732048028802 0 -0.014970420208057519 -0.025181483267816905 0 -0.014321877942680817 -0.025622732048028802 0 -0.014970420208057519 -0.025181483267816905 0 -0.014772131414733547 -0.025683661153661233 0 -0.014970420208057519 -0.025181483267816905 0 -0.01518197422013522 -0.025808964659017181 0 -0.015712832062187126 -0.025384170732123318 0 -0.014970420208057519 -0.025181483267816905 0 -0.01518197422013522 -0.025808964659017181 0 -0.014772131414733547 -0.025683661153661233 0 -0.015057173846790858 -0.025201260409990177 0 -0.015828964087544736 -0.025428755029097718 0 -0.015376374735728093 -0.024999962701665535 0 -0.014970420208057519 -0.025181483267816905 0 -0.016068188309011175 -0.025438822572763545 0 -0.014534100201373783 -0.026249998288708335 0 -0.01518197422013522 -0.025808964659017181 0 -0.015504059675204988 -0.02647444803431017 0 -0.014534100201373783 -0.026249998288708335 0 -0.01518197422013522 -0.025808964659017181 0 -0.014772131414733547 -0.025683661153661233 0 -0.01453724595875289 -0.026263864204026977 0 -0.015173122879363107 -0.026440994082136068 0 -0.014534100201373783 -0.026249998288708335 0 -0.014688073865272265 -0.026509901745924349 0 -0.014733065912474535 -0.026430322864153397 0 -0.014688073865272265 -0.026509901745924349 0 -0.014687997659480843 -0.026359091894082268 0 -0.014733065912474535 -0.026430322864153397 0 -0.01380178450816141 -0.026373120344533568 0 -0.014237696793358267 -0.026599200754743441 0 -0.014011020130967377 -0.027082683825955103 0 -0.01380178450816141 -0.026373120344533568 0 -0.014534100201373783 -0.026249998288708335 0 -0.014237696793358267 -0.026599200754743441 0 -0.014534100201373783 -0.026249998288708335 0 -0.014688073865272265 -0.026509901745924349 0 -0.014237696793358267 -0.026599200754743441 0 -0.014688073865272265 -0.026509901745924349 0 -0.014011020130967377 -0.027082683825955103 0 -0.014666440808847254 -0.027414333756255013 0 -0.013193412425803424 -0.021580237970360214 0 -0.013191691233572955 -0.021589534379784035 0 -0.013224146597183085 -0.021555060498094615 0 -0.014688073865272265 -0.026509901745924349 0 -0.014237696793358267 -0.026599200754743441 0 -0.014011020130967377 -0.027082683825955103 0 -0.013571314027369708 -0.024357921761258956 0 -0.014159074416747372 -0.023999955589470892 0 -0.014804245083893284 -0.02765498208206036 0 -0.014159074416747372 -0.023999955589470892 0 -0.014688073865272265 -0.026509901745924349 0 -0.014687997659480843 -0.026359091894082268 0 -0.014884610923579844 -0.026195126002514658 0 -0.014687997659480843 -0.026359091894082268 0 -0.014617777506509054 -0.026285236379102191 0 -0.014733065912474535 -0.026430322864153397 0 -0.014687997659480843 -0.026359091894082268 0 -0.014617777506509054 -0.026285236379102191 0 -0.014596592368686667 -0.026192826919289904 0 -0.014617777506509054 -0.026285236379102191 0 -0.014596311711739472 -0.026315794613179365 0 -0.014594091798252377 -0.026232223870384392 0 -0.014617777506509054 -0.026285236379102191 0 -0.014594091798252377 -0.026232223870384392 0 -0.0146014276060392 -0.026219230713585631 0 -0.016352225624710545 -0.026676793240434961 0 -0.016433952658031482 -0.02609653690961453 0 -0.016847390309904595 -0.026243024222660515 0 -0.016352225624710545 -0.026676793240434961 0 -0.015995672424609957 -0.025997849910989634 0 -0.016433952658031482 -0.02609653690961453 0 -0.014617777506509054 -0.026285236379102191 0 -0.014596311711739472 -0.026315794613179365 0 -0.014733065912474535 -0.026430322864153397 0 -0.016352225624710545 -0.026676793240434961 0 -0.015504059675204988 -0.02647444803431017 0 -0.015995672424609957 -0.025997849910989634 0 -0.015125541570343555 -0.026570333225381191 0 -0.015173122879363107 -0.026440994082136068 0 -0.015599382185362545 -0.025913886528090842 0 -0.015712832062187126 -0.025384170732123318 0 -0.015995672424609957 -0.025997849910989634 0 -0.01518197422013522 -0.025808964659017181 0 -0.015504059675204988 -0.02647444803431017 0 -0.015599382185362545 -0.025913886528090842 0 -0.015504059675204988 -0.02647444803431017 0 -0.015599382185362545 -0.025913886528090842 0 -0.015995672424609957 -0.025997849910989634 0 -0.01518197422013522 -0.025808964659017181 0 -0.015599382185362545 -0.025913886528090842 0 -0.015712832062187126 -0.025384170732123318 0 -0.015376374735728093 -0.024999962701665535 0 -0.016068188309011175 -0.025438822572763545 0 -0.016777343551789795 -0.025000020309391004 0 -0.015828964087544736 -0.025428755029097718 0 -0.017108180424897118 -0.025211514635230553 0 -0.016068188309011175 -0.025438822572763545 0 -0.016777343551789795 -0.025000020309391004 0 -0.017121679559872347 -0.025673413115844947 0 -0.016777519257365453 -0.025000392305121966 0 -0.017108180424897118 -0.025211514635230553 0 -0.016513130765057071 -0.025574529731502822 0 -0.015995672424609957 -0.025997849910989634 0 -0.016433952658031482 -0.02609653690961453 0 -0.015712832062187126 -0.025384170732123318 0 -0.016513130765057071 -0.025574529731502822 0 -0.015995672424609957 -0.025997849910989634 0 -0.016513130765057071 -0.025574529731502822 0 -0.016433952658031482 -0.02609653690961453 0 -0.016847390309904595 -0.026243024222660515 0 -0.016777211718588734 -0.025000713847266154 0 -0.017208599686494356 -0.025556838946621349 0 -0.018678650800742515 -0.025604574235331919 0 -0.017456604060559502 -0.024447531649223649 0 -0.019078619707421276 -0.024819554371988111 0 -0.018026051523529513 -0.025551149774952302 0 -0.017108180424897118 -0.025211514635230553 0 -0.01750232529186295 -0.02610512615863873 0 -0.017108180424897118 -0.025211514635230553 0 -0.018925280483952776 -0.025166605450693821 0 -0.019830326146906524 -0.024997500471805465 0 -0.016777211718588734 -0.025000713847266154 0 -0.018678650800742515 -0.025604574235331919 0 -0.01967852105940094 -0.025814635334407678 0 -0.019078619707421276 -0.024819554371988111 0 -0.018026051523529513 -0.025551149774952302 0 -0.01967852105940094 -0.025814635334407678 0 -0.018026051523529513 -0.025551149774952302 0 -0.018568288715472309 -0.026675833833900309 0 -0.015125541570343555 -0.026570333225381191 0 -0.017853955274691951 -0.025243607599432168 0 -0.016352225624710545 -0.026676793240434961 0 -0.016847390309904595 -0.026243024222660515 0 -0.017182888853362784 -0.026885569351018889 0 -0.01750232529186295 -0.02610512615863873 0 -0.017853955274691951 -0.025243607599432168 0 -0.014596311711739472 -0.026315794613179365 0 -0.014594091798252377 -0.026232223870384392 0 -0.014593167529436945 -0.026243153602249589 0 -0.014594091798252377 -0.026232223870384392 0 -0.014593167529436945 -0.026243153602249589 0 -0.014596072926440785 -0.026217176903828059 0 -0.014593167529436945 -0.026243153602249589 0 -0.014597312633876879 -0.026200314151044176 0 -0.014596072926440785 -0.026217176903828059 0 -0.017853955274691951 -0.025243607599432168 0 -0.017573433184561307 -0.024089913953884257 0 -0.020780984377385094 -0.022065980326578888 0 -0.020555187715658632 -0.022037678919477655 0 -0.020645142025301665 -0.022143222056904551 0 -0.020719150119884313 -0.024583838964817289 0 -0.017853955274691951 -0.025243607599432168 0 -0.01967852105940094 -0.025814635334407678 0 -0.01997713549340591 -0.027135938428237527 0 -0.018568288715472309 -0.026675833833900309 0 -0.014608367137343724 -0.026166619614245566 0 -0.014597312633876879 -0.026200314151044176 0 -0.014598923624323148 -0.026195183643866072 0 -0.018569456112945536 -0.023143098792319586 0 -0.017573433184561307 -0.024089913953884257 0 -0.014597312633876879 -0.026200314151044176 0 -0.014596072926440785 -0.026217176903828059 0 -0.014598923624323148 -0.026195183643866072 0 -0.014594091798252377 -0.026232223870384392 0 -0.014598923624323148 -0.026195183643866072 0 -0.014605552652052569 -0.026200475537074754 0 -0.014594091798252377 -0.026232223870384392 0 -0.014596072926440785 -0.026217176903828059 0 -0.014598923624323148 -0.026195183643866072 0 -0.014072872767316107 -0.023554590158783417 0 -0.01446531029558734 -0.026284848083599124 0 -0.014598923624323148 -0.026195183643866072 0 -0.014601680935960903 -0.026166177424045454 0 -0.014605552652052569 -0.026200475537074754 0 -0.013422423903110676 -0.025371624704710619 0 -0.013716116127429345 -0.025198620834639716 0 -0.01405402471836033 -0.025852848128655386 0 -0.017235624459162029 -0.021048812534850851 0 -0.015162771274369222 -0.022280973751705457 0 -0.016089214697974599 -0.02290507203543482 0 -0.017510245918097904 -0.021583922708568803 0 -0.017235624459162029 -0.021048812534850851 0 -0.016089214697974599 -0.02290507203543482 0 -0.014608367137343724 -0.026166619614245566 0 -0.014598923624323148 -0.026195183643866072 0 -0.014601680935960903 -0.026166177424045454 0 -0.018569456112945536 -0.023143098792319586 0 -0.014072872767316107 -0.023554590158783417 0 -0.018643807412906947 -0.021262240647536061 0 -0.014966750902731875 -0.019267308773278046 0 -0.014905551643397363 -0.016062897249775863 0 -0.014905374136129454 -0.016068330174124616 0 -0.014830174881001161 -0.016059632781212713 0 -0.014905551643397363 -0.016062897249775863 0 -0.014851751542396804 -0.016048670270511042 0 -0.014830174881001161 -0.016059632781212713 0 -0.014072872767316107 -0.023554590158783417 0 -0.014966750902731875 -0.019267308773278046 0 -0.013789472236330338 -0.019703248822895043 0 -0.013566308342199336 -0.019540435471915304 0 -0.013720207208159484 -0.019386569453279569 0 -0.014966750902731875 -0.019267308773278046 0 -0.012993885254613377 -0.015415670339924784 0 -0.017075600388666679 -0.017415927246735213 0 -0.014966750902731875 -0.019267308773278046 0 -0.014905517350094186 -0.016074762249919262 0 -0.014905374136129454 -0.016068330174124616 0 -0.014830174881001161 -0.016059632781212713 0 -0.010901009337813947 -0.010155800843956448 0 -0.012446040307059118 -0.011154645480867606 0 -0.011404051379345217 -0.009607388457228425 0 -0.011416078951136301 -0.0094122247211679989 0 -0.01253238340107867 -0.011299968994675776 0 -0.012446040307059118 -0.011154645480867606 0 -0.011404051379345217 -0.009607388457228425 0 -0.012947178466441934 -0.01068041320975186 0 -0.014734506838468544 -0.012944573377588682 0 -0.012993885254613377 -0.015415670339924784 0 -0.011404051379345217 -0.009607388457228425 0 -0.012296891282645973 -0.010133910564898665 0 -0.011883649401040587 -0.0093970890727591468 0 -0.012338354603522983 -0.0094885369826423014 0 -0.012296891282645973 -0.010133910564898665 0 -0.011883649401040587 -0.0093970890727591468 0 -0.012338354603522983 -0.0094885369826423014 0 -0.012296891282645973 -0.010133910564898665 0 -0.012903142931391784 -0.0095305212942307874 0 -0.01192882326109993 -0.010389951435390541 0 -0.012550033730464647 -0.010253662394614027 0 -0.01271039254457571 -0.0096382959871819992 0 -0.01253238340107867 -0.011299968994675776 0 -0.012847379354226255 -0.0094900053735104788 0 -0.01192882326109993 -0.010389951435390541 0 -0.012581789251624365 -0.010843047578328066 0 -0.012550033730464647 -0.010253662394614027 0 -0.01253238340107867 -0.011299968994675776 0 -0.012865657836642926 -0.015265729959358857 0 -0.012848796818785754 -0.014863124535962004 0 -0.013114499236148819 -0.015675704007447725 0 -0.013589766907987973 -0.01538349314702175 0 -0.01243460870107832 -0.015263017497224729 0 -0.012848796818785754 -0.014863124535962004 0 -0.013114499236148819 -0.015675704007447725 0 -0.012993885254613377 -0.015415670339924784 0 -0.01253238340107867 -0.011299968994675776 0 -0.014072872767316107 -0.023554590158783417 0 -0.013496465993644458 -0.019988839986952698 0 -0.012993885254613377 -0.015415670339924784 0 -0.013496465993644458 -0.019988839986952698 0 -0.013789472236330338 -0.019703248822895043 0 -0.013720207208159484 -0.019386569453279569 0 -0.014006605475509085 -0.019567538709817058 0 -0.013496465993644458 -0.019988839986952698 0 -0.012865657836642926 -0.015265729959358857 0 -0.011669592166763214 -0.014550239431456139 0 -0.013011040724825342 -0.013751641044394036 0 -0.012758388354454947 -0.014186237032976041 0 -0.012865657836642926 -0.015265729959358857 0 -0.013676186989762838 -0.018115936802195073 0 -0.012865657836642926 -0.015265729959358857 0 -0.013505002352949049 -0.011235867898984508 0 -0.011669592166763214 -0.014550239431456139 0 -0.012856777441394166 -0.014594650612020543 0 -0.013176112554956083 -0.015608957157866249 0 -0.012699372205231513 -0.019559025803955014 0 -0.012979358897349984 -0.019385292798454374 0 -0.013607039252294707 -0.02013589497332486 0 -0.011669592166763214 -0.014550239431456139 0 -0.012758388354454947 -0.014186237032976041 0 -0.012856777441394166 -0.014594650612020543 0 -0.012581789251624365 -0.010843047578328066 0 -0.012550033730464647 -0.010253662394614027 0 -0.01297839744256043 -0.010149725130570384 0 -0.012581789251624365 -0.010843047578328066 0 -0.01297839744256043 -0.010149725130570384 0 -0.013589834235738301 -0.010205366827160736 0 -0.012550033730464647 -0.010253662394614027 0 -0.01297839744256043 -0.010149725130570384 0 -0.01271039254457571 -0.0096382959871819992 0 -0.01297839744256043 -0.010149725130570384 0 -0.013354735134608907 -0.0099711583353584553 0 -0.013589834235738301 -0.010205366827160736 0 -0.01297839744256043 -0.010149725130570384 0 -0.013288680078152182 -0.0096985404507438921 0 -0.01271039254457571 -0.0096382959871819992 0 -0.01297839744256043 -0.010149725130570384 0 -0.013288680078152182 -0.0096985404507438921 0 -0.013354735134608907 -0.0099711583353584553 0 -0.013505002352949049 -0.011235867898984508 0 -0.014534215030453107 -0.0094439425976264053 0 -0.013589834235738301 -0.010205366827160736 0 -0.014466590248458906 -0.0095973250779665658 0 -0.014129853934476758 -0.0096766965881360176 0 -0.013761469742386311 -0.0098143523407173798 0 -0.013589834235738301 -0.010205366827160736 0 -0.014129853934476758 -0.0096766965881360176 0 -0.013761469742386311 -0.0098143523407173798 0 -0.014129853934476758 -0.0096766965881360176 0 -0.01376698572320768 -0.0095396564842482549 0 -0.013761469742386311 -0.0098143523407173798 0 -0.01357770922610721 -0.0098453244963243192 0 -0.01376698572320768 -0.0095396564842482549 0 -0.013288680078152182 -0.0096985404507438921 0 -0.01357770922610721 -0.0098453244963243192 0 -0.01376698572320768 -0.0095396564842482549 0 -0.013288680078152182 -0.0096985404507438921 0 -0.013354735134608907 -0.0099711583353584553 0 -0.01357770922610721 -0.0098453244963243192 0 -0.013761469742386311 -0.0098143523407173798 0 -0.01357770922610721 -0.0098453244963243192 0 -0.013589834235738301 -0.010205366827160736 0 -0.013354735134608907 -0.0099711583353584553 0 -0.01357770922610721 -0.0098453244963243192 0 -0.013589834235738301 -0.010205366827160736 0 -0.013104125635274102 -0.013931205569245425 0 -0.013011040724825342 -0.013751641044394036 0 -0.012758388354454947 -0.014186237032976041 0 -0.013104125635274102 -0.013931205569245425 0 -0.013603732477889418 -0.013827027074636183 0 -0.01317035016040935 -0.014177200335851412 0 -0.013104125635274102 -0.013931205569245425 0 -0.013636510498144622 -0.013623139352733507 0 -0.013603732477889418 -0.013827027074636183 0 -0.013104125635274102 -0.013931205569245425 0 -0.013011040724825342 -0.013751641044394036 0 -0.013636510498144622 -0.013623139352733507 0 -0.013603732477889418 -0.013827027074636183 0 -0.013529464569795797 -0.014131978625914334 0 -0.014022132796168783 -0.013831478460885399 0 -0.013529464569795797 -0.014131978625914334 0 -0.013464301578423578 -0.014515299211303383 0 -0.01317035016040935 -0.014177200335851412 0 -0.013603732477889418 -0.013827027074636183 0 -0.013529464569795797 -0.014131978625914334 0 -0.01317035016040935 -0.014177200335851412 0 -0.013529464569795797 -0.014131978625914334 0 -0.013464301578423578 -0.014515299211303383 0 -0.013887656090440435 -0.014240396398697681 0 -0.013464301578423578 -0.014515299211303383 0 -0.01317035016040935 -0.014177200335851412 0 -0.012856777441394166 -0.014594650612020543 0 -0.013104125635274102 -0.013931205569245425 0 -0.012758388354454947 -0.014186237032976041 0 -0.01317035016040935 -0.014177200335851412 0 -0.012758388354454947 -0.014186237032976041 0 -0.01317035016040935 -0.014177200335851412 0 -0.012856777441394166 -0.014594650612020543 0 -0.013464301578423578 -0.014515299211303383 0 -0.012856777441394166 -0.014594650612020543 0 -0.013176112554956083 -0.015608957157866249 0 -0.013464301578423578 -0.014515299211303383 0 -0.013176112554956083 -0.015608957157866249 0 -0.014008513250398329 -0.014650001042738161 0 -0.013607039252294707 -0.02013589497332486 0 -0.013745728268523515 -0.019956157441419715 0 -0.014461378033354346 -0.020500087014423855 0 -0.012979358897349984 -0.019385292798454374 0 -0.013607039252294707 -0.02013589497332486 0 -0.013745728268523515 -0.019956157441419715 0 -0.013716116127429345 -0.025198620834639716 0 -0.014516879898356306 -0.025795829913469358 0 -0.01405402471836033 -0.025852848128655386 0 -0.013496465993644458 -0.019988839986952698 0 -0.014160038545609887 -0.023258196154164988 0 -0.014516879898356306 -0.025795829913469358 0 -0.01405402471836033 -0.025852848128655386 0 -0.014596592368686667 -0.026192826919289904 0 -0.01446531029558734 -0.026284848083599124 0 -0.014502818446137673 -0.026107464198984548 0 -0.014605552652052569 -0.026200475537074754 0 -0.0146014276060392 -0.026219230713585631 0 -0.014596592368686667 -0.026192826919289904 0 -0.014594091798252377 -0.026232223870384392 0 -0.014605552652052569 -0.026200475537074754 0 -0.0146014276060392 -0.026219230713585631 0 -0.014617777506509054 -0.026285236379102191 0 -0.0146014276060392 -0.026219230713585631 0 -0.014596592368686667 -0.026192826919289904 0 -0.014516879898356306 -0.025795829913469358 0 -0.014596592368686667 -0.026192826919289904 0 -0.014884610923579844 -0.026195126002514658 0 -0.014687997659480843 -0.026359091894082268 0 -0.014596592368686667 -0.026192826919289904 0 -0.014884610923579844 -0.026195126002514658 0 -0.014160038545609887 -0.023258196154164988 0 -0.014159074416747372 -0.023999955589470892 0 -0.013607039252294707 -0.02013589497332486 0 -0.014461378033354346 -0.020500087014423855 0 -0.014453478559683678 -0.02068654582996313 0 -0.013369932665067658 -0.018168170150131311 0 -0.014159074416747372 -0.023999955589470892 0 -0.011517711604278133 -0.016486183179086487 0 -0.010345091880305647 -0.015756363886342363 0 -0.011296719740476765 -0.015028770435939467 0 -0.013193412425803424 -0.021580237970360214 0 -0.013226480505233206 -0.021547457509054638 0 -0.013224146597183085 -0.021555060498094615 0 -0.01215108705062967 -0.019025774175548325 0 -0.013369932665067658 -0.018168170150131311 0 -0.010345091880305647 -0.015756363886342363 0 -0.010789667019055286 -0.014531142043613027 0 -0.010269580954356731 -0.013993189087385735 0 -0.010345091880305647 -0.015756363886342363 0 -0.011296719740476765 -0.015028770435939467 0 -0.010789667019055286 -0.014531142043613027 0 -0.011296719740476765 -0.015028770435939467 0 -0.011101034109659534 -0.01432694771981269 0 -0.010789667019055286 -0.014531142043613027 0 -0.011296719740476765 -0.015028770435939467 0 -0.011101034109659534 -0.01432694771981269 0 -0.011548765778272135 -0.014236858556999544 0 -0.013369932665067658 -0.018168170150131311 0 -0.012295840832882638 -0.014187691089829016 0 -0.013176112554956083 -0.015608957157866249 0 -0.014698966263498134 -0.016683580293788493 0 -0.014767890359810602 -0.014832306518664597 0 -0.013676186989762838 -0.018115936802195073 0 -0.013369932665067658 -0.018168170150131311 0 -0.013176112554956083 -0.015608957157866249 0 -0.014008513250398329 -0.014650001042738161 0 -0.014767890359810602 -0.014832306518664597 0 -0.014767890359810602 -0.014832306518664597 0 -0.014448586974167172 -0.014247279715932979 0 -0.014827443628365265 -0.012981601701430635 0 -0.014008513250398329 -0.014650001042738161 0 -0.014767890359810602 -0.014832306518664597 0 -0.014448586974167172 -0.014247279715932979 0 -0.013464301578423578 -0.014515299211303383 0 -0.014008513250398329 -0.014650001042738161 0 -0.013887656090440435 -0.014240396398697681 0 -0.014008513250398329 -0.014650001042738161 0 -0.014176729528049135 -0.014335447638601144 0 -0.013887656090440435 -0.014240396398697681 0 -0.014008513250398329 -0.014650001042738161 0 -0.014448586974167172 -0.014247279715932979 0 -0.014176729528049135 -0.014335447638601144 0 -0.014176729528049135 -0.014335447638601144 0 -0.013887656090440435 -0.014240396398697681 0 -0.014262525596671809 -0.013973960316322977 0 -0.014448586974167172 -0.014247279715932979 0 -0.014176729528049135 -0.014335447638601144 0 -0.014262525596671809 -0.013973960316322977 0 -0.013887656090440435 -0.014240396398697681 0 -0.014022132796168783 -0.013831478460885399 0 -0.014262525596671809 -0.013973960316322977 0 -0.013529464569795797 -0.014131978625914334 0 -0.013887656090440435 -0.014240396398697681 0 -0.014022132796168783 -0.013831478460885399 0 -0.013603732477889418 -0.013827027074636183 0 -0.014022132796168783 -0.013831478460885399 0 -0.014827443628365265 -0.012981601701430635 0 -0.013636510498144622 -0.013623139352733507 0 -0.013603732477889418 -0.013827027074636183 0 -0.014827443628365265 -0.012981601701430635 0 -0.014448586974167172 -0.014247279715932979 0 -0.014262525596671809 -0.013973960316322977 0 -0.014827443628365265 -0.012981601701430635 0 -0.012295840832882638 -0.014187691089829016 0 -0.013896566665721644 -0.011282396488721591 0 -0.013011040724825342 -0.013751641044394036 0 -0.013636510498144622 -0.013623139352733507 0 -0.014827443628365265 -0.012981601701430635 0 -0.013520656766849109 -0.010241976038447771 0 -0.014837867494014676 -0.009646313702354482 0 -0.014466590248458906 -0.0095973250779665658 0 -0.013505002352949049 -0.011235867898984508 0 -0.013896566665721644 -0.011282396488721591 0 -0.014022132796168783 -0.013831478460885399 0 -0.014262525596671809 -0.013973960316322977 0 -0.014827443628365265 -0.012981601701430635 0 -0.010269580954356731 -0.013993189087385735 0 -0.010310292092187402 -0.011413029621344585 0 -0.010952231978299934 -0.012477967751152485 0 -0.010310292092187402 -0.011413029621344585 0 -0.01156162609123168 -0.011721845726837073 0 -0.011767440275555686 -0.010835013044889204 0 -0.010310292092187402 -0.011413029621344585 0 -0.01156162609123168 -0.011721845726837073 0 -0.010952231978299934 -0.012477967751152485 0 -0.010952231978299934 -0.012477967751152485 0 -0.011480921550621546 -0.012978899830529479 0 -0.012053272852513629 -0.01238527610626412 0 -0.01156162609123168 -0.011721845726837073 0 -0.010952231978299934 -0.012477967751152485 0 -0.012053272852513629 -0.01238527610626412 0 -0.011480921550621546 -0.012978899830529479 0 -0.012221579114595016 -0.012990528934312665 0 -0.012053272852513629 -0.01238527610626412 0 -0.011480921550621546 -0.012978899830529479 0 -0.010784974886823418 -0.013758612235032924 0 -0.012221579114595016 -0.012990528934312665 0 -0.010952231978299934 -0.012477967751152485 0 -0.011480921550621546 -0.012978899830529479 0 -0.010862519196299294 -0.01330539669777114 0 -0.010269580954356731 -0.013993189087385735 0 -0.010952231978299934 -0.012477967751152485 0 -0.010862519196299294 -0.01330539669777114 0 -0.011480921550621546 -0.012978899830529479 0 -0.010862519196299294 -0.01330539669777114 0 -0.010784974886823418 -0.013758612235032924 0 -0.011101034109659534 -0.01432694771981269 0 -0.010789667019055286 -0.014531142043613027 0 -0.010784974886823418 -0.013758612235032924 0 -0.010789667019055286 -0.014531142043613027 0 -0.010269580954356731 -0.013993189087385735 0 -0.010784974886823418 -0.013758612235032924 0 -0.010269580954356731 -0.013993189087385735 0 -0.010862519196299294 -0.01330539669777114 0 -0.010784974886823418 -0.013758612235032924 0 -0.011101034109659534 -0.01432694771981269 0 -0.010784974886823418 -0.013758612235032924 0 -0.011548765778272135 -0.014236858556999544 0 -0.011548765778272135 -0.014236858556999544 0 -0.012585555941050269 -0.013958317910543446 0 -0.012273957976297661 -0.014460482666669964 0 -0.010784974886823418 -0.013758612235032924 0 -0.011548765778272135 -0.014236858556999544 0 -0.012585555941050269 -0.013958317910543446 0 -0.010859322971654423 -0.013762612145624855 0 -0.013033090588940062 -0.013643137685734542 0 -0.010784974886823418 -0.013758612235032924 0 -0.012221579114595016 -0.012990528934312665 0 -0.013512670323212565 -0.013397503473836527 0 -0.012221579114595016 -0.012990528934312665 0 -0.013245174615254044 -0.012468590806450193 0 -0.013512670323212565 -0.013397503473836527 0 -0.012221579114595016 -0.012990528934312665 0 -0.012053272852513629 -0.01238527610626412 0 -0.013245174615254044 -0.012468590806450193 0 -0.012053272852513629 -0.01238527610626412 0 -0.013245174615254044 -0.012468590806450193 0 -0.012649527309451038 -0.011529867205685584 0 -0.013245174615254044 -0.012468590806450193 0 -0.012649527309451038 -0.011529867205685584 0 -0.013911052811229681 -0.011670010304561572 0 -0.01156162609123168 -0.011721845726837073 0 -0.012649527309451038 -0.011529867205685584 0 -0.011767440275555686 -0.010835013044889204 0 -0.01156162609123168 -0.011721845726837073 0 -0.012053272852513629 -0.01238527610626412 0 -0.012649527309451038 -0.011529867205685584 0 -0.013781397286368156 -0.011354294918312762 0 -0.014674205337350735 -0.012882089374951817 0 -0.015486895974414931 -0.011257955648301093 0 -0.013781397286368156 -0.011354294918312762 0 -0.014671927581030149 -0.010359026142482885 0 -0.015486895974414931 -0.011257955648301093 0 -0.013245174615254044 -0.012468590806450193 0 -0.013911052811229681 -0.011670010304561572 0 -0.014674205337350735 -0.012882089374951817 0 -0.013862704616913345 -0.011495812579163564 0 -0.01457249494424304 -0.01273388459984779 0 -0.014674205337350735 -0.012882089374951817 0 -0.013512670323212565 -0.013397503473836527 0 -0.016124992922564637 -0.013069556780570023 0 -0.013410803833860396 -0.01419652868385291 0 -0.012585555941050269 -0.013958317910543446 0 -0.012273957976297661 -0.014460482666669964 0 -0.013410803833860396 -0.01419652868385291 0 -0.012585555941050269 -0.013958317910543446 0 -0.01456091933108743 -0.013891635469778854 0 -0.013077683908447013 -0.014320002807755956 0 -0.0124486730440644 -0.014441848907273659 0 -0.013033090588940062 -0.013643137685734542 0 -0.015232722666872551 -0.013675766507084937 0 -0.013245174615254044 -0.012468590806450193 0 -0.014674205337350735 -0.012882089374951817 0 -0.013512670323212565 -0.013397503473836527 0 -0.01313903751418424 -0.014362587841992715 0 -0.012874384826470886 -0.014999494803427745 0 -0.012273957976297661 -0.014460482666669964 0 -0.01313903751418424 -0.014362587841992715 0 -0.012874384826470886 -0.014999494803427745 0 -0.013713391968197687 -0.015046820152075894 0 -0.012874384826470886 -0.014999494803427745 0 -0.013009751071909043 -0.015760749361040317 0 -0.013713391968197687 -0.015046820152075894 0 -0.012874384826470886 -0.014999494803427745 0 -0.012174906846333457 -0.015401708768545835 0 -0.013009751071909043 -0.015760749361040317 0 -0.012273957976297661 -0.014460482666669964 0 -0.011818066371399538 -0.014773575443846715 0 -0.012174906846333457 -0.015401708768545835 0 -0.011548765778272135 -0.014236858556999544 0 -0.012273957976297661 -0.014460482666669964 0 -0.011818066371399538 -0.014773575443846715 0 -0.011296719740476765 -0.015028770435939467 0 -0.011548765778272135 -0.014236858556999544 0 -0.011818066371399538 -0.014773575443846715 0 -0.011296719740476765 -0.015028770435939467 0 -0.011818066371399538 -0.014773575443846715 0 -0.012174906846333457 -0.015401708768545835 0 -0.012874384826470886 -0.014999494803427745 0 -0.012273957976297661 -0.014460482666669964 0 -0.012174906846333457 -0.015401708768545835 0 -0.011517711604278133 -0.016486183179086487 0 -0.012174906846333457 -0.015401708768545835 0 -0.012400357476469268 -0.01628979053371012 0 -0.011517711604278133 -0.016486183179086487 0 -0.011296719740476765 -0.015028770435939467 0 -0.012174906846333457 -0.015401708768545835 0 -0.013072236106059053 -0.016555432877897944 0 -0.012400357476469268 -0.01628979053371012 0 -0.013009751071909043 -0.015760749361040317 0 -0.012174906846333457 -0.015401708768545835 0 -0.012400357476469268 -0.01628979053371012 0 -0.013009751071909043 -0.015760749361040317 0 -0.016165851827717594 -0.007039748987477795 0 -0.016000921804874245 -0.0062884752407925629 0 -0.016572305938910736 -0.0065110309249669278 0 -0.016165851827717594 -0.007039748987477795 0 -0.015473271982873607 -0.0066320338929725846 0 -0.015581934141266117 -0.0072620330890774782 0 -0.016165851827717594 -0.007039748987477795 0 -0.015473271982873607 -0.0066320338929725846 0 -0.016000921804874245 -0.0062884752407925629 0 -0.015473271982873607 -0.0066320338929725846 0 -0.015581934141266117 -0.0072620330890774782 0 -0.015012031799140006 -0.0071486954567501924 0 -0.015581934141266117 -0.0072620330890774782 0 -0.016052973421957717 -0.007730015112843761 0 -0.015381042255190247 -0.0078392818698989064 0 -0.016165851827717594 -0.007039748987477795 0 -0.015581934141266117 -0.0072620330890774782 0 -0.016052973421957717 -0.007730015112843761 0 -0.016165851827717594 -0.007039748987477795 0 -0.016052973421957717 -0.007730015112843761 0 -0.016640708388633439 -0.0077332708304002256 0 -0.016052973421957717 -0.007730015112843761 0 -0.01645989815458939 -0.0082801578737519508 0 -0.016640708388633439 -0.0077332708304002256 0 -0.016052973421957717 -0.007730015112843761 0 -0.015762026656079876 -0.0085574779995428729 0 -0.01645989815458939 -0.0082801578737519508 0 -0.014526285269823695 -0.0094597452103479373 0 -0.015692711852189973 -0.0086410841024027966 0 -0.013781397286368156 -0.011354294918312762 0 -0.014671927581030149 -0.010359026142482885 0 -0.012931255575366878 -0.0098435556594593295 0 -0.014671927581030149 -0.010359026142482885 0 -0.012931255575366878 -0.0098435556594593295 0 -0.014897847487332692 -0.0090174632138353538 0 -0.013862704616913345 -0.011495812579163564 0 -0.014526285269823695 -0.0094597452103479373 0 -0.01609555638190344 -0.0091121459737052921 0 -0.015559628804909457 -0.0081221987325670476 0 -0.015354795238545625 -0.0094191053165340339 0 -0.012649527309451038 -0.011529867205685584 0 -0.013153050219832693 -0.010285637883899721 0 -0.011767440275555686 -0.010835013044889204 0 -0.014526285269823695 -0.0094597452103479373 0 -0.013418572899446429 -0.010219027152769813 0 -0.012649527309451038 -0.011529867205685584 0 -0.013911052811229681 -0.011670010304561572 0 -0.013153050219832693 -0.010285637883899721 0 -0.014526285269823695 -0.0094597452103479373 0 -0.015574979629927663 -0.0079419514149649418 0 -0.016052973421957717 -0.007730015112843761 0 -0.015762026656079876 -0.0085574779995428729 0 -0.015381042255190247 -0.0078392818698989064 0 -0.015559628804909457 -0.0081221987325670476 0 -0.0146624810390145 -0.0085875756274432589 0 -0.014751069372806895 -0.0074667432012215929 0 -0.015559628804909457 -0.0081221987325670476 0 -0.015354795238545625 -0.0094191053165340339 0 -0.0146624810390145 -0.0085875756274432589 0 -0.014810278538829189 -0.0082099779771870364 0 -0.014743254476209068 -0.0076960050768669378 0 -0.014600315176349025 -0.0097358219374405943 0 -0.015354795238545625 -0.0094191053165340339 0 -0.0146624810390145 -0.0085875756274432589 0 -0.013896566665721644 -0.011282396488721591 0 -0.013418572899446429 -0.010219027152769813 0 -0.013896566665721644 -0.011282396488721591 0 -0.014810278538829189 -0.0082099779771870364 0 -0.014837867494014676 -0.009646313702354482 0 -0.014194571127668089 -0.0088828544799048354 0 -0.014828811631869072 -0.0085302865535874638 0 -0.014466590248458906 -0.0095973250779665658 0 -0.014194571127668089 -0.0088828544799048354 0 -0.014083379451973124 -0.0093159581110340318 0 -0.014466590248458906 -0.0095973250779665658 0 -0.014129853934476758 -0.0096766965881360176 0 -0.014083379451973124 -0.0093159581110340318 0 -0.014837867494014676 -0.009646313702354482 0 -0.014466590248458906 -0.0095973250779665658 0 -0.014194571127668089 -0.0088828544799048354 0 -0.014194571127668089 -0.0088828544799048354 0 -0.014828811631869072 -0.0085302865535874638 0 -0.014076268769055702 -0.008157880497130357 0 -0.014828811631869072 -0.0085302865535874638 0 -0.014472734532785686 -0.0078953025674091126 0 -0.014076268769055702 -0.008157880497130357 0 -0.014828811631869072 -0.0085302865535874638 0 -0.014472734532785686 -0.0078953025674091126 0 -0.014751069372806895 -0.0074667432012215929 0 -0.014242696846989837 -0.0074519129048963668 0 -0.014472734532785686 -0.0078953025674091126 0 -0.014076268769055702 -0.008157880497130357 0 -0.014242696846989837 -0.0074519129048963668 0 -0.014472734532785686 -0.0078953025674091126 0 -0.014751069372806895 -0.0074667432012215929 0 -0.014242696846989837 -0.0074519129048963668 0 -0.014751069372806895 -0.0074667432012215929 0 -0.014646520284315149 -0.0071266653418524169 0 -0.015574979629927663 -0.0079419514149649418 0 -0.015026956544192489 -0.0072124783099365083 0 -0.015559628804909457 -0.0081221987325670476 0 -0.014751069372806895 -0.0074667432012215929 0 -0.015012031799140006 -0.0071486954567501924 0 -0.015581934141266117 -0.0072620330890774782 0 -0.015381042255190247 -0.0078392818698989064 0 -0.015012031799140006 -0.0071486954567501924 0 -0.014751069372806895 -0.0074667432012215929 0 -0.015012031799140006 -0.0071486954567501924 0 -0.014646520284315149 -0.0071266653418524169 0 -0.015012031799140006 -0.0071486954567501924 0 -0.014865265533334759 -0.0067049963282653788 0 -0.014646520284315149 -0.0071266653418524169 0 -0.015473271982873607 -0.0066320338929725846 0 -0.015012031799140006 -0.0071486954567501924 0 -0.014865265533334759 -0.0067049963282653788 0 -0.014865265533334759 -0.0067049963282653788 0 -0.014367838817226405 -0.0068754226356053704 0 -0.014525387229929465 -0.0064036791718402536 0 -0.014367838817226405 -0.0068754226356053704 0 -0.014082845337659735 -0.0065430894330444642 0 -0.014525387229929465 -0.0064036791718402536 0 -0.014367838817226405 -0.0068754226356053704 0 -0.01377443038571376 -0.0070281476719987737 0 -0.014082845337659735 -0.0065430894330444642 0 -0.014242696846989837 -0.0074519129048963668 0 -0.014367838817226405 -0.0068754226356053704 0 -0.01377443038571376 -0.0070281476719987737 0 -0.014242696846989837 -0.0074519129048963668 0 -0.014367838817226405 -0.0068754226356053704 0 -0.014646520284315149 -0.0071266653418524169 0 -0.014865265533334759 -0.0067049963282653788 0 -0.014367838817226405 -0.0068754226356053704 0 -0.014646520284315149 -0.0071266653418524169 0 -0.01377443038571376 -0.0070281476719987737 0 -0.013483067860984004 -0.0063279662025446546 0 -0.014082845337659735 -0.0065430894330444642 0 -0.01377443038571376 -0.0070281476719987737 0 -0.013171974623992753 -0.0069681304297117353 0 -0.013483067860984004 -0.0063279662025446546 0 -0.01377443038571376 -0.0070281476719987737 0 -0.013171974623992753 -0.0069681304297117353 0 -0.013514708479227928 -0.007632780714768906 0 -0.013171974623992753 -0.0069681304297117353 0 -0.012480086033932769 -0.0073977216990716976 0 -0.012754441695604664 -0.006286545798526201 0 -0.013171974623992753 -0.0069681304297117353 0 -0.013017394053733502 -0.007506172482665603 0 -0.012480086033932769 -0.0073977216990716976 0 -0.013171974623992753 -0.0069681304297117353 0 -0.013017394053733502 -0.007506172482665603 0 -0.013514708479227928 -0.007632780714768906 0 -0.013017394053733502 -0.007506172482665603 0 -0.012898188422567845 -0.0080364692817522961 0 -0.012480086033932769 -0.0073977216990716976 0 -0.013514708479227928 -0.007632780714768906 0 -0.013479407221138056 -0.0082761365002656621 0 -0.012898188422567845 -0.0080364692817522961 0 -0.013017394053733502 -0.007506172482665603 0 -0.013514708479227928 -0.007632780714768906 0 -0.012898188422567845 -0.0080364692817522961 0 -0.014242696846989837 -0.0074519129048963668 0 -0.013514708479227928 -0.007632780714768906 0 -0.014076268769055702 -0.008157880497130357 0 -0.014242696846989837 -0.0074519129048963668 0 -0.01377443038571376 -0.0070281476719987737 0 -0.013514708479227928 -0.007632780714768906 0 -0.013514708479227928 -0.007632780714768906 0 -0.014076268769055702 -0.008157880497130357 0 -0.013479407221138056 -0.0082761365002656621 0 -0.014194571127668089 -0.0088828544799048354 0 -0.013479407221138056 -0.0082761365002656621 0 -0.013499163690047463 -0.0089216497546680922 0 -0.014194571127668089 -0.0088828544799048354 0 -0.014076268769055702 -0.008157880497130357 0 -0.013479407221138056 -0.0082761365002656621 0 -0.014194571127668089 -0.0088828544799048354 0 -0.013499163690047463 -0.0089216497546680922 0 -0.014083379451973124 -0.0093159581110340318 0 -0.013288680078152182 -0.0096985404507438921 0 -0.013499163690047463 -0.0089216497546680922 0 -0.01376698572320768 -0.0095396564842482549 0 -0.013499163690047463 -0.0089216497546680922 0 -0.01376698572320768 -0.0095396564842482549 0 -0.014083379451973124 -0.0093159581110340318 0 -0.014129853934476758 -0.0096766965881360176 0 -0.01376698572320768 -0.0095396564842482549 0 -0.014083379451973124 -0.0093159581110340318 0 -0.012903142931391784 -0.0095305212942307874 0 -0.013499163690047463 -0.0089216497546680922 0 -0.012928699297187153 -0.0087500488270521749 0 -0.012903142931391784 -0.0095305212942307874 0 -0.012928699297187153 -0.0087500488270521749 0 -0.012523736024166768 -0.0090862844659716432 0 -0.013288680078152182 -0.0096985404507438921 0 -0.01271039254457571 -0.0096382959871819992 0 -0.013499163690047463 -0.0089216497546680922 0 -0.012847379354226255 -0.0094900053735104788 0 -0.013412289033671383 -0.0090105579092969752 0 -0.013479407221138056 -0.0082761365002656621 0 -0.013499163690047463 -0.0089216497546680922 0 -0.012928699297187153 -0.0087500488270521749 0 -0.013479407221138056 -0.0082761365002656621 0 -0.012928699297187153 -0.0087500488270521749 0 -0.012898188422567845 -0.0080364692817522961 0 -0.012898188422567845 -0.0080364692817522961 0 -0.01235916353245657 -0.0080379865412104068 0 -0.01230084713673813 -0.0085694550707669532 0 -0.01235916353245657 -0.0080379865412104068 0 -0.01230084713673813 -0.0085694550707669532 0 -0.011735563825042287 -0.0081495449231773365 0 -0.012064620605984041 -0.0083948947973852984 0 -0.012358728123290837 -0.0086077003849292736 0 -0.01230084713673813 -0.0085694550707669532 0 -0.012107697260881543 -0.0090161919503839814 0 -0.011908552050901687 -0.0086245713096367218 0 -0.012928699297187153 -0.0087500488270521749 0 -0.012898188422567845 -0.0080364692817522961 0 -0.01230084713673813 -0.0085694550707669532 0 -0.012928699297187153 -0.0087500488270521749 0 -0.01230084713673813 -0.0085694550707669532 0 -0.012523736024166768 -0.0090862844659716432 0 -0.01230084713673813 -0.0085694550707669532 0 -0.012523736024166768 -0.0090862844659716432 0 -0.012107697260881543 -0.0090161919503839814 0 -0.012338354603522983 -0.0094885369826423014 0 -0.012523736024166768 -0.0090862844659716432 0 -0.012107697260881543 -0.0090161919503839814 0 -0.012338354603522983 -0.0094885369826423014 0 -0.012107697260881543 -0.0090161919503839814 0 -0.011883649401040587 -0.0093970890727591468 0 -0.012338354603522983 -0.0094885369826423014 0 -0.012903142931391784 -0.0095305212942307874 0 -0.012523736024166768 -0.0090862844659716432 0 -0.01360776193100274 -0.0094517442191642004 0 -0.012994260216896534 -0.010027637555442925 0 -0.011737746765557918 -0.0088886002717766133 0 -0.011587808627711792 -0.0084539507092859616 0 -0.011350285368614708 -0.0091507649301716745 0 -0.011883649401040587 -0.0093970890727591468 0 -0.011737746765557918 -0.0088886002717766133 0 -0.011350285368614708 -0.0091507649301716745 0 -0.011404051379345217 -0.009607388457228425 0 -0.011883649401040587 -0.0093970890727591468 0 -0.011350285368614708 -0.0091507649301716745 0 -0.012107697260881543 -0.0090161919503839814 0 -0.011737746765557918 -0.0088886002717766133 0 -0.011908552050901687 -0.0086245713096367218 0 -0.012107697260881543 -0.0090161919503839814 0 -0.011883649401040587 -0.0093970890727591468 0 -0.011737746765557918 -0.0088886002717766133 0 -0.01230084713673813 -0.0085694550707669532 0 -0.011908552050901687 -0.0086245713096367218 0 -0.011816626029481952 -0.0082224454017607047 0 -0.011737746765557918 -0.0088886002717766133 0 -0.011587808627711792 -0.0084539507092859616 0 -0.011908552050901687 -0.0086245713096367218 0 -0.011587808627711792 -0.0084539507092859616 0 -0.011908552050901687 -0.0086245713096367218 0 -0.011816626029481952 -0.0082224454017607047 0 -0.011926200734518121 -0.0079549103696139566 0 -0.011824225649364748 -0.0078749657817813803 0 -0.011894143952229321 -0.0077911903933412449 0 -0.012358728123290837 -0.0086077003849292736 0 -0.01316840915473657 -0.0090968417297715414 0 -0.015388798549822327 -0.010251617883197806 0 -0.015440420772635612 -0.010071464014043723 0 -0.015263413882820893 -0.010154326248964672 0 -0.01360776193100274 -0.0094517442191642004 0 -0.01316840915473657 -0.0090968417297715414 0 -0.01360776193100274 -0.0094517442191642004 0 -0.012358728123290837 -0.0086077003849292736 0 -0.013112394155381835 -0.0092160020074114422 0 -0.013370539569741536 -0.0089485923251840828 0 -0.013228738267132585 -0.0088425793623153112 0 -0.011824225649364748 -0.0078749657817813803 0 -0.011814625369478355 -0.0077180107586921594 0 -0.011493094675814735 -0.0076307039453842422 0 -0.01316840915473657 -0.0090968417297715414 0 -0.014829062307085061 -0.0087959686209884303 0 -0.015440420772635612 -0.010071464014043723 0 -0.015263413882820893 -0.010154326248964672 0 -0.015227303670310699 -0.0099083000906481453 0 -0.013362766233256938 -0.0067372035459383568 0 -0.014829062307085061 -0.0087959686209884303 0 -0.011814625369478355 -0.0077180107586921594 0 -0.011878035322781191 -0.0074950405122370511 0 -0.011493094675814735 -0.0076307039453842422 0 -0.011878035322781191 -0.0074950405122370511 0 -0.012060664821202962 -0.0070054376392416681 0 -0.011493094675814735 -0.0076307039453842422 0 -0.012064919873954192 -0.0074179372265021368 0 -0.011878035322781191 -0.0074950405122370511 0 -0.012060664821202962 -0.0070054376392416681 0 -0.012064919873954192 -0.0074179372265021368 0 -0.011878035322781191 -0.0074950405122370511 0 -0.012009218641417005 -0.0076278489495601887 0 -0.011926200734518121 -0.0079549103696139566 0 -0.012009218641417005 -0.0076278489495601887 0 -0.011894143952229321 -0.0077911903933412449 0 -0.011814625369478355 -0.0077180107586921594 0 -0.012009218641417005 -0.0076278489495601887 0 -0.011894143952229321 -0.0077911903933412449 0 -0.011814625369478355 -0.0077180107586921594 0 -0.011878035322781191 -0.0074950405122370511 0 -0.012009218641417005 -0.0076278489495601887 0 -0.011824225649364748 -0.0078749657817813803 0 -0.011814625369478355 -0.0077180107586921594 0 -0.011894143952229321 -0.0077911903933412449 0 -0.012358728123290837 -0.0086077003849292736 0 -0.012361734430751238 -0.0073602246381580952 0 -0.01235916353245657 -0.0080379865412104068 0 -0.011735563825042287 -0.0081495449231773365 0 -0.012480086033932769 -0.0073977216990716976 0 -0.011926200734518121 -0.0079549103696139566 0 -0.012009218641417005 -0.0076278489495601887 0 -0.012480086033932769 -0.0073977216990716976 0 -0.012898188422567845 -0.0080364692817522961 0 -0.01235916353245657 -0.0080379865412104068 0 -0.012480086033932769 -0.0073977216990716976 0 -0.012064919873954192 -0.0074179372265021368 0 -0.012009218641417005 -0.0076278489495601887 0 -0.012480086033932769 -0.0073977216990716976 0 -0.012480086033932769 -0.0073977216990716976 0 -0.012060664821202962 -0.0070054376392416681 0 -0.012754441695604664 -0.006286545798526201 0 -0.013362766233256938 -0.0067372035459383568 0 -0.014225111199755888 -0.0061572694608641636 0 -0.012064919873954192 -0.0074179372265021368 0 -0.012480086033932769 -0.0073977216990716976 0 -0.012060664821202962 -0.0070054376392416681 0 -0.014619181270465171 -0.0067844709641467537 0 -0.01506217372875366 -0.0066377068003239678 0 -0.01478624817872571 -0.0062817912349700409 0 -0.014619181270465171 -0.0067844709641467537 0 -0.01506217372875366 -0.0066377068003239678 0 -0.014457659352519895 -0.0072541498015060582 0 -0.014619181270465171 -0.0067844709641467537 0 -0.01478624817872571 -0.0062817912349700409 0 -0.014280543197505409 -0.0063669157494921523 0 -0.01478624817872571 -0.0062817912349700409 0 -0.015126014978883219 -0.0060434458292695026 0 -0.014803368425636393 -0.0056795399067707643 0 -0.01506217372875366 -0.0066377068003239678 0 -0.01478624817872571 -0.0062817912349700409 0 -0.015126014978883219 -0.0060434458292695026 0 -0.015043498673769577 -0.0053547215194229949 0 -0.01678827355570316 -0.0072345396269178725 0 -0.01478624817872571 -0.0062817912349700409 0 -0.014803368425636393 -0.0056795399067707643 0 -0.014280543197505409 -0.0063669157494921523 0 -0.015126014978883219 -0.0060434458292695026 0 -0.015328699955918372 -0.0056031731789930699 0 -0.014803368425636393 -0.0056795399067707643 0 -0.01506217372875366 -0.0066377068003239678 0 -0.015126014978883219 -0.0060434458292695026 0 -0.015637407647293801 -0.0060288483288863659 0 -0.015126014978883219 -0.0060434458292695026 0 -0.015328699955918372 -0.0056031731789930699 0 -0.015637407647293801 -0.0060288483288863659 0 -0.015328699955918372 -0.0056031731789930699 0 -0.015328655746666416 -0.0050395794956068348 0 -0.015692282900408725 -0.0053244444445079116 0 -0.015328699955918372 -0.0056031731789930699 0 -0.014803368425636393 -0.0056795399067707643 0 -0.015328655746666416 -0.0050395794956068348 0 -0.015328699955918372 -0.0056031731789930699 0 -0.015692282900408725 -0.0053244444445079116 0 -0.015637407647293801 -0.0060288483288863659 0 -0.015671962234495074 -0.0052136001887753813 0 -0.015663701892096406 -0.004960508471010908 0 -0.015825357363878363 -0.0048698704148334871 0 -0.015043498673769577 -0.0053547215194229949 0 -0.015598410548402485 -0.0049693671767105296 0 -0.015671962234495074 -0.0052136001887753813 0 -0.015663701892096406 -0.004960508471010908 0 -0.01543961450437843 -0.0049907896827689488 0 -0.017429357987263108 -0.0053526869905259136 0 -0.019657924030264253 -0.007259555252033644 0 -0.015663701892096406 -0.004960508471010908 0 -0.015690598671742467 -0.0047597171894164713 0 -0.01543961450437843 -0.0049907896827689488 0 -0.015663701892096406 -0.004960508471010908 0 -0.015690598671742467 -0.0047597171894164713 0 -0.015825357363878363 -0.0048698704148334871 0 -0.019988518012785145 -0.0057641533974234554 0 -0.019762204004375051 -0.0056707427397818004 0 -0.019995617452267009 -0.0054754181742199398 0 -0.01582221895624162 -0.0045503268720087434 0 -0.015825357363878363 -0.0048698704148334871 0 -0.015890450442838756 -0.0045891403316206808 0 -0.015690598671742467 -0.0047597171894164713 0 -0.01582221895624162 -0.0045503268720087434 0 -0.015825357363878363 -0.0048698704148334871 0 -0.017429357987263108 -0.0053526869905259136 0 -0.018860901444039107 -0.0038803585842442454 0 -0.019988518012785145 -0.0057641533974234554 0 -0.020205870333683686 -0.0055608582282445232 0 -0.019995617452267009 -0.0054754181742199398 0 -0.015598410548402485 -0.0049693671767105296 0 -0.015850670100284469 -0.0046247636402071881 0 -0.015328655746666416 -0.0050395794956068348 0 -0.015724293988949211 -0.0048903995400210037 0 -0.015890450442838756 -0.0045891403316206808 0 -0.015328655746666416 -0.0050395794956068348 0 -0.015724293988949211 -0.0048903995400210037 0 -0.015692282900408725 -0.0053244444445079116 0 -0.016015885088373503 -0.0050616298210934751 0 -0.015724293988949211 -0.0048903995400210037 0 -0.015692282900408725 -0.0053244444445079116 0 -0.016015885088373503 -0.0050616298210934751 0 -0.015905081341484505 -0.0048263570135346915 0 -0.016006436960897451 -0.0046783777659105217 0 -0.016015885088373503 -0.0050616298210934751 0 -0.015905081341484505 -0.0048263570135346915 0 -0.015724293988949211 -0.0048903995400210037 0 -0.015905081341484505 -0.0048263570135346915 0 -0.015724293988949211 -0.0048903995400210037 0 -0.015914724649750717 -0.0046945546590415567 0 -0.018860901444039107 -0.0038803585842442454 0 -0.015067134620158639 -0.0043614425459181918 0 -0.01582221895624162 -0.0045503268720087434 0 -0.015982696047279778 -0.0046120261939994545 0 -0.015890450442838756 -0.0045891403316206808 0 -0.015724293988949211 -0.0048903995400210037 0 -0.015914724649750717 -0.0046945546590415567 0 -0.015890450442838756 -0.0045891403316206808 0 -0.015914724649750717 -0.0046945546590415567 0 -0.015982696047279778 -0.0046120261939994545 0 -0.015890450442838756 -0.0045891403316206808 0 -0.015905081341484505 -0.0048263570135346915 0 -0.015914724649750717 -0.0046945546590415567 0 -0.016006436960897451 -0.0046783777659105217 0 -0.015914724649750717 -0.0046945546590415567 0 -0.016006436960897451 -0.0046783777659105217 0 -0.015982696047279778 -0.0046120261939994545 0 -0.016066778225753288 -0.0046054068046203836 0 -0.016140960112710028 -0.0045536507494881272 0 -0.01606273669893744 -0.0044826146607998517 0 -0.015982696047279778 -0.0046120261939994545 0 -0.016066778225753288 -0.0046054068046203836 0 -0.01606273669893744 -0.0044826146607998517 0 -0.016006436960897451 -0.0046783777659105217 0 -0.015982696047279778 -0.0046120261939994545 0 -0.016066778225753288 -0.0046054068046203836 0 -0.016006436960897451 -0.0046783777659105217 0 -0.016066778225753288 -0.0046054068046203836 0 -0.016125752816121032 -0.0046865320759941825 0 -0.016015885088373503 -0.0050616298210934751 0 -0.016146778584681915 -0.00547009731570435 0 -0.016652843319034223 -0.0049678608062635431 0 -0.016298012232028217 -0.0047372847250258237 0 -0.015601420958261749 -0.0049375056969257359 0 -0.014789874248843232 -0.0055428885249403951 0 -0.015601420958261749 -0.0049375056969257359 0 -0.016015885088373503 -0.0050616298210934751 0 -0.016006436960897451 -0.0046783777659105217 0 -0.016652843319034223 -0.0049678608062635431 0 -0.013494013172688243 -0.0055810725190263222 0 -0.014251239523970524 -0.0058720768741253315 0 -0.014214443219985218 -0.0049180739058346861 0 -0.016146778584681915 -0.00547009731570435 0 -0.015692282900408725 -0.0053244444445079116 0 -0.015637407647293801 -0.0060288483288863659 0 -0.016015885088373503 -0.0050616298210934751 0 -0.016146778584681915 -0.00547009731570435 0 -0.015692282900408725 -0.0053244444445079116 0 -0.014789874248843232 -0.0055428885249403951 0 -0.014225111199755888 -0.0061572694608641636 0 -0.013171974623992753 -0.0069681304297117353 0 -0.012754441695604664 -0.006286545798526201 0 -0.013483067860984004 -0.0063279662025446546 0 -0.013494013172688243 -0.0055810725190263222 0 -0.012754441695604664 -0.006286545798526201 0 -0.013483067860984004 -0.0063279662025446546 0 -0.013483067860984004 -0.0063279662025446546 0 -0.014082845337659735 -0.0065430894330444642 0 -0.014251239523970524 -0.0058720768741253315 0 -0.013494013172688243 -0.0055810725190263222 0 -0.013483067860984004 -0.0063279662025446546 0 -0.014251239523970524 -0.0058720768741253315 0 -0.014525387229929465 -0.0064036791718402536 0 -0.014950954136855085 -0.0061246472793617087 0 -0.014251239523970524 -0.0058720768741253315 0 -0.014082845337659735 -0.0065430894330444642 0 -0.014525387229929465 -0.0064036791718402536 0 -0.014251239523970524 -0.0058720768741253315 0 -0.015473271982873607 -0.0066320338929725846 0 -0.014865265533334759 -0.0067049963282653788 0 -0.014950954136855085 -0.0061246472793617087 0 -0.014865265533334759 -0.0067049963282653788 0 -0.014525387229929465 -0.0064036791718402536 0 -0.014950954136855085 -0.0061246472793617087 0 -0.015473271982873607 -0.0066320338929725846 0 -0.014950954136855085 -0.0061246472793617087 0 -0.015473779030147201 -0.0060682482225174975 0 -0.014950954136855085 -0.0061246472793617087 0 -0.014979704641044523 -0.005266427134473799 0 -0.014251239523970524 -0.0058720768741253315 0 -0.014950954136855085 -0.0061246472793617087 0 -0.014979704641044523 -0.005266427134473799 0 -0.015473779030147201 -0.0060682482225174975 0 -0.014979704641044523 -0.005266427134473799 0 -0.014251239523970524 -0.0058720768741253315 0 -0.014214443219985218 -0.0049180739058346861 0 -0.015468004263013573 -0.005165328263092306 0 -0.015601420958261749 -0.0049375056969257359 0 -0.016167704224824112 -0.0051205907849700676 0 -0.015814008338473708 -0.0049417330514858939 0 -0.016224645442690595 -0.0046110856044245521 0 -0.016125752816121032 -0.0046865320759941825 0 -0.016140960112710028 -0.0045536507494881272 0 -0.016224645442690595 -0.0046110856044245521 0 -0.015601420958261749 -0.0049375056969257359 0 -0.016325244743787794 -0.0045461909917907679 0 -0.016140960112710028 -0.0045536507494881272 0 -0.016224645442690595 -0.0046110856044245521 0 -0.016198987080298995 -0.0043600280074038052 0 -0.016066778225753288 -0.0046054068046203836 0 -0.016125752816121032 -0.0046865320759941825 0 -0.016140960112710028 -0.0045536507494881272 0 -0.016167704224824112 -0.0051205907849700676 0 -0.016224645442690595 -0.0046110856044245521 0 -0.016510146266868093 -0.0048234754781502657 0 -0.016167704224824112 -0.0051205907849700676 0 -0.016510146266868093 -0.0048234754781502657 0 -0.016381975934088692 -0.0053595014316036964 0 -0.016224645442690595 -0.0046110856044245521 0 -0.016510146266868093 -0.0048234754781502657 0 -0.01647258666592729 -0.0044382298165579967 0 -0.016510146266868093 -0.0048234754781502657 0 -0.016758723667897487 -0.0044356535511789041 0 -0.01647258666592729 -0.0044382298165579967 0 -0.016510146266868093 -0.0048234754781502657 0 -0.016758723667897487 -0.0044356535511789041 0 -0.016994016241397753 -0.0046003013963204532 0 -0.016510146266868093 -0.0048234754781502657 0 -0.016741174079196938 -0.005203086862311173 0 -0.016994016241397753 -0.0046003013963204532 0 -0.016510146266868093 -0.0048234754781502657 0 -0.016741174079196938 -0.005203086862311173 0 -0.016381975934088692 -0.0053595014316036964 0 -0.016741174079196938 -0.005203086862311173 0 -0.016381975934088692 -0.0053595014316036964 0 -0.016565773736127068 -0.0057950902416510387 0 -0.016098708585536858 -0.0054917299580513161 0 -0.016547398754812793 -0.0057602866199408112 0 -0.015468004263013573 -0.005165328263092306 0 -0.016098708585536858 -0.0054917299580513161 0 -0.014979704641044523 -0.005266427134473799 0 -0.015720385930543618 -0.0055691220337905434 0 -0.015473779030147201 -0.0060682482225174975 0 -0.015720385930543618 -0.0055691220337905434 0 -0.015473779030147201 -0.0060682482225174975 0 -0.016000921804874245 -0.0062884752407925629 0 -0.015473271982873607 -0.0066320338929725846 0 -0.015473779030147201 -0.0060682482225174975 0 -0.016000921804874245 -0.0062884752407925629 0 -0.015720385930543618 -0.0055691220337905434 0 -0.016000921804874245 -0.0062884752407925629 0 -0.016565773736127068 -0.0057950902416510387 0 -0.016000921804874245 -0.0062884752407925629 0 -0.016565773736127068 -0.0057950902416510387 0 -0.016572305938910736 -0.0065110309249669278 0 -0.026654876187436158 -0.017007496216536445 0 -0.027403862239579749 -0.016701959677030215 0 -0.026630764844774224 -0.016415535569027317 0 -0.026654876187436158 -0.017007496216536445 0 -0.027403862239579749 -0.016701959677030215 0 -0.026658657139151026 -0.017835264935566003 0 -0.026654876187436158 -0.017007496216536445 0 -0.026630764844774224 -0.016415535569027317 0 -0.026156059638301539 -0.016745881810439359 0 -0.026654876187436158 -0.017007496216536445 0 -0.026156059638301539 -0.016745881810439359 0 -0.026339790577316179 -0.017448825767007434 0 -0.02699071704441304 -0.017152727433950896 0 -0.026658657139151026 -0.017835264935566003 0 -0.027066839635578797 -0.017557621049987874 0 -0.027400864543082677 -0.017136401221020905 0 -0.026658835995393575 -0.017718955553896121 0 -0.02699071704441304 -0.017152727433950896 0 -0.027066839635578797 -0.017557621049987874 0 -0.027538441018336066 -0.01726052392446414 0 -0.027400864543082677 -0.017136401221020905 0 -0.02546598701865007 -0.014313018090758913 0 -0.027403862239579749 -0.016701959677030215 0 -0.02685998577845887 -0.01575446132586902 0 -0.027391517806100781 -0.015608013241481247 0 -0.027403862239579749 -0.016701959677030215 0 -0.027974810089877903 -0.015699207696768486 0 -0.027391517806100781 -0.015608013241481247 0 -0.02685998577845887 -0.01575446132586902 0 -0.026630764844774224 -0.016415535569027317 0 -0.026132749594042669 -0.015895265544676473 0 -0.026630764844774224 -0.016415535569027317 0 -0.026132749594042669 -0.015895265544676473 0 -0.026156059638301539 -0.016745881810439359 0 -0.027403862239579749 -0.016701959677030215 0 -0.02685998577845887 -0.01575446132586902 0 -0.026630764844774224 -0.016415535569027317 0 -0.026132749594042669 -0.015895265544676473 0 -0.025674985121176244 -0.016345585106060941 0 -0.026156059638301539 -0.016745881810439359 0 -0.026132749594042669 -0.015895265544676473 0 -0.025674985121176244 -0.016345585106060941 0 -0.025399444450758025 -0.015763354179612547 0 -0.025674985121176244 -0.016345585106060941 0 -0.025399444450758025 -0.015763354179612547 0 -0.024999867966939565 -0.016504191136371058 0 -0.025399444450758025 -0.015763354179612547 0 -0.024999867966939565 -0.016504191136371058 0 -0.024999933143007212 -0.015093735787913369 0 -0.024999867966939565 -0.016504191136371058 0 -0.025544424822394642 -0.016977613935160452 0 -0.024999824047043206 -0.017914562542906725 0 -0.025674985121176244 -0.016345585106060941 0 -0.024999867966939565 -0.016504191136371058 0 -0.025544424822394642 -0.016977613935160452 0 -0.025544424822394642 -0.016977613935160452 0 -0.026156059638301539 -0.016745881810439359 0 -0.02582918127203572 -0.017617324895631382 0 -0.026156059638301539 -0.016745881810439359 0 -0.02582918127203572 -0.017617324895631382 0 -0.026339790577316179 -0.017448825767007434 0 -0.025674985121176244 -0.016345585106060941 0 -0.025544424822394642 -0.016977613935160452 0 -0.026156059638301539 -0.016745881810439359 0 -0.02582918127203572 -0.017617324895631382 0 -0.025760998260018656 -0.018467766836479382 0 -0.02623906006078356 -0.018185258441672878 0 -0.02582918127203572 -0.017617324895631382 0 -0.02623906006078356 -0.018185258441672878 0 -0.026339790577316179 -0.017448825767007434 0 -0.025544424822394642 -0.016977613935160452 0 -0.02582918127203572 -0.017617324895631382 0 -0.024999824047043206 -0.017914562542906725 0 -0.02582918127203572 -0.017617324895631382 0 -0.024999824047043206 -0.017914562542906725 0 -0.025760998260018656 -0.018467766836479382 0 -0.02499959451291954 -0.019325070581680277 0 -0.024999824047043206 -0.017914562542906725 0 -0.025760998260018656 -0.018467766836479382 0 -0.025760998260018656 -0.018467766836479382 0 -0.026204027398830571 -0.018975320685066913 0 -0.02623906006078356 -0.018185258441672878 0 -0.026923230961732433 -0.019479704536511891 0 -0.026204027398830571 -0.018975320685066913 0 -0.026740850331728409 -0.01820834300950783 0 -0.026204027398830571 -0.018975320685066913 0 -0.026740850331728409 -0.01820834300950783 0 -0.02623906006078356 -0.018185258441672878 0 -0.02623906006078356 -0.018185258441672878 0 -0.026658657139151026 -0.017835264935566003 0 -0.026339790577316179 -0.017448825767007434 0 -0.026740850331728409 -0.01820834300950783 0 -0.026658657139151026 -0.017835264935566003 0 -0.026908421506123908 -0.017898202301796666 0 -0.026740850331728409 -0.01820834300950783 0 -0.02623906006078356 -0.018185258441672878 0 -0.026658657139151026 -0.017835264935566003 0 -0.026654876187436158 -0.017007496216536445 0 -0.026658657139151026 -0.017835264935566003 0 -0.026339790577316179 -0.017448825767007434 0 -0.027192094718034725 -0.017735968744192396 0 -0.027066839635578797 -0.017557621049987874 0 -0.027368498866878949 -0.017689373762503759 0 -0.027066839635578797 -0.017557621049987874 0 -0.026908421506123908 -0.017898202301796666 0 -0.027081128087261031 -0.017818300995870718 0 -0.027192094718034725 -0.017735968744192396 0 -0.027066839635578797 -0.017557621049987874 0 -0.027081128087261031 -0.017818300995870718 0 -0.027192094718034725 -0.017735968744192396 0 -0.027081128087261031 -0.017818300995870718 0 -0.027254487018165883 -0.017876161007237802 0 -0.026658657139151026 -0.017835264935566003 0 -0.027066839635578797 -0.017557621049987874 0 -0.026908421506123908 -0.017898202301796666 0 -0.026740850331728409 -0.01820834300950783 0 -0.026908421506123908 -0.017898202301796666 0 -0.027019012609927485 -0.018104622567940917 0 -0.026908421506123908 -0.017898202301796666 0 -0.027103666960264155 -0.01797793334398454 0 -0.027019012609927485 -0.018104622567940917 0 -0.027103666960264155 -0.01797793334398454 0 -0.027019012609927485 -0.018104622567940917 0 -0.027215714243287299 -0.018056004900339095 0 -0.026908421506123908 -0.017898202301796666 0 -0.027103666960264155 -0.01797793334398454 0 -0.027081128087261031 -0.017818300995870718 0 -0.027103666960264155 -0.01797793334398454 0 -0.027081128087261031 -0.017818300995870718 0 -0.027254487018165883 -0.017876161007237802 0 -0.027103666960264155 -0.01797793334398454 0 -0.027254487018165883 -0.017876161007237802 0 -0.027215714243287299 -0.018056004900339095 0 -0.027019012609927485 -0.018104622567940917 0 -0.027215714243287299 -0.018056004900339095 0 -0.027192055298384827 -0.01828799613427284 0 -0.026945439570825996 -0.018903722214402528 0 -0.026740850331728409 -0.01820834300950783 0 -0.027192055298384827 -0.01828799613427284 0 -0.026892953777989167 -0.019148768964322067 0 -0.026730727738708968 -0.018287644326048607 0 -0.026740850331728409 -0.01820834300950783 0 -0.027019012609927485 -0.018104622567940917 0 -0.027192055298384827 -0.01828799613427284 0 -0.019795805629146672 -0.019635994694176484 0 -0.020244206562651555 -0.019446856649396688 0 -0.019813056208648431 -0.018597225028810144 0 -0.027519769342190317 -0.018770060588258704 0 -0.027192055298384827 -0.01828799613427284 0 -0.027541682186154853 -0.01795763442366111 0 -0.023754617553027903 -0.01942103320883869 0 -0.022703020865244432 -0.017379501466244569 0 -0.027215714243287299 -0.018056004900339095 0 -0.027192055298384827 -0.01828799613427284 0 -0.027381386299777499 -0.017986960041694786 0 -0.020453996690000809 -0.013449094162837036 0 -0.019877441279748997 -0.015713803304481945 0 -0.020244206562651555 -0.019446856649396688 0 -0.020536378155214384 -0.019050932065732294 0 -0.019813056208648431 -0.018597225028810144 0 -0.020581527751733091 -0.020212581877594445 0 -0.020980013694581572 -0.017291620814681635 0 -0.020834249179063614 -0.019407847077726279 0 -0.020551044700051348 -0.019799767178612798 0 -0.020458811571841026 -0.018773978868409331 0 -0.020551044700051348 -0.019799767178612798 0 -0.020244206562651555 -0.019446856649396688 0 -0.020536378155214384 -0.019050932065732294 0 -0.020980013694581572 -0.017291620814681635 0 -0.022703020865244432 -0.017379501466244569 0 -0.020177407217903353 -0.015584113233975615 0 -0.020117285218914236 -0.014406553451349018 0 -0.020926597005798624 -0.016036185277651074 0 -0.020980013694581572 -0.017291620814681635 0 -0.019877441279748997 -0.015713803304481945 0 -0.022536776938430435 -0.015922088441273144 0 -0.022516254378120232 -0.015393171759010419 0 -0.022039199356616135 -0.01561464371247917 0 -0.020980013694581572 -0.017291620814681635 0 -0.020453996690000809 -0.013449094162837036 0 -0.022516254378120232 -0.015393171759010419 0 -0.022039199356616135 -0.01561464371247917 0 -0.02204668601879662 -0.015011163658036276 0 -0.027368498866878949 -0.017689373762503759 0 -0.027541682186154853 -0.01795763442366111 0 -0.027538441018336066 -0.01726052392446414 0 -0.022703020865244432 -0.017379501466244569 0 -0.024925138837077875 -0.016348470561381154 0 -0.027192094718034725 -0.017735968744192396 0 -0.027254487018165883 -0.017876161007237802 0 -0.027368498866878949 -0.017689373762503759 0 -0.027254487018165883 -0.017876161007237802 0 -0.027368498866878949 -0.017689373762503759 0 -0.027382404166388929 -0.017875003612849178 0 -0.027368498866878949 -0.017689373762503759 0 -0.027382404166388929 -0.017875003612849178 0 -0.027541682186154853 -0.01795763442366111 0 -0.027192055298384827 -0.01828799613427284 0 -0.027381386299777499 -0.017986960041694786 0 -0.027541682186154853 -0.01795763442366111 0 -0.027382404166388929 -0.017875003612849178 0 -0.027381386299777499 -0.017986960041694786 0 -0.027541682186154853 -0.01795763442366111 0 -0.027254487018165883 -0.017876161007237802 0 -0.027382404166388929 -0.017875003612849178 0 -0.027381386299777499 -0.017986960041694786 0 -0.027254487018165883 -0.017876161007237802 0 -0.027215714243287299 -0.018056004900339095 0 -0.027381386299777499 -0.017986960041694786 0 -0.014153559411041541 -0.01225220462255768 0 -0.014141898574440263 -0.010839064571423132 0 -0.014589258249351264 -0.011148713798854867 0 -0.014734506838468544 -0.012944573377588682 0 -0.016437137540448007 -0.011671899266911862 0 -0.014936252783594556 -0.010006268321051405 0 -0.014141898574440263 -0.010839064571423132 0 -0.014589258249351264 -0.011148713798854867 0 -0.016595242215191628 -0.013187518858176091 0 -0.016645333566314469 -0.013219817716597327 0 -0.016651395232654086 -0.01311368351117826 0 -0.018967623079674124 -0.015047316530375691 0 -0.016437137540448007 -0.011671899266911862 0 -0.019158132844887921 -0.013085125173120027 0 -0.019568820095883836 -0.012637174996224791 0 -0.019213508878165236 -0.01271727839821073 0 -0.019568820095883836 -0.012637174996224791 0 -0.019213508878165236 -0.01271727839821073 0 -0.019041320354342823 -0.01242137514710929 0 -0.019213508878165236 -0.01271727839821073 0 -0.018931820064649146 -0.012947375257651201 0 -0.019041320354342823 -0.01242137514710929 0 -0.019158132844887921 -0.013085125173120027 0 -0.019213508878165236 -0.01271727839821073 0 -0.018931820064649146 -0.012947375257651201 0 -0.018967623079674124 -0.015047316530375691 0 -0.019877441279748997 -0.015713803304481945 0 -0.020834249179063614 -0.019407847077726279 0 -0.020458811571841026 -0.018773978868409331 0 -0.021110565787081075 -0.019170838875462198 0 -0.020834249179063614 -0.019407847077726279 0 -0.02107144282699239 -0.019418114368723309 0 -0.021110565787081075 -0.019170838875462198 0 -0.018539607403505479 -0.012128690700442748 0 -0.018931820064649146 -0.012947375257651201 0 -0.019041320354342823 -0.01242137514710929 0 -0.018539607403505479 -0.012128690700442748 0 -0.019040374867731556 -0.012092327307144869 0 -0.018910252950004026 -0.011845685737343598 0 -0.018539607403505479 -0.012128690700442748 0 -0.019040374867731556 -0.012092327307144869 0 -0.019041320354342823 -0.01242137514710929 0 -0.019040374867731556 -0.012092327307144869 0 -0.019041320354342823 -0.01242137514710929 0 -0.019375410913129453 -0.012042022710339165 0 -0.019040374867731556 -0.012092327307144869 0 -0.019375410913129453 -0.012042022710339165 0 -0.01913983637947593 -0.011888639274494739 0 -0.019568820095883836 -0.012637174996224791 0 -0.019041320354342823 -0.01242137514710929 0 -0.019375410913129453 -0.012042022710339165 0 -0.015134515628027645 -0.010533152314492174 0 -0.015263413882820893 -0.010154326248964672 0 -0.015124855692762777 -0.01000934268227526 0 -0.015388798549822327 -0.010251617883197806 0 -0.015134515628027645 -0.010533152314492174 0 -0.015263413882820893 -0.010154326248964672 0 -0.016437137540448007 -0.011671899266911862 0 -0.017261468824079199 -0.010568815506550396 0 -0.019568820095883836 -0.012637174996224791 0 -0.019375410913129453 -0.012042022710339165 0 -0.019558069655535165 -0.011858368983654341 0 -0.01360776193100274 -0.0094517442191642004 0 -0.016437137540448007 -0.011671899266911862 0 -0.014619181270465171 -0.0067844709641467537 0 -0.01428468259083073 -0.0071235786982291865 0 -0.014457659352519895 -0.0072541498015060582 0 -0.01687286803294636 -0.0092559631260704014 0 -0.014829062307085061 -0.0087959686209884303 0 -0.016632408589328188 -0.0091588404129554993 0 -0.016984716184923688 -0.0094238792909297521 0 -0.016636310707774982 -0.0097549515123381853 0 -0.01687286803294636 -0.0092559631260704014 0 -0.017261468824079199 -0.010568815506550396 0 -0.015263413882820893 -0.010154326248964672 0 -0.015227303670310699 -0.0099083000906481453 0 -0.015124855692762777 -0.01000934268227526 0 -0.014829062307085061 -0.0087959686209884303 0 -0.017261468824079199 -0.010568815506550396 0 -0.019375410913129453 -0.012042022710339165 0 -0.019555590963730229 -0.011859652505599517 0 -0.01931112178775185 -0.011777453783786937 0 -0.019375410913129453 -0.012042022710339165 0 -0.01931112178775185 -0.011777453783786937 0 -0.01913983637947593 -0.011888639274494739 0 -0.019551399408506899 -0.011597408152015513 0 -0.019555590963730229 -0.011859652505599517 0 -0.01931112178775185 -0.011777453783786937 0 -0.018401543563847437 -0.010953514066324855 0 -0.017261468824079199 -0.010568815506550396 0 -0.019551399408506899 -0.011597408152015513 0 -0.01931112178775185 -0.011777453783786937 0 -0.019243968743609792 -0.011588752466740208 0 -0.01687286803294636 -0.0092559631260704014 0 -0.019442482595648639 -0.010043704733984816 0 -0.019551399408506899 -0.011597408152015513 0 -0.019243968743609792 -0.011588752466740208 0 -0.01923452682748562 -0.011357712960583357 0 -0.019151579523099083 -0.011470062296285563 0 -0.019061913048986155 -0.011687459012115231 0 -0.018894706512449004 -0.011430834308094598 0 -0.019151579523099083 -0.011470062296285563 0 -0.019243968743609792 -0.011588752466740208 0 -0.01923452682748562 -0.011357712960583357 0 -0.019151579523099083 -0.011470062296285563 0 -0.019061913048986155 -0.011687459012115231 0 -0.019243968743609792 -0.011588752466740208 0 -0.01931112178775185 -0.011777453783786937 0 -0.019061913048986155 -0.011687459012115231 0 -0.019243968743609792 -0.011588752466740208 0 -0.01931112178775185 -0.011777453783786937 0 -0.019061913048986155 -0.011687459012115231 0 -0.01913983637947593 -0.011888639274494739 0 -0.019040374867731556 -0.012092327307144869 0 -0.01913983637947593 -0.011888639274494739 0 -0.018910252950004026 -0.011845685737343598 0 -0.019061913048986155 -0.011687459012115231 0 -0.01913983637947593 -0.011888639274494739 0 -0.018910252950004026 -0.011845685737343598 0 -0.019061913048986155 -0.011687459012115231 0 -0.018910252950004026 -0.011845685737343598 0 -0.018894706512449004 -0.011430834308094598 0 -0.018910252950004026 -0.011845685737343598 0 -0.018894706512449004 -0.011430834308094598 0 -0.018515344419335833 -0.011446614239809744 0 -0.018894706512449004 -0.011430834308094598 0 -0.019237389299477138 -0.011359985613717658 0 -0.018492487344154866 -0.010786633967370843 0 -0.020628149387939367 -0.0092056349928891293 0 -0.0208643239966513 -0.009477159293160892 0 -0.020750703727041249 -0.0093993076038631357 0 -0.019442482595648639 -0.010043704733984816 0 -0.020090737832693079 -0.010272560746727661 0 -0.020628149387939367 -0.0092056349928891293 0 -0.020656064595060194 -0.0093874189566020422 0 -0.020750703727041249 -0.0093993076038631357 0 -0.019151579523099083 -0.011470062296285563 0 -0.018894706512449004 -0.011430834308094598 0 -0.019237389299477138 -0.011359985613717658 0 -0.01914746214230308 -0.010592642729451894 0 -0.019442482595648639 -0.010043704733984816 0 -0.01687286803294636 -0.0092559631260704014 0 -0.01678827355570316 -0.0072345396269178725 0 -0.014619181270465171 -0.0067844709641467537 0 -0.01428468259083073 -0.0071235786982291865 0 -0.014280543197505409 -0.0063669157494921523 0 -0.017686286344313726 -0.0092860584340437903 0 -0.017191971773652233 -0.0089133491985195767 0 -0.01767925283458106 -0.0082720833370009076 0 -0.020628149387939367 -0.0092056349928891293 0 -0.020510544927815601 -0.0093473610808166522 0 -0.020656064595060194 -0.0093874189566020422 0 -0.019442482595648639 -0.010043704733984816 0 -0.01678827355570316 -0.0072345396269178725 0 -0.027066839635578797 -0.017557621049987874 0 -0.027368498866878949 -0.017689373762503759 0 -0.027538441018336066 -0.01726052392446414 0 -0.018539607403505479 -0.012128690700442748 0 -0.018910252950004026 -0.011845685737343598 0 -0.018515344419335833 -0.011446614239809744 0 -0.020453996690000809 -0.013449094162837036 0 -0.021339399234835962 -0.013333084906718213 0 -0.022516254378120232 -0.015393171759010419 0 -0.02204668601879662 -0.015011163658036276 0 -0.022287248626560285 -0.014899729192961642 0 -0.021138235359613098 -0.013210137443089855 0 -0.021060525343382652 -0.011702471320592107 0 -0.020537411809590105 -0.011999168849354282 0 -0.020453996690000809 -0.013449094162837036 0 -0.019735007339084207 -0.011468671536137993 0 -0.021060525343382652 -0.011702471320592107 0 -0.020537411809590105 -0.011999168849354282 0 -0.020522125019278487 -0.011290695860489754 0 -0.018894706512449004 -0.011430834308094598 0 -0.018515344419335833 -0.011446614239809744 0 -0.018492487344154866 -0.010786633967370843 0 -0.021060525343382652 -0.011702471320592107 0 -0.020510033390402558 -0.010668850903275285 0 -0.02095598547976546 -0.010232554364572134 0 -0.019735007339084207 -0.011468671536137993 0 -0.020090737832693079 -0.010272560746727661 0 -0.021060525343382652 -0.011702471320592107 0 -0.020522125019278487 -0.011290695860489754 0 -0.020510033390402558 -0.010668850903275285 0 -0.02699071704441304 -0.017152727433950896 0 -0.027518718828458036 -0.016504887693676751 0 -0.027423028256479805 -0.016323009530612071 0 -0.02699071704441304 -0.017152727433950896 0 -0.027538441018336066 -0.01726052392446414 0 -0.027518718828458036 -0.016504887693676751 0 -0.020510033390402558 -0.010668850903275285 0 -0.019962471092302592 -0.01080638395521143 0 -0.019982161937458481 -0.010183215903693995 0 -0.020522125019278487 -0.011290695860489754 0 -0.020510033390402558 -0.010668850903275285 0 -0.019962471092302592 -0.01080638395521143 0 -0.024925138837077875 -0.016348470561381154 0 -0.023588081509697427 -0.0137323552985606 0 -0.020537411809590105 -0.011999168849354282 0 -0.020522125019278487 -0.011290695860489754 0 -0.019962471092302592 -0.01080638395521143 0 -0.02204668601879662 -0.015011163658036276 0 -0.022287248626560285 -0.014899729192961642 0 -0.022065069516190663 -0.014399318921617396 0 -0.021339399234835962 -0.013333084906718213 0 -0.023588081509697427 -0.0137323552985606 0 -0.023588081509697427 -0.0137323552985606 0 -0.02546598701865007 -0.014313018090758913 0 -0.024912989461947664 -0.012184586496629325 0 -0.025003352476225302 -0.012033954965035398 0 -0.024610502240104346 -0.011573446087323349 0 -0.024030746740490633 -0.013966066984120016 0 -0.023755721062389219 -0.01341902360128148 0 -0.024025530667536182 -0.012986013954278133 0 -0.02045327614804129 -0.0098866064845216546 0 -0.019982161937458481 -0.010183215903693995 0 -0.020769040422018482 -0.0091306792784512404 0 -0.02546598701865007 -0.014313018090758913 0 -0.024240483853675079 -0.012125319593177274 0 -0.02546598701865007 -0.014313018090758913 0 -0.026115293994932891 -0.013301195033764352 0 -0.023588081509697427 -0.0137323552985606 0 -0.024240483853675079 -0.012125319593177274 0 -0.020510033390402558 -0.010668850903275285 0 -0.02045327614804129 -0.0098866064845216546 0 -0.019982161937458481 -0.010183215903693995 0 -0.020510033390402558 -0.010668850903275285 0 -0.02045327614804129 -0.0098866064845216546 0 -0.02095598547976546 -0.010232554364572134 0 -0.020090737832693079 -0.010272560746727661 0 -0.020766065215991471 -0.0090859967809595737 0 -0.02045327614804129 -0.0098866064845216546 0 -0.020867947848163378 -0.010197784764161956 0 -0.020769040422018482 -0.0091306792784512404 0 -0.0208643239966513 -0.009477159293160892 0 -0.020876460550268709 -0.0094469987192264994 0 -0.020769040422018482 -0.0091306792784512404 0 -0.020433428104781406 -0.010219503106004661 0 -0.020090737832693079 -0.010272560746727661 0 -0.0208643239966513 -0.009477159293160892 0 -0.020876460550268709 -0.0094469987192264994 0 -0.020750703727041249 -0.0093993076038631357 0 -0.020876460550268709 -0.0094469987192264994 0 -0.020769040422018482 -0.0091306792784512404 0 -0.0210787817668819 -0.0091593368096854425 0 -0.019982161937458481 -0.010183215903693995 0 -0.020769040422018482 -0.0091306792784512404 0 -0.02084397527689236 -0.0086842154805085222 0 -0.021161977983672649 -0.0089521163277449661 0 -0.02084397527689236 -0.0086842154805085222 0 -0.021483303463514972 -0.0084801009691515238 0 -0.020769040422018482 -0.0091306792784512404 0 -0.021161977983672649 -0.0089521163277449661 0 -0.0210787817668819 -0.0091593368096854425 0 -0.020769040422018482 -0.0091306792784512404 0 -0.021161977983672649 -0.0089521163277449661 0 -0.02084397527689236 -0.0086842154805085222 0 -0.024240483853675079 -0.012125319593177274 0 -0.025076382509568049 -0.011123524661990954 0 -0.024948974374229889 -0.01183268317105288 0 -0.025411486049673915 -0.011082499719233222 0 -0.024956900916373776 -0.011139371303205532 0 -0.025003352476225302 -0.012033954965035398 0 -0.024956900916373776 -0.011139371303205532 0 -0.024610502240104346 -0.011573446087323349 0 -0.024240483853675079 -0.012125319593177274 0 -0.022907031127858937 -0.0096880267726542259 0 -0.015671962234495074 -0.0052136001887753813 0 -0.01544522123247174 -0.0055914954254501015 0 -0.015431834028561305 -0.005276461700356264 0 -0.020510544927815601 -0.0093473610808166522 0 -0.020528245539051578 -0.0095006516924842285 0 -0.020623520615870784 -0.0094635045005536152 0 -0.01678827355570316 -0.0072345396269178725 0 -0.017992286252280758 -0.0074307854897865998 0 -0.020510544927815601 -0.0093473610808166522 0 -0.020623520615870784 -0.0094635045005536152 0 -0.020656064595060194 -0.0093874189566020422 0 -0.020528245539051578 -0.0095006516924842285 0 -0.020623520615870784 -0.0094635045005536152 0 -0.020677484317162969 -0.0095507131635690808 0 -0.020623520615870784 -0.0094635045005536152 0 -0.020720907733136253 -0.009452855515677587 0 -0.020677484317162969 -0.0095507131635690808 0 -0.020623520615870784 -0.0094635045005536152 0 -0.020656064595060194 -0.0093874189566020422 0 -0.020720907733136253 -0.009452855515677587 0 -0.020656064595060194 -0.0093874189566020422 0 -0.020750703727041249 -0.0093993076038631357 0 -0.020720907733136253 -0.009452855515677587 0 -0.020876460550268709 -0.0094469987192264994 0 -0.020750703727041249 -0.0093993076038631357 0 -0.020720907733136253 -0.009452855515677587 0 -0.020876460550268709 -0.0094469987192264994 0 -0.0210787817668819 -0.0091593368096854425 0 -0.021522833369378058 -0.0091006202518889769 0 -0.020876460550268709 -0.0094469987192264994 0 -0.020720907733136253 -0.009452855515677587 0 -0.020677484317162969 -0.0095507131635690808 0 -0.020897971455484866 -0.0094382973190060091 0 -0.021185421386162116 -0.0093631205937518332 0 -0.021522833369378058 -0.0091006202518889769 0 -0.022187592835500775 -0.0085635442490879597 0 -0.021483303463514972 -0.0084801009691515238 0 -0.021161977983672649 -0.0089521163277449661 0 -0.0210787817668819 -0.0091593368096854425 0 -0.021522833369378058 -0.0091006202518889769 0 -0.021161977983672649 -0.0089521163277449661 0 -0.021522833369378058 -0.0091006202518889769 0 -0.021483303463514972 -0.0084801009691515238 0 -0.015671962234495074 -0.0052136001887753813 0 -0.015431834028561305 -0.005276461700356264 0 -0.01543961450437843 -0.0049907896827689488 0 -0.020528245539051578 -0.0095006516924842285 0 -0.020677484317162969 -0.0095507131635690808 0 -0.020529624455772336 -0.0096215776450335883 0 -0.017992286252280758 -0.0074307854897865998 0 -0.019657924030264253 -0.007259555252033644 0 -0.021185421386162116 -0.0093631205937518332 0 -0.019657924030264253 -0.007259555252033644 0 -0.019657924030264253 -0.007259555252033644 0 -0.02100284050661598 -0.0068436096332935466 0 -0.022187592835500775 -0.0085635442490879597 0 -0.021826128612457089 -0.0080988784396001379 0 -0.022199515934005348 -0.0076449352351006684 0 -0.019988518012785145 -0.0057641533974234554 0 -0.019750637488544817 -0.0059792735116995397 0 -0.019762204004375051 -0.0056707427397818004 0 -0.022187592835500775 -0.0085635442490879597 0 -0.021826128612457089 -0.0080988784396001379 0 -0.021483303463514972 -0.0084801009691515238 0 -0.021826128612457089 -0.0080988784396001379 0 -0.021483303463514972 -0.0084801009691515238 0 -0.021438244879835092 -0.0077043505112650229 0 -0.02084397527689236 -0.0086842154805085222 0 -0.021483303463514972 -0.0084801009691515238 0 -0.021438244879835092 -0.0077043505112650229 0 -0.021826128612457089 -0.0080988784396001379 0 -0.021438244879835092 -0.0077043505112650229 0 -0.022199515934005348 -0.0076449352351006684 0 -0.025783523298748872 -0.010328342968260872 0 -0.025443897930845349 -0.010225425440730802 0 -0.02570036500500137 -0.0099444918693675933 0 -0.021438244879835092 -0.0077043505112650229 0 -0.022199515934005348 -0.0076449352351006684 0 -0.022085150748207594 -0.0066395604670929824 0 -0.024956900916373776 -0.011139371303205532 0 -0.024919418225834523 -0.010598906397571165 0 -0.024359846580258471 -0.01101875834346247 0 -0.024956900916373776 -0.011139371303205532 0 -0.024919418225834523 -0.010598906397571165 0 -0.02535281977855143 -0.010642480778583789 0 -0.025411486049673915 -0.011082499719233222 0 -0.024956900916373776 -0.011139371303205532 0 -0.02535281977855143 -0.010642480778583789 0 -0.022907031127858937 -0.0096880267726542259 0 -0.023602603930353929 -0.0093082628176212184 0 -0.025411486049673915 -0.011082499719233222 0 -0.025783523298748872 -0.010328342968260872 0 -0.02535281977855143 -0.010642480778583789 0 -0.024919418225834523 -0.010598906397571165 0 -0.02535281977855143 -0.010642480778583789 0 -0.025443897930845349 -0.010225425440730802 0 -0.025443897930845349 -0.010225425440730802 0 -0.025172898470356374 -0.010174025736774507 0 -0.025403526272410017 -0.0099425698254699529 0 -0.025783523298748872 -0.010328342968260872 0 -0.02535281977855143 -0.010642480778583789 0 -0.025443897930845349 -0.010225425440730802 0 -0.024950930713261921 -0.01044407780525825 0 -0.02542468298550736 -0.010257404974301845 0 -0.025169887925334734 -0.010458334569219954 0 -0.025443897930845349 -0.010225425440730802 0 -0.025172898470356374 -0.010174025736774507 0 -0.025169887925334734 -0.010458334569219954 0 -0.025172898470356374 -0.010174025736774507 0 -0.024954901147984369 -0.010409216704772451 0 -0.025172898470356374 -0.010174025736774507 0 -0.024886677659880823 -0.01017700562672698 0 -0.024954901147984369 -0.010409216704772451 0 -0.025172898470356374 -0.010174025736774507 0 -0.024886677659880823 -0.01017700562672698 0 -0.025017847645161732 -0.0099839802678956865 0 -0.024886677659880823 -0.01017700562672698 0 -0.024730202064407323 -0.010440750330602927 0 -0.024954901147984369 -0.010409216704772451 0 -0.024886677659880823 -0.01017700562672698 0 -0.024590067507623214 -0.010167340658013141 0 -0.024730202064407323 -0.010440750330602927 0 -0.026881065892987156 -0.012526714314158135 0 -0.027260720277767984 -0.01327044057424371 0 -0.026175995292802876 -0.013506197329767104 0 -0.02581328331030127 -0.011375389201477893 0 -0.025978356358714077 -0.011834697376385065 0 -0.027260720277767984 -0.01327044057424371 0 -0.02675447541619044 -0.013980496419451968 0 -0.026175995292802876 -0.013506197329767104 0 -0.027260720277767984 -0.01327044057424371 0 -0.02675447541619044 -0.013980496419451968 0 -0.027629021349987491 -0.014002168537569462 0 -0.025169887925334734 -0.010458334569219954 0 -0.024954901147984369 -0.010409216704772451 0 -0.024872303789179522 -0.010717995463461945 0 -0.024950930713261921 -0.01044407780525825 0 -0.026074891801965219 -0.012569123981247031 0 -0.024730202064407323 -0.010440750330602927 0 -0.024954901147984369 -0.010409216704772451 0 -0.024872303789179522 -0.010717995463461945 0 -0.025978356358714077 -0.011834697376385065 0 -0.026074891801965219 -0.012569123981247031 0 -0.024956900916373776 -0.011139371303205532 0 -0.024359846580258471 -0.01101875834346247 0 -0.024610502240104346 -0.011573446087323349 0 -0.026074891801965219 -0.012569123981247031 0 -0.026115293994932891 -0.013301195033764352 0 -0.027248036253116305 -0.014296857128042177 0 -0.027610104870577266 -0.014998248482160271 0 -0.02707430976579565 -0.015151358512426702 0 -0.026074891801965219 -0.012569123981247031 0 -0.02658007488786647 -0.015184153576783134 0 -0.027248036253116305 -0.014296857128042177 0 -0.02707430976579565 -0.015151358512426702 0 -0.026271968320314688 -0.01509383014873813 0 -0.02675447541619044 -0.013980496419451968 0 -0.027629021349987491 -0.014002168537569462 0 -0.02653805023134384 -0.014872649881278207 0 -0.02685998577845887 -0.01575446132586902 0 -0.02707430976579565 -0.015151358512426702 0 -0.026271968320314688 -0.01509383014873813 0 -0.02685998577845887 -0.01575446132586902 0 -0.026132749594042669 -0.015895265544676473 0 -0.026271968320314688 -0.01509383014873813 0 -0.02685998577845887 -0.01575446132586902 0 -0.027391517806100781 -0.015608013241481247 0 -0.02707430976579565 -0.015151358512426702 0 -0.027974810089877903 -0.015699207696768486 0 -0.027610104870577266 -0.014998248482160271 0 -0.027391517806100781 -0.015608013241481247 0 -0.027610104870577266 -0.014998248482160271 0 -0.027391517806100781 -0.015608013241481247 0 -0.02707430976579565 -0.015151358512426702 0 -0.025399444450758025 -0.015763354179612547 0 -0.025711047513182914 -0.014889499341757957 0 -0.024999933143007212 -0.015093735787913369 0 -0.025399444450758025 -0.015763354179612547 0 -0.025711047513182914 -0.014889499341757957 0 -0.02653805023134384 -0.014872649881278207 0 -0.026132749594042669 -0.015895265544676473 0 -0.025399444450758025 -0.015763354179612547 0 -0.026271968320314688 -0.01509383014873813 0 -0.025399580107090865 -0.01567728235361443 0 -0.02658007488786647 -0.015184153576783134 0 -0.02675447541619044 -0.013980496419451968 0 -0.02653805023134384 -0.014872649881278207 0 -0.026163784508381679 -0.014245437872691457 0 -0.025711047513182914 -0.014889499341757957 0 -0.02653805023134384 -0.014872649881278207 0 -0.026163784508381679 -0.014245437872691457 0 -0.026163784508381679 -0.014245437872691457 0 -0.025492089910987753 -0.014488461795405531 0 -0.026175995292802876 -0.013506197329767104 0 -0.025711047513182914 -0.014889499341757957 0 -0.026163784508381679 -0.014245437872691457 0 -0.025492089910987753 -0.014488461795405531 0 -0.024999933143007212 -0.015093735787913369 0 -0.025492089910987753 -0.014488461795405531 0 -0.024999991437195092 -0.013683272386043546 0 -0.025711047513182914 -0.014889499341757957 0 -0.024999933143007212 -0.015093735787913369 0 -0.025492089910987753 -0.014488461795405531 0 -0.025492089910987753 -0.014488461795405531 0 -0.024999991437195092 -0.013683272386043546 0 -0.026196452749948074 -0.013557468100482696 0 -0.024999991437195092 -0.013683272386043546 0 -0.026196452749948074 -0.013557468100482696 0 -0.025871277404551109 -0.012937988245439914 0 -0.025537141704757273 -0.014380751151812976 0 -0.026249346495055583 -0.013681466610034667 0 -0.02675447541619044 -0.013980496419451968 0 -0.026163784508381679 -0.014245437872691457 0 -0.026175995292802876 -0.013506197329767104 0 -0.026900847340630439 -0.0126113160770608 0 -0.025871277404551109 -0.012937988245439914 0 -0.025982369794247808 -0.01224014575320268 0 -0.02581328331030127 -0.011375389201477893 0 -0.026249346495055583 -0.013681466610034667 0 -0.026900847340630439 -0.0126113160770608 0 -0.026196452749948074 -0.013557468100482696 0 -0.025871277404551109 -0.012937988245439914 0 -0.024999991437195092 -0.013683272386043546 0 -0.025871277404551109 -0.012937988245439914 0 -0.025293032862347048 -0.01258720204112973 0 -0.024999991437195092 -0.013683272386043546 0 -0.025293032862347048 -0.01258720204112973 0 -0.024999985499748641 -0.012272919680097598 0 -0.025871277404551109 -0.012937988245439914 0 -0.025293032862347048 -0.01258720204112973 0 -0.025982369794247808 -0.01224014575320268 0 -0.025312396865494975 -0.012473816735767064 0 -0.025555006183019025 -0.011601114782270702 0 -0.025293032862347048 -0.01258720204112973 0 -0.025982369794247808 -0.01224014575320268 0 -0.0255256778093488 -0.011493040741400038 0 -0.025293032862347048 -0.01258720204112973 0 -0.024999985499748641 -0.012272919680097598 0 -0.025551737549682922 -0.011539967042240799 0 -0.025982369794247808 -0.01224014575320268 0 -0.026350461439173013 -0.01151281176671929 0 -0.0255256778093488 -0.011493040741400038 0 -0.026900847340630439 -0.0126113160770608 0 -0.025982369794247808 -0.01224014575320268 0 -0.026350461439173013 -0.01151281176671929 0 -0.026350461439173013 -0.01151281176671929 0 -0.0255256778093488 -0.011493040741400038 0 -0.025780703100067436 -0.010392172085397323 0 -0.024667701709107082 -0.0096812885706863989 0 -0.024709526341805163 -0.0094878677639595628 0 -0.024542184138237666 -0.009412245804781982 0 -0.025479414128521737 -0.010550329575182661 0 -0.025371815601538575 -0.010029454825642417 0 -0.024999985499748641 -0.012272919680097598 0 -0.025551737549682922 -0.011539967042240799 0 -0.024999999220154542 -0.010862560283274718 0 -0.025555006183019025 -0.011601114782270702 0 -0.025371815601538575 -0.010029454825642417 0 -0.025551737549682922 -0.011539967042240799 0 -0.024999999220154542 -0.010862560283274718 0 -0.025803615103872697 -0.010485020616137481 0 -0.024886677659880823 -0.01017700562672698 0 -0.024590067507623214 -0.010167340658013141 0 -0.024806002207171076 -0.0098566871189589445 0 -0.024886677659880823 -0.01017700562672698 0 -0.025017847645161732 -0.0099839802678956865 0 -0.024806002207171076 -0.0098566871189589445 0 -0.025017847645161732 -0.0099839802678956865 0 -0.024806002207171076 -0.0098566871189589445 0 -0.025062916240430687 -0.009802327154621612 0 -0.024806919824692811 -0.0099631976950325853 0 -0.024943174793251706 -0.0097516425570594433 0 -0.024815238930034133 -0.0096750653365887031 0 -0.024806919824692811 -0.0099631976950325853 0 -0.024667701709107082 -0.0096812885706863989 0 -0.024815238930034133 -0.0096750653365887031 0 -0.02581328331030127 -0.011375389201477893 0 -0.025479414128521737 -0.010550329575182661 0 -0.02581328331030127 -0.011375389201477893 0 -0.024874011441748195 -0.0097071440220035336 0 -0.024815238930034133 -0.0096750653365887031 0 -0.02492103277700021 -0.0095764632784643977 0 -0.024709526341805163 -0.0094878677639595628 0 -0.024667701709107082 -0.0096812885706863989 0 -0.024815238930034133 -0.0096750653365887031 0 -0.024709526341805163 -0.0094878677639595628 0 -0.024943174793251706 -0.0097516425570594433 0 -0.024815238930034133 -0.0096750653365887031 0 -0.02492103277700021 -0.0095764632784643977 0 -0.02492103277700021 -0.0095764632784643977 0 -0.025054972758082973 -0.0095522041087874529 0 -0.025126293426695798 -0.0094831658095404139 0 -0.024777239549583517 -0.0097678919011395995 0 -0.025119186189842688 -0.0075417589692362485 0 -0.024943174793251706 -0.0097516425570594433 0 -0.02492103277700021 -0.0095764632784643977 0 -0.025054972758082973 -0.0095522041087874529 0 -0.024874011441748195 -0.0097071440220035336 0 -0.025023691906179556 -0.0096041944177167118 0 -0.024806002207171076 -0.0098566871189589445 0 -0.025054972758082973 -0.0095522041087874529 0 -0.025062916240430687 -0.009802327154621612 0 -0.02492103277700021 -0.0095764632784643977 0 -0.024858965697086448 -0.0093727785800197579 0 -0.025152848834238684 -0.0094782823361631609 0 -0.025304492595337277 -0.0062221147102632431 0 -0.025082571977266932 -0.0062741740337195623 0 -0.025125274792042084 -0.0062178008976560891 0 -0.02510675688363366 -0.0077735556014437643 0 -0.025119186189842688 -0.0075417589692362485 0 -0.02492103277700021 -0.0095764632784643977 0 -0.024858965697086448 -0.0093727785800197579 0 -0.024709526341805163 -0.0094878677639595628 0 -0.025304492595337277 -0.0062221147102632431 0 -0.02600236653699306 -0.0063770648478310033 0 -0.025487572103775908 -0.0067396417432013566 0 -0.025304492595337277 -0.0062221147102632431 0 -0.025487572103775908 -0.0067396417432013566 0 -0.02524580425987473 -0.0065070012934493058 0 -0.025304492595337277 -0.0062221147102632431 0 -0.02524580425987473 -0.0065070012934493058 0 -0.025082571977266932 -0.0062741740337195623 0 -0.024999999220154542 -0.010862560283274718 0 -0.025803615103872697 -0.010485020616137481 0 -0.025352398279294513 -0.0095990375494188381 0 -0.024858965697086448 -0.0093727785800197579 0 -0.024709526341805163 -0.0094878677639595628 0 -0.024581152574749424 -0.0092542186075698085 0 -0.024709526341805163 -0.0094878677639595628 0 -0.024542184138237666 -0.009412245804781982 0 -0.024581152574749424 -0.0092542186075698085 0 -0.025371815601538575 -0.010029454825642417 0 -0.025217383288993218 -0.0083509255691226955 0 -0.02510675688363366 -0.0077735556014437643 0 -0.025217383288993218 -0.0083509255691226955 0 -0.024999999220154542 -0.010862560283274718 0 -0.025352398279294513 -0.0095990375494188381 0 -0.024999995483911564 -0.0094521883700462977 0 -0.025318184168280529 -0.0095348721393676301 0 -0.025399522650693979 -0.0091956068501680924 0 -0.02508012148583796 -0.0090630050096388286 0 -0.025371815601538575 -0.010029454825642417 0 -0.025255277437629016 -0.0093065502886289266 0 -0.025689415640430618 -0.0092984673507570063 0 -0.025106567223496239 -0.0089594888491915277 0 -0.025304518989200803 -0.0084365737224886723 0 -0.025217383288993218 -0.0083509255691226955 0 -0.025255277437629016 -0.0093065502886289266 0 -0.025255277437629016 -0.0093065502886289266 0 -0.025000296526876565 -0.0094520496644215427 0 -0.025255277437629016 -0.0093065502886289266 0 -0.025000063981018405 -0.0089065054666621086 0 -0.025352638038488043 -0.0095985294253364724 0 -0.024999997342227628 -0.0094521830103462181 0 -0.025000000785828584 -0.0089064377479403465 0 -0.025106567223496239 -0.0089594888491915277 0 -0.025304518989200803 -0.0084365737224886723 0 -0.02499966388195175 -0.0089039987929046601 0 -0.025304518989200803 -0.0084365737224886723 0 -0.02499966388195175 -0.0089039987929046601 0 -0.025420852336416912 -0.0078041132551905689 0 -0.02499966388195175 -0.0089039987929046601 0 -0.025420852336416912 -0.0078041132551905689 0 -0.024999937154921575 -0.0076921256176626833 0 -0.025420852336416912 -0.0078041132551905689 0 -0.025532579913807477 -0.0073054465586112928 0 -0.025441599119057995 -0.0072641794394868887 0 -0.025420852336416912 -0.0078041132551905689 0 -0.025532579913807477 -0.0073054465586112928 0 -0.025736980732242221 -0.0075050476800107629 0 -0.025532579913807477 -0.0073054465586112928 0 -0.025736980732242221 -0.0075050476800107629 0 -0.025508197913340722 -0.0070092554464738074 0 -0.025217383288993218 -0.0083509255691226955 0 -0.025929706152992203 -0.007316194012246177 0 -0.02600236653699306 -0.0063770648478310033 0 -0.025736980732242221 -0.0075050476800107629 0 -0.025487572103775908 -0.0067396417432013566 0 -0.025689415640430618 -0.0092984673507570063 0 -0.025304518989200803 -0.0084365737224886723 0 -0.025736980732242221 -0.0075050476800107629 0 -0.025304518989200803 -0.0084365737224886723 0 -0.025420852336416912 -0.0078041132551905689 0 -0.025736980732242221 -0.0075050476800107629 0 -0.025736980732242221 -0.0075050476800107629 0 -0.025487572103775908 -0.0067396417432013566 0 -0.025508197913340722 -0.0070092554464738074 0 -0.025487572103775908 -0.0067396417432013566 0 -0.02524580425987473 -0.0065070012934493058 0 -0.025508197913340722 -0.0070092554464738074 0 -0.02524580425987473 -0.0065070012934493058 0 -0.025449202735198836 -0.0066091472424764115 0 -0.025508197913340722 -0.0070092554464738074 0 -0.02524580425987473 -0.0065070012934493058 0 -0.025449202735198836 -0.0066091472424764115 0 -0.024972356905396797 -0.0060230796421636354 0 -0.025449202735198836 -0.0066091472424764115 0 -0.025508197913340722 -0.0070092554464738074 0 -0.025577037553026698 -0.0068149699834768301 0 -0.025532579913807477 -0.0073054465586112928 0 -0.025508197913340722 -0.0070092554464738074 0 -0.025577037553026698 -0.0068149699834768301 0 -0.025532579913807477 -0.0073054465586112928 0 -0.025507924213494786 -0.0064937317809316058 0 -0.025577037553026698 -0.0068149699834768301 0 -0.025507924213494786 -0.0064937317809316058 0 -0.025577037553026698 -0.0068149699834768301 0 -0.025729153486839771 -0.0066126897480486939 0 -0.025449202735198836 -0.0066091472424764115 0 -0.025577037553026698 -0.0068149699834768301 0 -0.025729153486839771 -0.0066126897480486939 0 -0.025449202735198836 -0.0066091472424764115 0 -0.025729153486839771 -0.0066126897480486939 0 -0.024972356905396797 -0.0060230796421636354 0 -0.025115747670139219 -0.0057053524724047632 0 -0.02515382352908074 -0.0048436763706491406 0 -0.024481537846667435 -0.0048577359626166862 0 -0.024614557177235725 -0.0042201920846206033 0 -0.02476405913354153 -0.0042822033982275248 0 -0.025507924213494786 -0.0064937317809316058 0 -0.025729153486839771 -0.0066126897480486939 0 -0.025754266206123068 -0.0054538910507485657 0 -0.025507924213494786 -0.0064937317809316058 0 -0.025220696543645012 -0.005783265894427167 0 -0.025754266206123068 -0.0054538910507485657 0 -0.024628387247191231 -0.0060620464907574821 0 -0.025220696543645012 -0.005783265894427167 0 -0.024929874233220201 -0.0050849288951642403 0 -0.025507924213494786 -0.0064937317809316058 0 -0.024628387247191231 -0.0060620464907574821 0 -0.025220696543645012 -0.005783265894427167 0 -0.025696933544992882 -0.0067213275395581569 0 -0.024999900577818406 -0.0064783021912778261 0 -0.025441599119057995 -0.0072641794394868887 0 -0.024999900577818406 -0.0064783021912778261 0 -0.024999937154921575 -0.0076921256176626833 0 -0.025441599119057995 -0.0072641794394868887 0 -0.025420852336416912 -0.0078041132551905689 0 -0.024999937154921575 -0.0076921256176626833 0 -0.025441599119057995 -0.0072641794394868887 0 -0.025532579913807477 -0.0073054465586112928 0 -0.025507924213494786 -0.0064937317809316058 0 -0.024628387247191231 -0.0060620464907574821 0 -0.025532579913807477 -0.0073054465586112928 0 -0.025696933544992882 -0.0067213275395581569 0 -0.025441599119057995 -0.0072641794394868887 0 -0.025489382417621474 -0.0072274610757832106 0 -0.025178755914225189 -0.0063582514647408783 0 -0.025442208633826735 -0.0051284374406792288 0 -0.024741332657835111 -0.0040907230218564161 0 -0.025076316836025406 -0.0048288230700462295 0 -0.025442208633826735 -0.0051284374406792288 0 -0.025076316836025406 -0.0048288230700462295 0 -0.025197146801722616 -0.0055698664783249523 0 -0.024827036554480708 -0.00408631400734389 0 -0.02476827029052504 -0.0041609311927618573 0 -0.024253428047716335 -0.0029717068637150515 0 -0.024741332657835111 -0.0040907230218564161 0 -0.023530817656469832 -0.003601929869530983 0 -0.024741332657835111 -0.0040907230218564161 0 -0.025076316836025406 -0.0048288230700462295 0 -0.02501916029642379 -0.0043493314494850539 0 -0.024909158828931757 -0.0046426504070770707 0 -0.025076316836025406 -0.0048288230700462295 0 -0.02501916029642379 -0.0043493314494850539 0 -0.024481537846667435 -0.0048577359626166862 0 -0.024909158828931757 -0.0046426504070770707 0 -0.02476405913354153 -0.0042822033982275248 0 -0.024481537846667435 -0.0048577359626166862 0 -0.024909158828931757 -0.0046426504070770707 0 -0.024972356905396797 -0.0060230796421636354 0 -0.025115747670139219 -0.0057053524724047632 0 -0.025006642735102426 -0.0059971129451062465 0 -0.025076316836025406 -0.0048288230700462295 0 -0.024972356905396797 -0.0060230796421636354 0 -0.025197146801722616 -0.0055698664783249523 0 -0.024909158828931757 -0.0046426504070770707 0 -0.025076316836025406 -0.0048288230700462295 0 -0.024972356905396797 -0.0060230796421636354 0 -0.024972356905396797 -0.0060230796421636354 0 -0.025137409535362466 -0.0060250642016138516 0 -0.025197146801722616 -0.0055698664783249523 0 -0.02524580425987473 -0.0065070012934493058 0 -0.024972356905396797 -0.0060230796421636354 0 -0.025082571977266932 -0.0062741740337195623 0 -0.024972356905396797 -0.0060230796421636354 0 -0.025137409535362466 -0.0060250642016138516 0 -0.025082571977266932 -0.0062741740337195623 0 -0.025137409535362466 -0.0060250642016138516 0 -0.025197146801722616 -0.0055698664783249523 0 -0.025528793923833743 -0.0058400185479415426 0 -0.025137409535362466 -0.0060250642016138516 0 -0.025528793923833743 -0.0058400185479415426 0 -0.025322858617184044 -0.0060822303241590339 0 -0.025442208633826735 -0.0051284374406792288 0 -0.025197146801722616 -0.0055698664783249523 0 -0.025528793923833743 -0.0058400185479415426 0 -0.024827036554480708 -0.00408631400734389 0 -0.024843895421735471 -0.0040284984053519995 0 -0.025528793923833743 -0.0058400185479415426 0 -0.025485591225151323 -0.0062048200027330072 0 -0.025322858617184044 -0.0060822303241590339 0 -0.024843895421735471 -0.0040284984053519995 0 -0.024409919832687789 -0.0036577648924813835 0 -0.025485591225151323 -0.0062048200027330072 0 -0.025322858617184044 -0.0060822303241590339 0 -0.025157183067507988 -0.0062769510752244545 0 -0.025137409535362466 -0.0060250642016138516 0 -0.025322858617184044 -0.0060822303241590339 0 -0.025157183067507988 -0.0062769510752244545 0 -0.024409919832687789 -0.0036577648924813835 0 -0.025207847334158724 -0.0059427470854759188 0 -0.024813521798490355 -0.0055416252855452902 0 -0.024811622865137297 -0.0054555605436339468 0 -0.024968257554990464 -0.0055246463246499226 0 -0.024811622865137297 -0.0054555605436339468 0 -0.024968257554990464 -0.0055246463246499226 0 -0.024877444929548576 -0.0054201312898389756 0 -0.024409919832687789 -0.0036577648924813835 0 -0.024174935418714547 -0.0031722755269245105 0 -0.023561503797294769 -0.0014716727846155889 0 -0.023558044345993821 -0.0010427137311387377 0 -0.023316472982098775 -0.0010799289593128143 0 -0.023558044345993821 -0.0010427137311387377 0 -0.023423926691728894 -0.0008258315042461306 0 -0.023316472982098775 -0.0010799289593128143 0 -0.025137409535362466 -0.0060250642016138516 0 -0.025082571977266932 -0.0062741740337195623 0 -0.025157183067507988 -0.0062769510752244545 0 -0.024968257554990464 -0.0055246463246499226 0 -0.025132171308599269 -0.0055042223753858895 0 -0.024980066520752357 -0.0054168873941431838 0 -0.025207847334158724 -0.0059427470854759188 0 -0.025119186189842688 -0.0075417589692362485 0 -0.025082571977266932 -0.0062741740337195623 0 -0.025157183067507988 -0.0062769510752244545 0 -0.025125274792042084 -0.0062178008976560891 0 -0.025126293426695798 -0.0094831658095404139 0 -0.025223451601904208 -0.0097064006157510669 0 -0.025565117314746953 -0.0096281518078921643 0 -0.025054972758082973 -0.0095522041087874529 0 -0.025223451601904208 -0.0097064006157510669 0 -0.025062916240430687 -0.009802327154621612 0 -0.025054972758082973 -0.0095522041087874529 0 -0.025126293426695798 -0.0094831658095404139 0 -0.025223451601904208 -0.0097064006157510669 0 -0.025223451601904208 -0.0097064006157510669 0 -0.025565117314746953 -0.0096281518078921643 0 -0.025403526272410017 -0.0099425698254699529 0 -0.025119186189842688 -0.0075417589692362485 0 -0.025593806150613227 -0.0076618886256805624 0 -0.025565117314746953 -0.0096281518078921643 0 -0.025403526272410017 -0.0099425698254699529 0 -0.02570036500500137 -0.0099444918693675933 0 -0.025443897930845349 -0.010225425440730802 0 -0.025403526272410017 -0.0099425698254699529 0 -0.02570036500500137 -0.0099444918693675933 0 -0.025223451601904208 -0.0097064006157510669 0 -0.025403526272410017 -0.0099425698254699529 0 -0.025195184588017974 -0.009920509283122117 0 -0.025172898470356374 -0.010174025736774507 0 -0.025403526272410017 -0.0099425698254699529 0 -0.025195184588017974 -0.009920509283122117 0 -0.025172898470356374 -0.010174025736774507 0 -0.025017847645161732 -0.0099839802678956865 0 -0.025195184588017974 -0.009920509283122117 0 -0.025223451601904208 -0.0097064006157510669 0 -0.025195184588017974 -0.009920509283122117 0 -0.025062916240430687 -0.009802327154621612 0 -0.025017847645161732 -0.0099839802678956865 0 -0.025195184588017974 -0.009920509283122117 0 -0.025062916240430687 -0.009802327154621612 0 -0.023558044345993821 -0.0010427137311387377 0 -0.023546055113756487 -0.00063655758741582643 0 -0.023423926691728894 -0.0008258315042461306 0 -0.024811622865137297 -0.0054555605436339468 0 -0.024804584807806347 -0.0053626867557891068 0 -0.024877444929548576 -0.0054201312898389756 0 -0.024174935418714547 -0.0031722755269245105 0 -0.023652191517346571 -0.0033529379615064229 0 -0.024804584807806347 -0.0053626867557891068 0 -0.024877444929548576 -0.0054201312898389756 0 -0.024821427239832862 -0.0053374934784372807 0 -0.023570018302531994 -0.00059556222673641729 0 -0.023423926691728894 -0.0008258315042461306 0 -0.0232158667759471 -0.00054514494329204399 0 -0.023652191517346571 -0.0033529379615064229 0 -0.02410410408363934 -0.0010259734037186435 0 -0.025593806150613227 -0.0076618886256805624 0 -0.023920065820348467 -0.0068394059826000246 0 -0.024980066520752357 -0.0054168873941431838 0 -0.024877444929548576 -0.0054201312898389756 0 -0.024821427239832862 -0.0053374934784372807 0 -0.024968257554990464 -0.0055246463246499226 0 -0.024980066520752357 -0.0054168873941431838 0 -0.024877444929548576 -0.0054201312898389756 0 -0.025565117314746953 -0.0096281518078921643 0 -0.02570036500500137 -0.0099444918693675933 0 -0.026036657864376651 -0.0097916451692191941 0 -0.025783523298748872 -0.010328342968260872 0 -0.02570036500500137 -0.0099444918693675933 0 -0.026036657864376651 -0.0097916451692191941 0 -0.023602603930353929 -0.0093082628176212184 0 -0.023920065820348467 -0.0068394059826000246 0 -0.022199515934005348 -0.0076449352351006684 0 -0.022085150748207594 -0.0066395604670929824 0 -0.022209517610962119 -0.006690482941736524 0 -0.02100284050661598 -0.0068436096332935466 0 -0.021991030177585299 -0.0050902368502693564 0 -0.019762204004375051 -0.0056707427397818004 0 -0.019781457177320064 -0.0053847130731050769 0 -0.019995617452267009 -0.0054754181742199398 0 -0.023488215862105477 -0.004460211731687278 0 -0.022494330175502536 -0.0060623189070252714 0 -0.023497178795067308 -0.0064794032727329967 0 -0.023652191517346571 -0.0033529379615064229 0 -0.023920065820348467 -0.0068394059826000246 0 -0.023920065820348467 -0.0068394059826000246 0 -0.021991030177585299 -0.0050902368502693564 0 -0.023570018302531994 -0.00059556222673641729 0 -0.023568083828769185 -0.00042936763390496362 0 -0.0232158667759471 -0.00054514494329204399 0 -0.023652191517346571 -0.0033529379615064229 0 -0.021991030177585299 -0.0050902368502693564 0 -0.023027312459560568 -0.00018074624595023353 0 -0.0232158667759471 -0.00054514494329204399 0 -0.022646640535337683 -0.00041733612155850185 0 -0.021991030177585299 -0.0050902368502693564 0 -0.021682038010882261 -0.0027573553126679761 0 -0.023568083828769185 -0.00042936763390496362 0 -0.023027312459560568 -0.00018074624595023353 0 -0.0232158667759471 -0.00054514494329204399 0 -0.023423926691728894 -0.0008258315042461306 0 -0.0232158667759471 -0.00054514494329204399 0 -0.023025649375827094 -0.0008224624297332719 0 -0.0232158667759471 -0.00054514494329204399 0 -0.023025649375827094 -0.0008224624297332719 0 -0.022646640535337683 -0.00041733612155850185 0 -0.023423926691728894 -0.0008258315042461306 0 -0.023025649375827094 -0.0008224624297332719 0 -0.023316472982098775 -0.0010799289593128143 0 -0.023025649375827094 -0.0008224624297332719 0 -0.022535817086503238 -0.00086377246056700235 0 -0.022646640535337683 -0.00041733612155850185 0 -0.018860901444039107 -0.0038803585842442454 0 -0.021682038010882261 -0.0027573553126679761 0 -0.022472434988007186 4.8527480904505716e-05 0 -0.023027312459560568 -0.00018074624595023353 0 -0.022646640535337683 -0.00041733612155850185 0 -0.015818802400127358 -0.0045155958670134817 0 -0.015982696047279778 -0.0046120261939994545 0 -0.015980705613404776 -0.004310849195207871 0 -0.022472434988007186 4.8527480904505716e-05 0 -0.022646640535337683 -0.00041733612155850185 0 -0.021816009743558996 -0.00039640115753151572 0 -0.018860901444039107 -0.0038803585842442454 0 -0.019027735238179182 -0.0020650527602191497 0 -0.015982696047279778 -0.0046120261939994545 0 -0.015980705613404776 -0.004310849195207871 0 -0.01606273669893744 -0.0044826146607998517 0 -0.015980705613404776 -0.004310849195207871 0 -0.01606273669893744 -0.0044826146607998517 0 -0.016198987080298995 -0.0043600280074038052 0 -0.021816009743558996 -0.00039640115753151572 0 -0.021907047020518267 -0.0011054908766255584 0 -0.021055193381258028 -0.0008602729723739892 0 -0.019027735238179182 -0.0020650527602191497 0 -0.018582666653627809 -0.0024856069066391362 0 -0.022535817086503238 -0.00086377246056700235 0 -0.022646640535337683 -0.00041733612155850185 0 -0.021816009743558996 -0.00039640115753151572 0 -0.022535817086503238 -0.00086377246056700235 0 -0.021816009743558996 -0.00039640115753151572 0 -0.021907047020518267 -0.0011054908766255584 0 -0.022535817086503238 -0.00086377246056700235 0 -0.021907047020518267 -0.0011054908766255584 0 -0.022429060452641411 -0.001455570509870492 0 -0.021907047020518267 -0.0011054908766255584 0 -0.021699736900947675 -0.0018091815332948887 0 -0.021055193381258028 -0.0008602729723739892 0 -0.021907047020518267 -0.0011054908766255584 0 -0.021699736900947675 -0.0018091815332948887 0 -0.022429060452641411 -0.001455570509870492 0 -0.021699736900947675 -0.0018091815332948887 0 -0.022429060452641411 -0.001455570509870492 0 -0.022397542128538249 -0.0021618236780152865 0 -0.022429060452641411 -0.001455570509870492 0 -0.022900426749122182 -0.0017063761741334016 0 -0.022996365877447449 -0.00121706081702184 0 -0.022429060452641411 -0.001455570509870492 0 -0.022900426749122182 -0.0017063761741334016 0 -0.022397542128538249 -0.0021618236780152865 0 -0.023561503797294769 -0.0014716727846155889 0 -0.022900426749122182 -0.0017063761741334016 0 -0.022996365877447449 -0.00121706081702184 0 -0.024089063049563514 -0.0021920241357459044 0 -0.024056910864698924 -0.001294397804422842 0 -0.022900426749122182 -0.0017063761741334016 0 -0.024409919832687789 -0.0036577648924813835 0 -0.022800270039661993 -0.0010641275034817513 0 -0.023561503797294769 -0.0014716727846155889 0 -0.022996365877447449 -0.00121706081702184 0 -0.023316472982098775 -0.0010799289593128143 0 -0.023025649375827094 -0.0008224624297332719 0 -0.022996365877447449 -0.00121706081702184 0 -0.023316472982098775 -0.0010799289593128143 0 -0.023025649375827094 -0.0008224624297332719 0 -0.022535817086503238 -0.00086377246056700235 0 -0.022996365877447449 -0.00121706081702184 0 -0.022535817086503238 -0.00086377246056700235 0 -0.022429060452641411 -0.001455570509870492 0 -0.022996365877447449 -0.00121706081702184 0 -0.016759292281604773 -0.0041563928845204639 0 -0.016971879193038979 -0.0037973325357546148 0 -0.017142485086512935 -0.0040035085323585889 0 -0.016758723667897487 -0.0044356535511789041 0 -0.016759292281604773 -0.0041563928845204639 0 -0.017142485086512935 -0.0040035085323585889 0 -0.016758723667897487 -0.0044356535511789041 0 -0.01647258666592729 -0.0044382298165579967 0 -0.016759292281604773 -0.0041563928845204639 0 -0.01647258666592729 -0.0044382298165579967 0 -0.016759292281604773 -0.0041563928845204639 0 -0.01647198671411966 -0.0040965540241753515 0 -0.016759292281604773 -0.0041563928845204639 0 -0.01647198671411966 -0.0040965540241753515 0 -0.016971879193038979 -0.0037973325357546148 0 -0.01647258666592729 -0.0044382298165579967 0 -0.01647198671411966 -0.0040965540241753515 0 -0.016198987080298995 -0.0043600280074038052 0 -0.016224645442690595 -0.0046110856044245521 0 -0.01647258666592729 -0.0044382298165579967 0 -0.016198987080298995 -0.0043600280074038052 0 -0.016140960112710028 -0.0045536507494881272 0 -0.01606273669893744 -0.0044826146607998517 0 -0.016198987080298995 -0.0043600280074038052 0 -0.01647198671411966 -0.0040965540241753515 0 -0.016198987080298995 -0.0043600280074038052 0 -0.016181570356359407 -0.0039972838636912842 0 -0.015980705613404776 -0.004310849195207871 0 -0.016198987080298995 -0.0043600280074038052 0 -0.016181570356359407 -0.0039972838636912842 0 -0.021055193381258028 -0.0008602729723739892 0 -0.020193415815982992 -0.0014393627266677069 0 -0.02081990938932405 -0.0020401980271810205 0 -0.021699736900947675 -0.0018091815332948887 0 -0.021055193381258028 -0.0008602729723739892 0 -0.02081990938932405 -0.0020401980271810205 0 -0.020193415815982992 -0.0014393627266677069 0 -0.020113640065295358 -0.0023582731217378665 0 -0.02081990938932405 -0.0020401980271810205 0 -0.01647198671411966 -0.0040965540241753515 0 -0.016181570356359407 -0.0039972838636912842 0 -0.016578296336850762 -0.0036341988191644775 0 -0.018582666653627809 -0.0024856069066391362 0 -0.018396466913718497 -0.0025329728848848157 0 -0.01647198671411966 -0.0040965540241753515 0 -0.016578296336850762 -0.0036341988191644775 0 -0.016971879193038979 -0.0037973325357546148 0 -0.016578296336850762 -0.0036341988191644775 0 -0.016971879193038979 -0.0037973325357546148 0 -0.017141651410264545 -0.0033669434720373622 0 -0.018396466913718497 -0.0025329728848848157 0 -0.018189200790240473 -0.0028061396675767656 0 -0.020193415815982992 -0.0014393627266677069 0 -0.019239321210036582 -0.0021681917860866852 0 -0.020113640065295358 -0.0023582731217378665 0 -0.016971879193038979 -0.0037973325357546148 0 -0.017141651410264545 -0.0033669434720373622 0 -0.01739723172403991 -0.0035857352356666707 0 -0.019239321210036582 -0.0021681917860866852 0 -0.018910941983776346 -0.0036748117387131176 0 -0.018046779217698195 -0.0032946132783259808 0 -0.019239321210036582 -0.0021681917860866852 0 -0.019811869909166238 -0.0031792588270131454 0 -0.018910941983776346 -0.0036748117387131176 0 -0.018189200790240473 -0.0028061396675767656 0 -0.018014366626154354 -0.0032418312426054472 0 -0.019239321210036582 -0.0021681917860866852 0 -0.019811869909166238 -0.0031792588270131454 0 -0.020113640065295358 -0.0023582731217378665 0 -0.019811869909166238 -0.0031792588270131454 0 -0.020113640065295358 -0.0023582731217378665 0 -0.020818698540237948 -0.0028677819492845618 0 -0.020113640065295358 -0.0023582731217378665 0 -0.02081990938932405 -0.0020401980271810205 0 -0.020818698540237948 -0.0028677819492845618 0 -0.02081990938932405 -0.0020401980271810205 0 -0.020818698540237948 -0.0028677819492845618 0 -0.021786645942128719 -0.0027222868639868963 0 -0.020818698540237948 -0.0028677819492845618 0 -0.021037270226159695 -0.0037955003550273095 0 -0.021786645942128719 -0.0027222868639868963 0 -0.021037270226159695 -0.0037955003550273095 0 -0.020228785491601356 -0.0036496124045903608 0 -0.020122661828676142 -0.0042288891655111339 0 -0.020818698540237948 -0.0028677819492845618 0 -0.021037270226159695 -0.0037955003550273095 0 -0.020228785491601356 -0.0036496124045903608 0 -0.019811869909166238 -0.0031792588270131454 0 -0.020818698540237948 -0.0028677819492845618 0 -0.020228785491601356 -0.0036496124045903608 0 -0.019811869909166238 -0.0031792588270131454 0 -0.020228785491601356 -0.0036496124045903608 0 -0.019378011969569422 -0.0040571313687827824 0 -0.020228785491601356 -0.0036496124045903608 0 -0.019378011969569422 -0.0040571313687827824 0 -0.020122661828676142 -0.0042288891655111339 0 -0.019378011969569422 -0.0040571313687827824 0 -0.018853070002385636 -0.0043806175970557979 0 -0.018689319043581742 -0.0041906007911563618 0 -0.019378011969569422 -0.0040571313687827824 0 -0.018910941983776346 -0.0036748117387131176 0 -0.018689319043581742 -0.0041906007911563618 0 -0.019811869909166238 -0.0031792588270131454 0 -0.019378011969569422 -0.0040571313687827824 0 -0.018910941983776346 -0.0036748117387131176 0 -0.024253428047716335 -0.0029717068637150515 0 -0.024089063049563514 -0.0021920241357459044 0 -0.02301476620380145 -0.0027038508610499759 0 -0.024089063049563514 -0.0021920241357459044 0 -0.022900426749122182 -0.0017063761741334016 0 -0.02301476620380145 -0.0027038508610499759 0 -0.022900426749122182 -0.0017063761741334016 0 -0.02301476620380145 -0.0027038508610499759 0 -0.022397542128538249 -0.0021618236780152865 0 -0.021699736900947675 -0.0018091815332948887 0 -0.022397542128538249 -0.0021618236780152865 0 -0.021786645942128719 -0.0027222868639868963 0 -0.021699736900947675 -0.0018091815332948887 0 -0.02081990938932405 -0.0020401980271810205 0 -0.021786645942128719 -0.0027222868639868963 0 -0.02301476620380145 -0.0027038508610499759 0 -0.022397542128538249 -0.0021618236780152865 0 -0.021786645942128719 -0.0027222868639868963 0 -0.021037270226159695 -0.0037955003550273095 0 -0.021786645942128719 -0.0027222868639868963 0 -0.022327919101090225 -0.0035334148830426489 0 -0.021037270226159695 -0.0037955003550273095 0 -0.022327919101090225 -0.0035334148830426489 0 -0.02195308389915937 -0.0043393891948687469 0 -0.02301476620380145 -0.0027038508610499759 0 -0.021786645942128719 -0.0027222868639868963 0 -0.022327919101090225 -0.0035334148830426489 0 -0.022327919101090225 -0.0035334148830426489 0 -0.023530817656469832 -0.003601929869530983 0 -0.02297107340285796 -0.0040905345194953919 0 -0.02301476620380145 -0.0027038508610499759 0 -0.022327919101090225 -0.0035334148830426489 0 -0.023530817656469832 -0.003601929869530983 0 -0.024253428047716335 -0.0029717068637150515 0 -0.02301476620380145 -0.0027038508610499759 0 -0.023530817656469832 -0.003601929869530983 0 -0.024741332657835111 -0.0040907230218564161 0 -0.023530817656469832 -0.003601929869530983 0 -0.024035951340565822 -0.0042018028632842732 0 -0.023530817656469832 -0.003601929869530983 0 -0.024035951340565822 -0.0042018028632842732 0 -0.02297107340285796 -0.0040905345194953919 0 -0.024035951340565822 -0.0042018028632842732 0 -0.023443578575993544 -0.0044765729459719733 0 -0.02297107340285796 -0.0040905345194953919 0 -0.024035951340565822 -0.0042018028632842732 0 -0.023443578575993544 -0.0044765729459719733 0 -0.024457462036700597 -0.0043832209743221951 0 -0.023443578575993544 -0.0044765729459719733 0 -0.023501771620613118 -0.0047542112225986248 0 -0.024457462036700597 -0.0043832209743221951 0 -0.023443578575993544 -0.0044765729459719733 0 -0.023501771620613118 -0.0047542112225986248 0 -0.022929496283247655 -0.0047620165126244602 0 -0.023443578575993544 -0.0044765729459719733 0 -0.022714256754275196 -0.0044967299709647822 0 -0.02297107340285796 -0.0040905345194953919 0 -0.022714256754275196 -0.0044967299709647822 0 -0.022279838364774721 -0.0047219881721541051 0 -0.022929496283247655 -0.0047620165126244602 0 -0.023443578575993544 -0.0044765729459719733 0 -0.022714256754275196 -0.0044967299709647822 0 -0.022929496283247655 -0.0047620165126244602 0 -0.022714256754275196 -0.0044967299709647822 0 -0.02297107340285796 -0.0040905345194953919 0 -0.02195308389915937 -0.0043393891948687469 0 -0.022327919101090225 -0.0035334148830426489 0 -0.02297107340285796 -0.0040905345194953919 0 -0.02195308389915937 -0.0043393891948687469 0 -0.02195308389915937 -0.0043393891948687469 0 -0.021672132130829799 -0.004851813904087213 0 -0.020784832836885463 -0.0045533607732448208 0 -0.02195308389915937 -0.0043393891948687469 0 -0.022279838364774721 -0.0047219881721541051 0 -0.021672132130829799 -0.004851813904087213 0 -0.022714256754275196 -0.0044967299709647822 0 -0.02195308389915937 -0.0043393891948687469 0 -0.022279838364774721 -0.0047219881721541051 0 -0.022279838364774721 -0.0047219881721541051 0 -0.021672132130829799 -0.004851813904087213 0 -0.022070978516349114 -0.0049073289826809478 0 -0.021672132130829799 -0.004851813904087213 0 -0.021804850853641557 -0.004943259119399134 0 -0.021401059367210793 -0.0049463804228073024 0 -0.021804850853641557 -0.004943259119399134 0 -0.022070978516349114 -0.0049073289826809478 0 -0.022010952889817834 -0.0049996274271002211 0 -0.021672132130829799 -0.004851813904087213 0 -0.021804850853641557 -0.004943259119399134 0 -0.022070978516349114 -0.0049073289826809478 0 -0.022070978516349114 -0.0049073289826809478 0 -0.022455987253903836 -0.004973410898688255 0 -0.022010952889817834 -0.0049996274271002211 0 -0.022455987253903836 -0.004973410898688255 0 -0.023020315265896877 -0.0049511205730103222 0 -0.022797934289116473 -0.0050923686262749502 0 -0.022455987253903836 -0.004973410898688255 0 -0.023020315265896877 -0.0049511205730103222 0 -0.022929496283247655 -0.0047620165126244602 0 -0.023020315265896877 -0.0049511205730103222 0 -0.023501771620613118 -0.0047542112225986248 0 -0.022929496283247655 -0.0047620165126244602 0 -0.022279838364774721 -0.0047219881721541051 0 -0.022455987253903836 -0.004973410898688255 0 -0.022929496283247655 -0.0047620165126244602 0 -0.022279838364774721 -0.0047219881721541051 0 -0.022070978516349114 -0.0049073289826809478 0 -0.022455987253903836 -0.004973410898688255 0 -0.019405756278487868 -0.0044522375703714709 0 -0.019358801221990993 -0.0046125154689567807 0 -0.018850550549820592 -0.0044929687618613387 0 -0.019405756278487868 -0.0044522375703714709 0 -0.019358801221990993 -0.0046125154689567807 0 -0.019978292147962734 -0.0047079739637713716 0 -0.019378011969569422 -0.0040571313687827824 0 -0.019405756278487868 -0.0044522375703714709 0 -0.018853070002385636 -0.0043806175970557979 0 -0.019378011969569422 -0.0040571313687827824 0 -0.019405756278487868 -0.0044522375703714709 0 -0.020122661828676142 -0.0042288891655111339 0 -0.019405756278487868 -0.0044522375703714709 0 -0.020122661828676142 -0.0042288891655111339 0 -0.019978292147962734 -0.0047079739637713716 0 -0.021037270226159695 -0.0037955003550273095 0 -0.02195308389915937 -0.0043393891948687469 0 -0.020784832836885463 -0.0045533607732448208 0 -0.020122661828676142 -0.0042288891655111339 0 -0.020784832836885463 -0.0045533607732448208 0 -0.019978292147962734 -0.0047079739637713716 0 -0.021037270226159695 -0.0037955003550273095 0 -0.020122661828676142 -0.0042288891655111339 0 -0.020784832836885463 -0.0045533607732448208 0 -0.021672132130829799 -0.004851813904087213 0 -0.020784832836885463 -0.0045533607732448208 0 -0.021401059367210793 -0.0049463804228073024 0 -0.020801199009078359 -0.00452770399954972 0 -0.02089547575411926 -0.0048576077169223538 0 -0.020393770557080231 -0.0048661906613574136 0 -0.020010391960874695 -0.0048166967249817566 0 -0.020272687243769537 -0.0048168025078663308 0 -0.020784832836885463 -0.0045533607732448208 0 -0.020393770557080231 -0.0048661906613574136 0 -0.019978292147962734 -0.0047079739637713716 0 -0.019978292147962734 -0.0047079739637713716 0 -0.020010391960874695 -0.0048166967249817566 0 -0.019664337714447585 -0.0047419756662536571 0 -0.020393770557080231 -0.0048661906613574136 0 -0.019978292147962734 -0.0047079739637713716 0 -0.020010391960874695 -0.0048166967249817566 0 -0.020010391960874695 -0.0048166967249817566 0 -0.019653824669926691 -0.0048196119692403457 0 -0.019664337714447585 -0.0047419756662536571 0 -0.019358801221990993 -0.0046125154689567807 0 -0.019978292147962734 -0.0047079739637713716 0 -0.019664337714447585 -0.0047419756662536571 0 -0.019358801221990993 -0.0046125154689567807 0 -0.019664337714447585 -0.0047419756662536571 0 -0.019197058227486678 -0.0046902402852074827 0 -0.020113708029266021 -0.0048599902170425738 0 -0.020067807764580965 -0.0049490653795961504 0 -0.019868783025544859 -0.0049472734401523151 0 -0.020113708029266021 -0.0048599902170425738 0 -0.020290562216372474 -0.0047690676623502069 0 -0.020309133442186326 -0.004748044220991109 0 -0.020113708029266021 -0.0048599902170425738 0 -0.019980916618626939 -0.0048656367690666476 0 -0.020290562216372474 -0.0047690676623502069 0 -0.020113708029266021 -0.0048599902170425738 0 -0.019980916618626939 -0.0048656367690666476 0 -0.019868783025544859 -0.0049472734401523151 0 -0.019980916618626939 -0.0048656367690666476 0 -0.01962247988725855 -0.0049179989965234035 0 -0.019868783025544859 -0.0049472734401523151 0 -0.020010391960874695 -0.0048166967249817566 0 -0.019653824669926691 -0.0048196119692403457 0 -0.019980916618626939 -0.0048656367690666476 0 -0.019653824669926691 -0.0048196119692403457 0 -0.019980916618626939 -0.0048656367690666476 0 -0.01962247988725855 -0.0049179989965234035 0 -0.020010391960874695 -0.0048166967249817566 0 -0.019980916618626939 -0.0048656367690666476 0 -0.020272687243769537 -0.0048168025078663308 0 -0.020272687243769537 -0.0048168025078663308 0 -0.020290562216372474 -0.0047690676623502069 0 -0.020519871022465861 -0.0046004002354776844 0 -0.019980916618626939 -0.0048656367690666476 0 -0.020272687243769537 -0.0048168025078663308 0 -0.020290562216372474 -0.0047690676623502069 0 -0.020272687243769537 -0.0048168025078663308 0 -0.020380938418004136 -0.0047267677437691563 0 -0.020519871022465861 -0.0046004002354776844 0 -0.020393770557080231 -0.0048661906613574136 0 -0.020272687243769537 -0.0048168025078663308 0 -0.020380938418004136 -0.0047267677437691563 0 -0.02089547575411926 -0.0048576077169223538 0 -0.021012541176522702 -0.004741382224214833 0 -0.021401059367210793 -0.0049463804228073024 0 -0.02164635681663693 -0.0047157771878008261 0 -0.021631833820573883 -0.004848098865977972 0 -0.02164635681663693 -0.0047157771878008261 0 -0.021631833820573883 -0.004848098865977972 0 -0.021560020622258865 -0.0045316563400566411 0 -0.02108750921841725 -0.0043812815728755221 0 -0.021560020622258865 -0.0045316563400566411 0 -0.021439502561239873 -0.0042768885142635662 0 -0.02164635681663693 -0.0047157771878008261 0 -0.02108750921841725 -0.0043812815728755221 0 -0.021560020622258865 -0.0045316563400566411 0 -0.021012541176522702 -0.004741382224214833 0 -0.021077234343872542 -0.0044640744800309483 0 -0.02108750921841725 -0.0043812815728755221 0 -0.021439502561239873 -0.0042768885142635662 0 -0.021183684963402116 -0.0043360289636866335 0 -0.02108750921841725 -0.0043812815728755221 0 -0.021183684963402116 -0.0043360289636866335 0 -0.020914127539309695 -0.0043689049760003299 0 -0.02108750921841725 -0.0043812815728755221 0 -0.020696025726992844 -0.0044323157447946644 0 -0.020914127539309695 -0.0043689049760003299 0 -0.020696025726992844 -0.0044323157447946644 0 -0.020656961256276085 -0.0043235402956828903 0 -0.020914127539309695 -0.0043689049760003299 0 -0.02108750921841725 -0.0043812815728755221 0 -0.020696025726992844 -0.0044323157447946644 0 -0.020519871022465861 -0.0046004002354776844 0 -0.020380938418004136 -0.0047267677437691563 0 -0.02108750921841725 -0.0043812815728755221 0 -0.020519871022465861 -0.0046004002354776844 0 -0.020696025726992844 -0.0044323157447946644 0 -0.020519871022465861 -0.0046004002354776844 0 -0.0204744061836045 -0.0045933551337788703 0 -0.020290562216372474 -0.0047690676623502069 0 -0.020519871022465861 -0.0046004002354776844 0 -0.0204744061836045 -0.0045933551337788703 0 -0.020290562216372474 -0.0047690676623502069 0 -0.0204744061836045 -0.0045933551337788703 0 -0.020309133442186326 -0.004748044220991109 0 -0.0204744061836045 -0.0045933551337788703 0 -0.020527266364372816 -0.0044804808642641162 0 -0.020309133442186326 -0.004748044220991109 0 -0.0204744061836045 -0.0045933551337788703 0 -0.020577065039483165 -0.0044223312347151855 0 -0.020527266364372816 -0.0044804808642641162 0 -0.020696025726992844 -0.0044323157447946644 0 -0.0204744061836045 -0.0045933551337788703 0 -0.020577065039483165 -0.0044223312347151855 0 -0.020696025726992844 -0.0044323157447946644 0 -0.020577065039483165 -0.0044223312347151855 0 -0.020656961256276085 -0.0043235402956828903 0 -0.020656961256276085 -0.0043235402956828903 0 -0.020449535703784258 -0.0042242740746662828 0 -0.020512355414702407 -0.0043144834933336066 0 -0.020656961256276085 -0.0043235402956828903 0 -0.020571066044566527 -0.0043216610377593443 0 -0.020449535703784258 -0.0042242740746662828 0 -0.020577065039483165 -0.0044223312347151855 0 -0.020656961256276085 -0.0043235402956828903 0 -0.020571066044566527 -0.0043216610377593443 0 -0.020577065039483165 -0.0044223312347151855 0 -0.020571066044566527 -0.0043216610377593443 0 -0.020527266364372816 -0.0044804808642641162 0 -0.020571066044566527 -0.0043216610377593443 0 -0.020527266364372816 -0.0044804808642641162 0 -0.0204295181936472 -0.00449666638549499 0 -0.020686782025649369 -0.0043440757340106034 0 -0.019561386700844695 -0.0042629605072925921 0 -0.020571066044566527 -0.0043216610377593443 0 -0.020255859208782416 -0.0040838189236511793 0 -0.020207226046673576 -0.0038472194645457567 0 -0.020571066044566527 -0.0043216610377593443 0 -0.020449535703784258 -0.0042242740746662828 0 -0.020255859208782416 -0.0040838189236511793 0 -0.020449535703784258 -0.0042242740746662828 0 -0.020255859208782416 -0.0040838189236511793 0 -0.020512355414702407 -0.0043144834933336066 0 -0.020255859208782416 -0.0040838189236511793 0 -0.020207226046673576 -0.0038472194645457567 0 -0.019887360743592319 -0.0036945594150467431 0 -0.020437714504660573 -0.0045140299109670285 0 -0.020175177274750388 -0.0045774082506553999 0 -0.020527266364372816 -0.0044804808642641162 0 -0.020309133442186326 -0.004748044220991109 0 -0.020067807764580965 -0.0049490653795961504 0 -0.020527266364372816 -0.0044804808642641162 0 -0.0204295181936472 -0.00449666638549499 0 -0.020366624013746011 -0.0042966938149191182 0 -0.020113708029266021 -0.0048599902170425738 0 -0.020309133442186326 -0.004748044220991109 0 -0.020067807764580965 -0.0049490653795961504 0 -0.021800934255093884 -0.00499114629702712 0 -0.022273855687684772 -0.0052660352482068315 0 -0.02224544698281648 -0.0050393092448827986 0 -0.021800934255093884 -0.00499114629702712 0 -0.021221472620025449 -0.0047487796540757118 0 -0.02167033778997151 -0.0045219910303450749 0 -0.021774701574631086 -0.0048471298683845209 0 -0.022608198850136228 -0.003451737664130513 0 -0.022608198850136228 -0.003451737664130513 0 -0.023405392457335469 -0.0045435205008072122 0 -0.024260796702288312 -0.0030875719368798631 0 -0.02404354079068147 -0.0036461480273750793 0 -0.023790058535490519 -0.0035492347799519525 0 -0.022455987253903836 -0.004973410898688255 0 -0.022797934289116473 -0.0050923686262749502 0 -0.02224544698281648 -0.0050393092448827986 0 -0.022273855687684772 -0.0052660352482068315 0 -0.022797934289116473 -0.0050923686262749502 0 -0.02224544698281648 -0.0050393092448827986 0 -0.021800934255093884 -0.00499114629702712 0 -0.022010952889817834 -0.0049996274271002211 0 -0.02224544698281648 -0.0050393092448827986 0 -0.022455987253903836 -0.004973410898688255 0 -0.022010952889817834 -0.0049996274271002211 0 -0.02224544698281648 -0.0050393092448827986 0 -0.021804850853641557 -0.004943259119399134 0 -0.022010952889817834 -0.0049996274271002211 0 -0.021740387583357484 -0.0048205261049239076 0 -0.021804850853641557 -0.004943259119399134 0 -0.021401059367210793 -0.0049463804228073024 0 -0.021631833820573883 -0.004848098865977972 0 -0.021804850853641557 -0.004943259119399134 0 -0.021631833820573883 -0.004848098865977972 0 -0.021740387583357484 -0.0048205261049239076 0 -0.021740387583357484 -0.0048205261049239076 0 -0.021560020622258865 -0.0045316563400566411 0 -0.021646932397525818 -0.0044050848347617754 0 -0.021631833820573883 -0.004848098865977972 0 -0.021740387583357484 -0.0048205261049239076 0 -0.021560020622258865 -0.0045316563400566411 0 -0.021800934255093884 -0.00499114629702712 0 -0.021740387583357484 -0.0048205261049239076 0 -0.02167033778997151 -0.0045219910303450749 0 -0.021800934255093884 -0.00499114629702712 0 -0.022010952889817834 -0.0049996274271002211 0 -0.021740387583357484 -0.0048205261049239076 0 -0.021740387583357484 -0.0048205261049239076 0 -0.02167033778997151 -0.0045219910303450749 0 -0.021646932397525818 -0.0044050848347617754 0 -0.02167033778997151 -0.0045219910303450749 0 -0.021646932397525818 -0.0044050848347617754 0 -0.021652024057465948 -0.0039862345250547045 0 -0.021560020622258865 -0.0045316563400566411 0 -0.021646932397525818 -0.0044050848347617754 0 -0.021439502561239873 -0.0042768885142635662 0 -0.021646932397525818 -0.0044050848347617754 0 -0.021439502561239873 -0.0042768885142635662 0 -0.021652024057465948 -0.0039862345250547045 0 -0.021439502561239873 -0.0042768885142635662 0 -0.021652024057465948 -0.0039862345250547045 0 -0.021485605432182132 -0.0041425158714929258 0 -0.0215154444817354 -0.0034669520275179794 0 -0.021859810350171059 -0.0015962683783083212 0 -0.02274994336441576 -0.0026185070420438289 0 -0.021498865284365936 -0.0033795943455085663 0 -0.021656434354657649 -0.0028278780268016879 0 -0.021652024057465948 -0.0039862345250547045 0 -0.0215154444817354 -0.0034669520275179794 0 -0.021315721928267223 -0.0042203943315342546 0 -0.02167033778997151 -0.0045219910303450749 0 -0.021652024057465948 -0.0039862345250547045 0 -0.021315721928267223 -0.0042203943315342546 0 -0.021221472620025449 -0.0047487796540757118 0 -0.02167033778997151 -0.0045219910303450749 0 -0.021315721928267223 -0.0042203943315342546 0 -0.022608198850136228 -0.003451737664130513 0 -0.021656434354657649 -0.0028278780268016879 0 -0.022383676568253959 -0.00032351978048141656 0 -0.023039425674905412 -0.0013732806646385815 0 -0.024000006844725977 -0.00083284694236094203 0 -0.022608198850136228 -0.003451737664130513 0 -0.024487732646362212 -0.0017185916645358892 0 -0.022383676568253959 -0.00032351978048141656 0 -0.021859810350171059 -0.0015962683783083212 0 -0.023039425674905412 -0.0013732806646385815 0 -0.021859810350171059 -0.0015962683783083212 0 -0.023039425674905412 -0.0013732806646385815 0 -0.02274994336441576 -0.0026185070420438289 0 -0.02274994336441576 -0.0026185070420438289 0 -0.023682185782042439 -0.0025000578273879207 0 -0.024066154671851653 -0.0014398684427151154 0 -0.023039425674905412 -0.0013732806646385815 0 -0.02274994336441576 -0.0026185070420438289 0 -0.024066154671851653 -0.0014398684427151154 0 -0.023682185782042439 -0.0025000578273879207 0 -0.024812552442621819 -0.0013872854160275976 0 -0.024139022802200961 -0.003560929082814366 0 -0.023682185782042439 -0.0025000578273879207 0 -0.024066154671851653 -0.0014398684427151154 0 -0.024812552442621819 -0.0013872854160275976 0 -0.024812552442621819 -0.0013872854160275976 0 -0.025766103188193015 -0.00095886930302016863 0 -0.024139022802200961 -0.003560929082814366 0 -0.024812552442621819 -0.0013872854160275976 0 -0.025657282343065736 -0.00082426677128500173 0 -0.025766103188193015 -0.00095886930302016863 0 -0.025769564922567847 -0.0015091071021177246 0 -0.02584907085298754 -0.0018703764484937701 0 -0.02627028993554149 -0.0018061193029758609 0 -0.02572830472254967 -0.0011364728695033093 0 -0.024487732646362212 -0.0017185916645358892 0 -0.024812552442621819 -0.0013872854160275976 0 -0.025657282343065736 -0.00082426677128500173 0 -0.024094149950865607 -0.00032606137366816867 0 -0.025769564922567847 -0.0015091071021177246 0 -0.02584907085298754 -0.0018703764484937701 0 -0.025584163877528435 -0.0019392426782215626 0 -0.023039425674905412 -0.0013732806646385815 0 -0.024066154671851653 -0.0014398684427151154 0 -0.024000006844725977 -0.00083284694236094203 0 -0.024066154671851653 -0.0014398684427151154 0 -0.024812552442621819 -0.0013872854160275976 0 -0.024094149950865607 -0.00032606137366816867 0 -0.024143672787276662 -0.001035666216110666 0 -0.024487732646362212 -0.0017185916645358892 0 -0.024487732646362212 -0.0017185916645358892 0 -0.025054993177070613 -0.0032699785950773106 0 -0.024260796702288312 -0.0030875719368798631 0 -0.023758400554754481 -0.0028909660389681928 0 -0.023790058535490519 -0.0035492347799519525 0 -0.02627028993554149 -0.0018061193029758609 0 -0.025727621808425118 -0.0023113528053086713 0 -0.026115290530039043 -0.0028513884375080067 0 -0.02584907085298754 -0.0018703764484937701 0 -0.02627028993554149 -0.0018061193029758609 0 -0.025727621808425118 -0.0023113528053086713 0 -0.02584907085298754 -0.0018703764484937701 0 -0.025727621808425118 -0.0023113528053086713 0 -0.025584163877528435 -0.0019392426782215626 0 -0.026115290530039043 -0.0028513884375080067 0 -0.025444959226187263 -0.0030314553974562794 0 -0.025544544092279048 -0.0034935825809068463 0 -0.025727621808425118 -0.0023113528053086713 0 -0.026115290530039043 -0.0028513884375080067 0 -0.025444959226187263 -0.0030314553974562794 0 -0.02519891804057214 -0.0023742780526370888 0 -0.024865065477536308 -0.002610506630781142 0 -0.025042723888411899 -0.0033724942910568112 0 -0.025727621808425118 -0.0023113528053086713 0 -0.025444959226187263 -0.0030314553974562794 0 -0.02519891804057214 -0.0023742780526370888 0 -0.025444959226187263 -0.0030314553974562794 0 -0.02519891804057214 -0.0023742780526370888 0 -0.025042723888411899 -0.0033724942910568112 0 -0.025727621808425118 -0.0023113528053086713 0 -0.02519891804057214 -0.0023742780526370888 0 -0.025584163877528435 -0.0019392426782215626 0 -0.02519891804057214 -0.0023742780526370888 0 -0.025584163877528435 -0.0019392426782215626 0 -0.025357280648401741 -0.0016538281210545442 0 -0.02519891804057214 -0.0023742780526370888 0 -0.024936255332504965 -0.0016015228565520868 0 -0.024877115328633972 -0.0021018286584479047 0 -0.02519891804057214 -0.0023742780526370888 0 -0.024877115328633972 -0.0021018286584479047 0 -0.024865065477536308 -0.002610506630781142 0 -0.02519891804057214 -0.0023742780526370888 0 -0.024936255332504965 -0.0016015228565520868 0 -0.025357280648401741 -0.0016538281210545442 0 -0.024936255332504965 -0.0016015228565520868 0 -0.02520206672327226 -0.00091007559421447753 0 -0.024538345908516244 -0.00083540637372768434 0 -0.024936255332504965 -0.0016015228565520868 0 -0.025357280648401741 -0.0016538281210545442 0 -0.02520206672327226 -0.00091007559421447753 0 -0.025769564922567847 -0.0015091071021177246 0 -0.025357280648401741 -0.0016538281210545442 0 -0.02520206672327226 -0.00091007559421447753 0 -0.025769564922567847 -0.0015091071021177246 0 -0.025584163877528435 -0.0019392426782215626 0 -0.025357280648401741 -0.0016538281210545442 0 -0.025766103188193015 -0.00095886930302016863 0 -0.02520206672327226 -0.00091007559421447753 0 -0.025256288089203226 0.00039914032840733711 0 -0.02572830472254967 -0.0011364728695033093 0 -0.025191222526150088 -0.00092840875477704157 0 -0.025657282343065736 -0.00082426677128500173 0 -0.025766103188193015 -0.00095886930302016863 0 -0.02520206672327226 -0.00091007559421447753 0 -0.025766103188193015 -0.00095886930302016863 0 -0.025834256268140281 0.00064340306407803744 0 -0.025256288089203226 0.00039914032840733711 0 -0.02520206672327226 -0.00091007559421447753 0 -0.024538345908516244 -0.00083540637372768434 0 -0.024829574543168215 9.9863404614119339e-05 0 -0.02520206672327226 -0.00091007559421447753 0 -0.025256288089203226 0.00039914032840733711 0 -0.024829574543168215 9.9863404614119339e-05 0 -0.024538345908516244 -0.00083540637372768434 0 -0.023971837453268006 -0.00055117399339005421 0 -0.024487551706029186 -0.0017166301078632433 0 -0.024538345908516244 -0.00083540637372768434 0 -0.023971837453268006 -0.00055117399339005421 0 -0.024235166899035834 0.00047602700550166294 0 -0.024538345908516244 -0.00083540637372768434 0 -0.024829574543168215 9.9863404614119339e-05 0 -0.024235166899035834 0.00047602700550166294 0 -0.023971837453268006 -0.00055117399339005421 0 -0.023660399636537845 -0.0009773375975805187 0 -0.02289799160112771 0.00080856596524725378 0 -0.023971837453268006 -0.00055117399339005421 0 -0.024487551706029186 -0.0017166301078632433 0 -0.023660399636537845 -0.0009773375975805187 0 -0.024487551706029186 -0.0017166301078632433 0 -0.023660399636537845 -0.0009773375975805187 0 -0.024930220628914909 -0.0018936864625342196 0 -0.024936255332504965 -0.0016015228565520868 0 -0.024487551706029186 -0.0017166301078632433 0 -0.024877115328633972 -0.0021018286584479047 0 -0.024936255332504965 -0.0016015228565520868 0 -0.024538345908516244 -0.00083540637372768434 0 -0.024487551706029186 -0.0017166301078632433 0 -0.025945174792757372 -0.00062924662825180895 0 -0.024999202256911889 -0.0010769322418409596 0 -0.024999965990556879 0.00041020215094982065 0 -0.024819012693576451 -0.00071639579310464954 0 -0.024898860738624802 -0.0017017497979010131 0 -0.025945174792757372 -0.00062924662825180895 0 -0.024999202256911889 -0.0010769322418409596 0 -0.024930220628914909 -0.0018936864625342196 0 -0.024999202256911889 -0.0010769322418409596 0 -0.024930220628914909 -0.0018936864625342196 0 -0.024999511424978318 -0.0025635362554835704 0 -0.024953107378211631 -0.0028988467635458668 0 -0.024827435257286437 -0.0023977909684912819 0 -0.024888802319417827 -0.0030721280001108678 0 -0.024930220628914909 -0.0018936864625342196 0 -0.024953107378211631 -0.0028988467635458668 0 -0.024827435257286437 -0.0023977909684912819 0 -0.024930220628914909 -0.0018936864625342196 0 -0.024953107378211631 -0.0028988467635458668 0 -0.024999511424978318 -0.0025635362554835704 0 -0.024487551706029186 -0.0017166301078632433 0 -0.024877115328633972 -0.0021018286584479047 0 -0.024865065477536308 -0.002610506630781142 0 -0.024487551706029186 -0.0017166301078632433 0 -0.024930220628914909 -0.0018936864625342196 0 -0.024827435257286437 -0.0023977909684912819 0 -0.024487551706029186 -0.0017166301078632433 0 -0.024827435257286437 -0.0023977909684912819 0 -0.024865065477536308 -0.002610506630781142 0 -0.024827435257286437 -0.0023977909684912819 0 -0.024865065477536308 -0.002610506630781142 0 -0.024888802319417827 -0.0030721280001108678 0 -0.024865065477536308 -0.002610506630781142 0 -0.02490855770602934 -0.0031607485844699071 0 -0.024888802319417827 -0.0030721280001108678 0 -0.024865065477536308 -0.002610506630781142 0 -0.02490855770602934 -0.0031607485844699071 0 -0.025042723888411899 -0.0033724942910568112 0 -0.02490855770602934 -0.0031607485844699071 0 -0.024870938938666844 -0.0036234435512888922 0 -0.025042723888411899 -0.0033724942910568112 0 -0.02490855770602934 -0.0031607485844699071 0 -0.024888802319417827 -0.0030721280001108678 0 -0.024870938938666844 -0.0036234435512888922 0 -0.024888802319417827 -0.0030721280001108678 0 -0.024870938938666844 -0.0036234435512888922 0 -0.024881858703765983 -0.0036098391046128311 0 -0.024870938938666844 -0.0036234435512888922 0 -0.024892972410147124 -0.0039634345986733184 0 -0.025042723888411899 -0.0033724942910568112 0 -0.024953107378211631 -0.0028988467635458668 0 -0.024881858703765983 -0.0036098391046128311 0 -0.024998444397706848 -0.0040477475281444587 0 -0.024953107378211631 -0.0028988467635458668 0 -0.024999511424978318 -0.0025635362554835704 0 -0.024998444397706848 -0.0040477475281444587 0 -0.024953107378211631 -0.0028988467635458668 0 -0.024888802319417827 -0.0030721280001108678 0 -0.024881858703765983 -0.0036098391046128311 0 -0.024870938938666844 -0.0036234435512888922 0 -0.024881858703765983 -0.0036098391046128311 0 -0.024913045050452508 -0.0040262543205494593 0 -0.024881858703765983 -0.0036098391046128311 0 -0.024760291953074744 -0.0039921302578311444 0 -0.024913045050452508 -0.0040262543205494593 0 -0.024998444397706848 -0.0040477475281444587 0 -0.024760291953074744 -0.0039921302578311444 0 -0.024384667615678767 -0.0044083487882663553 0 -0.024881858703765983 -0.0036098391046128311 0 -0.024998444397706848 -0.0040477475281444587 0 -0.024760291953074744 -0.0039921302578311444 0 -0.024999943626597954 -0.0040500792416629404 0 -0.024926683869777883 -0.0049279276742230068 0 -0.025000004670243419 -0.0040498252313127822 0 -0.024999989190775972 -0.0052639910621258062 0 -0.025424716817599016 -0.0053582870936684989 0 -0.024760291953074744 -0.0039921302578311444 0 -0.024384667615678767 -0.0044083487882663553 0 -0.024913045050452508 -0.0040262543205494593 0 -0.024384667615678767 -0.0044083487882663553 0 -0.024913045050452508 -0.0040262543205494593 0 -0.024929874233220201 -0.0050849288951642403 0 -0.024913045050452508 -0.0040262543205494593 0 -0.024929874233220201 -0.0050849288951642403 0 -0.025754266206123068 -0.0054538910507485657 0 -0.024628387247191231 -0.0060620464907574821 0 -0.024384667615678767 -0.0044083487882663553 0 -0.024929874233220201 -0.0050849288951642403 0 -0.025696933544992882 -0.0067213275395581569 0 -0.024999900577818406 -0.0064783021912778261 0 -0.025424716817599016 -0.0053582870936684989 0 -0.024999900577818406 -0.0064783021912778261 0 -0.024999989190775972 -0.0052639910621258062 0 -0.025424716817599016 -0.0053582870936684989 0 -0.025178755914225189 -0.0063582514647408783 0 -0.024926683869777883 -0.0049279276742230068 0 -0.024892972410147124 -0.0039634345986733184 0 -0.024772678661610811 -0.0040313027810062645 0 -0.02476405913354153 -0.0042822033982275248 0 -0.024870938938666844 -0.0036234435512888922 0 -0.024892972410147124 -0.0039634345986733184 0 -0.024772678661610811 -0.0040313027810062645 0 -0.024870938938666844 -0.0036234435512888922 0 -0.024913045050452508 -0.0040262543205494593 0 -0.024772678661610811 -0.0040313027810062645 0 -0.024919131539172981 -0.004098672177533581 0 -0.02515382352908074 -0.0048436763706491406 0 -0.024913045050452508 -0.0040262543205494593 0 -0.024772678661610811 -0.0040313027810062645 0 -0.024614557177235725 -0.0042201920846206033 0 -0.025220696543645012 -0.005783265894427167 0 -0.024929874233220201 -0.0050849288951642403 0 -0.025754266206123068 -0.0054538910507485657 0 -0.024772678661610811 -0.0040313027810062645 0 -0.024614557177235725 -0.0042201920846206033 0 -0.02476405913354153 -0.0042822033982275248 0 -0.024909158828931757 -0.0046426504070770707 0 -0.02476405913354153 -0.0042822033982275248 0 -0.025012482047202907 -0.0042979637941042018 0 -0.024892972410147124 -0.0039634345986733184 0 -0.02476405913354153 -0.0042822033982275248 0 -0.025012482047202907 -0.0042979637941042018 0 -0.024892972410147124 -0.0039634345986733184 0 -0.025077727793455611 -0.0040329150627488788 0 -0.025012482047202907 -0.0042979637941042018 0 -0.025077727793455611 -0.0040329150627488788 0 -0.025012482047202907 -0.0042979637941042018 0 -0.025068132846398583 -0.0042454202658911569 0 -0.025077727793455611 -0.0040329150627488788 0 -0.025068132846398583 -0.0042454202658911569 0 -0.025166644527190814 -0.0041105696422324995 0 -0.025012482047202907 -0.0042979637941042018 0 -0.02501916029642379 -0.0043493314494850539 0 -0.025068132846398583 -0.0042454202658911569 0 -0.024909158828931757 -0.0046426504070770707 0 -0.025012482047202907 -0.0042979637941042018 0 -0.02501916029642379 -0.0043493314494850539 0 -0.024741332657835111 -0.0040907230218564161 0 -0.02501916029642379 -0.0043493314494850539 0 -0.024811295545567956 -0.0042394878212680702 0 -0.02501916029642379 -0.0043493314494850539 0 -0.024811295545567956 -0.0042394878212680702 0 -0.025068132846398583 -0.0042454202658911569 0 -0.024741332657835111 -0.0040907230218564161 0 -0.024035951340565822 -0.0042018028632842732 0 -0.024811295545567956 -0.0042394878212680702 0 -0.024035951340565822 -0.0042018028632842732 0 -0.024811295545567956 -0.0042394878212680702 0 -0.024457462036700597 -0.0043832209743221951 0 -0.024457462036700597 -0.0043832209743221951 0 -0.025068278107768103 -0.0043481866111049899 0 -0.025271869047789587 -0.0044357612142382511 0 -0.024811295545567956 -0.0042394878212680702 0 -0.024457462036700597 -0.0043832209743221951 0 -0.024981739071788269 -0.0042980049670340026 0 -0.024457462036700597 -0.0043832209743221951 0 -0.025068278107768103 -0.0043481866111049899 0 -0.024981739071788269 -0.0042980049670340026 0 -0.024811295545567956 -0.0042394878212680702 0 -0.025068132846398583 -0.0042454202658911569 0 -0.024981739071788269 -0.0042980049670340026 0 -0.025068278107768103 -0.0043481866111049899 0 -0.024981739071788269 -0.0042980049670340026 0 -0.025166644527190814 -0.0041105696422324995 0 -0.025068132846398583 -0.0042454202658911569 0 -0.024981739071788269 -0.0042980049670340026 0 -0.025166644527190814 -0.0041105696422324995 0 -0.025166644527190814 -0.0041105696422324995 0 -0.025315844861962838 -0.0039347557209629402 0 -0.025254219891622735 -0.0036879459650872586 0 -0.025068278107768103 -0.0043481866111049899 0 -0.025166644527190814 -0.0041105696422324995 0 -0.025315844861962838 -0.0039347557209629402 0 -0.025315844861962838 -0.0039347557209629402 0 -0.025684822561600183 -0.0038992202099285404 0 -0.025544544092279048 -0.0034935825809068463 0 -0.025315844861962838 -0.0039347557209629402 0 -0.025544544092279048 -0.0034935825809068463 0 -0.025254219891622735 -0.0036879459650872586 0 -0.024454264597126355 -0.0044144655379569969 0 -0.024472935996664565 -0.0042787234872764318 0 -0.023501771620613118 -0.0047542112225986248 0 -0.024457462036700597 -0.0043832209743221951 0 -0.023652061423173536 -0.0049280084603669384 0 -0.025033763775930772 -0.0041463443421742236 0 -0.024472935996664565 -0.0042787234872764318 0 -0.025068278107768103 -0.0043481866111049899 0 -0.025315844861962838 -0.0039347557209629402 0 -0.025684822561600183 -0.0038992202099285404 0 -0.023020315265896877 -0.0049511205730103222 0 -0.023501771620613118 -0.0047542112225986248 0 -0.023652061423173536 -0.0049280084603669384 0 -0.023020315265896877 -0.0049511205730103222 0 -0.022797934289116473 -0.0050923686262749502 0 -0.023652061423173536 -0.0049280084603669384 0 -0.02404354079068147 -0.0036461480273750793 0 -0.023790058535490519 -0.0035492347799519525 0 -0.023831854359428958 -0.0042037471650116474 0 -0.025054993177070613 -0.0032699785950773106 0 -0.024472935996664565 -0.0042787234872764318 0 -0.026115290530039043 -0.0028513884375080067 0 -0.025684822561600183 -0.0038992202099285404 0 -0.025544544092279048 -0.0034935825809068463 0 -0.023405392457335469 -0.0045435205008072122 0 -0.024472935996664565 -0.0042787234872764318 0 -0.025444959226187263 -0.0030314553974562794 0 -0.025544544092279048 -0.0034935825809068463 0 -0.025254219891622735 -0.0036879459650872586 0 -0.025444959226187263 -0.0030314553974562794 0 -0.025042723888411899 -0.0033724942910568112 0 -0.025254219891622735 -0.0036879459650872586 0 -0.024892972410147124 -0.0039634345986733184 0 -0.025077727793455611 -0.0040329150627488788 0 -0.025042723888411899 -0.0033724942910568112 0 -0.025077727793455611 -0.0040329150627488788 0 -0.025042723888411899 -0.0033724942910568112 0 -0.025254219891622735 -0.0036879459650872586 0 -0.025077727793455611 -0.0040329150627488788 0 -0.025166644527190814 -0.0041105696422324995 0 -0.025254219891622735 -0.0036879459650872586 0 -0.0049481863051486349 0.0017699983427371393 0 -0.0041482844033957572 0.0014802799624957261 0 -0.0053534997717654374 3.8126572643688179e-05 0 -0.0049481863051486349 0.0017699983427371393 0 -0.0059011762907954964 0.0013657860979846071 0 -0.0053534997717654374 3.8126572643688179e-05 0 -0.0029321042372172832 0.0010936198867664052 0 -0.0058737829867107757 -0.00010904021312403739 0 -0.0066233803444960236 0.00050786498801943679 0 -0.0059011762907954964 0.0013657860979846071 0 -0.0071913965468564951 0.0020522692464820858 0 -0.0066233803444960236 0.00050786498801943679 0 -0.0059011762907954964 0.0013657860979846071 0 -0.0053534997717654374 3.8126572643688179e-05 0 -0.0056913112855270388 0.0026793054545484435 0 -0.0065363819344915223 0.0031440407261655186 0 -0.0062640663291264938 0.003574169952480632 0 -0.0059011762907954964 0.0013657860979846071 0 -0.0056913112855270388 0.0026793054545484435 0 -0.0071913965468564951 0.0020522692464820858 0 -0.0056887469310804807 0.002721026173660916 0 -0.0069081062872323037 0.0025725722901453496 0 -0.0049481863051486349 0.0017699983427371393 0 -0.0059011762907954964 0.0013657860979846071 0 -0.0056913112855270388 0.0026793054545484435 0 -0.0049481863051486349 0.0017699983427371393 0 -0.0056913112855270388 0.0026793054545484435 0 -0.0047875397635117316 0.0028159921934610603 0 -0.0056913112855270388 0.0026793054545484435 0 -0.0047875397635117316 0.0028159921934610603 0 -0.005401408763812344 0.0035429784281135451 0 -0.0047875397635117316 0.0028159921934610603 0 -0.0039668859129258129 0.0024984681291311916 0 -0.0041144454247425445 0.0032587446198518179 0 -0.0047875397635117316 0.0028159921934610603 0 -0.0044525571890699093 0.0021288870870433776 0 -0.0039668859129258129 0.0024984681291311916 0 -0.0044525571890699093 0.0021288870870433776 0 -0.0039668859129258129 0.0024984681291311916 0 -0.0041482844033957572 0.0014802799624957261 0 -0.0049481863051486349 0.0017699983427371393 0 -0.0047875397635117316 0.0028159921934610603 0 -0.0044525571890699093 0.0021288870870433776 0 -0.0039668859129258129 0.0024984681291311916 0 -0.0034254364938151346 0.002336690717471676 0 -0.0041482844033957572 0.0014802799624957261 0 -0.0035530959136194648 0.0027980743519030729 0 -0.0039668859129258129 0.0024984681291311916 0 -0.0034254364938151346 0.002336690717471676 0 -0.0035530959136194648 0.0027980743519030729 0 -0.0039668859129258129 0.0024984681291311916 0 -0.0041144454247425445 0.0032587446198518179 0 -0.0038590091332373808 -0.00011340552492584532 0 -0.0039713866479144135 3.5960413023934906e-05 0 -0.003726093088182851 4.1477499103029375e-05 0 -0.0029321042372172832 0.0010936198867664052 0 -0.0083532263177307584 -0.00020994664841753182 0 -0.0034254364938151346 0.002336690717471676 0 -0.0041482844033957572 0.0014802799624957261 0 -0.0029987500097415631 0.0021357228025326289 0 -0.0038590091332373808 -0.00011340552492584532 0 -0.003726093088182851 4.1477499103029375e-05 0 -0.0037422125330592664 -0.00016876341848229618 0 -0.0049481863051486349 0.0017699983427371393 0 -0.0044525571890699093 0.0021288870870433776 0 -0.0041482844033957572 0.0014802799624957261 0 -0.0039713866479144135 3.5960413023934906e-05 0 -0.0040049387127596182 -0.00026582403174965099 0 -0.0044960344792367591 -0.00030909724489271801 0 -0.0040049387127596182 -0.00026582403174965099 0 -0.0038539128128237208 -0.00061047142181512083 0 -0.0044960344792367591 -0.00030909724489271801 0 -0.0022188986007409461 -0.0016047186977565181 0 -0.0035890092379666917 -0.0013174937490744683 0 -0.0044960344792367591 -0.00030909724489271801 0 -0.0046636986264806148 -0.0026016820169118106 0 -0.0039080847501408826 -5.3427748140244354e-06 0 -0.0038526218026853549 -0.00036319593941906112 0 -0.0037982275111903803 -0.00064544297033772996 0 -0.0037422125330592664 -0.00016876341848229618 0 -0.0092242607366626334 -0.0032100336524415775 0 -0.010679404328714585 -0.0022838016098962093 0 -0.0038590091332373808 -0.00011340552492584532 0 -0.0038526218026853549 -0.00036319593941906112 0 -0.0037422125330592664 -0.00016876341848229618 0 -0.0038590091332373808 -0.00011340552492584532 0 -0.0039713866479144135 3.5960413023934906e-05 0 -0.0040049387127596182 -0.00026582403174965099 0 -0.0038590091332373808 -0.00011340552492584532 0 -0.0040049387127596182 -0.00026582403174965099 0 -0.0038526218026853549 -0.00036319593941906112 0 -0.0040049387127596182 -0.00026582403174965099 0 -0.0038526218026853549 -0.00036319593941906112 0 -0.0038539128128237208 -0.00061047142181512083 0 -0.0038526218026853549 -0.00036319593941906112 0 -0.0037982275111903803 -0.00064544297033772996 0 -0.0038539128128237208 -0.00061047142181512083 0 -0.0092242607366626334 -0.0032100336524415775 0 -0.0046636986264806148 -0.0026016820169118106 0 -0.0022757001535858561 -0.001732355532314373 0 -0.002474575413754912 -0.0016084687113990172 0 -0.002522234827477089 -0.0024520962335473611 0 -0.002474575413754912 -0.0016084687113990172 0 -0.0033377802192635698 -0.0021344967506556761 0 -0.002522234827477089 -0.0024520962335473611 0 -0.0092242607366626334 -0.0032100336524415775 0 -0.0066085870778917607 -0.0049399717082828963 0 -0.008647190280455937 -0.007295133601827178 0 -0.0085522369974244811 -0.0070460920879906524 0 -0.0086003286795885443 -0.0070669719175517698 0 -0.002474575413754912 -0.0016084687113990172 0 -0.0035890092379666917 -0.0013174937490744683 0 -0.0033377802192635698 -0.0021344967506556761 0 -0.0046636986264806148 -0.0026016820169118106 0 -0.0028691486281729574 -0.0016216311170511738 0 -0.0035890092379666917 -0.0013174937490744683 0 -0.0033377802192635698 -0.0021344967506556761 0 -0.0042525930108909815 -0.0020460795676467028 0 -0.0035890092379666917 -0.0013174937490744683 0 -0.0042525930108909815 -0.0020460795676467028 0 -0.0047974264486078206 -0.0010581366869722335 0 -0.0042525930108909815 -0.0020460795676467028 0 -0.0050193632755060127 -0.0018082557580753231 0 -0.0050424111996894344 -0.0026377964947009057 0 -0.0050193632755060127 -0.0018082557580753231 0 -0.0047974264486078206 -0.0010581366869722335 0 -0.0055075639358476763 -0.0012827975654338905 0 -0.0042525930108909815 -0.0020460795676467028 0 -0.0050193632755060127 -0.0018082557580753231 0 -0.0047974264486078206 -0.0010581366869722335 0 -0.0039713866479144135 3.5960413023934906e-05 0 -0.0044960344792367591 -0.00030909724489271801 0 -0.0053534997717654374 3.8126572643688179e-05 0 -0.0035890092379666917 -0.0013174937490744683 0 -0.0047974264486078206 -0.0010581366869722335 0 -0.0044960344792367591 -0.00030909724489271801 0 -0.0047974264486078206 -0.0010581366869722335 0 -0.0053534997717654374 3.8126572643688179e-05 0 -0.0055075639358476763 -0.0012827975654338905 0 -0.0047974264486078206 -0.0010581366869722335 0 -0.0044960344792367591 -0.00030909724489271801 0 -0.0053534997717654374 3.8126572643688179e-05 0 -0.0066233803444960236 0.00050786498801943679 0 -0.0053534997717654374 3.8126572643688179e-05 0 -0.0063117818708701302 -0.00090367571731498307 0 -0.0053534997717654374 3.8126572643688179e-05 0 -0.0063117818708701302 -0.00090367571731498307 0 -0.0055075639358476763 -0.0012827975654338905 0 -0.0063117818708701302 -0.00090367571731498307 0 -0.0055075639358476763 -0.0012827975654338905 0 -0.0057866098648516285 -0.0023170883319022476 0 -0.0050193632755060127 -0.0018082557580753231 0 -0.0055075639358476763 -0.0012827975654338905 0 -0.0057866098648516285 -0.0023170883319022476 0 -0.0050193632755060127 -0.0018082557580753231 0 -0.0057866098648516285 -0.0023170883319022476 0 -0.0050424111996894344 -0.0026377964947009057 0 -0.0063117818708701302 -0.00090367571731498307 0 -0.0057866098648516285 -0.0023170883319022476 0 -0.0066188073650586031 -0.0021555835059146847 0 -0.0066188073650586031 -0.0021555835059146847 0 -0.0078756108424517923 -0.001978494421982854 0 -0.0072394245993996952 -0.00060661411170440474 0 -0.0063117818708701302 -0.00090367571731498307 0 -0.0066188073650586031 -0.0021555835059146847 0 -0.0072394245993996952 -0.00060661411170440474 0 -0.0066188073650586031 -0.0021555835059146847 0 -0.0078756108424517923 -0.001978494421982854 0 -0.0071497308378993315 -0.0031526738298495271 0 -0.0078756108424517923 -0.001978494421982854 0 -0.0081972175332334068 -0.00076558586853140635 0 -0.0093673150147865984 -0.0018921130853324095 0 -0.0078756108424517923 -0.001978494421982854 0 -0.0093673150147865984 -0.0018921130853324095 0 -0.0092277897786689159 -0.0033192390676548473 0 -0.0078756108424517923 -0.001978494421982854 0 -0.0081972175332334068 -0.00076558586853140635 0 -0.0072394245993996952 -0.00060661411170440474 0 -0.0081972175332334068 -0.00076558586853140635 0 -0.0096033507970560792 0.00039152492563770258 0 -0.0086228505795701502 0.00049885688036324194 0 -0.0081972175332334068 -0.00076558586853140635 0 -0.0077907825933389097 0.00068841541247100619 0 -0.0086228505795701502 0.00049885688036324194 0 -0.0066233803444960236 0.00050786498801943679 0 -0.0072394245993996952 -0.00060661411170440474 0 -0.0077907825933389097 0.00068841541247100619 0 -0.0081972175332334068 -0.00076558586853140635 0 -0.0072394245993996952 -0.00060661411170440474 0 -0.0077907825933389097 0.00068841541247100619 0 -0.0066233803444960236 0.00050786498801943679 0 -0.0063117818708701302 -0.00090367571731498307 0 -0.0072394245993996952 -0.00060661411170440474 0 -0.0041401778554806942 -0.00030960675870852979 0 -0.0055279400575841088 -0.0026511655300195526 0 -0.0026354671448352339 -0.0024467612408063063 0 -0.0030397253298162221 -0.0055126107158324075 0 -0.0078552720575059687 -0.00014019073533502301 0 -0.0081972175332334068 -0.00076558586853140635 0 -0.0093673150147865984 -0.0018921130853324095 0 -0.010408193549187691 -0.0010344410405357114 0 -0.011149388935198517 -0.0023701741233839685 0 -0.0093673150147865984 -0.0018921130853324095 0 -0.010408193549187691 -0.0010344410405357114 0 -0.0081972175332334068 -0.00076558586853140635 0 -0.0099966421432604678 -0.00053979372696256762 0 -0.010299127841025704 -0.0008490550179063353 0 -0.0093557434243564039 -0.00098843739015166986 0 -0.0078552720575059687 -0.00014019073533502301 0 -0.0081972175332334068 -0.00076558586853140635 0 -0.0096033507970560792 0.00039152492563770258 0 -0.0099966421432604678 -0.00053979372696256762 0 -0.0078325665657511916 0.0023758450709633031 0 -0.0078552720575059687 -0.00014019073533502301 0 -0.0062803927348355944 0.004005767105235921 0 -0.0057291645307332058 0.0049265906347254066 0 -0.0056462822898770615 0.0041327658411081198 0 -0.0096033507970560792 0.00039152492563770258 0 -0.0099966421432604678 -0.00053979372696256762 0 -0.010290755983743198 -0.00086355605211333895 0 -0.0089302817791790407 -0.00082546090133703601 0 -0.0078552720575059687 -0.00014019073533502301 0 -0.0078552720575059687 -0.00014019073533502301 0 -0.0037111122000299556 0.0013487350473890397 0 -0.0057291645307332058 0.0049265906347254066 0 -0.0050381716968634334 0.0042396759089848648 0 -0.0045701816714197423 0.0050213134734053274 0 -0.0057291645307332058 0.0049265906347254066 0 -0.0056462822898770615 0.0041327658411081198 0 -0.0050381716968634334 0.0042396759089848648 0 -0.0050381716968634334 0.0042396759089848648 0 -0.0055356107442222002 0.0033485594119586296 0 -0.0042747061098674837 0.0036942245326555771 0 -0.0054525103830737835 0.0035693938392549044 0 -0.0044734209165421561 0.0036756614370793265 0 -0.005675831582723995 0.0036766679696908495 0 -0.0051916508100152562 0.0024853408806768617 0 -0.0042747061098674837 0.0036942245326555771 0 -0.0056462822898770615 0.0041327658411081198 0 -0.0050381716968634334 0.0042396759089848648 0 -0.0055356107442222002 0.0033485594119586296 0 -0.005675831582723995 0.0036766679696908495 0 -0.0063491254673191415 0.0033732021511537536 0 -0.0068046595450326694 0.0036409310918472594 0 -0.0062803927348355944 0.004005767105235921 0 -0.0055356107442222002 0.0033485594119586296 0 -0.0068420541465863283 0.0030536604067807629 0 -0.0054525103830737835 0.0035693938392549044 0 -0.0074640572124674703 0.002735309245715834 0 -0.0062803927348355944 0.004005767105235921 0 -0.0056462822898770615 0.0041327658411081198 0 -0.0055356107442222002 0.0033485594119586296 0 -0.0078325665657511916 0.0023758450709633031 0 -0.0074640572124674703 0.002735309245715834 0 -0.0063491254673191415 0.0033732021511537536 0 -0.0051916508100152562 0.0024853408806768617 0 -0.0069443238675392415 0.0034528508044028489 0 -0.0070913768246570752 0.004587301198507328 0 -0.0069443238675392415 0.0034528508044028489 0 -0.0070454364981762585 0.0039977569096028755 0 -0.0061292565946335278 0.0035362559631934463 0 -0.0068015261533951954 0.0034617998457020659 0 -0.005675831582723995 0.0036766679696908495 0 -0.0063491254673191415 0.0033732021511537536 0 -0.0051916508100152562 0.0024853408806768617 0 -0.0066233803444960236 0.00050786498801943679 0 -0.0077907825933389097 0.00068841541247100619 0 -0.0071913965468564951 0.0020522692464820858 0 -0.0077907825933389097 0.00068841541247100619 0 -0.0088933941415143217 0.0016258178847823759 0 -0.0071913965468564951 0.0020522692464820858 0 -0.0077907825933389097 0.00068841541247100619 0 -0.0086228505795701502 0.00049885688036324194 0 -0.0088933941415143217 0.0016258178847823759 0 -0.0096033507970560792 0.00039152492563770258 0 -0.0086228505795701502 0.00049885688036324194 0 -0.0088933941415143217 0.0016258178847823759 0 -0.0074640572124674703 0.002735309245715834 0 -0.0069081062872323037 0.0025725722901453496 0 -0.006743925660811086 0.003387496132146187 0 -0.0069280777254500181 0.0034408699186247176 0 -0.0069443238675392415 0.0034528508044028489 0 -0.0069834137922196466 0.003394298003734194 0 -0.006743925660811086 0.003387496132146187 0 -0.0065363819344915223 0.0031440407261655186 0 -0.0069834137922196466 0.003394298003734194 0 -0.006743925660811086 0.003387496132146187 0 -0.0069280777254500181 0.0034408699186247176 0 -0.0063491254673191415 0.0033732021511537536 0 -0.0069280777254500181 0.0034408699186247176 0 -0.0069443238675392415 0.0034528508044028489 0 -0.0063491254673191415 0.0033732021511537536 0 -0.0068046595450326694 0.0036409310918472594 0 -0.0069280777254500181 0.0034408699186247176 0 -0.0074640572124674703 0.002735309245715834 0 -0.0071699559818463486 0.0031957118691695622 0 -0.0069443238675392415 0.0034528508044028489 0 -0.0068681154425527637 0.003671038187249872 0 -0.0070454364981762585 0.0039977569096028755 0 -0.006743925660811086 0.003387496132146187 0 -0.0069443238675392415 0.0034528508044028489 0 -0.0068681154425527637 0.003671038187249872 0 -0.006743925660811086 0.003387496132146187 0 -0.0068681154425527637 0.003671038187249872 0 -0.0066851999053199503 0.0036734602075507751 0 -0.006743925660811086 0.003387496132146187 0 -0.0065363819344915223 0.0031440407261655186 0 -0.0066851999053199503 0.0036734602075507751 0 -0.0065363819344915223 0.0031440407261655186 0 -0.0066851999053199503 0.0036734602075507751 0 -0.0062640663291264938 0.003574169952480632 0 -0.0066851999053199503 0.0036734602075507751 0 -0.0065828026098208644 0.004132673155717353 0 -0.0062640663291264938 0.003574169952480632 0 -0.0066851999053199503 0.0036734602075507751 0 -0.006839663311598858 0.004070580486597827 0 -0.0065828026098208644 0.004132673155717353 0 -0.0066851999053199503 0.0036734602075507751 0 -0.0069032237213112035 0.0039077204723278244 0 -0.006839663311598858 0.004070580486597827 0 -0.0068681154425527637 0.003671038187249872 0 -0.0066851999053199503 0.0036734602075507751 0 -0.0069032237213112035 0.0039077204723278244 0 -0.0068681154425527637 0.003671038187249872 0 -0.0069032237213112035 0.0039077204723278244 0 -0.0070454364981762585 0.0039977569096028755 0 -0.0069032237213112035 0.0039077204723278244 0 -0.0070016579046061596 0.0042296138369304929 0 -0.006839663311598858 0.004070580486597827 0 -0.0069032237213112035 0.0039077204723278244 0 -0.0070016579046061596 0.0042296138369304929 0 -0.007050416695832968 0.0041717091502868836 0 -0.006839663311598858 0.004070580486597827 0 -0.0069708419649372518 0.004408725679395601 0 -0.0065828026098208644 0.004132673155717353 0 -0.0070016579046061596 0.0042296138369304929 0 -0.0069708419649372518 0.004408725679395601 0 -0.007122857602820212 0.0044254495187296084 0 -0.0070016579046061596 0.0042296138369304929 0 -0.006839663311598858 0.004070580486597827 0 -0.0069708419649372518 0.004408725679395601 0 -0.0069708419649372518 0.004408725679395601 0 -0.0071005106341561442 0.0045532530049836005 0 -0.0070435528186367901 0.0047561837653417281 0 -0.0069708419649372518 0.004408725679395601 0 -0.0065828026098208644 0.004132673155717353 0 -0.0066606207162832071 0.004658034815106361 0 -0.0065828026098208644 0.004132673155717353 0 -0.0066606207162832071 0.004658034815106361 0 -0.0061803927923968112 0.0046962878896389939 0 -0.0070913768246570752 0.004587301198507328 0 -0.0071242871784690555 0.0044169861848823693 0 -0.0070454364981762585 0.0039977569096028755 0 -0.0070913768246570752 0.004587301198507328 0 -0.0071242871784690555 0.0044169861848823693 0 -0.0069053117733028496 0.0045748614113696445 0 -0.0071242871784690555 0.0044169861848823693 0 -0.007050416695832968 0.0041717091502868836 0 -0.007122857602820212 0.0044254495187296084 0 -0.0071242871784690555 0.0044169861848823693 0 -0.0070454364981762585 0.0039977569096028755 0 -0.007050416695832968 0.0041717091502868836 0 -0.0069032237213112035 0.0039077204723278244 0 -0.0070454364981762585 0.0039977569096028755 0 -0.007050416695832968 0.0041717091502868836 0 -0.0070016579046061596 0.0042296138369304929 0 -0.007050416695832968 0.0041717091502868836 0 -0.007122857602820212 0.0044254495187296084 0 -0.007122857602820212 0.0044254495187296084 0 -0.0071005106341561442 0.0045532530049836005 0 -0.00721360078673815 0.0046357667333067421 0 -0.007122857602820212 0.0044254495187296084 0 -0.0071159797363138828 0.0045409578675683297 0 -0.00721360078673815 0.0046357667333067421 0 -0.0071242871784690555 0.0044169861848823693 0 -0.007122857602820212 0.0044254495187296084 0 -0.0071159797363138828 0.0045409578675683297 0 -0.0069708419649372518 0.004408725679395601 0 -0.007122857602820212 0.0044254495187296084 0 -0.0071005106341561442 0.0045532530049836005 0 -0.0071242871784690555 0.0044169861848823693 0 -0.0071159797363138828 0.0045409578675683297 0 -0.0069053117733028496 0.0045748614113696445 0 -0.0071159797363138828 0.0045409578675683297 0 -0.0070780181396553109 0.0045658776219695161 0 -0.0069053117733028496 0.0045748614113696445 0 -0.0071159797363138828 0.0045409578675683297 0 -0.0070780181396553109 0.0045658776219695161 0 -0.00721360078673815 0.0046357667333067421 0 -0.0070780181396553109 0.0045658776219695161 0 -0.00721360078673815 0.0046357667333067421 0 -0.0072144403247715212 0.0046750192457561098 0 -0.00721360078673815 0.0046357667333067421 0 -0.0073602696547686378 0.0048523379791331044 0 -0.0072144403247715212 0.0046750192457561098 0 -0.0071005106341561442 0.0045532530049836005 0 -0.00721360078673815 0.0046357667333067421 0 -0.0070435528186367901 0.0047561837653417281 0 -0.00721360078673815 0.0046357667333067421 0 -0.0073602696547686378 0.0048523379791331044 0 -0.0070435528186367901 0.0047561837653417281 0 -0.0073602696547686378 0.0048523379791331044 0 -0.0070435528186367901 0.0047561837653417281 0 -0.0070338602922537163 0.0054017813139943796 0 -0.0073602696547686378 0.0048523379791331044 0 -0.0070338602922537163 0.0054017813139943796 0 -0.0074684334832341411 0.0055289645979307656 0 -0.0073602696547686378 0.0048523379791331044 0 -0.0080446564945639964 0.0054871270222156508 0 -0.0074684334832341411 0.0055289645979307656 0 -0.0071290743259487463 0.0044585425739664284 0 -0.0067738925455371191 0.0043999591937732641 0 -0.0071197173267675664 0.0044319135903471201 0 -0.0070780181396553109 0.0045658776219695161 0 -0.0071290743259487463 0.0044585425739664284 0 -0.0067738925455371191 0.0043999591937732641 0 -0.0070780181396553109 0.0045658776219695161 0 -0.0072144403247715212 0.0046750192457561098 0 -0.0071290743259487463 0.0044585425739664284 0 -0.0073602696547686378 0.0048523379791331044 0 -0.0072144403247715212 0.0046750192457561098 0 -0.0071290743259487463 0.0044585425739664284 0 -0.0073602696547686378 0.0048523379791331044 0 -0.0071290743259487463 0.0044585425739664284 0 -0.0071420246187860964 0.0043914345264532981 0 -0.0073909309728974488 0.004870783727657352 0 -0.0067704914448230655 0.0056654352114024155 0 -0.0067999351456437748 0.0054675892078512494 0 -0.0067704914448230655 0.0056654352114024155 0 -0.0066606207162832071 0.004658034815106361 0 -0.0064001484945755607 0.0052187526327490477 0 -0.0061803927923968112 0.0046962878896389939 0 -0.0066606207162832071 0.004658034815106361 0 -0.006765860477358384 0.0051452757095644718 0 -0.0064001484945755607 0.0052187526327490477 0 -0.0066606207162832071 0.004658034815106361 0 -0.0070435528186367901 0.0047561837653417281 0 -0.006765860477358384 0.0051452757095644718 0 -0.0069708419649372518 0.004408725679395601 0 -0.0066606207162832071 0.004658034815106361 0 -0.0070435528186367901 0.0047561837653417281 0 -0.0070338602922537163 0.0054017813139943796 0 -0.00664486406622422 0.005700634130329776 0 -0.006765860477358384 0.0051452757095644718 0 -0.0070435528186367901 0.0047561837653417281 0 -0.0070338602922537163 0.0054017813139943796 0 -0.006765860477358384 0.0051452757095644718 0 -0.00664486406622422 0.005700634130329776 0 -0.006765860477358384 0.0051452757095644718 0 -0.0064001484945755607 0.0052187526327490477 0 -0.00664486406622422 0.005700634130329776 0 -0.0064001484945755607 0.0052187526327490477 0 -0.0062545032025787123 0.006010514245497027 0 -0.0064001484945755607 0.0052187526327490477 0 -0.0057986679203529861 0.0051022006462539604 0 -0.0062545032025787123 0.006010514245497027 0 -0.0057194582281964723 0.0058119524824479856 0 -0.0057986679203529861 0.0051022006462539604 0 -0.0062545032025787123 0.006010514245497027 0 -0.0057986679203529861 0.0051022006462539604 0 -0.0055104737344191194 0.0043424148178254473 0 -0.0050143208316002601 0.0047617248318610316 0 -0.0057986679203529861 0.0051022006462539604 0 -0.0061803927923968112 0.0046962878896389939 0 -0.0055104737344191194 0.0043424148178254473 0 -0.0057194582281964723 0.0058119524824479856 0 -0.0057986679203529861 0.0051022006462539604 0 -0.0050143208316002601 0.0047617248318610316 0 -0.0064001484945755607 0.0052187526327490477 0 -0.0057986679203529861 0.0051022006462539604 0 -0.0061803927923968112 0.0046962878896389939 0 -0.0065828026098208644 0.004132673155717353 0 -0.0061803927923968112 0.0046962878896389939 0 -0.0059765234900012792 0.0040897793761721186 0 -0.0061803927923968112 0.0046962878896389939 0 -0.0059765234900012792 0.0040897793761721186 0 -0.0055104737344191194 0.0043424148178254473 0 -0.0059765234900012792 0.0040897793761721186 0 -0.0055104737344191194 0.0043424148178254473 0 -0.005401408763812344 0.0035429784281135451 0 -0.0055104737344191194 0.0043424148178254473 0 -0.005401408763812344 0.0035429784281135451 0 -0.0048026619871219187 0.0038080459272673496 0 -0.0047875397635117316 0.0028159921934610603 0 -0.005401408763812344 0.0035429784281135451 0 -0.0048026619871219187 0.0038080459272673496 0 -0.0056913112855270388 0.0026793054545484435 0 -0.005401408763812344 0.0035429784281135451 0 -0.0062640663291264938 0.003574169952480632 0 -0.0059765234900012792 0.0040897793761721186 0 -0.005401408763812344 0.0035429784281135451 0 -0.0062640663291264938 0.003574169952480632 0 -0.0065828026098208644 0.004132673155717353 0 -0.0059765234900012792 0.0040897793761721186 0 -0.0062640663291264938 0.003574169952480632 0 -0.0041144454247425445 0.0032587446198518179 0 -0.0042769465304012587 0.0040253608731987203 0 -0.0033819401556029155 0.0034872262942013685 0 -0.0035530959136194648 0.0027980743519030729 0 -0.0041144454247425445 0.0032587446198518179 0 -0.0033819401556029155 0.0034872262942013685 0 -0.0047875397635117316 0.0028159921934610603 0 -0.0041144454247425445 0.0032587446198518179 0 -0.0048026619871219187 0.0038080459272673496 0 -0.0041144454247425445 0.0032587446198518179 0 -0.0048026619871219187 0.0038080459272673496 0 -0.0042769465304012587 0.0040253608731987203 0 -0.0048026619871219187 0.0038080459272673496 0 -0.0042769465304012587 0.0040253608731987203 0 -0.0050143208316002601 0.0047617248318610316 0 -0.0055104737344191194 0.0043424148178254473 0 -0.0048026619871219187 0.0038080459272673496 0 -0.0050143208316002601 0.0047617248318610316 0 -0.0054567027336211325 0.0050119223618138092 0 -0.0044779585080208639 0.0043720080622920675 0 -0.0042769465304012587 0.0040253608731987203 0 -0.0040848139982817321 0.0047562911149379057 0 -0.0033819401556029155 0.0034872262942013685 0 -0.0042769465304012587 0.0040253608731987203 0 -0.0040848139982817321 0.0047562911149379057 0 -0.0050143208316002601 0.0047617248318610316 0 -0.0067474603542992959 0.0055605035464586844 0 -0.0067792051246268314 0.0041827453427238873 0 -0.0062251112106456322 0.005151237938590617 0 -0.0040848139982817321 0.0047562911149379057 0 -0.0050143208316002601 0.0047617248318610316 0 -0.004939735230368507 0.0058152164695164004 0 -0.0054567027336211325 0.0050119223618138092 0 -0.0057626764841991656 0.0061106629289128132 0 -0.0057194582281964723 0.0058119524824479856 0 -0.0050143208316002601 0.0047617248318610316 0 -0.004939735230368507 0.0058152164695164004 0 -0.0067474603542992959 0.0055605035464586844 0 -0.006574378435718297 0.0065013355873109529 0 -0.0062103953149681458 0.0063198343954461549 0 -0.0069573870782183491 0.0052926824603228831 0 -0.006655779407111595 0.0048347390772329685 0 -0.0065436721504296387 0.005224377155359991 0 -0.0069573870782183491 0.0052926824603228831 0 -0.006655779407111595 0.0048347390772329685 0 -0.0068259879459240114 0.00449221446072546 0 -0.0065845786368831415 0.0058007271030460607 0 -0.0065441832285860315 0.0048255200118934973 0 -0.0067474603542992959 0.0055605035464586844 0 -0.0062103953149681458 0.0063198343954461549 0 -0.0062251112106456322 0.005151237938590617 0 -0.006655779407111595 0.0048347390772329685 0 -0.006298393307157338 0.0048906203271997638 0 -0.0064330808814292194 0.0041004560488336591 0 -0.006655779407111595 0.0048347390772329685 0 -0.006298393307157338 0.0048906203271997638 0 -0.0065436721504296387 0.005224377155359991 0 -0.006298393307157338 0.0048906203271997638 0 -0.0060781180106177189 0.0057234402585022584 0 -0.0063654529523407511 0.005604799241865706 0 -0.0069573870782183491 0.0052926824603228831 0 -0.0065436721504296387 0.005224377155359991 0 -0.0063654529523407511 0.005604799241865706 0 -0.006298393307157338 0.0048906203271997638 0 -0.0065436721504296387 0.005224377155359991 0 -0.0063654529523407511 0.005604799241865706 0 -0.017680857073728969 -0.0038749825982419164 0 -0.01778539725496131 -0.0040469085452223101 0 -0.017531031425572607 -0.0041475879071959524 0 -0.017540726521752037 -0.0040736188321851925 0 -0.013212159878643109 0.00020917221678807264 0 -0.017823470432988112 -0.0036264963416362699 0 -0.017625535339237466 -0.0034684679745192117 0 -0.017674515073020924 -0.0031529992965045306 0 -0.011811969457922414 0.00088938881141049757 0 -0.013212159878643109 0.00020917221678807264 0 -0.017680857073728969 -0.0038749825982419164 0 -0.017976617115934946 -0.0038609327964676679 0 -0.01778539725496131 -0.0040469085452223101 0 -0.017976617115934946 -0.0038609327964676679 0 -0.01778539725496131 -0.0040469085452223101 0 -0.018096712511954105 -0.0041623920694299765 0 -0.017976617115934946 -0.0038609327964676679 0 -0.017722521745199751 -0.0037169014984795314 0 -0.018277702823066261 -0.0034773219323218406 0 -0.017680857073728969 -0.0038749825982419164 0 -0.017976617115934946 -0.0038609327964676679 0 -0.017722521745199751 -0.0037169014984795314 0 -0.017722521745199751 -0.0037169014984795314 0 -0.017726822831350134 -0.0037499573340933441 0 -0.018277702823066261 -0.0034773219323218406 0 -0.017540726521752037 -0.0040736188321851925 0 -0.017744673789329913 -0.0035574614412583285 0 -0.017625535339237466 -0.0034684679745192117 0 -0.017719367195282634 -0.0036319244904003188 0 -0.017722521745199751 -0.0037169014984795314 0 -0.017823470432988112 -0.0036264963416362699 0 -0.017625535339237466 -0.0034684679745192117 0 -0.017719367195282634 -0.0036319244904003188 0 -0.017719367195282634 -0.0036319244904003188 0 -0.017722521745199751 -0.0037169014984795314 0 -0.017727290061256621 -0.0037456847097555677 0 -0.017823470432988112 -0.0036264963416362699 0 -0.017719367195282634 -0.0036319244904003188 0 -0.017727290061256621 -0.0037456847097555677 0 -0.017823470432988112 -0.0036264963416362699 0 -0.017727290061256621 -0.0037456847097555677 0 -0.017745910066261403 -0.0038492154726374786 0 -0.017727290061256621 -0.0037456847097555677 0 -0.017731946375970972 -0.0038775291540533649 0 -0.017745910066261403 -0.0038492154726374786 0 -0.017727290061256621 -0.0037456847097555677 0 -0.017731946375970972 -0.0038775291540533649 0 -0.017726822831350134 -0.0037499573340933441 0 -0.017722521745199751 -0.0037169014984795314 0 -0.017727290061256621 -0.0037456847097555677 0 -0.017726822831350134 -0.0037499573340933441 0 -0.017731946375970972 -0.0038775291540533649 0 -0.017745910066261403 -0.0038492154726374786 0 -0.017731839903552992 -0.0039305317068578085 0 -0.017726822831350134 -0.0037499573340933441 0 -0.017716496872958024 -0.003914571821719664 0 -0.017676221915518073 -0.0039516638147497653 0 -0.017776004716576699 -0.0037394237635625443 0 -0.017985619078842888 -0.0037140834981635971 0 -0.017726822831350134 -0.0037499573340933441 0 -0.017651894757018314 -0.0039225663939597638 0 -0.017676221915518073 -0.0039516638147497653 0 -0.017731946375970972 -0.0038775291540533649 0 -0.017726822831350134 -0.0037499573340933441 0 -0.017716496872958024 -0.003914571821719664 0 -0.017731946375970972 -0.0038775291540533649 0 -0.017716496872958024 -0.003914571821719664 0 -0.017726574822427368 -0.0039710834744651072 0 -0.017716233772432199 -0.0040221596471319097 0 -0.017719090652240269 -0.003995152026541062 0 -0.017676221915518073 -0.0039516638147497653 0 -0.017716496872958024 -0.003914571821719664 0 -0.017719090652240269 -0.003995152026541062 0 -0.017676221915518073 -0.0039516638147497653 0 -0.017716233772432199 -0.0040221596471319097 0 -0.017719090652240269 -0.003995152026541062 0 -0.017738621069657474 -0.0040585631284847622 0 -0.017726574822427368 -0.0039710834744651072 0 -0.017736110559129506 -0.0040454180379647913 0 -0.017726855448157684 -0.0040047866856856573 0 -0.017719090652240269 -0.003995152026541062 0 -0.017726574822427368 -0.0039710834744651072 0 -0.017736110559129506 -0.0040454180379647913 0 -0.017716496872958024 -0.003914571821719664 0 -0.017719090652240269 -0.003995152026541062 0 -0.017726574822427368 -0.0039710834744651072 0 -0.017734806104087737 -0.0040880869021424193 0 -0.017736110559129506 -0.0040454180379647913 0 -0.017770271761246358 -0.0041379401114991395 0 -0.017734806104087737 -0.0040880869021424193 0 -0.017736110559129506 -0.0040454180379647913 0 -0.017726855448157684 -0.0040047866856856573 0 -0.017736110559129506 -0.0040454180379647913 0 -0.017738621069657474 -0.0040585631284847622 0 -0.017770271761246358 -0.0041379401114991395 0 -0.017719090652240269 -0.003995152026541062 0 -0.017736110559129506 -0.0040454180379647913 0 -0.017738621069657474 -0.0040585631284847622 0 -0.017738621069657474 -0.0040585631284847622 0 -0.017748853504306338 -0.0040911132289402127 0 -0.017770271761246358 -0.0041379401114991395 0 -0.017716233772432199 -0.0040221596471319097 0 -0.017738621069657474 -0.0040585631284847622 0 -0.017748853504306338 -0.0040911132289402127 0 -0.017731839903552992 -0.0039305317068578085 0 -0.017726855448157684 -0.0040047866856856573 0 -0.017712281589676724 -0.0039928914539636906 0 -0.017745910066261403 -0.0038492154726374786 0 -0.017731839903552992 -0.0039305317068578085 0 -0.017712281589676724 -0.0039928914539636906 0 -0.017731946375970972 -0.0038775291540533649 0 -0.017731839903552992 -0.0039305317068578085 0 -0.017726855448157684 -0.0040047866856856573 0 -0.017731946375970972 -0.0038775291540533649 0 -0.017726574822427368 -0.0039710834744651072 0 -0.017726855448157684 -0.0040047866856856573 0 -0.017734806104087737 -0.0040880869021424193 0 -0.017726855448157684 -0.0040047866856856573 0 -0.017699820192184981 -0.004090774161097939 0 -0.017726855448157684 -0.0040047866856856573 0 -0.017712281589676724 -0.0039928914539636906 0 -0.017699820192184981 -0.004090774161097939 0 -0.017712281589676724 -0.0039928914539636906 0 -0.017676932299008099 -0.0040295437744962302 0 -0.017603500589736681 -0.004111723651429167 0 -0.017745910066261403 -0.0038492154726374786 0 -0.017712281589676724 -0.0039928914539636906 0 -0.017755371157503794 -0.0039244419805726551 0 -0.017712281589676724 -0.0039928914539636906 0 -0.017755371157503794 -0.0039244419805726551 0 -0.017676932299008099 -0.0040295437744962302 0 -0.017755371157503794 -0.0039244419805726551 0 -0.017676932299008099 -0.0040295437744962302 0 -0.017655719096314169 -0.0040991403180263659 0 -0.012268754758754682 0.00011344055958731405 0 -0.011079827638213476 -0.0010021679157491243 0 -0.0064330808814292194 0.0041004560488336591 0 -0.0066283497025777698 0.0037312693293606743 0 -0.0068259879459240114 0.00449221446072546 0 -0.0066283497025777698 0.0037312693293606743 0 -0.0067792051246268314 0.0041827453427238873 0 -0.0062251112106456322 0.005151237938590617 0 -0.0066283497025777698 0.0037312693293606743 0 -0.0067792051246268314 0.0041827453427238873 0 -0.0066002785763718394 0.0031755169722133434 0 -0.0064330808814292194 0.0041004560488336591 0 -0.0066283497025777698 0.0037312693293606743 0 -0.0066002785763718394 0.0031755169722133434 0 -0.0066020530879375783 0.0038329475796846997 0 -0.0065441832285860315 0.0048255200118934973 0 -0.006655779407111595 0.0048347390772329685 0 -0.0064330808814292194 0.0041004560488336591 0 -0.0068259879459240114 0.00449221446072546 0 -0.011811969457922414 0.00088938881141049757 0 -0.012268754758754682 0.00011344055958731405 0 -0.017823470432988112 -0.0036264963416362699 0 -0.017745910066261403 -0.0038492154726374786 0 -0.017755371157503794 -0.0039244419805726551 0 -0.017905405912446472 -0.0041007592882132404 0 -0.017825235058898426 -0.0040858794305281571 0 -0.017746066621110976 -0.0039670444364176272 0 -0.019561386700844695 -0.0042629605072925921 0 -0.018828580457706082 -0.0039903353389217364 0 -0.0204295181936472 -0.00449666638549499 0 -0.020366624013746011 -0.0042966938149191182 0 -0.020093035012431381 -0.0042151838930375033 0 -0.019561386700844695 -0.0042629605072925921 0 -0.018837009881550539 -0.0039232202648595629 0 -0.020255859208782416 -0.0040838189236511793 0 -0.019887360743592319 -0.0036945594150467431 0 -0.019803701009960858 -0.0040921202827001197 0 -0.019887360743592319 -0.0036945594150467431 0 -0.019803701009960858 -0.0040921202827001197 0 -0.019508449403993117 -0.0038313300680158846 0 -0.019887360743592319 -0.0036945594150467431 0 -0.019508449403993117 -0.0038313300680158846 0 -0.019051987461220922 -0.0034967764999141037 0 -0.019508449403993117 -0.0038313300680158846 0 -0.019300376288674016 -0.0040505045969190289 0 -0.019051987461220922 -0.0034967764999141037 0 -0.019803701009960858 -0.0040921202827001197 0 -0.019508449403993117 -0.0038313300680158846 0 -0.019300376288674016 -0.0040505045969190289 0 -0.01766276167118053 -0.0040095945102230695 0 -0.017669371038582217 -0.0039711690961490697 0 -0.017746066621110976 -0.0039670444364176272 0 -0.018837009881550539 -0.0039232202648595629 0 -0.018369259440790958 -0.0037568316173230681 0 -0.017825235058898426 -0.0040858794305281571 0 -0.01766276167118053 -0.0040095945102230695 0 -0.017746066621110976 -0.0039670444364176272 0 -0.019051987461220922 -0.0034967764999141037 0 -0.018626158461769213 -0.003968857683581334 0 -0.018277702823066261 -0.0034773219323218406 0 -0.01766276167118053 -0.0040095945102230695 0 -0.017651894757018314 -0.0039225663939597638 0 -0.017642015973750539 -0.0039641762230164888 0 -0.018369259440790958 -0.0037568316173230681 0 -0.017985619078842888 -0.0037140834981635971 0 -0.019300376288674016 -0.0040505045969190289 0 -0.019051987461220922 -0.0034967764999141037 0 -0.018626158461769213 -0.003968857683581334 0 -0.017976617115934946 -0.0038609327964676679 0 -0.018626158461769213 -0.003968857683581334 0 -0.018277702823066261 -0.0034773219323218406 0 -0.017976617115934946 -0.0038609327964676679 0 -0.018626158461769213 -0.003968857683581334 0 -0.018096712511954105 -0.0041623920694299765 0 -0.017651894757018314 -0.0039225663939597638 0 -0.017676221915518073 -0.0039516638147497653 0 -0.017654021558028268 -0.0039798239862826263 0 -0.017676221915518073 -0.0039516638147497653 0 -0.017695684686364305 -0.0040249670688831066 0 -0.017654021558028268 -0.0039798239862826263 0 -0.017716233772432199 -0.0040221596471319097 0 -0.017676221915518073 -0.0039516638147497653 0 -0.017695684686364305 -0.0040249670688831066 0 -0.017716233772432199 -0.0040221596471319097 0 -0.017695684686364305 -0.0040249670688831066 0 -0.017748853504306338 -0.0040911132289402127 0 -0.017695684686364305 -0.0040249670688831066 0 -0.017734229874912057 -0.0041111560824754088 0 -0.017748853504306338 -0.0040911132289402127 0 -0.017663962951304624 -0.0040390818111885893 0 -0.017596338211679323 -0.0040929711146330148 0 -0.017696103091373937 -0.0041104913896150572 0 -0.017734229874912057 -0.0041111560824754088 0 -0.017663962951304624 -0.0040390818111885893 0 -0.017696103091373937 -0.0041104913896150572 0 -0.017695684686364305 -0.0040249670688831066 0 -0.017734229874912057 -0.0041111560824754088 0 -0.017663962951304624 -0.0040390818111885893 0 -0.017695684686364305 -0.0040249670688831066 0 -0.017663962951304624 -0.0040390818111885893 0 -0.017654021558028268 -0.0039798239862826263 0 -0.017663962951304624 -0.0040390818111885893 0 -0.017654021558028268 -0.0039798239862826263 0 -0.017629444597587147 -0.0040017341664896414 0 -0.018890261744150084 -0.0050613864364109891 0 -0.018670319114600042 -0.0047318726620870803 0 -0.018474279903568962 -0.0048681682162188787 0 -0.017654021558028268 -0.0039798239862826263 0 -0.017629444597587147 -0.0040017341664896414 0 -0.017642015973750539 -0.0039641762230164888 0 -0.017663962951304624 -0.0040390818111885893 0 -0.017629444597587147 -0.0040017341664896414 0 -0.017596338211679323 -0.0040929711146330148 0 -0.017629444597587147 -0.0040017341664896414 0 -0.017630181935979018 -0.0039743608842556667 0 -0.017596338211679323 -0.0040929711146330148 0 -0.018709120708791667 -0.0044088091397269883 0 -0.018465453387661087 -0.0048224898381987891 0 -0.018588141051668464 -0.0050054301309189744 0 -0.018254715081919545 -0.0047703557596498834 0 -0.018341604222600619 -0.0047501746226520586 0 -0.018709120708791667 -0.0044088091397269883 0 -0.017885598284089053 -0.0043821320248141667 0 -0.017629444597587147 -0.0040017341664896414 0 -0.017642015973750539 -0.0039641762230164888 0 -0.017630181935979018 -0.0039743608842556667 0 -0.017651894757018314 -0.0039225663939597638 0 -0.017654021558028268 -0.0039798239862826263 0 -0.017642015973750539 -0.0039641762230164888 0 -0.01766276167118053 -0.0040095945102230695 0 -0.017642015973750539 -0.0039641762230164888 0 -0.017669371038582217 -0.0039711690961490697 0 -0.017642015973750539 -0.0039641762230164888 0 -0.017669371038582217 -0.0039711690961490697 0 -0.017630181935979018 -0.0039743608842556667 0 -0.017669371038582217 -0.0039711690961490697 0 -0.017630181935979018 -0.0039743608842556667 0 -0.017746066621110976 -0.0039670444364176272 0 -0.018709120708791667 -0.0044088091397269883 0 -0.018828580457706082 -0.0039903353389217364 0 -0.019695315091830836 -0.0038562484677602976 0 -0.020093035012431381 -0.0042151838930375033 0 -0.020056916443071979 -0.0040835338692425142 0 -0.018709120708791667 -0.0044088091397269883 0 -0.019838174551515004 -0.004619560930912996 0 -0.018890261744150084 -0.0050613864364109891 0 -0.019260846588764664 -0.0049608494842102854 0 -0.018988734792697481 -0.0047530172904219183 0 -0.018890261744150084 -0.0050613864364109891 0 -0.019260846588764664 -0.0049608494842102854 0 -0.019484215563719303 -0.0051102733175411742 0 -0.019260846588764664 -0.0049608494842102854 0 -0.019335499309423718 -0.0048441580906824176 0 -0.018988734792697481 -0.0047530172904219183 0 -0.019260846588764664 -0.0049608494842102854 0 -0.01962247988725855 -0.0049179989965234035 0 -0.019484215563719303 -0.0051102733175411742 0 -0.019260846588764664 -0.0049608494842102854 0 -0.019335499309423718 -0.0048441580906824176 0 -0.01962247988725855 -0.0049179989965234035 0 -0.019653824669926691 -0.0048196119692403457 0 -0.019335499309423718 -0.0048441580906824176 0 -0.01962247988725855 -0.0049179989965234035 0 -0.020067807764580965 -0.0049490653795961504 0 -0.019868783025544859 -0.0049472734401523151 0 -0.019484215563719303 -0.0051102733175411742 0 -0.020366624013746011 -0.0042966938149191182 0 -0.020093035012431381 -0.0042151838930375033 0 -0.020056916443071979 -0.0040835338692425142 0 -0.020175177274750388 -0.0045774082506553999 0 -0.019838174551515004 -0.004619560930912996 0 -0.01962247988725855 -0.0049179989965234035 0 -0.019868783025544859 -0.0049472734401523151 0 -0.019484215563719303 -0.0051102733175411742 0 -0.019197058227486678 -0.0046902402852074827 0 -0.018843926158035134 -0.0045692610583435555 0 -0.018951691590702299 -0.0045545813241181215 0 -0.019358801221990993 -0.0046125154689567807 0 -0.019197058227486678 -0.0046902402852074827 0 -0.018951691590702299 -0.0045545813241181215 0 -0.019335499309423718 -0.0048441580906824176 0 -0.019197058227486678 -0.0046902402852074827 0 -0.018988734792697481 -0.0047530172904219183 0 -0.019653824669926691 -0.0048196119692403457 0 -0.019335499309423718 -0.0048441580906824176 0 -0.019197058227486678 -0.0046902402852074827 0 -0.019653824669926691 -0.0048196119692403457 0 -0.019664337714447585 -0.0047419756662536571 0 -0.019197058227486678 -0.0046902402852074827 0 -0.018890261744150084 -0.0050613864364109891 0 -0.018988734792697481 -0.0047530172904219183 0 -0.018670319114600042 -0.0047318726620870803 0 -0.019197058227486678 -0.0046902402852074827 0 -0.018988734792697481 -0.0047530172904219183 0 -0.018843926158035134 -0.0045692610583435555 0 -0.018988734792697481 -0.0047530172904219183 0 -0.018610537131242839 -0.0045208034462177636 0 -0.018670319114600042 -0.0047318726620870803 0 -0.018610537131242839 -0.0045208034462177636 0 -0.018843926158035134 -0.0045692610583435555 0 -0.018535352264109149 -0.0044729043114280732 0 -0.018610537131242839 -0.0045208034462177636 0 -0.018387148341375361 -0.0044003160433571742 0 -0.018535352264109149 -0.0044729043114280732 0 -0.018988734792697481 -0.0047530172904219183 0 -0.018610537131242839 -0.0045208034462177636 0 -0.018843926158035134 -0.0045692610583435555 0 -0.018843926158035134 -0.0045692610583435555 0 -0.018535352264109149 -0.0044729043114280732 0 -0.018951691590702299 -0.0045545813241181215 0 -0.018610537131242839 -0.0045208034462177636 0 -0.018387148341375361 -0.0044003160433571742 0 -0.01828082856138858 -0.0043851398885628289 0 -0.018387148341375361 -0.0044003160433571742 0 -0.01828082856138858 -0.0043851398885628289 0 -0.018203341984077935 -0.0042734035989603581 0 -0.01828082856138858 -0.0043851398885628289 0 -0.018430163139478414 -0.004548475605059072 0 -0.018078479126152094 -0.0044268961568681318 0 -0.018610537131242839 -0.0045208034462177636 0 -0.01828082856138858 -0.0043851398885628289 0 -0.018430163139478414 -0.004548475605059072 0 -0.018610537131242839 -0.0045208034462177636 0 -0.018670319114600042 -0.0047318726620870803 0 -0.018430163139478414 -0.004548475605059072 0 -0.018670319114600042 -0.0047318726620870803 0 -0.018418130557691207 -0.0046468910317789963 0 -0.018430163139478414 -0.004548475605059072 0 -0.018670319114600042 -0.0047318726620870803 0 -0.018474279903568962 -0.0048681682162188787 0 -0.018418130557691207 -0.0046468910317789963 0 -0.018254715081919545 -0.0047703557596498834 0 -0.018341604222600619 -0.0047501746226520586 0 -0.018078479126152094 -0.0044268961568681318 0 -0.018474279903568962 -0.0048681682162188787 0 -0.018418130557691207 -0.0046468910317789963 0 -0.018078479126152094 -0.0044268961568681318 0 -0.018418130557691207 -0.0046468910317789963 0 -0.018430163139478414 -0.004548475605059072 0 -0.018078479126152094 -0.0044268961568681318 0 -0.018465453387661087 -0.0048224898381987891 0 -0.018114354502387426 -0.004464047736284814 0 -0.018254715081919545 -0.0047703557596498834 0 -0.018078479126152094 -0.0044268961568681318 0 -0.017867579853921043 -0.004361869807465296 0 -0.017885598284089053 -0.0043821320248141667 0 -0.017895918936132429 -0.0043924631138368966 0 -0.017596338211679323 -0.0040929711146330148 0 -0.017761075914066195 -0.004188648936905663 0 -0.017867579853921043 -0.004361869807465296 0 -0.017596338211679323 -0.0040929711146330148 0 -0.017761075914066195 -0.004188648936905663 0 -0.017696103091373937 -0.0041104913896150572 0 -0.017734229874912057 -0.0041111560824754088 0 -0.017761075914066195 -0.004188648936905663 0 -0.017696103091373937 -0.0041104913896150572 0 -0.017734229874912057 -0.0041111560824754088 0 -0.017748853504306338 -0.0040911132289402127 0 -0.017807346825987565 -0.0042030552680406112 0 -0.017734229874912057 -0.0041111560824754088 0 -0.017761075914066195 -0.004188648936905663 0 -0.017807346825987565 -0.0042030552680406112 0 -0.017761075914066195 -0.004188648936905663 0 -0.017807346825987565 -0.0042030552680406112 0 -0.017867579853921043 -0.004361869807465296 0 -0.017807346825987565 -0.0042030552680406112 0 -0.017867579853921043 -0.004361869807465296 0 -0.01780408160569312 -0.0042244885461375434 0 -0.018078479126152094 -0.0044268961568681318 0 -0.017867579853921043 -0.004361869807465296 0 -0.017995419978956585 -0.0042608088092555693 0 -0.017867579853921043 -0.004361869807465296 0 -0.017995419978956585 -0.0042608088092555693 0 -0.017863582825287203 -0.0042563620614562902 0 -0.01828082856138858 -0.0043851398885628289 0 -0.018078479126152094 -0.0044268961568681318 0 -0.017995419978956585 -0.0042608088092555693 0 -0.01828082856138858 -0.0043851398885628289 0 -0.017995419978956585 -0.0042608088092555693 0 -0.018203341984077935 -0.0042734035989603581 0 -0.017995419978956585 -0.0042608088092555693 0 -0.017921419194487972 -0.0041126302621286668 0 -0.018203341984077935 -0.0042734035989603581 0 -0.018148750952882223 -0.004225993987349074 0 -0.018243400906253142 -0.0041787169810782428 0 -0.018203341984077935 -0.0042734035989603581 0 -0.018259123934290338 -0.0044902691354814089 0 -0.018117091256930583 -0.0044984541074205896 0 -0.017921419194487972 -0.0041126302621286668 0 -0.018203341984077935 -0.0042734035989603581 0 -0.017946136662695063 -0.0038128035588510223 0 -0.018259123934290338 -0.0044902691354814089 0 -0.018173113861327583 -0.0046902918133076375 0 -0.01802847851668234 -0.0046507706884852968 0 -0.018173113861327583 -0.0046902918133076375 0 -0.01802847851668234 -0.0046507706884852968 0 -0.017963510481819624 -0.0048582437750423618 0 -0.018259123934290338 -0.0044902691354814089 0 -0.01802847851668234 -0.0046507706884852968 0 -0.018117091256930583 -0.0044984541074205896 0 -0.01802847851668234 -0.0046507706884852968 0 -0.018117091256930583 -0.0044984541074205896 0 -0.018042505399001419 -0.0045817142941058167 0 -0.018117091256930583 -0.0044984541074205896 0 -0.018042505399001419 -0.0045817142941058167 0 -0.018221621891917235 -0.0044768677601317811 0 -0.01802847851668234 -0.0046507706884852968 0 -0.018042505399001419 -0.0045817142941058167 0 -0.017876774415603754 -0.004747335220007913 0 -0.018042505399001419 -0.0045817142941058167 0 -0.018075806354611718 -0.0045923929918967599 0 -0.017876774415603754 -0.004747335220007913 0 -0.018042505399001419 -0.0045817142941058167 0 -0.018075806354611718 -0.0045923929918967599 0 -0.018221621891917235 -0.0044768677601317811 0 -0.018387148341375361 -0.0044003160433571742 0 -0.018203341984077935 -0.0042734035989603581 0 -0.018221621891917235 -0.0044768677601317811 0 -0.018387148341375361 -0.0044003160433571742 0 -0.018221621891917235 -0.0044768677601317811 0 -0.018535352264109149 -0.0044729043114280732 0 -0.018203341984077935 -0.0042734035989603581 0 -0.018117091256930583 -0.0044984541074205896 0 -0.018221621891917235 -0.0044768677601317811 0 -0.018535352264109149 -0.0044729043114280732 0 -0.01841807325636978 -0.0044957221369786677 0 -0.018850550549820592 -0.0044929687618613387 0 -0.018535352264109149 -0.0044729043114280732 0 -0.018850550549820592 -0.0044929687618613387 0 -0.018951691590702299 -0.0045545813241181215 0 -0.018221621891917235 -0.0044768677601317811 0 -0.018535352264109149 -0.0044729043114280732 0 -0.01841807325636978 -0.0044957221369786677 0 -0.01841807325636978 -0.0044957221369786677 0 -0.018853070002385636 -0.0043806175970557979 0 -0.018225108861267398 -0.0044412702170609089 0 -0.018075806354611718 -0.0045923929918967599 0 -0.018221621891917235 -0.0044768677601317811 0 -0.01841807325636978 -0.0044957221369786677 0 -0.018075806354611718 -0.0045923929918967599 0 -0.01841807325636978 -0.0044957221369786677 0 -0.018225108861267398 -0.0044412702170609089 0 -0.019405756278487868 -0.0044522375703714709 0 -0.018853070002385636 -0.0043806175970557979 0 -0.018850550549820592 -0.0044929687618613387 0 -0.01841807325636978 -0.0044957221369786677 0 -0.018853070002385636 -0.0043806175970557979 0 -0.018850550549820592 -0.0044929687618613387 0 -0.019358801221990993 -0.0046125154689567807 0 -0.018850550549820592 -0.0044929687618613387 0 -0.018951691590702299 -0.0045545813241181215 0 -0.017487650741739618 -0.0040179138121368497 0 -0.01762234405654188 -0.0040037373093320975 0 -0.017362621200344278 -0.0038749673478117091 0 -0.017487650741739618 -0.0040179138121368497 0 -0.017279494371502883 -0.0040244015737340632 0 -0.017362621200344278 -0.0038749673478117091 0 -0.017465937042439025 -0.0040725218930452584 0 -0.017487650741739618 -0.0040179138121368497 0 -0.017279494371502883 -0.0040244015737340632 0 -0.017465937042439025 -0.0040725218930452584 0 -0.017487650741739618 -0.0040179138121368497 0 -0.017637092122745213 -0.0041079160973602983 0 -0.017279494371502883 -0.0040244015737340632 0 -0.017362621200344278 -0.0038749673478117091 0 -0.017086388320705762 -0.003898664656171817 0 -0.0083532263177307584 -0.00020994664841753182 0 -0.010679404328714585 -0.0022838016098962093 0 -0.017279494371502883 -0.0040244015737340632 0 -0.017218176538169025 -0.0040924846344455729 0 -0.017086388320705762 -0.003898664656171817 0 -0.017465937042439025 -0.0040725218930452584 0 -0.017279494371502883 -0.0040244015737340632 0 -0.017252224532552582 -0.0041385529595722092 0 -0.017279494371502883 -0.0040244015737340632 0 -0.017217742194686698 -0.004107494947726404 0 -0.017218176538169025 -0.0040924846344455729 0 -0.014232116747711182 -0.0031026651076114342 0 -0.011079827638213476 -0.0010021679157491243 0 -0.0035530959136194648 0.0027980743519030729 0 -0.0033819401556029155 0.0034872262942013685 0 -0.0029636950142092168 0.002208650337422788 0 -0.0044779585080208639 0.0043720080622920675 0 -0.011079827638213476 -0.0010021679157491243 0 -0.011079827638213476 -0.0010021679157491243 0 -0.0083532263177307584 -0.00020994664841753182 0 -0.0034254364938151346 0.002336690717471676 0 -0.0029636950142092168 0.002208650337422788 0 -0.0029987500097415631 0.0021357228025326289 0 -0.0035530959136194648 0.0027980743519030729 0 -0.0034254364938151346 0.002336690717471676 0 -0.0029636950142092168 0.002208650337422788 0 -0.017712281589676724 -0.0039928914539636906 0 -0.017603500589736681 -0.004111723651429167 0 -0.017699820192184981 -0.004090774161097939 0 -0.017676932299008099 -0.0040295437744962302 0 -0.017655719096314169 -0.0040991403180263659 0 -0.017603500589736681 -0.004111723651429167 0 -0.017465937042439025 -0.0040725218930452584 0 -0.017252224532552582 -0.0041385529595722092 0 -0.017603500589736681 -0.004111723651429167 0 -0.011079827638213476 -0.0010021679157491243 0 -0.019681187538277273 -0.0047252330344560341 0 -0.017465937042439025 -0.0040725218930452584 0 -0.017603500589736681 -0.004111723651429167 0 -0.017637092122745213 -0.0041079160973602983 0 -0.017734806104087737 -0.0040880869021424193 0 -0.017699820192184981 -0.004090774161097939 0 -0.017738378710199742 -0.0041406420002992172 0 -0.017699820192184981 -0.004090774161097939 0 -0.017738378710199742 -0.0041406420002992172 0 -0.017637092122745213 -0.0041079160973602983 0 -0.017738378710199742 -0.0041406420002992172 0 -0.017733083154383818 -0.0041523398794943087 0 -0.017637092122745213 -0.0041079160973602983 0 -0.017603500589736681 -0.004111723651429167 0 -0.017699820192184981 -0.004090774161097939 0 -0.017637092122745213 -0.0041079160973602983 0 -0.017748853504306338 -0.0040911132289402127 0 -0.017807346825987565 -0.0042030552680406112 0 -0.017770271761246358 -0.0041379401114991395 0 -0.017807346825987565 -0.0042030552680406112 0 -0.017770271761246358 -0.0041379401114991395 0 -0.01780408160569312 -0.0042244885461375434 0 -0.017734806104087737 -0.0040880869021424193 0 -0.017738378710199742 -0.0041406420002992172 0 -0.017770271761246358 -0.0041379401114991395 0 -0.017738378710199742 -0.0041406420002992172 0 -0.017770271761246358 -0.0041379401114991395 0 -0.01780408160569312 -0.0042244885461375434 0 -0.017738378710199742 -0.0041406420002992172 0 -0.01780408160569312 -0.0042244885461375434 0 -0.017733083154383818 -0.0041523398794943087 0 -0.017867579853921043 -0.004361869807465296 0 -0.01780408160569312 -0.0042244885461375434 0 -0.017863582825287203 -0.0042563620614562902 0 -0.017797568643653287 -0.004149204889739415 0 -0.01762234405654188 -0.0040037373093320975 0 -0.017784307509228717 -0.0039981581430271066 0 -0.01780408160569312 -0.0042244885461375434 0 -0.017863582825287203 -0.0042563620614562902 0 -0.017797568643653287 -0.004149204889739415 0 -0.017995419978956585 -0.0042608088092555693 0 -0.017863582825287203 -0.0042563620614562902 0 -0.017797568643653287 -0.004149204889739415 0 -0.01780408160569312 -0.0042244885461375434 0 -0.017733083154383818 -0.0041523398794943087 0 -0.017797568643653287 -0.004149204889739415 0 -0.017995419978956585 -0.0042608088092555693 0 -0.017921419194487972 -0.0041126302621286668 0 -0.017797568643653287 -0.004149204889739415 0 -0.017733083154383818 -0.0041523398794943087 0 -0.017797568643653287 -0.004149204889739415 0 -0.01762234405654188 -0.0040037373093320975 0 -0.017733083154383818 -0.0041523398794943087 0 -0.017637092122745213 -0.0041079160973602983 0 -0.01762234405654188 -0.0040037373093320975 0 -0.017487650741739618 -0.0040179138121368497 0 -0.017637092122745213 -0.0041079160973602983 0 -0.01762234405654188 -0.0040037373093320975 0 -0.01762234405654188 -0.0040037373093320975 0 -0.017699626807738268 -0.0038389147305313109 0 -0.017784307509228717 -0.0039981581430271066 0 -0.01762234405654188 -0.0040037373093320975 0 -0.017699626807738268 -0.0038389147305313109 0 -0.017510413883190759 -0.0038061821037855084 0 -0.017946136662695063 -0.0038128035588510223 0 -0.017699626807738268 -0.0038389147305313109 0 -0.017784307509228717 -0.0039981581430271066 0 -0.017921419194487972 -0.0041126302621286668 0 -0.017797568643653287 -0.004149204889739415 0 -0.017784307509228717 -0.0039981581430271066 0 -0.017921419194487972 -0.0041126302621286668 0 -0.017946136662695063 -0.0038128035588510223 0 -0.017784307509228717 -0.0039981581430271066 0 -0.018243400906253142 -0.0041787169810782428 0 -0.016727283972637699 -0.0047097497651153826 0 -0.018259123934290338 -0.0044902691354814089 0 -0.018173113861327583 -0.0046902918133076375 0 -0.018513308211672366 -0.0047987831521036353 0 -0.017946136662695063 -0.0038128035588510223 0 -0.017699626807738268 -0.0038389147305313109 0 -0.017746758964265311 -0.0035793216842964575 0 -0.016284459696986366 -0.0045762278954813414 0 -0.016727283972637699 -0.0047097497651153826 0 -0.017378574622017601 -0.0036092350733933501 0 -0.017510413883190759 -0.0038061821037855084 0 -0.017746758964265311 -0.0035793216842964575 0 -0.017699626807738268 -0.0038389147305313109 0 -0.017510413883190759 -0.0038061821037855084 0 -0.017746758964265311 -0.0035793216842964575 0 -0.017378574622017601 -0.0036092350733933501 0 -0.017362621200344278 -0.0038749673478117091 0 -0.017188235389111607 -0.0037564282712216329 0 -0.017378574622017601 -0.0036092350733933501 0 -0.017362621200344278 -0.0038749673478117091 0 -0.017510413883190759 -0.0038061821037855084 0 -0.01762234405654188 -0.0040037373093320975 0 -0.017362621200344278 -0.0038749673478117091 0 -0.017510413883190759 -0.0038061821037855084 0 -0.017362621200344278 -0.0038749673478117091 0 -0.017188235389111607 -0.0037564282712216329 0 -0.017086388320705762 -0.003898664656171817 0 -0.016916626952073459 -0.0036246383904441006 0 -0.017188235389111607 -0.0037564282712216329 0 -0.017086388320705762 -0.003898664656171817 0 -0.008647190280455937 -0.007295133601827178 0 -0.0092726070608880606 -0.0069915878732936037 0 -0.0086003286795885443 -0.0070669719175517698 0 -0.0092242607366626334 -0.0032100336524415775 0 -0.010759335245449865 -0.0062552591814139056 0 -0.0092242607366626334 -0.0032100336524415775 0 -0.016284459696986366 -0.0045762278954813414 0 -0.016916626952073459 -0.0036246383904441006 0 -0.017378574622017601 -0.0036092350733933501 0 -0.017188235389111607 -0.0037564282712216329 0 -0.010703191224630601 -0.0057774703936687754 0 -0.013255699879923602 -0.0053887131635043323 0 -0.012678475899212728 -0.0046955983621981999 0 -0.0092726070608880606 -0.0069915878732936037 0 -0.0088644522543756023 -0.0068092783239674147 0 -0.0086003286795885443 -0.0070669719175517698 0 -0.0092726070608880606 -0.0069915878732936037 0 -0.0088644522543756023 -0.0068092783239674147 0 -0.0091190792071328963 -0.006541607871510478 0 -0.0088644522543756023 -0.0068092783239674147 0 -0.0091190792071328963 -0.006541607871510478 0 -0.0086190782508114953 -0.0065835131270955208 0 -0.0091190792071328963 -0.006541607871510478 0 -0.0097159492387836645 -0.006385001963535958 0 -0.0089670778142859776 -0.0060920261903818175 0 -0.0091190792071328963 -0.006541607871510478 0 -0.0089670778142859776 -0.0060920261903818175 0 -0.0086190782508114953 -0.0065835131270955208 0 -0.0092726070608880606 -0.0069915878732936037 0 -0.0091190792071328963 -0.006541607871510478 0 -0.0097159492387836645 -0.006385001963535958 0 -0.0092726070608880606 -0.0069915878732936037 0 -0.0097159492387836645 -0.006385001963535958 0 -0.0099470375220800811 -0.0066324635125712397 0 -0.013255699879923602 -0.0053887131635043323 0 -0.012678475899212728 -0.0046955983621981999 0 -0.014621184555221114 -0.0035881372243196088 0 -0.010759335245449865 -0.0062552591814139056 0 -0.013196244952922679 -0.0054675950982041093 0 -0.013255699879923602 -0.0053887131635043323 0 -0.015734416853095991 -0.0048775232497047195 0 -0.014621184555221114 -0.0035881372243196088 0 -0.015625181267019651 -0.0059412513577640534 0 -0.014608294490498001 -0.004763786979100842 0 -0.014983156470097252 -0.0045451315948106348 0 -0.016727283972637699 -0.0047097497651153826 0 -0.013196244952922679 -0.0054675950982041093 0 -0.01412607517075863 -0.0056257890604674288 0 -0.017431313207678687 -0.0053473118359639148 0 -0.015625181267019651 -0.0059412513577640534 0 -0.014983156470097252 -0.0045451315948106348 0 -0.017162682204051701 -0.0056130686447428387 0 -0.016727283972637699 -0.0047097497651153826 0 -0.017431313207678687 -0.0053473118359639148 0 -0.018173113861327583 -0.0046902918133076375 0 -0.018513308211672366 -0.0047987831521036353 0 -0.018127924233624755 -0.0049123816806938203 0 -0.015548383893812341 -0.0052239780947771573 0 -0.014454242000468321 -0.005736869998305685 0 -0.01679858459931936 -0.0058342821662482657 0 -0.014454242000468321 -0.005736869998305685 0 -0.014107384411882026 -0.0059835066860608353 0 -0.01679858459931936 -0.0058342821662482657 0 -0.015548383893812341 -0.0052239780947771573 0 -0.014454242000468321 -0.005736869998305685 0 -0.014197135266963276 -0.0052458721894999448 0 -0.015548383893812341 -0.0052239780947771573 0 -0.016210668304104454 -0.0042571063768846694 0 -0.016473428989400629 -0.0048595599368596934 0 -0.01213951430271441 -0.0062493574334296651 0 -0.013196244952922679 -0.0054675950982041093 0 -0.012697466848441374 -0.0056516672086016923 0 -0.013095262204498082 -0.0061098644603058529 0 -0.013343952267970713 -0.0059647243134771499 0 -0.01213951430271441 -0.0062493574334296651 0 -0.01412607517075863 -0.0056257890604674288 0 -0.013196244952922679 -0.0054675950982041093 0 -0.01412607517075863 -0.0056257890604674288 0 -0.014197347466730986 -0.0056446463368133226 0 -0.01412607517075863 -0.0056257890604674288 0 -0.014454242000468321 -0.005736869998305685 0 -0.014065522548926849 -0.0059607840437198517 0 -0.013854675180812641 -0.0056528966627038893 0 -0.014454242000468321 -0.005736869998305685 0 -0.013854675180812641 -0.0056528966627038893 0 -0.014197135266963276 -0.0052458721894999448 0 -0.013520140628497438 -0.0058301318333980811 0 -0.014065522548926849 -0.0059607840437198517 0 -0.013854675180812641 -0.0056528966627038893 0 -0.013520140628497438 -0.0058301318333980811 0 -0.013854675180812641 -0.0056528966627038893 0 -0.013427257721424333 -0.0059718771483047604 0 -0.013427257721424333 -0.0059718771483047604 0 -0.014197135266963276 -0.0052458721894999448 0 -0.012987630130981689 -0.0065993693523290564 0 -0.013854675180812641 -0.0056528966627038893 0 -0.013427257721424333 -0.0059718771483047604 0 -0.014197135266963276 -0.0052458721894999448 0 -0.014169632111324838 -0.0054093561797111198 0 -0.014251241565725659 -0.0052675372613945511 0 -0.014197135266963276 -0.0052458721894999448 0 -0.016210668304104454 -0.0042571063768846694 0 -0.016277989283095051 -0.0033585259133674591 0 -0.015548383893812341 -0.0052239780947771573 0 -0.014197135266963276 -0.0052458721894999448 0 -0.016210668304104454 -0.0042571063768846694 0 -0.016210668304104454 -0.0042571063768846694 0 -0.016277989283095051 -0.0033585259133674591 0 -0.016908318975387582 -0.0036396690665497235 0 -0.014197135266963276 -0.0052458721894999448 0 -0.012205305338265669 -0.0069296381106759815 0 -0.012987630130981689 -0.0065993693523290564 0 -0.012205305338265669 -0.0069296381106759815 0 -0.012987630130981689 -0.0065993693523290564 0 -0.012392062772769257 -0.0075263089402599209 0 -0.013082816948477389 -0.0067185470598867033 0 -0.012868306874654845 -0.0073262903326058006 0 -0.012819164936413439 -0.0072395638208108855 0 -0.012987630130981689 -0.0065993693523290564 0 -0.013082816948477389 -0.0067185470598867033 0 -0.012819164936413439 -0.0072395638208108855 0 -0.012868306874654845 -0.0073262903326058006 0 -0.012798447156891138 -0.0073974539648968161 0 -0.012743746495277892 -0.0074677667202883045 0 -0.013082816948477389 -0.0067185470598867033 0 -0.012868306874654845 -0.0073262903326058006 0 -0.013268911088927974 -0.0064006040962201237 0 -0.012857066180899643 -0.0071333683253565162 0 -0.013111327606420654 -0.0069879370468842739 0 -0.012868306874654845 -0.0073262903326058006 0 -0.012798447156891138 -0.0073974539648968161 0 -0.0127931063157609 -0.0073821095059625639 0 -0.01213951430271441 -0.0062493574334296651 0 -0.011155987931156599 -0.0063459071485010548 0 -0.012764333082763887 -0.0073200337872543963 0 -0.012798447156891138 -0.0073974539648968161 0 -0.0127931063157609 -0.0073821095059625639 0 -0.013520140628497438 -0.0058301318333980811 0 -0.013427257721424333 -0.0059718771483047604 0 -0.013268911088927974 -0.0064006040962201237 0 -0.01213951430271441 -0.0062493574334296651 0 -0.013111327606420654 -0.0069879370468842739 0 -0.013427257721424333 -0.0059718771483047604 0 -0.013082816948477389 -0.0067185470598867033 0 -0.013268911088927974 -0.0064006040962201237 0 -0.013427257721424333 -0.0059718771483047604 0 -0.012987630130981689 -0.0065993693523290564 0 -0.013082816948477389 -0.0067185470598867033 0 -0.018910941983776346 -0.0036748117387131176 0 -0.018342208800487331 -0.0039229677955565168 0 -0.018689319043581742 -0.0041906007911563618 0 -0.018853070002385636 -0.0043806175970557979 0 -0.018689319043581742 -0.0041906007911563618 0 -0.018225108861267398 -0.0044412702170609089 0 -0.018342208800487331 -0.0039229677955565168 0 -0.018689319043581742 -0.0041906007911563618 0 -0.018225108861267398 -0.0044412702170609089 0 -0.018075806354611718 -0.0045923929918967599 0 -0.018225108861267398 -0.0044412702170609089 0 -0.017908374459535348 -0.0047097042659422408 0 -0.018225108861267398 -0.0044412702170609089 0 -0.017950898144343468 -0.004282210404397504 0 -0.01781403989353221 -0.0046690405916693942 0 -0.018342208800487331 -0.0039229677955565168 0 -0.018225108861267398 -0.0044412702170609089 0 -0.017950898144343468 -0.004282210404397504 0 -0.018342208800487331 -0.0039229677955565168 0 -0.017950898144343468 -0.004282210404397504 0 -0.017742137255462392 -0.0036776407162700327 0 -0.017950898144343468 -0.004282210404397504 0 -0.017465049413903061 -0.0045500707865713799 0 -0.017742137255462392 -0.0036776407162700327 0 -0.017465049413903061 -0.0045500707865713799 0 -0.01781403989353221 -0.0046690405916693942 0 -0.017543785478433944 -0.0049277574563307228 0 -0.017465049413903061 -0.0045500707865713799 0 -0.017543785478433944 -0.0049277574563307228 0 -0.017113034832990263 -0.0050494622601749218 0 -0.017950898144343468 -0.004282210404397504 0 -0.017465049413903061 -0.0045500707865713799 0 -0.01781403989353221 -0.0046690405916693942 0 -0.018225108861267398 -0.0044412702170609089 0 -0.01781403989353221 -0.0046690405916693942 0 -0.017908374459535348 -0.0047097042659422408 0 -0.01781403989353221 -0.0046690405916693942 0 -0.017908374459535348 -0.0047097042659422408 0 -0.017727793368298207 -0.0049246465994394464 0 -0.018075806354611718 -0.0045923929918967599 0 -0.017908374459535348 -0.0047097042659422408 0 -0.017876774415603754 -0.004747335220007913 0 -0.01802847851668234 -0.0046507706884852968 0 -0.017809242628135182 -0.0048604039633710072 0 -0.017876774415603754 -0.004747335220007913 0 -0.017908374459535348 -0.0047097042659422408 0 -0.017876774415603754 -0.004747335220007913 0 -0.017727793368298207 -0.0049246465994394464 0 -0.017809242628135182 -0.0048604039633710072 0 -0.017876774415603754 -0.004747335220007913 0 -0.017727793368298207 -0.0049246465994394464 0 -0.017809242628135182 -0.0048604039633710072 0 -0.017727793368298207 -0.0049246465994394464 0 -0.01760054498405491 -0.0052591815421411696 0 -0.01781403989353221 -0.0046690405916693942 0 -0.017727793368298207 -0.0049246465994394464 0 -0.017543785478433944 -0.0049277574563307228 0 -0.017727793368298207 -0.0049246465994394464 0 -0.017543785478433944 -0.0049277574563307228 0 -0.01760054498405491 -0.0052591815421411696 0 -0.017543785478433944 -0.0049277574563307228 0 -0.01760054498405491 -0.0052591815421411696 0 -0.017113034832990263 -0.0050494622601749218 0 -0.01760054498405491 -0.0052591815421411696 0 -0.01679858459931936 -0.0058342821662482657 0 -0.017113034832990263 -0.0050494622601749218 0 -0.017809242628135182 -0.0048604039633710072 0 -0.01760054498405491 -0.0052591815421411696 0 -0.017963510481819624 -0.0048582437750423618 0 -0.01760054498405491 -0.0052591815421411696 0 -0.017963510481819624 -0.0048582437750423618 0 -0.018533587945692452 -0.0051442661053039389 0 -0.017563586209060626 -0.0053322189188377807 0 -0.017431313207678687 -0.0053473118359639148 0 -0.017776452438748171 -0.0052970338930143019 0 -0.017431313207678687 -0.0053473118359639148 0 -0.01802847851668234 -0.0046507706884852968 0 -0.017809242628135182 -0.0048604039633710072 0 -0.017963510481819624 -0.0048582437750423618 0 -0.018173113861327583 -0.0046902918133076375 0 -0.017963510481819624 -0.0048582437750423618 0 -0.018127924233624755 -0.0049123816806938203 0 -0.01679858459931936 -0.0058342821662482657 0 -0.017113034832990263 -0.0050494622601749218 0 -0.016473428989400629 -0.0048595599368596934 0 -0.017465049413903061 -0.0045500707865713799 0 -0.016473428989400629 -0.0048595599368596934 0 -0.017135186087810662 -0.0039984572260148123 0 -0.017465049413903061 -0.0045500707865713799 0 -0.017113034832990263 -0.0050494622601749218 0 -0.016473428989400629 -0.0048595599368596934 0 -0.015548383893812341 -0.0052239780947771573 0 -0.01679858459931936 -0.0058342821662482657 0 -0.016473428989400629 -0.0048595599368596934 0 -0.016210668304104454 -0.0042571063768846694 0 -0.016473428989400629 -0.0048595599368596934 0 -0.017135186087810662 -0.0039984572260148123 0 -0.016210668304104454 -0.0042571063768846694 0 -0.017135186087810662 -0.0039984572260148123 0 -0.016908318975387582 -0.0036396690665497235 0 -0.016908318975387582 -0.0036396690665497235 0 -0.017399086240844804 -0.0035990991999559317 0 -0.017268201999619308 -0.0034535260172603591 0 -0.016277989283095051 -0.0033585259133674591 0 -0.016908318975387582 -0.0036396690665497235 0 -0.017268201999619308 -0.0034535260172603591 0 -0.017135186087810662 -0.0039984572260148123 0 -0.016908318975387582 -0.0036396690665497235 0 -0.017399086240844804 -0.0035990991999559317 0 -0.017399086240844804 -0.0035990991999559317 0 -0.017742137255462392 -0.0036776407162700327 0 -0.017553316087793772 -0.0034902951511797259 0 -0.017135186087810662 -0.0039984572260148123 0 -0.017399086240844804 -0.0035990991999559317 0 -0.017742137255462392 -0.0036776407162700327 0 -0.017465049413903061 -0.0045500707865713799 0 -0.017135186087810662 -0.0039984572260148123 0 -0.017742137255462392 -0.0036776407162700327 0 -0.018046779217698195 -0.0032946132783259808 0 -0.01739723172403991 -0.0035857352356666707 0 -0.017553316087793772 -0.0034902951511797259 0 -0.017141651410264545 -0.0033669434720373622 0 -0.018046779217698195 -0.0032946132783259808 0 -0.01739723172403991 -0.0035857352356666707 0 -0.018342208800487331 -0.0039229677955565168 0 -0.017742137255462392 -0.0036776407162700327 0 -0.018046779217698195 -0.0032946132783259808 0 -0.017742137255462392 -0.0036776407162700327 0 -0.018046779217698195 -0.0032946132783259808 0 -0.017553316087793772 -0.0034902951511797259 0 -0.018910941983776346 -0.0036748117387131176 0 -0.018342208800487331 -0.0039229677955565168 0 -0.018046779217698195 -0.0032946132783259808 0 -0.01739723172403991 -0.0035857352356666707 0 -0.017393013001279725 -0.0036868295875074389 0 -0.017142485086512935 -0.0040035085323585889 0 -0.016971879193038979 -0.0037973325357546148 0 -0.01739723172403991 -0.0035857352356666707 0 -0.017142485086512935 -0.0040035085323585889 0 -0.01739723172403991 -0.0035857352356666707 0 -0.017553316087793772 -0.0034902951511797259 0 -0.017393013001279725 -0.0036868295875074389 0 -0.017553316087793772 -0.0034902951511797259 0 -0.017393013001279725 -0.0036868295875074389 0 -0.017400839564090061 -0.0036026387886634163 0 -0.017393013001279725 -0.0036868295875074389 0 -0.017400839564090061 -0.0036026387886634163 0 -0.017397596630700268 -0.0038710309124696989 0 -0.017400839564090061 -0.0036026387886634163 0 -0.017268201999619308 -0.0034535260172603591 0 -0.017369803472548965 -0.003599826087274913 0 -0.017400839564090061 -0.0036026387886634163 0 -0.017369803472548965 -0.003599826087274913 0 -0.017466254176658792 -0.0037825673200068441 0 -0.017553316087793772 -0.0034902951511797259 0 -0.017400839564090061 -0.0036026387886634163 0 -0.017268201999619308 -0.0034535260172603591 0 -0.017399086240844804 -0.0035990991999559317 0 -0.017553316087793772 -0.0034902951511797259 0 -0.017268201999619308 -0.0034535260172603591 0 -0.017369803472548965 -0.003599826087274913 0 -0.017469151325049358 -0.0037472148628240358 0 -0.017211939918585578 -0.0035018391477196556 0 -0.017268201999619308 -0.0034535260172603591 0 -0.017369803472548965 -0.003599826087274913 0 -0.017211939918585578 -0.0035018391477196556 0 -0.017369803472548965 -0.003599826087274913 0 -0.017469151325049358 -0.0037472148628240358 0 -0.017466254176658792 -0.0037825673200068441 0 -0.017469151325049358 -0.0037472148628240358 0 -0.017588189160000402 -0.0039540545999831129 0 -0.017466254176658792 -0.0037825673200068441 0 -0.017469151325049358 -0.0037472148628240358 0 -0.017588189160000402 -0.0039540545999831129 0 -0.017730239808105876 -0.0040261996908668163 0 -0.017588189160000402 -0.0039540545999831129 0 -0.017730239808105876 -0.0040261996908668163 0 -0.017753650830750332 -0.0042005744503032906 0 -0.017588189160000402 -0.0039540545999831129 0 -0.0175222088899409 -0.0040410927881695848 0 -0.017753650830750332 -0.0042005744503032906 0 -0.0175222088899409 -0.0040410927881695848 0 -0.017552646517947891 -0.0043437581109636216 0 -0.017753650830750332 -0.0042005744503032906 0 -0.0175222088899409 -0.0040410927881695848 0 -0.017332660483114996 -0.0042289361845635953 0 -0.017552646517947891 -0.0043437581109636216 0 -0.0175222088899409 -0.0040410927881695848 0 -0.017466254176658792 -0.0037825673200068441 0 -0.017397596630700268 -0.0038710309124696989 0 -0.017400839564090061 -0.0036026387886634163 0 -0.017466254176658792 -0.0037825673200068441 0 -0.017397596630700268 -0.0038710309124696989 0 -0.017588189160000402 -0.0039540545999831129 0 -0.0175222088899409 -0.0040410927881695848 0 -0.017466254176658792 -0.0037825673200068441 0 -0.017393013001279725 -0.0036868295875074389 0 -0.017397596630700268 -0.0038710309124696989 0 -0.017142485086512935 -0.0040035085323585889 0 -0.017397596630700268 -0.0038710309124696989 0 -0.017332660483114996 -0.0042289361845635953 0 -0.017142485086512935 -0.0040035085323585889 0 -0.0175222088899409 -0.0040410927881695848 0 -0.017397596630700268 -0.0038710309124696989 0 -0.017332660483114996 -0.0042289361845635953 0 -0.017332660483114996 -0.0042289361845635953 0 -0.017142485086512935 -0.0040035085323585889 0 -0.016994016241397753 -0.0046003013963204532 0 -0.016758723667897487 -0.0044356535511789041 0 -0.017142485086512935 -0.0040035085323585889 0 -0.016994016241397753 -0.0046003013963204532 0 -0.01242019759931893 -0.0078557688807790668 0 -0.012351597661842276 -0.008153707183553521 0 -0.012591919623135545 -0.0077776556395336193 0 -0.01242019759931893 -0.0078557688807790668 0 -0.012351597661842276 -0.008153707183553521 0 -0.012217472679146576 -0.0082721651053449426 0 -0.012351597661842276 -0.008153707183553521 0 -0.012328844791129175 -0.0083145329043761481 0 -0.012591919623135545 -0.0077776556395336193 0 -0.012328844791129175 -0.0083145329043761481 0 -0.012591919623135545 -0.0077776556395336193 0 -0.012435842676969318 -0.008150063860043447 0 -0.012868306874654845 -0.0073262903326058006 0 -0.012591919623135545 -0.0077776556395336193 0 -0.012622313675769827 -0.0077606787815691271 0 -0.012868306874654845 -0.0073262903326058006 0 -0.012591919623135545 -0.0077776556395336193 0 -0.012819164936413439 -0.0072395638208108855 0 -0.012591919623135545 -0.0077776556395336193 0 -0.012435842676969318 -0.008150063860043447 0 -0.012622313675769827 -0.0077606787815691271 0 -0.01242019759931893 -0.0078557688807790668 0 -0.012819164936413439 -0.0072395638208108855 0 -0.012392062772769257 -0.0075263089402599209 0 -0.01242019759931893 -0.0078557688807790668 0 -0.012591919623135545 -0.0077776556395336193 0 -0.012819164936413439 -0.0072395638208108855 0 -0.012987630130981689 -0.0065993693523290564 0 -0.012819164936413439 -0.0072395638208108855 0 -0.012392062772769257 -0.0075263089402599209 0 -0.016277989283095051 -0.0033585259133674591 0 -0.017268201999619308 -0.0034535260172603591 0 -0.017211939918585578 -0.0035018391477196556 0 -0.014251241565725659 -0.0052675372613945511 0 -0.014496372221724882 -0.0057790812177662227 0 -0.012205305338265669 -0.0069296381106759815 0 -0.012392062772769257 -0.0075263089402599209 0 -0.011811669073176845 -0.0079907884863444252 0 -0.012392062772769257 -0.0075263089402599209 0 -0.011811669073176845 -0.0079907884863444252 0 -0.012133233275083179 -0.0081157745363439459 0 -0.01242019759931893 -0.0078557688807790668 0 -0.012392062772769257 -0.0075263089402599209 0 -0.012133233275083179 -0.0081157745363439459 0 -0.01242019759931893 -0.0078557688807790668 0 -0.012133233275083179 -0.0081157745363439459 0 -0.012217472679146576 -0.0082721651053449426 0 -0.012133233275083179 -0.0081157745363439459 0 -0.012067024336322837 -0.0084094854025030547 0 -0.011849365751425998 -0.0084295478555692187 0 -0.012133233275083179 -0.0081157745363439459 0 -0.012067024336322837 -0.0084094854025030547 0 -0.012217472679146576 -0.0082721651053449426 0 -0.011811669073176845 -0.0079907884863444252 0 -0.011849365751425998 -0.0084295478555692187 0 -0.011742030144182925 -0.008521781407597356 0 -0.017469151325049358 -0.0037472148628240358 0 -0.017211939918585578 -0.0035018391477196556 0 -0.017730239808105876 -0.0040261996908668163 0 -0.011811669073176845 -0.0079907884863444252 0 -0.012133233275083179 -0.0081157745363439459 0 -0.011849365751425998 -0.0084295478555692187 0 -0.014496372221724882 -0.0057790812177662227 0 -0.014757116745670333 -0.0062477404749576608 0 -0.011849286135871233 -0.0084613704703165055 0 -0.011949547757516383 -0.0089949196220387891 0 -0.011849365751425998 -0.0084295478555692187 0 -0.011742030144182925 -0.008521781407597356 0 -0.011991690959341142 -0.0088426204067737872 0 -0.012067024336322837 -0.0084094854025030547 0 -0.012073788651101876 -0.0087331636013553253 0 -0.012445931525601297 -0.0089187261644201859 0 -0.011849365751425998 -0.0084295478555692187 0 -0.012073788651101876 -0.0087331636013553253 0 -0.01189716732991709 -0.0091145285244760444 0 -0.012069618697528598 -0.0084615413168268195 0 -0.012208622230211319 -0.0088877387310310699 0 -0.012067024336322837 -0.0084094854025030547 0 -0.011849365751425998 -0.0084295478555692187 0 -0.012073788651101876 -0.0087331636013553253 0 -0.012067024336322837 -0.0084094854025030547 0 -0.012149751172332355 -0.0085472266137661748 0 -0.011943129764744658 -0.0088321735968887455 0 -0.012149751172332355 -0.0085472266137661748 0 -0.012014073752102195 -0.0088700313647903876 0 -0.011943129764744658 -0.0088321735968887455 0 -0.012351597661842276 -0.008153707183553521 0 -0.012149751172332355 -0.0085472266137661748 0 -0.012217472679146576 -0.0082721651053449426 0 -0.012067024336322837 -0.0084094854025030547 0 -0.012149751172332355 -0.0085472266137661748 0 -0.012217472679146576 -0.0082721651053449426 0 -0.012351597661842276 -0.008153707183553521 0 -0.012328844791129175 -0.0083145329043761481 0 -0.012149751172332355 -0.0085472266137661748 0 -0.012328844791129175 -0.0083145329043761481 0 -0.012149751172332355 -0.0085472266137661748 0 -0.012147581606014641 -0.0086778129503710666 0 -0.012149751172332355 -0.0085472266137661748 0 -0.012147581606014641 -0.0086778129503710666 0 -0.012014073752102195 -0.0088700313647903876 0 -0.012014073752102195 -0.0088700313647903876 0 -0.012011494359251087 -0.008940981276246613 0 -0.011841030682917747 -0.0090820616462006717 0 -0.012147581606014641 -0.0086778129503710666 0 -0.012014073752102195 -0.0088700313647903876 0 -0.012011494359251087 -0.008940981276246613 0 -0.012011494359251087 -0.008940981276246613 0 -0.011782739096313373 -0.0092036706946319758 0 -0.011841030682917747 -0.0090820616462006717 0 -0.011782739096313373 -0.0092036706946319758 0 -0.011556526946216641 -0.0093813506360165694 0 -0.011534047428178016 -0.0093157499709402292 0 -0.011556526946216641 -0.0093813506360165694 0 -0.011062753308265486 -0.0094743119205684869 0 -0.011534047428178016 -0.0093157499709402292 0 -0.011782739096313373 -0.0092036706946319758 0 -0.011556526946216641 -0.0093813506360165694 0 -0.011809511755029537 -0.0092020955342199274 0 -0.011809511755029537 -0.0092020955342199274 0 -0.011991137315903538 -0.0089723976039655443 0 -0.01204372233154942 -0.0089866073246483574 0 -0.011556526946216641 -0.0093813506360165694 0 -0.011809511755029537 -0.0092020955342199274 0 -0.011749340898521962 -0.0094021405910532738 0 -0.011809511755029537 -0.0092020955342199274 0 -0.01204372233154942 -0.0089866073246483574 0 -0.011749340898521962 -0.0094021405910532738 0 -0.011782739096313373 -0.0092036706946319758 0 -0.011809511755029537 -0.0092020955342199274 0 -0.011991137315903538 -0.0089723976039655443 0 -0.012011494359251087 -0.008940981276246613 0 -0.011782739096313373 -0.0092036706946319758 0 -0.011991137315903538 -0.0089723976039655443 0 -0.011991137315903538 -0.0089723976039655443 0 -0.01204372233154942 -0.0089866073246483574 0 -0.012206008780462083 -0.0086328186940151496 0 -0.01204372233154942 -0.0089866073246483574 0 -0.012206008780462083 -0.0086328186940151496 0 -0.012433237379257415 -0.0085949133020479292 0 -0.012011494359251087 -0.008940981276246613 0 -0.011991137315903538 -0.0089723976039655443 0 -0.012206008780462083 -0.0086328186940151496 0 -0.012328844791129175 -0.0083145329043761481 0 -0.012147581606014641 -0.0086778129503710666 0 -0.012206008780462083 -0.0086328186940151496 0 -0.012147581606014641 -0.0086778129503710666 0 -0.012011494359251087 -0.008940981276246613 0 -0.012206008780462083 -0.0086328186940151496 0 -0.00054791523692780816 -0.016949528864982868 0 0.0005731545855362435 -0.01790811288639638 0 0.00076591247687370415 -0.01689303498305833 0 -0.00054791523692780816 -0.016949528864982868 0 0.00076591247687370415 -0.01689303498305833 0 -0.0002249462586805082 -0.016415833305826442 0 -0.00054791523692780816 -0.016949528864982868 0 -0.0011637530047447935 -0.016645888611801409 0 -0.0002249462586805082 -0.016415833305826442 0 -0.00054791523692780816 -0.016949528864982868 0 -0.0011637530047447935 -0.016645888611801409 0 -0.0014913824650577001 -0.017430059362142404 0 -0.00054791523692780816 -0.016949528864982868 0 -0.0014913824650577001 -0.017430059362142404 0 0.0005731545855362435 -0.01790811288639638 0 -0.0046703697437758583 -0.015676293102450754 0 -0.0032831933434594642 -0.01713815018139472 0 -0.0082197496039636431 -0.010435739639921266 0 -0.0038198990687075794 -0.017298129628983135 0 -0.0043736387285319084 -0.013580077060144986 0 -0.0011637530047447935 -0.016645888611801409 0 -0.0032831933434594642 -0.01713815018139472 0 -0.00074060816170309256 -0.016055780283004726 0 -0.0011637530047447935 -0.016645888611801409 0 -0.0014913824650577001 -0.017430059362142404 0 -0.0032831933434594642 -0.01713815018139472 0 -0.011749340898521962 -0.0094021405910532738 0 -0.01063718105618632 -0.0095200500795516209 0 -0.011062753308265486 -0.0094743119205684869 0 -0.011556526946216641 -0.0093813506360165694 0 -0.011749340898521962 -0.0094021405910532738 0 -0.011062753308265486 -0.0094743119205684869 0 -0.01204372233154942 -0.0089866073246483574 0 -0.011749340898521962 -0.0094021405910532738 0 -0.012433237379257415 -0.0085949133020479292 0 -0.0032831933434594642 -0.01713815018139472 0 -0.0026678230139472823 -0.01941264183194296 0 -0.0034205620121985818 -0.01960623616311593 0 -0.0032831933434594642 -0.01713815018139472 0 -0.0018194980194031446 -0.018460048403312085 0 -0.0026678230139472823 -0.01941264183194296 0 -0.0082607961301283273 -0.012146209185997625 0 -0.0079284544765603621 -0.013831570470533872 0 -0.0046703697437758583 -0.015676293102450754 0 -0.0032831933434594642 -0.01713815018139472 0 -0.0034205620121985818 -0.01960623616311593 0 -0.0014913824650577001 -0.017430059362142404 0 -0.0032831933434594642 -0.01713815018139472 0 -0.0018194980194031446 -0.018460048403312085 0 -0.00042478388156209793 -0.018826982738088607 0 0.0011075420079209163 -0.020137950939822236 0 0.0005731545855362435 -0.01790811288639638 0 -0.0014913824650577001 -0.017430059362142404 0 -0.0018194980194031446 -0.018460048403312085 0 -0.00042478388156209793 -0.018826982738088607 0 -0.0018194980194031446 -0.018460048403312085 0 -0.00042478388156209793 -0.018826982738088607 0 -0.00072112444220059143 -0.020077848295181035 0 -0.0014913824650577001 -0.017430059362142404 0 -0.00042478388156209793 -0.018826982738088607 0 0.0005731545855362435 -0.01790811288639638 0 -0.0045287883712685851 -0.0055139392784237197 0 -0.0041330405039925319 -0.0054348222866415965 0 -0.004149154465114116 -0.0052522900269127842 0 -0.0018547696291996304 -0.020261038456352659 0 -0.0019047866217585991 -0.016891789288263737 0 -0.00072112444220059143 -0.020077848295181035 0 -0.0015083181479351609 -0.021744369937441891 0 0.0011075420079209163 -0.020137950939822236 0 -0.0018194980194031446 -0.018460048403312085 0 -0.00072112444220059143 -0.020077848295181035 0 -0.0015083181479351609 -0.021744369937441891 0 -0.0019047866217585991 -0.016891789288263737 0 -0.0016278656154586255 -0.01205372527479865 0 -0.00042478388156209793 -0.018826982738088607 0 -0.00072112444220059143 -0.020077848295181035 0 0.0011075420079209163 -0.020137950939822236 0 -0.0018194980194031446 -0.018460048403312085 0 -0.0026678230139472823 -0.01941264183194296 0 -0.0024850713221806135 -0.020326658034514444 0 -0.0026678230139472823 -0.01941264183194296 0 -0.0029819232804198337 -0.02001157224275403 0 -0.0024850713221806135 -0.020326658034514444 0 -0.0026678230139472823 -0.01941264183194296 0 -0.0029819232804198337 -0.02001157224275403 0 -0.0034205620121985818 -0.01960623616311593 0 -0.0029116178266722259 -0.020211292365588975 0 -0.0031256549051753065 -0.020186400866760906 0 -0.0030507995073639931 -0.020151627973322202 0 -0.0029116178266722259 -0.020211292365588975 0 -0.0029572983333541981 -0.020145802149059255 0 -0.0030507995073639931 -0.020151627973322202 0 -0.0029819232804198337 -0.02001157224275403 0 -0.0029116178266722259 -0.020211292365588975 0 -0.0031256549051753065 -0.020186400866760906 0 -0.0029819232804198337 -0.02001157224275403 0 -0.0029116178266722259 -0.020211292365588975 0 -0.0024850713221806135 -0.020326658034514444 0 -0.0029116178266722259 -0.020211292365588975 0 -0.0029328989637859315 -0.020198854569926879 0 -0.0029572983333541981 -0.020145802149059255 0 -0.0033793369712229169 -0.019064801913131542 0 -0.0019047866217585991 -0.016891789288263737 0 -0.0045287883712685851 -0.0055139392784237197 0 -0.0045300485484750875 -0.0057731610355077501 0 -0.0041330405039925319 -0.0054348222866415965 0 -0.0040478897888965278 -0.0049486801685920262 0 -0.0041674518000205159 -0.0049080232147919681 0 -0.0042143631931733276 -0.0049723572465276179 0 -0.0054805523061042119 -0.0083870069688051704 0 -0.0037969508890298479 -0.0047591226054151427 0 -0.0019047866217585991 -0.016891789288263737 0 -0.0054805523061042119 -0.0083870069688051704 0 -0.012206008780462083 -0.0086328186940151496 0 -0.012435842676969318 -0.008150063860043447 0 -0.012499126289296806 -0.0081692263344901612 0 -0.012328844791129175 -0.0083145329043761481 0 -0.012206008780462083 -0.0086328186940151496 0 -0.012435842676969318 -0.008150063860043447 0 -0.012435842676969318 -0.008150063860043447 0 -0.012499126289296806 -0.0081692263344901612 0 -0.012622313675769827 -0.0077606787815691271 0 -0.0079284544765603621 -0.013831570470533872 0 -0.0080577478526329821 -0.014677053741188526 0 -0.0029819232804198337 -0.02001157224275403 0 -0.0034205620121985818 -0.01960623616311593 0 -0.0031256549051753065 -0.020186400866760906 0 -0.012433237379257415 -0.0085949133020479292 0 -0.012499126289296806 -0.0081692263344901612 0 -0.012752291956650275 -0.0079224329232641909 0 -0.012206008780462083 -0.0086328186940151496 0 -0.012433237379257415 -0.0085949133020479292 0 -0.012499126289296806 -0.0081692263344901612 0 -0.012499126289296806 -0.0081692263344901612 0 -0.012752291956650275 -0.0079224329232641909 0 -0.012699179258148985 -0.0076755007455999212 0 -0.012499126289296806 -0.0081692263344901612 0 -0.012699179258148985 -0.0076755007455999212 0 -0.012622313675769827 -0.0077606787815691271 0 -0.012699179258148985 -0.0076755007455999212 0 -0.012622313675769827 -0.0077606787815691271 0 -0.012743746495277892 -0.0074677667202883045 0 -0.012868306874654845 -0.0073262903326058006 0 -0.012622313675769827 -0.0077606787815691271 0 -0.012743746495277892 -0.0074677667202883045 0 -0.012798447156891138 -0.0073974539648968161 0 -0.012743746495277892 -0.0074677667202883045 0 -0.012751719496437769 -0.0074947190477070609 0 -0.012699179258148985 -0.0076755007455999212 0 -0.012743746495277892 -0.0074677667202883045 0 -0.012751719496437769 -0.0074947190477070609 0 -0.0089670778142859776 -0.0060920261903818175 0 -0.0083442979369493936 -0.0060808672604641721 0 -0.0082723931734046009 -0.005860191299501839 0 -0.0089670778142859776 -0.0060920261903818175 0 -0.0083442979369493936 -0.0060808672604641721 0 -0.0085418347390823993 -0.006294412080797787 0 -0.011155987931156599 -0.0063459071485010548 0 -0.007632840781533215 -0.01056721843984601 0 -0.0081930183595319388 -0.0062674617993500551 0 -0.0080724831953819208 -0.0060583126233109694 0 -0.0078839580395715474 -0.0063019054724206512 0 -0.0081930183595319388 -0.0062674617993500551 0 -0.0083442979369493936 -0.0060808672604641721 0 -0.0080724831953819208 -0.0060583126233109694 0 -0.0081930183595319388 -0.0062674617993500551 0 -0.0083442979369493936 -0.0060808672604641721 0 -0.0085418347390823993 -0.006294412080797787 0 -0.0083442979369493936 -0.0060808672604641721 0 -0.0080724831953819208 -0.0060583126233109694 0 -0.0082621366617091716 -0.0059122716041794324 0 -0.0074848880914447479 -0.0059260890167798785 0 -0.007632840781533215 -0.01056721843984601 0 -0.012752291956650275 -0.0079224329232641909 0 -0.012699179258148985 -0.0076755007455999212 0 -0.012751719496437769 -0.0074947190477070609 0 -0.0080577478526329821 -0.014677053741188526 0 -0.007632840781533215 -0.01056721843984601 0 -0.0080724831953819208 -0.0060583126233109694 0 -0.0082621366617091716 -0.0059122716041794324 0 -0.007928959246569809 -0.0057855136413895621 0 -0.0031256549051753065 -0.020186400866760906 0 -0.0030705047262305058 -0.020054766848561761 0 -0.0030507995073639931 -0.020151627973322202 0 -0.007632840781533215 -0.01056721843984601 0 -0.0057241323907036533 -0.012884728455891292 0 -0.0080724831953819208 -0.0060583126233109694 0 -0.007928959246569809 -0.0057855136413895621 0 -0.0076007917607080417 -0.0060900557493272726 0 -0.0076219687605936053 -0.0056594285798497387 0 -0.007928959246569809 -0.0057855136413895621 0 -0.0076007917607080417 -0.0060900557493272726 0 -0.0054805523061042119 -0.0083870069688051704 0 -0.0057241323907036533 -0.012884728455891292 0 -0.0054805523061042119 -0.0083870069688051704 0 -0.0058660794480174848 -0.0048386583861647157 0 -0.0040478897888965278 -0.0049486801685920262 0 -0.0041411222275665373 -0.0048058411284164467 0 -0.0040205612088612388 -0.0046796041527947946 0 -0.0040478897888965278 -0.0049486801685920262 0 -0.0041411222275665373 -0.0048058411284164467 0 -0.0041674518000205159 -0.0049080232147919681 0 -0.0041411222275665373 -0.0048058411284164467 0 -0.0040205612088612388 -0.0046796041527947946 0 -0.0041984993072487018 -0.0046575986726042594 0 -0.0040205612088612388 -0.0046796041527947946 0 -0.0041276199105235428 -0.0045487698532512676 0 -0.0041984993072487018 -0.0046575986726042594 0 -0.0080724831953819208 -0.0060583126233109694 0 -0.0076007917607080417 -0.0060900557493272726 0 -0.0078839580395715474 -0.0063019054724206512 0 -0.0078839580395715474 -0.0063019054724206512 0 -0.0079937721884655675 -0.0065181667424700808 0 -0.0075518001597961121 -0.0065903969130274558 0 -0.0076007917607080417 -0.0060900557493272726 0 -0.0078839580395715474 -0.0063019054724206512 0 -0.0075518001597961121 -0.0065903969130274558 0 -0.0079937721884655675 -0.0065181667424700808 0 -0.0075518001597961121 -0.0065903969130274558 0 -0.0080208619460319375 -0.0068083100464035361 0 -0.0055156225849041143 -0.0040044943368390731 0 -0.0062719730567914519 -0.0040177743598647665 0 -0.0065428861607323748 -0.0044624775731567888 0 -0.0040205612088612388 -0.0046796041527947946 0 -0.0041276199105235428 -0.0045487698532512676 0 -0.0040357508363658276 -0.0044003762324365658 0 -0.0058660794480174848 -0.0048386583861647157 0 -0.0056713855738035977 -0.0051227442743383067 0 -0.0056713855738035977 -0.0051227442743383067 0 -0.005144309145096785 -0.0043498309523265239 0 -0.0041276199105235428 -0.0045487698532512676 0 -0.0040357508363658276 -0.0044003762324365658 0 -0.004270613015976036 -0.0044597211127523967 0 -0.005899792027948725 -0.0035900742165864297 0 -0.0058651707708956115 -0.0030229661380722695 0 -0.0063729438339757555 -0.0033672566362376948 0 -0.0055156225849041143 -0.0040044943368390731 0 -0.005899792027948725 -0.0035900742165864297 0 -0.0062719730567914519 -0.0040177743598647665 0 -0.005899792027948725 -0.0035900742165864297 0 -0.0063729438339757555 -0.0033672566362376948 0 -0.0062719730567914519 -0.0040177743598647665 0 -0.005899792027948725 -0.0035900742165864297 0 -0.0054595814904780616 -0.0033740897926886225 0 -0.0058651707708956115 -0.0030229661380722695 0 -0.0055156225849041143 -0.0040044943368390731 0 -0.005899792027948725 -0.0035900742165864297 0 -0.0054595814904780616 -0.0033740897926886225 0 -0.0056713855738035977 -0.0051227442743383067 0 -0.0056219038537018134 -0.0037374026473557002 0 -0.0057866098648516285 -0.0023170883319022476 0 -0.0058651707708956115 -0.0030229661380722695 0 -0.0050424111996894344 -0.0026377964947009057 0 -0.0054595814904780616 -0.0033740897926886225 0 -0.0058651707708956115 -0.0030229661380722695 0 -0.0050424111996894344 -0.0026377964947009057 0 -0.0066188073650586031 -0.0021555835059146847 0 -0.0058651707708956115 -0.0030229661380722695 0 -0.0063729438339757555 -0.0033672566362376948 0 -0.0057866098648516285 -0.0023170883319022476 0 -0.0066188073650586031 -0.0021555835059146847 0 -0.0058651707708956115 -0.0030229661380722695 0 -0.0054595814904780616 -0.0033740897926886225 0 -0.0050424111996894344 -0.0026377964947009057 0 -0.0040097002013088296 -0.0031429989432906463 0 -0.0054400483074576473 -0.0039025185683861812 0 -0.0054595814904780616 -0.0033740897926886225 0 -0.0040097002013088296 -0.0031429989432906463 0 -0.0056713855738035977 -0.0051227442743383067 0 -0.0059736878763088815 -0.0049651456929468664 0 -0.0042525930108909815 -0.0020460795676467028 0 -0.0050424111996894344 -0.0026377964947009057 0 -0.0040097002013088296 -0.0031429989432906463 0 -0.0059736878763088815 -0.0049651456929468664 0 -0.0066085870778917607 -0.0049399717082828963 0 -0.0080208619460319375 -0.0068083100464035361 0 -0.0083522935215391246 -0.0066892015782675732 0 -0.0084835408072758394 -0.0068758661964052033 0 -0.0080208619460319375 -0.0068083100464035361 0 -0.0085341438628550696 -0.0070299558951285451 0 -0.0084835408072758394 -0.0068758661964052033 0 -0.0033377802192635698 -0.0021344967506556761 0 -0.0040097002013088296 -0.0031429989432906463 0 -0.002522234827477089 -0.0024520962335473611 0 -0.0033377802192635698 -0.0021344967506556761 0 -0.0042525930108909815 -0.0020460795676467028 0 -0.0040097002013088296 -0.0031429989432906463 0 -0.0085506530395333975 -0.0070481531251638304 0 -0.0086003286795885443 -0.0070669719175517698 0 -0.0086307265438094454 -0.0069144068605343128 0 -0.0066085870778917607 -0.0049399717082828963 0 -0.0069092988805312646 -0.005110965913516465 0 -0.0066085870778917607 -0.0049399717082828963 0 -0.0076603016405008056 -0.0067546605566090002 0 -0.0085506530395333975 -0.0070481531251638304 0 -0.0084835408072758394 -0.0068758661964052033 0 -0.0086307265438094454 -0.0069144068605343128 0 -0.0088644522543756023 -0.0068092783239674147 0 -0.0086003286795885443 -0.0070669719175517698 0 -0.0086307265438094454 -0.0069144068605343128 0 -0.0088644522543756023 -0.0068092783239674147 0 -0.0086307265438094454 -0.0069144068605343128 0 -0.0086190782508114953 -0.0065835131270955208 0 -0.0083522935215391246 -0.0066892015782675732 0 -0.0084835408072758394 -0.0068758661964052033 0 -0.0086190782508114953 -0.0065835131270955208 0 -0.0084835408072758394 -0.0068758661964052033 0 -0.0086307265438094454 -0.0069144068605343128 0 -0.0086190782508114953 -0.0065835131270955208 0 -0.0083522935215391246 -0.0066892015782675732 0 -0.0086190782508114953 -0.0065835131270955208 0 -0.0082967925369273905 -0.0064842135942760502 0 -0.0089670778142859776 -0.0060920261903818175 0 -0.0086190782508114953 -0.0065835131270955208 0 -0.0085418347390823993 -0.006294412080797787 0 -0.0086190782508114953 -0.0065835131270955208 0 -0.0085418347390823993 -0.006294412080797787 0 -0.0082967925369273905 -0.0064842135942760502 0 -0.0081930183595319388 -0.0062674617993500551 0 -0.0085418347390823993 -0.006294412080797787 0 -0.0082967925369273905 -0.0064842135942760502 0 -0.0081930183595319388 -0.0062674617993500551 0 -0.0078839580395715474 -0.0063019054724206512 0 -0.0079937721884655675 -0.0065181667424700808 0 -0.0081930183595319388 -0.0062674617993500551 0 -0.0079937721884655675 -0.0065181667424700808 0 -0.0082967925369273905 -0.0064842135942760502 0 -0.0079937721884655675 -0.0065181667424700808 0 -0.0080208619460319375 -0.0068083100464035361 0 -0.0082967925369273905 -0.0064842135942760502 0 -0.0080208619460319375 -0.0068083100464035361 0 -0.0083522935215391246 -0.0066892015782675732 0 -0.0082967925369273905 -0.0064842135942760502 0 -0.0043421806595691538 -0.0051362395126733898 0 -0.0050300891993462875 -0.0055811070027198097 0 -0.005459830995452033 -0.0047706992382739568 0 -0.0043421806595691538 -0.0051362395126733898 0 -0.005459830995452033 -0.0047706992382739568 0 -0.0047939353844524586 -0.0045600573632887048 0 -0.0043421806595691538 -0.0051362395126733898 0 -0.0042712320602271607 -0.0048415729669985868 0 -0.0040882469547935622 -0.0050178696957768002 0 -0.0043421806595691538 -0.0051362395126733898 0 -0.0040882469547935622 -0.0050178696957768002 0 -0.0039615131987944304 -0.0052350310057188614 0 -0.0043421806595691538 -0.0051362395126733898 0 -0.0040729330440930286 -0.0055770910847592666 0 -0.0039615131987944304 -0.0052350310057188614 0 -0.0042018238307734435 -0.0058490327722074114 0 -0.0043421806595691538 -0.0051362395126733898 0 -0.0040729330440930286 -0.0055770910847592666 0 -0.0030397253298162221 -0.0055126107158324075 0 -0.00053168712338897794 -0.0072556436095909662 0 -0.0030397253298162221 -0.0055126107158324075 0 -0.0081272242150448818 -0.004042085466747735 0 -0.011149388935198517 -0.0023701741233839685 0 -0.0093673150147865984 -0.0018921130853324095 0 -0.0092277897786689159 -0.0033192390676548473 0 -0.0042018238307734435 -0.0058490327722074114 0 -0.0043421806595691538 -0.0051362395126733898 0 -0.0050300891993462875 -0.0055811070027198097 0 -0.0081272242150448818 -0.004042085466747735 0 -0.0062221570041095858 -0.0047044592464800467 0 -0.0078756108424517923 -0.001978494421982854 0 -0.0092277897786689159 -0.0033192390676548473 0 -0.0071497308378993315 -0.0031526738298495271 0 -0.0092277897786689159 -0.0033192390676548473 0 -0.0071497308378993315 -0.0031526738298495271 0 -0.0066117517595351101 -0.0045017197006510072 0 -0.0066188073650586031 -0.0021555835059146847 0 -0.0071497308378993315 -0.0031526738298495271 0 -0.0063729438339757555 -0.0033672566362376948 0 -0.0071497308378993315 -0.0031526738298495271 0 -0.0065747348604740241 -0.0037795716489008781 0 -0.0066117517595351101 -0.0045017197006510072 0 -0.0071497308378993315 -0.0031526738298495271 0 -0.0065747348604740241 -0.0037795716489008781 0 -0.0063729438339757555 -0.0033672566362376948 0 -0.0065747348604740241 -0.0037795716489008781 0 -0.0063729438339757555 -0.0033672566362376948 0 -0.0062719730567914519 -0.0040177743598647665 0 -0.0062719730567914519 -0.0040177743598647665 0 -0.0066117517595351101 -0.0045017197006510072 0 -0.0065428861607323748 -0.0044624775731567888 0 -0.0065747348604740241 -0.0037795716489008781 0 -0.0062719730567914519 -0.0040177743598647665 0 -0.0066117517595351101 -0.0045017197006510072 0 -0.0066117517595351101 -0.0045017197006510072 0 -0.0065428861607323748 -0.0044624775731567888 0 -0.005459830995452033 -0.0047706992382739568 0 -0.0065428861607323748 -0.0044624775731567888 0 -0.005459830995452033 -0.0047706992382739568 0 -0.0047939353844524586 -0.0045600573632887048 0 -0.0050300891993462875 -0.0055811070027198097 0 -0.0066117517595351101 -0.0045017197006510072 0 -0.005459830995452033 -0.0047706992382739568 0 -0.005144309145096785 -0.0043498309523265239 0 -0.0050198215473771131 -0.0045775443158346339 0 -0.004270613015976036 -0.0044597211127523967 0 -0.0047939353844524586 -0.0045600573632887048 0 -0.0043801770193097672 -0.0046860769208677301 0 -0.0047939353844524586 -0.0045600573632887048 0 -0.0044023122318846168 -0.0048273386478553081 0 -0.0044014428547759239 -0.0048041160207723593 0 -0.0047939353844524586 -0.0045600573632887048 0 -0.0043801770193097672 -0.0046860769208677301 0 -0.0044023122318846168 -0.0048273386478553081 0 -0.0041276199105235428 -0.0045487698532512676 0 -0.004270613015976036 -0.0044597211127523967 0 -0.0041984993072487018 -0.0046575986726042594 0 -0.004270613015976036 -0.0044597211127523967 0 -0.0043801770193097672 -0.0046860769208677301 0 -0.0041984993072487018 -0.0046575986726042594 0 -0.0043801770193097672 -0.0046860769208677301 0 -0.0041984993072487018 -0.0046575986726042594 0 -0.0042789433639310323 -0.0048127440690906836 0 -0.0041411222275665373 -0.0048058411284164467 0 -0.0041984993072487018 -0.0046575986726042594 0 -0.0042789433639310323 -0.0048127440690906836 0 -0.0042789433639310323 -0.0048127440690906836 0 -0.0041674518000205159 -0.0049080232147919681 0 -0.0042489756834981534 -0.004924099821084953 0 -0.0041411222275665373 -0.0048058411284164467 0 -0.0042789433639310323 -0.0048127440690906836 0 -0.0041674518000205159 -0.0049080232147919681 0 -0.0043801770193097672 -0.0046860769208677301 0 -0.0042789433639310323 -0.0048127440690906836 0 -0.0044023122318846168 -0.0048273386478553081 0 -0.0042789433639310323 -0.0048127440690906836 0 -0.0044023122318846168 -0.0048273386478553081 0 -0.0042489756834981534 -0.004924099821084953 0 -0.0044023122318846168 -0.0048273386478553081 0 -0.0042489756834981534 -0.004924099821084953 0 -0.0042510735196221597 -0.004923152188278661 0 -0.0044023122318846168 -0.0048273386478553081 0 -0.0044014428547759239 -0.0048041160207723593 0 -0.0042510735196221597 -0.004923152188278661 0 -0.0044014428547759239 -0.0048041160207723593 0 -0.0041524834749013745 -0.0048866373673589168 0 -0.0041694930282332497 -0.0049321494979690361 0 -0.0047939353844524586 -0.0045600573632887048 0 -0.0044014428547759239 -0.0048041160207723593 0 -0.0042712320602271607 -0.0048415729669985868 0 -0.0043421806595691538 -0.0051362395126733898 0 -0.0047939353844524586 -0.0045600573632887048 0 -0.0042712320602271607 -0.0048415729669985868 0 -0.0042712320602271607 -0.0048415729669985868 0 -0.0040882469547935622 -0.0050178696957768002 0 -0.0040161438761696627 -0.0049548903359700573 0 -0.0042712320602271607 -0.0048415729669985868 0 -0.0041524834749013745 -0.0048866373673589168 0 -0.0040161438761696627 -0.0049548903359700573 0 -0.0044014428547759239 -0.0048041160207723593 0 -0.0042712320602271607 -0.0048415729669985868 0 -0.0041524834749013745 -0.0048866373673589168 0 -0.0041524834749013745 -0.0048866373673589168 0 -0.0040326521464185668 -0.0049258488810477114 0 -0.0041694930282332497 -0.0049321494979690361 0 -0.0041694930282332497 -0.0049321494979690361 0 -0.0042510735196221597 -0.004923152188278661 0 -0.0040687310335947224 -0.0050770268180147611 0 -0.0044014428547759239 -0.0048041160207723593 0 -0.0041694930282332497 -0.0049321494979690361 0 -0.0042510735196221597 -0.004923152188278661 0 -0.0041694930282332497 -0.0049321494979690361 0 -0.0040687310335947224 -0.0050770268180147611 0 -0.0040217638371333507 -0.00500027804770534 0 -0.0040326521464185668 -0.0049258488810477114 0 -0.0041694930282332497 -0.0049321494979690361 0 -0.0040217638371333507 -0.00500027804770534 0 -0.0041674518000205159 -0.0049080232147919681 0 -0.0042489756834981534 -0.004924099821084953 0 -0.0042143631931733276 -0.0049723572465276179 0 -0.0042489756834981534 -0.004924099821084953 0 -0.0042143631931733276 -0.0049723572465276179 0 -0.0041925791782313516 -0.0049755459759395293 0 -0.0041925791782313516 -0.0049755459759395293 0 -0.0042510735196221597 -0.004923152188278661 0 -0.0040687310335947224 -0.0050770268180147611 0 -0.0042489756834981534 -0.004924099821084953 0 -0.0041925791782313516 -0.0049755459759395293 0 -0.0042510735196221597 -0.004923152188278661 0 -0.0037969508890298479 -0.0047591226054151427 0 -0.0042766080558930197 -0.0052482182274673755 0 -0.0042143631931733276 -0.0049723572465276179 0 -0.0041925791782313516 -0.0049755459759395293 0 -0.0040687310335947224 -0.0050770268180147611 0 -0.0040687310335947224 -0.0050770268180147611 0 -0.004149154465114116 -0.0052522900269127842 0 -0.0039936494935298378 -0.0051564571445899942 0 -0.0041330405039925319 -0.0054348222866415965 0 -0.0040687310335947224 -0.0050770268180147611 0 -0.004149154465114116 -0.0052522900269127842 0 0.0011075420079209163 -0.020137950939822236 0 0.0005731545855362435 -0.01790811288639638 0 0.0034209633990976772 -0.018731218391248139 0 0.0017162008337151201 -0.018825424453677971 0 0.00097394768208038725 -0.015156972322506635 0 -0.0016278656154586255 -0.01205372527479865 0 0.00097394768208038725 -0.015156972322506635 0 0.002792059298033969 -0.018083290715346974 0 0.0029630543214444441 -0.017264827711899144 0 0.0020933468731410255 -0.017251182028891147 0 0.0029630543214444441 -0.017264827711899144 0 0.0033089264995101145 -0.016960018725983978 0 0.0028170043379400775 -0.016942342033562062 0 0.0029630543214444441 -0.017264827711899144 0 0.0020933468731410255 -0.017251182028891147 0 0.0028170043379400775 -0.016942342033562062 0 0.0005731545855362435 -0.01790811288639638 0 0.002792059298033969 -0.018083290715346974 0 0.0020933468731410255 -0.017251182028891147 0 0.0020933468731410255 -0.017251182028891147 0 0.00076591247687370415 -0.01689303498305833 0 0.002098754477440401 -0.016672325032619572 0 0.0005731545855362435 -0.01790811288639638 0 0.0020933468731410255 -0.017251182028891147 0 0.00076591247687370415 -0.01689303498305833 0 0.0030059634646644063 -0.016666563152345396 0 0.003199465041069301 -0.01694226448245487 0 0.0030260269355332175 -0.016579609397794497 0 0.00097394768208038725 -0.015156972322506635 0 0.0035328879095768559 -0.017313369788416303 0 -0.0040687310335947224 -0.0050770268180147611 0 -0.0039936494935298378 -0.0051564571445899942 0 -0.0040217638371333507 -0.00500027804770534 0 0.00097394768208038725 -0.015156972322506635 0 -0.00081656126708150518 -0.010256307036755037 0 0.003063953633472327 -0.016758711824751426 0 0.0030059634646644063 -0.016666563152345396 0 0.003199465041069301 -0.01694226448245487 0 0.003199465041069301 -0.01694226448245487 0 0.0032106509853849783 -0.016941268260994579 0 0.0033089264995101145 -0.016960018725983978 0 0.0029630543214444441 -0.017264827711899144 0 0.003199465041069301 -0.01694226448245487 0 0.0033089264995101145 -0.016960018725983978 0 0.002792059298033969 -0.018083290715346974 0 0.0029630543214444441 -0.017264827711899144 0 0.003199465041069301 -0.01694226448245487 0 0.003199465041069301 -0.01694226448245487 0 0.0032106509853849783 -0.016941268260994579 0 0.0030260269355332175 -0.016579609397794497 0 0.0032106509853849783 -0.016941268260994579 0 0.0035983626570658361 -0.017567294879866677 0 0.0029269561706706426 -0.017121074935451952 0 0.0032106509853849783 -0.016941268260994579 0 0.0033089264995101145 -0.016960018725983978 0 0.0035983626570658361 -0.017567294879866677 0 0.0033089264995101145 -0.016960018725983978 0 0.0035983626570658361 -0.017567294879866677 0 0.0032926856956365619 -0.016810243481896185 0 0.0035983626570658361 -0.017567294879866677 0 0.0038105459259536768 -0.017095759657620939 0 0.0032926856956365619 -0.016810243481896185 0 0.0035983626570658361 -0.017567294879866677 0 0.0029269561706706426 -0.017121074935451952 0 0.0030052212539526156 -0.019356372331844427 0 0.0035983626570658361 -0.017567294879866677 0 0.003716193763241493 -0.019256982854348535 0 0.0030052212539526156 -0.019356372331844427 0 0.0035983626570658361 -0.017567294879866677 0 0.0041379268861204948 -0.018504769302937839 0 0.0038105459259536768 -0.017095759657620939 0 0.0035983626570658361 -0.017567294879866677 0 0.0041379268861204948 -0.018504769302937839 0 0.003716193763241493 -0.019256982854348535 0 0.003716193763241493 -0.019256982854348535 0 0.0038762164974200132 -0.020862665632449331 0 0.0050164106923737579 -0.020395823693283438 0 0.0041379268861204948 -0.018504769302937839 0 0.003716193763241493 -0.019256982854348535 0 0.0050164106923737579 -0.020395823693283438 0 0.003716193763241493 -0.019256982854348535 0 0.0033262087954850292 -0.020100646657091333 0 0.0030052212539526156 -0.019356372331844427 0 0.003716193763241493 -0.019256982854348535 0 0.0033262087954850292 -0.020100646657091333 0 0.0038762164974200132 -0.020862665632449331 0 0.0022520496028760424 -0.011339246040771762 0 0.003296788470040848 -0.0134180856981509 0 0.0014098316623726115 -0.013349462097952269 0 0.0022520496028760424 -0.011339246040771762 0 0.0014098316623726115 -0.013349462097952269 0 0.00056668124484391042 -0.01180997862324738 0 0.00035798636010685641 -0.016876960038034707 0 -0.00012114335076873798 -0.015717552341835618 0 -0.00059283321307466975 -0.016932098783046055 0 0.0025218781153672821 -0.015974522496881659 0 0.0021501964369908992 -0.018909071276425254 0 0.0017962870228132228 -0.014520787930461253 0 0.0025218781153672821 -0.015974522496881659 0 0.0041379268861204948 -0.018504769302937839 0 0.0050934570253933003 -0.018506346179561095 0 0.0050164106923737579 -0.020395823693283438 0 0.0025218781153672821 -0.015974522496881659 0 0.0041187857851287639 -0.017838824908847164 0 0.0041379268861204948 -0.018504769302937839 0 0.0050934570253933003 -0.018506346179561095 0 0.0038105459259536768 -0.017095759657620939 0 0.003296788470040848 -0.0134180856981509 0 0.0014098316623726115 -0.013349462097952269 0 0.0013419154882527897 -0.014704326609153117 0 0.0013419154882527897 -0.014704326609153117 0 0.0025050475489000836 -0.016258529018062157 0 0.00012361587072302503 -0.015483035665305006 0 0.003296788470040848 -0.0134180856981509 0 0.0013419154882527897 -0.014704326609153117 0 0.0025050475489000836 -0.016258529018062157 0 0.003809004204542066 -0.016935847841993812 0 0.0025050475489000836 -0.016258529018062157 0 0.0038105459259536768 -0.017095759657620939 0 0.0025218781153672821 -0.015974522496881659 0 0.0028974041013629217 -0.015956710635366814 0 0.0025050475489000836 -0.016258529018062157 0 0.0038105459259536768 -0.017095759657620939 0 0.0032926856956365619 -0.016810243481896185 0 0.0025050475489000836 -0.016258529018062157 0 0.0032926856956365619 -0.016810243481896185 0 0.002098754477440401 -0.016672325032619572 0 0.0020933468731410255 -0.017251182028891147 0 0.0028170043379400775 -0.016942342033562062 0 0.002098754477440401 -0.016672325032619572 0 0.0032926856956365619 -0.016810243481896185 0 0.0028170043379400775 -0.016942342033562062 0 0.002098754477440401 -0.016672325032619572 0 0.0033089264995101145 -0.016960018725983978 0 0.0032926856956365619 -0.016810243481896185 0 0.0028170043379400775 -0.016942342033562062 0 0.0025050475489000836 -0.016258529018062157 0 0.00083789290956627139 -0.016336943460285615 0 0.00012361587072302503 -0.015483035665305006 0 0.0025050475489000836 -0.016258529018062157 0 0.00083789290956627139 -0.016336943460285615 0 0.002098754477440401 -0.016672325032619572 0 0.00076591247687370415 -0.01689303498305833 0 0.00083789290956627139 -0.016336943460285615 0 0.002098754477440401 -0.016672325032619572 0 0.00076591247687370415 -0.01689303498305833 0 0.00083789290956627139 -0.016336943460285615 0 -0.0002249462586805082 -0.016415833305826442 0 0.00083789290956627139 -0.016336943460285615 0 -0.00017582025967344503 -0.016109461399760241 0 -0.0002249462586805082 -0.016415833305826442 0 0.00083789290956627139 -0.016336943460285615 0 -0.00017582025967344503 -0.016109461399760241 0 0.00012361587072302503 -0.015483035665305006 0 -0.00017582025967344503 -0.016109461399760241 0 -0.00074060816170309256 -0.016055780283004726 0 0.00012361587072302503 -0.015483035665305006 0 -0.0011637530047447935 -0.016645888611801409 0 -0.00057291333800661432 -0.016294459120964624 0 -0.00074060816170309256 -0.016055780283004726 0 -0.00017582025967344503 -0.016109461399760241 0 -0.00057291333800661432 -0.016294459120964624 0 -0.00074060816170309256 -0.016055780283004726 0 -0.00017582025967344503 -0.016109461399760241 0 -0.00057291333800661432 -0.016294459120964624 0 -0.0002249462586805082 -0.016415833305826442 0 -0.0011637530047447935 -0.016645888611801409 0 -0.00057291333800661432 -0.016294459120964624 0 -0.0002249462586805082 -0.016415833305826442 0 -0.011749340898521962 -0.0094021405910532738 0 -0.01063718105618632 -0.0095200500795516209 0 -0.0092649803346611746 -0.0096600339272256419 0 -0.0082607961301283273 -0.012146209185997625 0 -0.0087637203750648603 -0.0094450359664940333 0 -0.0046703697437758583 -0.015676293102450754 0 -0.0092649803346611746 -0.0096600339272256419 0 -0.0082197496039636431 -0.010435739639921266 0 -0.01063718105618632 -0.0095200500795516209 0 -0.011062753308265486 -0.0094743119205684869 0 -0.010671052443028696 -0.0093305802762760452 0 -0.011062753308265486 -0.0094743119205684869 0 -0.010671052443028696 -0.0093305802762760452 0 -0.011534047428178016 -0.0093157499709402292 0 -0.010671052443028696 -0.0093305802762760452 0 -0.0092649803346611746 -0.0096600339272256419 0 -0.010307343833269936 -0.0086309557666950885 0 -0.010671052443028696 -0.0093305802762760452 0 -0.010307343833269936 -0.0086309557666950885 0 -0.011533755346469518 -0.0090743630725729392 0 -0.01063718105618632 -0.0095200500795516209 0 -0.010671052443028696 -0.0093305802762760452 0 -0.0092649803346611746 -0.0096600339272256419 0 -0.0092649803346611746 -0.0096600339272256419 0 -0.0082197496039636431 -0.010435739639921266 0 -0.0095025826513077151 -0.0083476167211909164 0 -0.0095025826513077151 -0.0083476167211909164 0 -0.010307343833269936 -0.0086309557666950885 0 -0.01012893710529662 -0.0071101463580226024 0 -0.0092649803346611746 -0.0096600339272256419 0 -0.0095025826513077151 -0.0083476167211909164 0 -0.010307343833269936 -0.0086309557666950885 0 -0.0095025826513077151 -0.0083476167211909164 0 -0.0088105900857799683 -0.0070306821891020612 0 -0.01012893710529662 -0.0071101463580226024 0 -0.010307343833269936 -0.0086309557666950885 0 -0.011533755346469518 -0.0090743630725729392 0 -0.01012893710529662 -0.0071101463580226024 0 -0.0043736387285319084 -0.013580077060144986 0 -0.0044873614451259002 -0.010897229585404159 0 -0.00074060816170309256 -0.016055780283004726 0 0.00012361587072302503 -0.015483035665305006 0 -0.00010078260989650771 -0.014396155415260081 0 -0.0082197496039636431 -0.010435739639921266 0 -0.0095025826513077151 -0.0083476167211909164 0 -0.0088105900857799683 -0.0070306821891020612 0 0.0013419154882527897 -0.014704326609153117 0 0.00012361587072302503 -0.015483035665305006 0 -0.00010078260989650771 -0.014396155415260081 0 -0.012014073752102195 -0.0088700313647903876 0 -0.011843937177824381 -0.0089985356885530204 0 -0.011841030682917747 -0.0090820616462006717 0 -0.011843937177824381 -0.0089985356885530204 0 -0.011841030682917747 -0.0090820616462006717 0 -0.011717132005476999 -0.00902239866336353 0 -0.011841030682917747 -0.0090820616462006717 0 -0.011533755346469518 -0.0090743630725729392 0 -0.011717132005476999 -0.00902239866336353 0 -0.011841030682917747 -0.0090820616462006717 0 -0.011534047428178016 -0.0093157499709402292 0 -0.011533755346469518 -0.0090743630725729392 0 -0.011782739096313373 -0.0092036706946319758 0 -0.011841030682917747 -0.0090820616462006717 0 -0.011534047428178016 -0.0093157499709402292 0 -0.010671052443028696 -0.0093305802762760452 0 -0.011534047428178016 -0.0093157499709402292 0 -0.011533755346469518 -0.0090743630725729392 0 -0.011533755346469518 -0.0090743630725729392 0 -0.011717132005476999 -0.00902239866336353 0 -0.011822732043485275 -0.0090866079534007368 0 -0.011484956161713288 -0.0090567333939256863 0 -0.011006008963871557 -0.008163303199213285 0 -0.011717132005476999 -0.00902239866336353 0 -0.011675652509969671 -0.0091137331497959245 0 -0.011822732043485275 -0.0090866079534007368 0 -0.011843937177824381 -0.0089985356885530204 0 -0.011717132005476999 -0.00902239866336353 0 -0.011675652509969671 -0.0091137331497959245 0 -0.011675652509969671 -0.0091137331497959245 0 -0.011746572886001337 -0.0093474962763743005 0 -0.011611584488262654 -0.0093071597473023907 0 -0.011675652509969671 -0.0091137331497959245 0 -0.011611584488262654 -0.0093071597473023907 0 -0.011542601148783497 -0.0092718230965925397 0 -0.011675652509969671 -0.0091137331497959245 0 -0.011746572886001337 -0.0093474962763743005 0 -0.011822732043485275 -0.0090866079534007368 0 -0.011746572886001337 -0.0093474962763743005 0 -0.011621756025018318 -0.0095169373247293524 0 -0.011778701166108081 -0.0097650816757722664 0 -0.011746572886001337 -0.0093474962763743005 0 -0.011621756025018318 -0.0095169373247293524 0 -0.011611584488262654 -0.0093071597473023907 0 -0.014098251711933274 -0.01160627316637885 0 -0.013421965882188124 -0.011227539837385586 0 -0.013527652664124019 -0.010586111330767827 0 -0.011482726477556344 -0.0095486655338378208 0 -0.011426809481113576 -0.0096718304638413483 0 -0.011542601148783497 -0.0092718230965925397 0 -0.011989295921704514 -0.010466968496813391 0 -0.012656757937649633 -0.01001942373520553 0 -0.011621756025018318 -0.0095169373247293524 0 -0.011611584488262654 -0.0093071597473023907 0 -0.011482726477556344 -0.0095486655338378208 0 -0.011621756025018318 -0.0095169373247293524 0 -0.011482726477556344 -0.0095486655338378208 0 -0.011555887089593776 -0.0097433040797887949 0 -0.011611584488262654 -0.0093071597473023907 0 -0.011482726477556344 -0.0095486655338378208 0 -0.011542601148783497 -0.0092718230965925397 0 0.0014098316623726115 -0.013349462097952269 0 -0.00010078260989650771 -0.014396155415260081 0 0.00056668124484391042 -0.01180997862324738 0 -0.0044873614451259002 -0.010897229585404159 0 -0.0039446516825506327 -0.008346754238954722 0 0.0014098316623726115 -0.013349462097952269 0 0.0013419154882527897 -0.014704326609153117 0 -0.00010078260989650771 -0.014396155415260081 0 -0.0088105900857799683 -0.0070306821891020612 0 -0.01012893710529662 -0.0071101463580226024 0 -0.0093168312224563548 -0.0062668301520994963 0 -0.011746572886001337 -0.0093474962763743005 0 -0.011822732043485275 -0.0090866079534007368 0 -0.012135905442338833 -0.0094856611487162835 0 -0.011006008963871557 -0.008163303199213285 0 -0.010764574863790035 -0.0079588303868050152 0 -0.011746572886001337 -0.0093474962763743005 0 -0.012135905442338833 -0.0094856611487162835 0 -0.011778701166108081 -0.0097650816757722664 0 -0.0088105900857799683 -0.0070306821891020612 0 -0.0093168312224563548 -0.0062668301520994963 0 -0.0089437372749995251 -0.0063123240841973455 0 -0.0089437372749995251 -0.0063123240841973455 0 -0.0090441489494843853 -0.0062837535626684062 0 -0.0090717208238099735 -0.0063389489174732298 0 -0.0093168312224563548 -0.0062668301520994963 0 -0.0089437372749995251 -0.0063123240841973455 0 -0.0090441489494843853 -0.0062837535626684062 0 -0.010764574863790035 -0.0079588303868050152 0 -0.010625667587901282 -0.008016507341943712 0 -0.012135905442338833 -0.0094856611487162835 0 -0.01243885327586609 -0.010194312926007761 0 -0.012034392462311758 -0.010052522038472064 0 -0.012135905442338833 -0.0094856611487162835 0 -0.012034392462311758 -0.010052522038472064 0 -0.011778701166108081 -0.0097650816757722664 0 -0.012034392462311758 -0.010052522038472064 0 -0.011778701166108081 -0.0097650816757722664 0 -0.011770185985832144 -0.010326116946769022 0 -0.01243885327586609 -0.010194312926007761 0 -0.012034392462311758 -0.010052522038472064 0 -0.012038035311573509 -0.010603370369678112 0 -0.01243885327586609 -0.010194312926007761 0 -0.012038035311573509 -0.010603370369678112 0 -0.012387334284151926 -0.010757584176368759 0 -0.012034392462311758 -0.010052522038472064 0 -0.012038035311573509 -0.010603370369678112 0 -0.011770185985832144 -0.010326116946769022 0 -0.012038035311573509 -0.010603370369678112 0 -0.01165226547790358 -0.010889454037767176 0 -0.012057387818441546 -0.011030347107961386 0 -0.012038035311573509 -0.010603370369678112 0 -0.011770185985832144 -0.010326116946769022 0 -0.01165226547790358 -0.010889454037767176 0 -0.012038035311573509 -0.010603370369678112 0 -0.012387334284151926 -0.010757584176368759 0 -0.012057387818441546 -0.011030347107961386 0 -0.010625667587901282 -0.008016507341943712 0 -0.011785684179744113 -0.0098206464937880319 0 -0.0090441489494843853 -0.0062837535626684062 0 -0.0090652588996132655 -0.0064941013883939268 0 -0.0090717208238099735 -0.0063389489174732298 0 -0.01243885327586609 -0.010194312926007761 0 -0.012387334284151926 -0.010757584176368759 0 -0.012791290497855578 -0.011118239834323609 0 -0.014098251711933274 -0.01160627316637885 0 -0.013966501545623816 -0.012392447969415426 0 -0.013453041049759546 -0.011853715294190943 0 -0.011482726477556344 -0.0095486655338378208 0 -0.011288107068554041 -0.0098703555438826706 0 -0.011555887089593776 -0.0097433040797887949 0 -0.01175735144021282 -0.009670232976326746 0 -0.011989295921704514 -0.010466968496813391 0 -0.011288107068554041 -0.0098703555438826706 0 -0.011572718546204242 -0.010054827454612978 0 -0.011434437699395082 -0.010579112126046114 0 -0.011288107068554041 -0.0098703555438826706 0 -0.011572718546204242 -0.010054827454612978 0 -0.011555887089593776 -0.0097433040797887949 0 -0.011572718546204242 -0.010054827454612978 0 -0.011555887089593776 -0.0097433040797887949 0 -0.011778701166108081 -0.0097650816757722664 0 -0.011621756025018318 -0.0095169373247293524 0 -0.011555887089593776 -0.0097433040797887949 0 -0.011778701166108081 -0.0097650816757722664 0 -0.011572718546204242 -0.010054827454612978 0 -0.011778701166108081 -0.0097650816757722664 0 -0.011770185985832144 -0.010326116946769022 0 -0.011434437699395082 -0.010579112126046114 0 -0.011058154787649821 -0.010607118129667404 0 -0.01165226547790358 -0.010889454037767176 0 -0.011770185985832144 -0.010326116946769022 0 -0.011434437699395082 -0.010579112126046114 0 -0.01165226547790358 -0.010889454037767176 0 -0.011572718546204242 -0.010054827454612978 0 -0.011770185985832144 -0.010326116946769022 0 -0.011434437699395082 -0.010579112126046114 0 -0.011989295921704514 -0.010466968496813391 0 -0.011260718053874847 -0.010290794330635029 0 -0.011153973891992882 -0.010069421886634868 0 -0.011434437699395082 -0.010579112126046114 0 -0.011058154787649821 -0.010607118129667404 0 -0.011989295921704514 -0.010466968496813391 0 -0.012629484927739144 -0.011762902507191166 0 -0.012629484927739144 -0.011762902507191166 0 -0.013890932511445546 -0.012296741949265725 0 -0.011713639803639051 -0.012971188182183853 0 -0.012592427232827812 -0.01392632061833037 0 -0.011526157797775686 -0.014198909766147868 0 -0.012629484927739144 -0.011762902507191166 0 -0.012056980098170663 -0.015691730709803259 0 -0.012629484927739144 -0.011762902507191166 0 -0.011361253761972888 -0.013831370099449616 0 -0.011058154787649821 -0.010607118129667404 0 -0.01165226547790358 -0.010889454037767176 0 -0.011639904907305649 -0.011330105464435263 0 -0.011100866049876101 -0.019224764298907848 0 -0.011116166402927686 -0.019137591745964362 0 -0.011013730336739665 -0.019201622740087184 0 -0.011100866049876101 -0.019224764298907848 0 -0.011116166402927686 -0.019137591745964362 0 -0.011160844549869866 -0.019211810020635111 0 -0.011361253761972888 -0.013831370099449616 0 -0.012056980098170663 -0.015691730709803259 0 -0.011100866049876101 -0.019224764298907848 0 -0.011013730336739665 -0.019201622740087184 0 -0.011046751315468843 -0.019301400863681966 0 -0.012335652303072701 -0.01137550129252923 0 -0.012791290497855578 -0.011118239834323609 0 -0.012401578502147424 -0.0120184888865495 0 -0.012592096605222898 -0.011893227403974678 0 -0.01271367509288159 -0.012141090816026533 0 -0.012735781806616192 -0.011988354486930189 0 -0.011785684179744113 -0.0098206464937880319 0 -0.012827382121300449 -0.012477785131125166 0 -0.012565435226173654 -0.011681343523621731 0 -0.012401578502147424 -0.0120184888865495 0 -0.01271367509288159 -0.012141090816026533 0 -0.011785684179744113 -0.0098206464937880319 0 -0.012058152430832752 -0.011982152808095852 0 -0.012387334284151926 -0.010757584176368759 0 -0.012791290497855578 -0.011118239834323609 0 -0.012394522696921283 -0.011058762823653567 0 -0.012387334284151926 -0.010757584176368759 0 -0.012394522696921283 -0.011058762823653567 0 -0.012057387818441546 -0.011030347107961386 0 -0.012335652303072701 -0.01137550129252923 0 -0.012394522696921283 -0.011058762823653567 0 -0.012057387818441546 -0.011030347107961386 0 -0.012335652303072701 -0.01137550129252923 0 -0.012791290497855578 -0.011118239834323609 0 -0.012394522696921283 -0.011058762823653567 0 -0.011639904907305649 -0.011330105464435263 0 -0.012335652303072701 -0.01137550129252923 0 -0.012057387818441546 -0.011030347107961386 0 -0.011361253761972888 -0.013831370099449616 0 -0.012286012906596873 -0.010864538494054939 0 -0.01165226547790358 -0.010889454037767176 0 -0.011639904907305649 -0.011330105464435263 0 -0.012057387818441546 -0.011030347107961386 0 -0.010577447684660575 -0.011896122033749325 0 -0.012024318951048742 -0.012300625158942509 0 -0.011591624737154953 -0.012877112766319762 0 -0.010577447684660575 -0.011896122033749325 0 -0.012335652303072701 -0.01137550129252923 0 -0.012024318951048742 -0.012300625158942509 0 -0.011361253761972888 -0.013831370099449616 0 -0.01138145587425534 -0.016032481055167653 0 -0.012024318951048742 -0.012300625158942509 0 -0.012404601550222742 -0.012926510401778245 0 -0.011591624737154953 -0.012877112766319762 0 -0.012024318951048742 -0.012300625158942509 0 -0.012541308865570077 -0.012434444017433368 0 -0.012404601550222742 -0.012926510401778245 0 -0.012024318951048742 -0.012300625158942509 0 -0.012401578502147424 -0.0120184888865495 0 -0.012541308865570077 -0.012434444017433368 0 -0.012335652303072701 -0.01137550129252923 0 -0.012024318951048742 -0.012300625158942509 0 -0.012401578502147424 -0.0120184888865495 0 -0.012401578502147424 -0.0120184888865495 0 -0.012541308865570077 -0.012434444017433368 0 -0.01271367509288159 -0.012141090816026533 0 -0.012541308865570077 -0.012434444017433368 0 -0.013056581664804801 -0.01278252488721846 0 -0.012404601550222742 -0.012926510401778245 0 -0.0039007646152028406 -0.019506723139263962 0 -0.0028681206745500951 -0.024970109422249084 0 -0.009279028786333016 -0.015535303908980631 0 -0.0039007646152028406 -0.019506723139263962 0 -0.012541308865570077 -0.012434444017433368 0 -0.013056581664804801 -0.01278252488721846 0 -0.01271367509288159 -0.012141090816026533 0 -0.0046742874572883366 -0.020882870521949704 0 -0.0049223855617979428 -0.019631787806954171 0 -0.0053447866686562899 -0.021061143208426867 0 -0.013056581664804801 -0.01278252488721846 0 -0.012854997161241711 -0.012138283815042282 0 -0.01300659518685272 -0.012041210184831813 0 -0.013056581664804801 -0.01278252488721846 0 -0.012854997161241711 -0.012138283815042282 0 -0.01271367509288159 -0.012141090816026533 0 -0.012735781806616192 -0.011988354486930189 0 -0.012911981410367878 -0.012021325029622769 0 -0.012674323819940839 -0.011513195997950684 0 -0.012911981410367878 -0.012021325029622769 0 -0.012946599891379933 -0.012020980050035122 0 -0.012674323819940839 -0.011513195997950684 0 -0.012592096605222898 -0.011893227403974678 0 -0.012735781806616192 -0.011988354486930189 0 -0.012674323819940839 -0.011513195997950684 0 -0.012854997161241711 -0.012138283815042282 0 -0.01271367509288159 -0.012141090816026533 0 -0.012735781806616192 -0.011988354486930189 0 -0.012854997161241711 -0.012138283815042282 0 -0.012735781806616192 -0.011988354486930189 0 -0.012911981410367878 -0.012021325029622769 0 0.00061539984440766703 -0.019979198830570161 0 0.00064695845372683745 -0.019872004337881437 0 0.0001354885206165279 -0.019374347264392983 0 -0.012854997161241711 -0.012138283815042282 0 -0.01300659518685272 -0.012041210184831813 0 -0.012911981410367878 -0.012021325029622769 0 -0.0039007646152028406 -0.019506723139263962 0 -0.005211975778532902 -0.019362075272930827 0 -0.012946698837101658 -0.012056811201698188 0 -0.012911981410367878 -0.012021325029622769 0 -0.012946599891379933 -0.012020980050035122 0 -0.0039007646152028406 -0.019506723139263962 0 -0.0036519475509555546 -0.018494334994056661 0 -0.0036519475509555546 -0.018494334994056661 0 0.00022816346856984225 -0.018643065487517194 0 0.00064695845372683745 -0.019872004337881437 0 0.0001354885206165279 -0.019374347264392983 0 0.00043965127510340294 -0.018717230969210477 0 0.00061539984440766703 -0.019979198830570161 0 -0.00055139486052475971 -0.019507204878433861 0 0.0001354885206165279 -0.019374347264392983 0 0.00061539984440766703 -0.019979198830570161 0 -0.00055139486052475971 -0.019507204878433861 0 -0.00082707169712116599 -0.020789117034923577 0 -0.00055139486052475971 -0.019507204878433861 0 0.0001354885206165279 -0.019374347264392983 0 -0.00028518705726673509 -0.018360081313013532 0 -0.0002522774703823685 -0.027717127590637405 0 -3.3860684939978939e-05 -0.027746092905646235 0 -0.00019117106298986776 -0.027617516508928831 0 -0.0039007646152028406 -0.019506723139263962 0 -0.00013898315285652328 -0.024548909941765108 0 -0.00013898315285652328 -0.024548909941765108 0 0.00034096938461464622 -0.024986511995439779 0 -0.00082707169712116599 -0.020789117034923577 0 -0.0017542669669963205 -0.019959450061268758 0 -0.0022936382087050335 -0.021616557773076101 0 0.0048489888141924429 -0.023724126298630775 0 0.0043652183285026475 -0.025894920065301943 0 0.003312532192312932 -0.025436524584517069 0 0.0016418509740854595 -0.021610310832044451 0 0.00034096938461464622 -0.024986511995439779 0 0.0048489888141924429 -0.023724126298630775 0 0.0030257692635360964 -0.023348136272505236 0 0.003312532192312932 -0.025436524584517069 0 0.0048489888141924429 -0.023724126298630775 0 0.0036481397618861053 -0.022074207915534196 0 0.0030257692635360964 -0.023348136272505236 0 -0.00055139486052475971 -0.019507204878433861 0 -0.0017542669669963205 -0.019959450061268758 0 -0.0011744446405740924 -0.018339977591838731 0 -0.00055139486052475971 -0.019507204878433861 0 -0.00082707169712116599 -0.020789117034923577 0 -0.0017542669669963205 -0.019959450061268758 0 0.0016418509740854595 -0.021610310832044451 0 0.0018869229020609017 -0.020220153856387747 0 0.0048489888141924429 -0.023724126298630775 0 0.0049827330822324939 -0.022017000692703338 0 0.0036481397618861053 -0.022074207915534196 0 0.0049827330822324939 -0.022017000692703338 0 0.0036481397618861053 -0.022074207915534196 0 0.0038762164974200132 -0.020862665632449331 0 0.0036481397618861053 -0.022074207915534196 0 0.0038762164974200132 -0.020862665632449331 0 0.0031357920328892773 -0.021232400507761314 0 0.0033262087954850292 -0.020100646657091333 0 0.0038762164974200132 -0.020862665632449331 0 0.0031357920328892773 -0.021232400507761314 0 0.0049827330822324939 -0.022017000692703338 0 0.0038762164974200132 -0.020862665632449331 0 0.0050164106923737579 -0.020395823693283438 0 0.0018869229020609017 -0.020220153856387747 0 0.0021501964369908992 -0.018909071276425254 0 0.00035798636010685641 -0.016876960038034707 0 -0.00059283321307466975 -0.016932098783046055 0 0.00016165661613916943 -0.017586348155471863 0 -0.0011744446405740924 -0.018339977591838731 0 -0.00059283321307466975 -0.016932098783046055 0 -0.00028518705726673509 -0.018360081313013532 0 -0.00059283321307466975 -0.016932098783046055 0 0.00016165661613916943 -0.017586348155471863 0 -0.00028518705726673509 -0.018360081313013532 0 0.00035798636010685641 -0.016876960038034707 0 0.00016165661613916943 -0.017586348155471863 0 0.0006166342356899835 -0.017820241407887936 0 -0.0039446516825506327 -0.008346754238954722 0 -0.0051198566048253945 -0.011141124383713718 0 0.0017962870228132228 -0.014520787930461253 0 -0.0051198566048253945 -0.011141124383713718 0 0.0022520496028760424 -0.011339246040771762 0 0.00056668124484391042 -0.01180997862324738 0 0.0012481963929305744 -0.0092788023147391506 0 0.00016165661613916943 -0.017586348155471863 0 0.0006166342356899835 -0.017820241407887936 0 0.00025832048744997457 -0.018096681937408123 0 -0.011785684179744113 -0.0098206464937880319 0 -0.0051198566048253945 -0.011141124383713718 0 0.00027728136654213583 -0.018566331173044525 0 0.0006166342356899835 -0.017820241407887936 0 0.00025832048744997457 -0.018096681937408123 0 -0.0036519475509555546 -0.018494334994056661 0 -0.0051198566048253945 -0.011141124383713718 0 0.00017511976263489019 -0.017642145554774384 0 0.00022816346856984225 -0.018643065487517194 0 -0.00055139486052475971 -0.019507204878433861 0 -0.0011744446405740924 -0.018339977591838731 0 -0.00028518705726673509 -0.018360081313013532 0 0.0001354885206165279 -0.019374347264392983 0 0.00043965127510340294 -0.018717230969210477 0 -0.00028518705726673509 -0.018360081313013532 0 0.00016165661613916943 -0.017586348155471863 0 0.00043965127510340294 -0.018717230969210477 0 -0.00028518705726673509 -0.018360081313013532 0 -0.016565773736127068 -0.0057950902416510387 0 -0.017172380995590614 -0.0061638265370334861 0 -0.016572305938910736 -0.0065110309249669278 0 -0.016565773736127068 -0.0057950902416510387 0 -0.017172380995590614 -0.0061638265370334861 0 -0.017026007357195384 -0.0055628652733352392 0 -0.017172380995590614 -0.0061638265370334861 0 -0.017454952847762332 -0.0056294185750623733 0 -0.017900951271446676 -0.0060940169680697726 0 -0.017172380995590614 -0.0061638265370334861 0 -0.017900951271446676 -0.0060940169680697726 0 -0.017428696222467073 -0.0067111121064425605 0 -0.017172380995590614 -0.0061638265370334861 0 -0.017454952847762332 -0.0056294185750623733 0 -0.017026007357195384 -0.0055628652733352392 0 -0.017454952847762332 -0.0056294185750623733 0 -0.01721874558572609 -0.0051361476587002087 0 -0.017775035993203809 -0.0053135665821081 0 -0.017454952847762332 -0.0056294185750623733 0 -0.017026007357195384 -0.0055628652733352392 0 -0.01721874558572609 -0.0051361476587002087 0 -0.016741174079196938 -0.005203086862311173 0 -0.017026007357195384 -0.0055628652733352392 0 -0.01721874558572609 -0.0051361476587002087 0 -0.016741174079196938 -0.005203086862311173 0 -0.016565773736127068 -0.0057950902416510387 0 -0.017026007357195384 -0.0055628652733352392 0 -0.016741174079196938 -0.005203086862311173 0 -0.016994016241397753 -0.0046003013963204532 0 -0.01721874558572609 -0.0051361476587002087 0 -0.017332660483114996 -0.0042289361845635953 0 -0.016994016241397753 -0.0046003013963204532 0 -0.017411140581580123 -0.0046867781166877809 0 -0.017332660483114996 -0.0042289361845635953 0 -0.017411140581580123 -0.0046867781166877809 0 -0.017552646517947891 -0.0043437581109636216 0 -0.017411140581580123 -0.0046867781166877809 0 -0.01721874558572609 -0.0051361476587002087 0 -0.017775035993203809 -0.0053135665821081 0 -0.016994016241397753 -0.0046003013963204532 0 -0.017411140581580123 -0.0046867781166877809 0 -0.01721874558572609 -0.0051361476587002087 0 -0.017411140581580123 -0.0046867781166877809 0 -0.017775035993203809 -0.0053135665821081 0 -0.017781926303612413 -0.0046878049119237286 0 -0.017411140581580123 -0.0046867781166877809 0 -0.017781926303612413 -0.0046878049119237286 0 -0.017552646517947891 -0.0043437581109636216 0 -0.017781926303612413 -0.0046878049119237286 0 -0.017552646517947891 -0.0043437581109636216 0 -0.017753650830750332 -0.0042005744503032906 0 -0.017781926303612413 -0.0046878049119237286 0 -0.017753650830750332 -0.0042005744503032906 0 -0.018514661635698773 -0.0048052683161941964 0 -0.01828782787446244 -0.0040610421645312081 0 -0.014432421066495173 -0.0067809811431652324 0 -0.017730239808105876 -0.0040261996908668163 0 -0.017753650830750332 -0.0042005744503032906 0 -0.017775403572775506 -0.0043142994230259074 0 -0.017775035993203809 -0.0053135665821081 0 -0.018514661635698773 -0.0048052683161941964 0 -0.018616137767012361 -0.0059483258519209842 0 -0.014432421066495173 -0.0067809811431652324 0 -0.01441417702324016 -0.0079665056302249057 0 -0.017775035993203809 -0.0053135665821081 0 -0.017781926303612413 -0.0046878049119237286 0 -0.018514661635698773 -0.0048052683161941964 0 -0.017780199057674362 -0.0053987487500472223 0 -0.017694809670789791 -0.0064733905106440972 0 -0.017775035993203809 -0.0053135665821081 0 -0.018616137767012361 -0.0059483258519209842 0 -0.017485781178602201 -0.0068503956348708941 0 -0.017454952847762332 -0.0056294185750623733 0 -0.017775035993203809 -0.0053135665821081 0 -0.017900951271446676 -0.0060940169680697726 0 -0.018616137767012361 -0.0059483258519209842 0 -0.017485781178602201 -0.0068503956348708941 0 -0.018553150506735387 -0.0075604979217816469 0 -0.01441417702324016 -0.0079665056302249057 0 -0.014262697153313726 -0.0095003572920659557 0 -0.010209747739458109 -0.0099878718317588638 0 -0.010796556770639768 -0.010428761169245144 0 -0.009977900062322945 -0.011421936082223234 0 -0.010796556770639768 -0.010428761169245144 0 -0.01101457272049971 -0.01107136643709344 0 -0.009977900062322945 -0.011421936082223234 0 -0.010796556770639768 -0.010428761169245144 0 -0.011388133429362382 -0.010604916389128369 0 -0.011319776101047334 -0.0098629121874031257 0 -0.010796556770639768 -0.010428761169245144 0 -0.01101457272049971 -0.01107136643709344 0 -0.011388133429362382 -0.010604916389128369 0 -0.01101457272049971 -0.01107136643709344 0 -0.011523873571848177 -0.011113320864742154 0 -0.011388133429362382 -0.010604916389128369 0 -0.011523873571848177 -0.011113320864742154 0 -0.012150814935142622 -0.011169605543842102 0 -0.011388133429362382 -0.010604916389128369 0 -0.012271105501476471 -0.010859802882471778 0 -0.011189052118484236 -0.0098184355614060921 0 -0.012271105501476471 -0.010859802882471778 0 -0.012094844396199142 -0.0096667319540571471 0 -0.012240304084546235 -0.011213948588322958 0 -0.012030413739301861 -0.010066350167751608 0 -0.012602128106644269 -0.010799605863225601 0 -0.012150814935142622 -0.011169605543842102 0 -0.011388133429362382 -0.010604916389128369 0 -0.011319776101047334 -0.0098629121874031257 0 -0.01233278906104977 -0.010017445770439642 0 -0.012163690969433564 -0.009350744744013326 0 -0.011953022147648215 -0.0094388318958295043 0 -0.012163690969433564 -0.009350744744013326 0 -0.011953022147648215 -0.0094388318958295043 0 -0.011946828577209688 -0.009122994794153955 0 -0.010209747739458109 -0.0099878718317588638 0 -0.010796556770639768 -0.010428761169245144 0 -0.011319776101047334 -0.0098629121874031257 0 -0.010466694509379379 -0.008536643012887592 0 -0.010209747739458109 -0.0099878718317588638 0 -0.011319776101047334 -0.0098629121874031257 0 -0.014432421066495173 -0.0067809811431652324 0 -0.011189052118484236 -0.0098184355614060921 0 -0.011686103257066821 -0.0089660782699250968 0 -0.011953022147648215 -0.0094388318958295043 0 -0.011946828577209688 -0.009122994794153955 0 -0.011686103257066821 -0.0089660782699250968 0 -0.011946828577209688 -0.009122994794153955 0 -0.011991690959341142 -0.0088426204067737872 0 -0.014757116745670333 -0.0062477404749576608 0 -0.014432421066495173 -0.0067809811431652324 0 -0.011742030144182925 -0.008521781407597356 0 -0.011686103257066821 -0.0089660782699250968 0 -0.011991690959341142 -0.0088426204067737872 0 -0.01189716732991709 -0.0091145285244760444 0 -0.012328106255126437 -0.0094813918807662313 0 -0.012445931525601297 -0.0089187261644201859 0 -0.012073788651101876 -0.0087331636013553253 0 -0.01189716732991709 -0.0091145285244760444 0 -0.012445931525601297 -0.0089187261644201859 0 -0.012030413739301861 -0.010066350167751608 0 -0.01189716732991709 -0.0091145285244760444 0 -0.012328106255126437 -0.0094813918807662313 0 -0.012163690969433564 -0.009350744744013326 0 -0.011946828577209688 -0.009122994794153955 0 -0.011991690959341142 -0.0088426204067737872 0 -0.012030413739301861 -0.010066350167751608 0 -0.012328106255126437 -0.0094813918807662313 0 -0.012512969296456788 -0.0098908774694559803 0 -0.012094844396199142 -0.0096667319540571471 0 -0.011949547757516383 -0.0089949196220387891 0 -0.012328106255126437 -0.0094813918807662313 0 -0.012512969296456788 -0.0098908774694559803 0 -0.01294792060330262 -0.009664936407358651 0 -0.012328106255126437 -0.0094813918807662313 0 -0.012445931525601297 -0.0089187261644201859 0 -0.01294792060330262 -0.009664936407358651 0 -0.011943129764744658 -0.0088321735968887455 0 -0.011897719875333394 -0.0089356115760012688 0 -0.011773502688088992 -0.0090364550368561437 0 -0.012208622230211319 -0.0088877387310310699 0 -0.012348362093306975 -0.0093520503999157886 0 -0.012014073752102195 -0.0088700313647903876 0 -0.011843937177824381 -0.0089985356885530204 0 -0.011897719875333394 -0.0089356115760012688 0 -0.012014073752102195 -0.0088700313647903876 0 -0.011943129764744658 -0.0088321735968887455 0 -0.011897719875333394 -0.0089356115760012688 0 -0.011843937177824381 -0.0089985356885530204 0 -0.011675652509969671 -0.0091137331497959245 0 -0.011773502688088992 -0.0090364550368561437 0 -0.011843937177824381 -0.0089985356885530204 0 -0.011897719875333394 -0.0089356115760012688 0 -0.011773502688088992 -0.0090364550368561437 0 -0.01294792060330262 -0.009664936407358651 0 -0.012753392375368933 -0.010373765723189038 0 -0.013527652664124019 -0.010586111330767827 0 -0.011675652509969671 -0.0091137331497959245 0 -0.011773502688088992 -0.0090364550368561437 0 -0.011542601148783497 -0.0092718230965925397 0 -0.012348362093306975 -0.0093520503999157886 0 -0.012656757937649633 -0.01001942373520553 0 -0.012030413739301861 -0.010066350167751608 0 -0.012753392375368933 -0.010373765723189038 0 -0.012602128106644269 -0.010799605863225601 0 -0.012030413739301861 -0.010066350167751608 0 -0.012512969296456788 -0.0098908774694559803 0 -0.012753392375368933 -0.010373765723189038 0 -0.012512969296456788 -0.0098908774694559803 0 -0.01294792060330262 -0.009664936407358651 0 -0.012753392375368933 -0.010373765723189038 0 -0.012753392375368933 -0.010373765723189038 0 -0.012602128106644269 -0.010799605863225601 0 -0.01304687611775957 -0.010857755993288466 0 -0.012240304084546235 -0.011213948588322958 0 -0.012602128106644269 -0.010799605863225601 0 -0.012941609726363551 -0.011326608332481159 0 -0.012602128106644269 -0.010799605863225601 0 -0.01304687611775957 -0.010857755993288466 0 -0.012941609726363551 -0.011326608332481159 0 -0.012753392375368933 -0.010373765723189038 0 -0.013527652664124019 -0.010586111330767827 0 -0.01304687611775957 -0.010857755993288466 0 -0.013421965882188124 -0.011227539837385586 0 -0.01304687611775957 -0.010857755993288466 0 -0.012941609726363551 -0.011326608332481159 0 -0.013421965882188124 -0.011227539837385586 0 -0.013527652664124019 -0.010586111330767827 0 -0.01304687611775957 -0.010857755993288466 0 -0.013453041049759546 -0.011853715294190943 0 -0.012941609726363551 -0.011326608332481159 0 -0.012709435860050036 -0.011998879487471817 0 -0.014098251711933274 -0.01160627316637885 0 -0.013421965882188124 -0.011227539837385586 0 -0.013453041049759546 -0.011853715294190943 0 -0.013421965882188124 -0.011227539837385586 0 -0.013453041049759546 -0.011853715294190943 0 -0.012941609726363551 -0.011326608332481159 0 -0.012133548597691684 -0.011202117373546355 0 -0.012280957866627347 -0.011815032322361344 0 -0.012720404738561241 -0.012081209675855629 0 -0.012271105501476471 -0.010859802882471778 0 -0.012749862597895154 -0.012104515163225938 0 -0.012240304084546235 -0.011213948588322958 0 -0.012941609726363551 -0.011326608332481159 0 -0.012709435860050036 -0.011998879487471817 0 -0.012271105501476471 -0.010859802882471778 0 -0.012327576642035671 -0.011703833192613922 0 -0.012280957866627347 -0.011815032322361344 0 -0.012322726993601185 -0.012262575460398783 0 -0.011836534207791075 -0.012156160012595818 0 -0.012280957866627347 -0.011815032322361344 0 -0.012720404738561241 -0.012081209675855629 0 -0.012322726993601185 -0.012262575460398783 0 -0.012720404738561241 -0.012081209675855629 0 -0.012608550314102893 -0.012636116206933843 0 -0.013308856600445559 -0.012943414788952617 0 -0.012720404738561241 -0.012081209675855629 0 -0.012322726993601185 -0.012262575460398783 0 -0.012608550314102893 -0.012636116206933843 0 -0.012608550314102893 -0.012636116206933843 0 -0.012543638548491068 -0.013231506160903453 0 -0.012117584890163742 -0.012710313393780764 0 -0.012322726993601185 -0.012262575460398783 0 -0.012608550314102893 -0.012636116206933843 0 -0.012117584890163742 -0.012710313393780764 0 -0.012608550314102893 -0.012636116206933843 0 -0.013308856600445559 -0.012943414788952617 0 -0.012543638548491068 -0.013231506160903453 0 -0.013453041049759546 -0.011853715294190943 0 -0.012709435860050036 -0.011998879487471817 0 -0.013308856600445559 -0.012943414788952617 0 -0.014189090506452342 -0.012624810148395782 0 -0.013453041049759546 -0.011853715294190943 0 -0.013308856600445559 -0.012943414788952617 0 -0.012749862597895154 -0.012104515163225938 0 -0.013248488338975069 -0.012838630008944241 0 -0.014189090506452342 -0.012624810148395782 0 -0.01395464269983758 -0.0142148096151222 0 -0.013308856600445559 -0.012943414788952617 0 -0.01395464269983758 -0.0142148096151222 0 -0.013308856600445559 -0.012943414788952617 0 -0.013001321887545346 -0.013772666272005818 0 -0.012481795468468065 -0.014708790320263758 0 -0.011594750099341414 -0.014931284806078166 0 -0.011867367283254625 -0.015345515270920634 0 -0.012056980098170663 -0.015691730709803259 0 -0.012359811239965223 -0.014574819211138955 0 -0.01395464269983758 -0.0142148096151222 0 -0.013001321887545346 -0.013772666272005818 0 -0.012567774245426818 -0.014580213291204042 0 -0.013001321887545346 -0.013772666272005818 0 -0.012567774245426818 -0.014580213291204042 0 -0.012207254657440133 -0.013833263994570142 0 -0.012207254657440133 -0.013833263994570142 0 -0.012543638548491068 -0.013231506160903453 0 -0.011732321239971906 -0.013271415838370947 0 -0.013001321887545346 -0.013772666272005818 0 -0.012207254657440133 -0.013833263994570142 0 -0.012543638548491068 -0.013231506160903453 0 -0.013308856600445559 -0.012943414788952617 0 -0.013001321887545346 -0.013772666272005818 0 -0.012543638548491068 -0.013231506160903453 0 -0.012543638548491068 -0.013231506160903453 0 -0.011732321239971906 -0.013271415838370947 0 -0.012117584890163742 -0.012710313393780764 0 -0.011732321239971906 -0.013271415838370947 0 -0.010967506152128577 -0.013040363532366917 0 -0.011533247312373497 -0.012680551530885032 0 -0.011732321239971906 -0.013271415838370947 0 -0.01118511513605947 -0.013566993332481776 0 -0.010967506152128577 -0.013040363532366917 0 -0.011732321239971906 -0.013271415838370947 0 -0.011390928223646431 -0.014109691951926941 0 -0.01118511513605947 -0.013566993332481776 0 -0.012207254657440133 -0.013833263994570142 0 -0.011732321239971906 -0.013271415838370947 0 -0.011390928223646431 -0.014109691951926941 0 -0.012359811239965223 -0.014574819211138955 0 -0.010960447864784751 -0.015035607372841774 0 -0.012567774245426818 -0.014580213291204042 0 -0.012207254657440133 -0.013833263994570142 0 -0.011390928223646431 -0.014109691951926941 0 -0.012567774245426818 -0.014580213291204042 0 -0.011390928223646431 -0.014109691951926941 0 -0.011032438972667443 -0.014987712235038293 0 -0.011390928223646431 -0.014109691951926941 0 -0.010525947662853027 -0.014595902067515383 0 -0.010665035699784211 -0.013834611504663332 0 -0.011390928223646431 -0.014109691951926941 0 -0.010525947662853027 -0.014595902067515383 0 -0.011032438972667443 -0.014987712235038293 0 -0.011390928223646431 -0.014109691951926941 0 -0.010665035699784211 -0.013834611504663332 0 -0.01118511513605947 -0.013566993332481776 0 -0.010665035699784211 -0.013834611504663332 0 -0.01118511513605947 -0.013566993332481776 0 -0.010967506152128577 -0.013040363532366917 0 -0.010665035699784211 -0.013834611504663332 0 -0.010967506152128577 -0.013040363532366917 0 -0.010346681953707084 -0.013260583265483461 0 -0.010967506152128577 -0.013040363532366917 0 -0.010479353851463069 -0.012408461934871558 0 -0.010346681953707084 -0.013260583265483461 0 -0.010479353851463069 -0.012408461934871558 0 -0.011128521673998144 -0.01225587049560891 0 -0.010830075966787742 -0.011754243673377178 0 -0.010967506152128577 -0.013040363532366917 0 -0.011128521673998144 -0.01225587049560891 0 -0.011533247312373497 -0.012680551530885032 0 -0.010967506152128577 -0.013040363532366917 0 -0.010479353851463069 -0.012408461934871558 0 -0.011128521673998144 -0.01225587049560891 0 -0.011732321239971906 -0.013271415838370947 0 -0.011533247312373497 -0.012680551530885032 0 -0.012117584890163742 -0.012710313393780764 0 -0.012322726993601185 -0.012262575460398783 0 -0.012117584890163742 -0.012710313393780764 0 -0.011836534207791075 -0.012156160012595818 0 -0.011533247312373497 -0.012680551530885032 0 -0.012117584890163742 -0.012710313393780764 0 -0.011836534207791075 -0.012156160012595818 0 -0.011128521673998144 -0.01225587049560891 0 -0.011533247312373497 -0.012680551530885032 0 -0.011836534207791075 -0.012156160012595818 0 -0.011128521673998144 -0.01225587049560891 0 -0.011836534207791075 -0.012156160012595818 0 -0.011540969682375392 -0.011606623779759314 0 -0.012280957866627347 -0.011815032322361344 0 -0.011836534207791075 -0.012156160012595818 0 -0.011540969682375392 -0.011606623779759314 0 -0.012150814935142622 -0.011169605543842102 0 -0.012280957866627347 -0.011815032322361344 0 -0.011540969682375392 -0.011606623779759314 0 -0.011523873571848177 -0.011113320864742154 0 -0.012150814935142622 -0.011169605543842102 0 -0.011540969682375392 -0.011606623779759314 0 -0.01101457272049971 -0.01107136643709344 0 -0.011523873571848177 -0.011113320864742154 0 -0.011540969682375392 -0.011606623779759314 0 -0.01101457272049971 -0.01107136643709344 0 -0.011540969682375392 -0.011606623779759314 0 -0.010830075966787742 -0.011754243673377178 0 -0.01101457272049971 -0.01107136643709344 0 -0.010830075966787742 -0.011754243673377178 0 -0.009977900062322945 -0.011421936082223234 0 -0.011128521673998144 -0.01225587049560891 0 -0.011540969682375392 -0.011606623779759314 0 -0.010830075966787742 -0.011754243673377178 0 -0.010479353851463069 -0.012408461934871558 0 -0.010830075966787742 -0.011754243673377178 0 -0.009977900062322945 -0.011421936082223234 0 -0.017900951271446676 -0.0060940169680697726 0 -0.017923336886973621 -0.0071652014683729181 0 -0.017428696222467073 -0.0067111121064425605 0 -0.017694809670789791 -0.0064733905106440972 0 -0.017629312646869084 -0.0078616234125811531 0 -0.017485781178602201 -0.0068503956348708941 0 -0.018553150506735387 -0.0075604979217816469 0 -0.017322933472796814 -0.0085476898809765615 0 -0.017322933472796814 -0.0085476898809765615 0 -0.018418644217225791 -0.009211070561751503 0 -0.017253968447469618 -0.010171743878945518 0 -0.018553150506735387 -0.0075604979217816469 0 -0.017322933472796814 -0.0085476898809765615 0 -0.018418644217225791 -0.009211070561751503 0 -0.014262697153313726 -0.0095003572920659557 0 -0.014087887351041144 -0.01103715451213496 0 -0.010479353851463069 -0.012408461934871558 0 -0.009977900062322945 -0.011421936082223234 0 -0.009772405500754977 -0.012846090015844218 0 -0.010479353851463069 -0.012408461934871558 0 -0.009772405500754977 -0.012846090015844218 0 -0.010346681953707084 -0.013260583265483461 0 -0.014087887351041144 -0.01103715451213496 0 -0.01405904625987581 -0.012448669881230154 0 -0.009772405500754977 -0.012846090015844218 0 -0.010346681953707084 -0.013260583265483461 0 -0.009634959013185309 -0.014225904142794841 0 -0.010665035699784211 -0.013834611504663332 0 -0.010346681953707084 -0.013260583265483461 0 -0.009634959013185309 -0.014225904142794841 0 -0.010525947662853027 -0.014595902067515383 0 -0.010665035699784211 -0.013834611504663332 0 -0.009634959013185309 -0.014225904142794841 0 -0.010525947662853027 -0.014595902067515383 0 -0.009634959013185309 -0.014225904142794841 0 -0.010045823542749507 -0.014871995862352801 0 -0.018296924568868177 -0.010732952776896789 0 -0.017253968447469618 -0.010171743878945518 0 -0.017853646027639947 -0.01136677703408615 0 -0.017629312646869084 -0.0078616234125811531 0 -0.017543543316349872 -0.0095297817817415562 0 -0.018418644217225791 -0.009211070561751503 0 -0.018296924568868177 -0.010732952776896789 0 -0.017253968447469618 -0.010171743878945518 0 -0.017094214499888603 -0.0081867411871957459 0 -0.017879356795059392 -0.0088302267310347658 0 -0.01609552819005056 -0.0097867346048654078 0 -0.017923336886973621 -0.0071652014683729181 0 -0.017094214499888603 -0.0081867411871957459 0 -0.017879356795059392 -0.0088302267310347658 0 -0.017543543316349872 -0.0095297817817415562 0 -0.017277963484010131 -0.011435675494061591 0 -0.017879356795059392 -0.0088302267310347658 0 -0.016575317358889407 -0.010745540698361103 0 -0.01609552819005056 -0.0097867346048654078 0 -0.017879356795059392 -0.0088302267310347658 0 -0.016575317358889407 -0.010745540698361103 0 -0.017252129764149849 -0.011591174509663895 0 -0.017253968447469618 -0.010171743878945518 0 -0.017252129764149849 -0.011591174509663895 0 -0.017853646027639947 -0.01136677703408615 0 -0.014671927581030149 -0.010359026142482885 0 -0.01609552819005056 -0.0097867346048654078 0 -0.015486895974414931 -0.011257955648301093 0 -0.016575317358889407 -0.010745540698361103 0 -0.01609552819005056 -0.0097867346048654078 0 -0.015486895974414931 -0.011257955648301093 0 -0.014671927581030149 -0.010359026142482885 0 -0.01609552819005056 -0.0097867346048654078 0 -0.014897847487332692 -0.0090174632138353538 0 -0.017094214499888603 -0.0081867411871957459 0 -0.01609552819005056 -0.0097867346048654078 0 -0.014897847487332692 -0.0090174632138353538 0 -0.016977393852664203 -0.0082055165276036495 0 -0.015692711852189973 -0.0086410841024027966 0 -0.017094214499888603 -0.0081867411871957459 0 -0.01645989815458939 -0.0082801578737519508 0 -0.016640708388633439 -0.0077332708304002256 0 -0.016165851827717594 -0.007039748987477795 0 -0.016640708388633439 -0.0077332708304002256 0 -0.01689188226461481 -0.0069561470372565765 0 -0.017094214499888603 -0.0081867411871957459 0 -0.016640708388633439 -0.0077332708304002256 0 -0.017207270287762724 -0.0073075459543001696 0 -0.016640708388633439 -0.0077332708304002256 0 -0.017207270287762724 -0.0073075459543001696 0 -0.01689188226461481 -0.0069561470372565765 0 -0.017923336886973621 -0.0071652014683729181 0 -0.017094214499888603 -0.0081867411871957459 0 -0.017207270287762724 -0.0073075459543001696 0 -0.017923336886973621 -0.0071652014683729181 0 -0.017207270287762724 -0.0073075459543001696 0 -0.017428696222467073 -0.0067111121064425605 0 -0.017172380995590614 -0.0061638265370334861 0 -0.017428696222467073 -0.0067111121064425605 0 -0.01689188226461481 -0.0069561470372565765 0 -0.017207270287762724 -0.0073075459543001696 0 -0.017428696222467073 -0.0067111121064425605 0 -0.01689188226461481 -0.0069561470372565765 0 -0.017172380995590614 -0.0061638265370334861 0 -0.016572305938910736 -0.0065110309249669278 0 -0.01689188226461481 -0.0069561470372565765 0 -0.016165851827717594 -0.007039748987477795 0 -0.016572305938910736 -0.0065110309249669278 0 -0.01689188226461481 -0.0069561470372565765 0 -0.013752961243837345 -0.015851696141169307 0 -0.014485697885951422 -0.015657900692519454 0 -0.013808104151019534 -0.016646267982460477 0 -0.013752961243837345 -0.015851696141169307 0 -0.014485697885951422 -0.015657900692519454 0 -0.013713391968197687 -0.015046820152075894 0 -0.013009751071909043 -0.015760749361040317 0 -0.013752961243837345 -0.015851696141169307 0 -0.013713391968197687 -0.015046820152075894 0 -0.013072236106059053 -0.016555432877897944 0 -0.013009751071909043 -0.015760749361040317 0 -0.013752961243837345 -0.015851696141169307 0 -0.014485697885951422 -0.015657900692519454 0 -0.01517217414480148 -0.016343826642833448 0 -0.014516824214770671 -0.01682570397692643 0 -0.014485697885951422 -0.015657900692519454 0 -0.01458203365200462 -0.014852306528481676 0 -0.013713391968197687 -0.015046820152075894 0 -0.014485697885951422 -0.015657900692519454 0 -0.01458203365200462 -0.014852306528481676 0 -0.01527722602052463 -0.015204511320696848 0 -0.015474625787033274 -0.01516119516716348 0 -0.01230856571163058 -0.015863819857014742 0 -0.01458203365200462 -0.014852306528481676 0 -0.013713391968197687 -0.015046820152075894 0 -0.013990356233498829 -0.01419121348753207 0 -0.013077683908447013 -0.014320002807755956 0 -0.015232722666872551 -0.013675766507084937 0 -0.014674205337350735 -0.012882089374951817 0 -0.016124992922564637 -0.013069556780570023 0 -0.016285576161773844 -0.012063051228010322 0 -0.01313903751418424 -0.014362587841992715 0 -0.013713391968197687 -0.015046820152075894 0 -0.013990356233498829 -0.01419121348753207 0 -0.014674205337350735 -0.012882089374951817 0 -0.016285576161773844 -0.012063051228010322 0 -0.015486895974414931 -0.011257955648301093 0 -0.016575317358889407 -0.010745540698361103 0 -0.016285576161773844 -0.012063051228010322 0 -0.015486895974414931 -0.011257955648301093 0 -0.016575317358889407 -0.010745540698361103 0 -0.016285576161773844 -0.012063051228010322 0 -0.017252129764149849 -0.011591174509663895 0 -0.016285576161773844 -0.012063051228010322 0 -0.017252129764149849 -0.011591174509663895 0 -0.017374385858327891 -0.012556875452795579 0 -0.017252129764149849 -0.011591174509663895 0 -0.017374385858327891 -0.012556875452795579 0 -0.017683925288366136 -0.011906735760494344 0 -0.01458203365200462 -0.014852306528481676 0 -0.013990356233498829 -0.01419121348753207 0 -0.015417728176344151 -0.01418830447595212 0 -0.015745878808559717 -0.01367936488657605 0 -0.014587410169368561 -0.013974219522404236 0 -0.013508246250486321 -0.013733417924650455 0 -0.015232722666872551 -0.013675766507084937 0 -0.012827441067816773 -0.014794029238801432 0 -0.016124992922564637 -0.013069556780570023 0 -0.016285576161773844 -0.012063051228010322 0 -0.017374385858327891 -0.012556875452795579 0 -0.015232722666872551 -0.013675766507084937 0 -0.016469114763553925 -0.013145262216663586 0 -0.010188449299736557 -0.015537491438054401 0 -0.010291298531888029 -0.015622436820900641 0 -0.010153030996678629 -0.015840040127304729 0 -0.012827441067816773 -0.014794029238801432 0 -0.0130079250439802 -0.013904063596299393 0 -0.014587410169368561 -0.013974219522404236 0 -0.013508246250486321 -0.013733417924650455 0 -0.013426736963759149 -0.014269138864348918 0 -0.016469114763553925 -0.013145262216663586 0 -0.0130079250439802 -0.013904063596299393 0 -0.01405904625987581 -0.012448669881230154 0 -0.0130079250439802 -0.013904063596299393 0 -0.017374385858327891 -0.012556875452795579 0 -0.017683925288366136 -0.011906735760494344 0 -0.018210484133453417 -0.012179670190735443 0 -0.017683925288366136 -0.011906735760494344 0 -0.018210484133453417 -0.012179670190735443 0 -0.017853646027639947 -0.01136677703408615 0 -0.018296924568868177 -0.010732952776896789 0 -0.018210484133453417 -0.012179670190735443 0 -0.017853646027639947 -0.01136677703408615 0 -0.017252129764149849 -0.011591174509663895 0 -0.017683925288366136 -0.011906735760494344 0 -0.017853646027639947 -0.01136677703408615 0 -0.0130079250439802 -0.013904063596299393 0 -0.0092094348642002468 -0.015613645692857695 0 -0.009510942047811272 -0.015467300434318912 0 -0.010045823542749507 -0.014871995862352801 0 -0.01047823554074017 -0.015222049757474378 0 -0.009634959013185309 -0.014225904142794841 0 -0.009510942047811272 -0.015467300434318912 0 -0.010045823542749507 -0.014871995862352801 0 -0.010525947662853027 -0.014595902067515383 0 -0.010045823542749507 -0.014871995862352801 0 -0.01047823554074017 -0.015222049757474378 0 -0.01015113717375998 -0.015358701870199613 0 -0.01047823554074017 -0.015222049757474378 0 -0.01039201881117954 -0.015497218684655988 0 -0.012827441067816773 -0.014794029238801432 0 -0.009634518802025243 -0.01543768702245067 0 -0.010138181614477779 -0.015486259985345615 0 -0.01015113717375998 -0.015358701870199613 0 -0.01039201881117954 -0.015497218684655988 0 -0.010188449299736557 -0.015537491438054401 0 -0.01039201881117954 -0.015497218684655988 0 -0.010291298531888029 -0.015622436820900641 0 -0.01039201881117954 -0.015497218684655988 0 -0.010291298531888029 -0.015622436820900641 0 -0.010413895008146519 -0.01572667083444616 0 -0.0097319997411577461 -0.0164135203140038 0 -0.0095693188370183108 -0.016916450662935744 0 -0.0091016511106048244 -0.016791111678375846 0 -0.010291298531888029 -0.015622436820900641 0 -0.010413895008146519 -0.01572667083444616 0 -0.010153030996678629 -0.015840040127304729 0 -0.0096149549145526127 -0.016261896296000476 0 -0.01230856571163058 -0.015863819857014742 0 -0.0097319997411577461 -0.0164135203140038 0 -0.0095693188370183108 -0.016916450662935744 0 -0.010038159793798436 -0.016802756700132954 0 -0.012827441067816773 -0.014794029238801432 0 -0.01230856571163058 -0.015863819857014742 0 -0.01458203365200462 -0.014852306528481676 0 -0.015417728176344151 -0.01418830447595212 0 -0.01527722602052463 -0.015204511320696848 0 -0.0091016511106048244 -0.016791111678375846 0 -0.0093884761273593988 -0.017288464651209371 0 -0.0090005433842054779 -0.017570926969086752 0 -0.01230856571163058 -0.015863819857014742 0 -0.012064016539368776 -0.017079435505260431 0 -0.0095693188370183108 -0.016916450662935744 0 -0.0091016511106048244 -0.016791111678375846 0 -0.0093884761273593988 -0.017288464651209371 0 -0.014485697885951422 -0.015657900692519454 0 -0.015309271601537574 -0.015234145598318014 0 -0.01517217414480148 -0.016343826642833448 0 -0.0093884761273593988 -0.017288464651209371 0 -0.009761026573188154 -0.017320284737286359 0 -0.0095155685689966001 -0.017844284470455409 0 -0.0095693188370183108 -0.016916450662935744 0 -0.009761026573188154 -0.017320284737286359 0 -0.010038159793798436 -0.016802756700132954 0 -0.0095693188370183108 -0.016916450662935744 0 -0.0093884761273593988 -0.017288464651209371 0 -0.009761026573188154 -0.017320284737286359 0 -0.010232903727834928 -0.017359280166818206 0 -0.010699104917388862 -0.017295500431808112 0 -0.010579396311470273 -0.016763931465045658 0 -0.010232903727834928 -0.017359280166818206 0 -0.010579396311470273 -0.016763931465045658 0 -0.010038159793798436 -0.016802756700132954 0 -0.009761026573188154 -0.017320284737286359 0 -0.010232903727834928 -0.017359280166818206 0 -0.010038159793798436 -0.016802756700132954 0 -0.009761026573188154 -0.017320284737286359 0 -0.010232903727834928 -0.017359280166818206 0 -0.010048215972433732 -0.017874850924934783 0 -0.010232903727834928 -0.017359280166818206 0 -0.010699104917388862 -0.017295500431808112 0 -0.010576139509369182 -0.017803221400146233 0 -0.010699104917388862 -0.017295500431808112 0 -0.011080596362519375 -0.017654908112365135 0 -0.010576139509369182 -0.017803221400146233 0 -0.010699104917388862 -0.017295500431808112 0 -0.010579396311470273 -0.016763931465045658 0 -0.011211091421181214 -0.01687470627417784 0 -0.010699104917388862 -0.017295500431808112 0 -0.011211091421181214 -0.01687470627417784 0 -0.011080596362519375 -0.017654908112365135 0 -0.010579396311470273 -0.016763931465045658 0 -0.010405220053694668 -0.015964650025170876 0 -0.011052427510348619 -0.016205350536568002 0 -0.010579396311470273 -0.016763931465045658 0 -0.011052427510348619 -0.016205350536568002 0 -0.011211091421181214 -0.01687470627417784 0 -0.010579396311470273 -0.016763931465045658 0 -0.010038159793798436 -0.016802756700132954 0 -0.010405220053694668 -0.015964650025170876 0 -0.0097319997411577461 -0.0164135203140038 0 -0.010038159793798436 -0.016802756700132954 0 -0.010405220053694668 -0.015964650025170876 0 -0.0096149549145526127 -0.016261896296000476 0 -0.010759606677853643 -0.015716993512025643 0 -0.01039201881117954 -0.015497218684655988 0 -0.010413895008146519 -0.01572667083444616 0 -0.010884176324432978 -0.015584381417635575 0 -0.01047823554074017 -0.015222049757474378 0 -0.01039201881117954 -0.015497218684655988 0 -0.010884176324432978 -0.015584381417635575 0 -0.01047823554074017 -0.015222049757474378 0 -0.010884176324432978 -0.015584381417635575 0 -0.011032438972667443 -0.014987712235038293 0 -0.010525947662853027 -0.014595902067515383 0 -0.01047823554074017 -0.015222049757474378 0 -0.011032438972667443 -0.014987712235038293 0 -0.011594750099341414 -0.014931284806078166 0 -0.011032438972667443 -0.014987712235038293 0 -0.011306338499873276 -0.015431084990527184 0 -0.010884176324432978 -0.015584381417635575 0 -0.011032438972667443 -0.014987712235038293 0 -0.011306338499873276 -0.015431084990527184 0 -0.010759606677853643 -0.015716993512025643 0 -0.011217341183027755 -0.015476935844745136 0 -0.010405220053694668 -0.015964650025170876 0 -0.011306338499873276 -0.015431084990527184 0 -0.011052427510348619 -0.016205350536568002 0 -0.011306338499873276 -0.015431084990527184 0 -0.011052427510348619 -0.016205350536568002 0 -0.011729174348835497 -0.015952639603666385 0 -0.011306338499873276 -0.015431084990527184 0 -0.011729174348835497 -0.015952639603666385 0 -0.011867367283254625 -0.015345515270920634 0 -0.011594750099341414 -0.014931284806078166 0 -0.011306338499873276 -0.015431084990527184 0 -0.011867367283254625 -0.015345515270920634 0 -0.012481795468468065 -0.014708790320263758 0 -0.011867367283254625 -0.015345515270920634 0 -0.012383255744685672 -0.015545138837753788 0 -0.011681039048779356 -0.017687441163319207 0 -0.01173728211208681 -0.017780420678763755 0 -0.011729174348835497 -0.015952639603666385 0 -0.012383255744685672 -0.015545138837753788 0 -0.012250401531871144 -0.016519634303959696 0 -0.011729174348835497 -0.015952639603666385 0 -0.011867367283254625 -0.015345515270920634 0 -0.012383255744685672 -0.015545138837753788 0 -0.011052427510348619 -0.016205350536568002 0 -0.011729174348835497 -0.015952639603666385 0 -0.011211091421181214 -0.01687470627417784 0 -0.011729174348835497 -0.015952639603666385 0 -0.012250401531871144 -0.016519634303959696 0 -0.011211091421181214 -0.01687470627417784 0 -0.011211091421181214 -0.01687470627417784 0 -0.011973536720140473 -0.017551158603145153 0 -0.011080596362519375 -0.017654908112365135 0 -0.012250401531871144 -0.016519634303959696 0 -0.011211091421181214 -0.01687470627417784 0 -0.011973536720140473 -0.017551158603145153 0 -0.011215166640659652 -0.019175399787892768 0 -0.011362649314533124 -0.018910650372464952 0 -0.011113074469324467 -0.018957711526799204 0 -0.01173728211208681 -0.017780420678763755 0 -0.011652630500700645 -0.018225389124550899 0 -0.011362649314533124 -0.018910650372464952 0 -0.011489709422110053 -0.018503431296861571 0 -0.011185815101982232 -0.018701156520078591 0 -0.011973536720140473 -0.017551158603145153 0 -0.011358306682839697 -0.01805732607655483 0 -0.011489709422110053 -0.018503431296861571 0 -0.011652630500700645 -0.018225389124550899 0 -0.011528257476583488 -0.018461314949577739 0 -0.011358306682839697 -0.01805732607655483 0 -0.011080596362519375 -0.017654908112365135 0 -0.011011648904696357 -0.018316749763758928 0 -0.011973536720140473 -0.017551158603145153 0 -0.011358306682839697 -0.01805732607655483 0 -0.011080596362519375 -0.017654908112365135 0 -0.011358306682839697 -0.01805732607655483 0 -0.011489709422110053 -0.018503431296861571 0 -0.011011648904696357 -0.018316749763758928 0 -0.011489709422110053 -0.018503431296861571 0 -0.01125079595043752 -0.018831939718092307 0 -0.011011648904696357 -0.018316749763758928 0 -0.011489709422110053 -0.018503431296861571 0 -0.01125079595043752 -0.018831939718092307 0 -0.011355397004360918 -0.018485758182124321 0 -0.011489709422110053 -0.018503431296861571 0 -0.011185815101982232 -0.018701156520078591 0 -0.011355397004360918 -0.018485758182124321 0 -0.0093763936573698636 -0.022489088691025016 0 -0.0086853818395239823 -0.022467330434995155 0 -0.0066906565775856257 -0.025740215334181315 0 -0.0075117219828566995 -0.026130200985428204 0 -0.0061466808882349282 -0.026388233205990638 0 -0.0066906565775856257 -0.025740215334181315 0 -0.0063367920446730829 -0.025000047789731916 0 -0.007805495504298883 -0.024999914350763541 0 -0.0066906565775856257 -0.025740215334181315 0 -0.007805495504298883 -0.024999914350763541 0 -0.0075117219828566995 -0.026130200985428204 0 -0.0093763936573698636 -0.022489088691025016 0 -0.0095798256746993469 -0.022384246442936104 0 -0.01125079595043752 -0.018831939718092307 0 -0.0107549705722601 -0.018693651593900521 0 -0.010351272973933765 -0.019198651104468133 0 -0.007805495504298883 -0.024999914350763541 0 -0.0075117219828566995 -0.026130200985428204 0 -0.0088578584804105166 -0.025831692619628595 0 -0.007805495504298883 -0.024999914350763541 0 -0.0092740456910473442 -0.024999961487607844 0 -0.0088578584804105166 -0.025831692619628595 0 -0.010351272973933765 -0.019198651104468133 0 -0.010360075196829865 -0.018454448651510823 0 -0.0098610079132995555 -0.018885358169999911 0 -0.0107549705722601 -0.018693651593900521 0 -0.010351272973933765 -0.019198651104468133 0 -0.010360075196829865 -0.018454448651510823 0 -0.010360075196829865 -0.018454448651510823 0 -0.010048215972433732 -0.017874850924934783 0 -0.0098298199433013832 -0.018435964506978479 0 -0.010360075196829865 -0.018454448651510823 0 -0.0098298199433013832 -0.018435964506978479 0 -0.0098610079132995555 -0.018885358169999911 0 -0.0107549705722601 -0.018693651593900521 0 -0.010360075196829865 -0.018454448651510823 0 -0.011011648904696357 -0.018316749763758928 0 -0.01125079595043752 -0.018831939718092307 0 -0.0107549705722601 -0.018693651593900521 0 -0.011011648904696357 -0.018316749763758928 0 -0.010360075196829865 -0.018454448651510823 0 -0.011011648904696357 -0.018316749763758928 0 -0.010576139509369182 -0.017803221400146233 0 -0.011080596362519375 -0.017654908112365135 0 -0.011011648904696357 -0.018316749763758928 0 -0.010576139509369182 -0.017803221400146233 0 -0.010360075196829865 -0.018454448651510823 0 -0.010576139509369182 -0.017803221400146233 0 -0.010048215972433732 -0.017874850924934783 0 -0.010232903727834928 -0.017359280166818206 0 -0.010576139509369182 -0.017803221400146233 0 -0.010048215972433732 -0.017874850924934783 0 -0.010048215972433732 -0.017874850924934783 0 -0.0095155685689966001 -0.017844284470455409 0 -0.0098298199433013832 -0.018435964506978479 0 -0.009761026573188154 -0.017320284737286359 0 -0.010048215972433732 -0.017874850924934783 0 -0.0095155685689966001 -0.017844284470455409 0 -0.0095155685689966001 -0.017844284470455409 0 -0.0090005433842054779 -0.017570926969086752 0 -0.0089076400954895066 -0.018345810932890002 0 -0.0093884761273593988 -0.017288464651209371 0 -0.0095155685689966001 -0.017844284470455409 0 -0.0090005433842054779 -0.017570926969086752 0 -0.012064016539368776 -0.017079435505260431 0 -0.012002781695778609 -0.017442373373985614 0 -0.0089076400954895066 -0.018345810932890002 0 -0.0098298199433013832 -0.018435964506978479 0 -0.0093633179568166271 -0.018872722058145643 0 -0.0095155685689966001 -0.017844284470455409 0 -0.0089076400954895066 -0.018345810932890002 0 -0.0098298199433013832 -0.018435964506978479 0 -0.0098610079132995555 -0.018885358169999911 0 -0.0093921034120893546 -0.019476365869048259 0 -0.0093633179568166271 -0.018872722058145643 0 -0.010351272973933765 -0.019198651104468133 0 -0.0098610079132995555 -0.018885358169999911 0 -0.0093921034120893546 -0.019476365869048259 0 -0.0098298199433013832 -0.018435964506978479 0 -0.0098610079132995555 -0.018885358169999911 0 -0.0093633179568166271 -0.018872722058145643 0 -0.0095798256746993469 -0.022384246442936104 0 -0.0099494479470505024 -0.023455491360807205 0 -0.0092754145444393522 -0.025001258166239174 0 -0.0099494479470505024 -0.023455491360807205 0 -0.0092741275368012546 -0.024999998648457311 0 -0.010224279378828234 -0.024999990907326911 0 -0.010203972499674396 -0.025543799706808666 0 -0.0092740456910473442 -0.024999961487607844 0 -0.0088578584804105166 -0.025831692619628595 0 -0.010149679147496773 -0.025495404362843359 0 -0.010224279378828234 -0.024999990907326911 0 -0.011174429165147343 -0.024999996104615133 0 -0.011123326933615334 -0.02532379690546083 0 -0.010224279378828234 -0.024999990907326911 0 -0.010203972499674396 -0.025543799706808666 0 -0.011123326933615334 -0.02532379690546083 0 -0.010949924125387275 -0.023254303216236907 0 -0.010972866696791251 -0.023257176695592144 0 -0.010972792465596709 -0.023253999981926211 0 -0.0099494479470505024 -0.023455491360807205 0 -0.011091702339427375 -0.024966168701740989 0 -0.0093921034120893546 -0.019476365869048259 0 -0.0093633179568166271 -0.018872722058145643 0 -0.0088097559530339199 -0.019124541968466007 0 -0.0099494479470505024 -0.023455491360807205 0 -0.011904694701190099 -0.021333024376821257 0 -0.0089076400954895066 -0.018345810932890002 0 -0.0093633179568166271 -0.018872722058145643 0 -0.0088097559530339199 -0.019124541968466007 0 -0.012002781695778609 -0.017442373373985614 0 -0.011904694701190099 -0.021333024376821257 0 -0.011259750268997839 -0.025813328092137711 0 -0.01186242304391821 -0.02562899200978392 0 -0.012363910052254257 -0.026438858180381001 0 -0.011904694701190099 -0.021333024376821257 0 -0.01322723677200693 -0.022136844076864254 0 -0.011904694701190099 -0.021333024376821257 0 -0.011091702339427375 -0.024966168701740989 0 -0.011259750268997839 -0.025813328092137711 0 -0.011358678657443357 -0.025250505408881269 0 -0.01186242304391821 -0.02562899200978392 0 -0.011358678657443357 -0.025250505408881269 0 -0.011936630062502262 -0.025121710013735622 0 -0.01186242304391821 -0.02562899200978392 0 -0.011174521604694915 -0.025000002116874739 0 -0.011123611364535333 -0.025334123161026748 0 -0.011936630062502262 -0.025121710013735622 0 -0.011091702339427375 -0.024966168701740989 0 -0.011864790181951758 -0.025123879140349508 0 -0.011174305690526173 -0.025000121453659839 0 -0.011091702339427375 -0.024966168701740989 0 -0.012575323091981842 -0.02499987108961545 0 -0.011174521604694915 -0.025000002116874739 0 -0.011936630062502262 -0.025121710013735622 0 -0.012575323091981842 -0.02499987108961545 0 -0.011936630062502262 -0.025121710013735622 0 -0.012504258961508792 -0.025583701389305422 0 -0.011936630062502262 -0.025121710013735622 0 -0.012504258961508792 -0.025583701389305422 0 -0.01186242304391821 -0.02562899200978392 0 -0.012504258961508792 -0.025583701389305422 0 -0.01186242304391821 -0.02562899200978392 0 -0.012363910052254257 -0.026438858180381001 0 -0.015008219068359783 -0.017501788590507324 0 -0.014822713440550288 -0.01866244624375905 0 -0.013520230938154873 -0.017836776140985024 0 -0.015008219068359783 -0.017501788590507324 0 -0.013520230938154873 -0.017836776140985024 0 -0.014516824214770671 -0.01682570397692643 0 -0.01517217414480148 -0.016343826642833448 0 -0.015008219068359783 -0.017501788590507324 0 -0.014516824214770671 -0.01682570397692643 0 -0.014485697885951422 -0.015657900692519454 0 -0.014516824214770671 -0.01682570397692643 0 -0.013808104151019534 -0.016646267982460477 0 -0.013520230938154873 -0.017836776140985024 0 -0.014516824214770671 -0.01682570397692643 0 -0.013808104151019534 -0.016646267982460477 0 -0.013072236106059053 -0.016555432877897944 0 -0.013520230938154873 -0.017836776140985024 0 -0.013808104151019534 -0.016646267982460477 0 -0.013072236106059053 -0.016555432877897944 0 -0.013752961243837345 -0.015851696141169307 0 -0.013808104151019534 -0.016646267982460477 0 -0.0011528966760674694 -0.02697663243412543 0 -0.0008449971619386231 -0.026868704526415037 0 -0.0010769026475311945 -0.026708020341942966 0 -0.0011528966760674694 -0.02697663243412543 0 -0.0008449971619386231 -0.026868704526415037 0 -0.00093492570655058103 -0.027105467261260636 0 -0.0008449971619386231 -0.026868704526415037 0 -0.00093492570655058103 -0.027105467261260636 0 -0.00046672076793955939 -0.027006314388926093 0 -0.00093492570655058103 -0.027105467261260636 0 -0.0011911594799319312 -0.027254379364168062 0 -0.0009978044626759346 -0.027468776839325148 0 -0.00093492570655058103 -0.027105467261260636 0 -0.00046672076793955939 -0.027006314388926093 0 -0.0009978044626759346 -0.027468776839325148 0 -0.0011528966760674694 -0.02697663243412543 0 -0.0011911594799319312 -0.027254379364168062 0 -0.0014085458132248646 -0.027074927126469951 0 -0.0011528966760674694 -0.02697663243412543 0 -0.00093492570655058103 -0.027105467261260636 0 -0.0011911594799319312 -0.027254379364168062 0 -0.0011911594799319312 -0.027254379364168062 0 -0.0014085458132248646 -0.027074927126469951 0 -0.0014381356841700031 -0.027329490839724111 0 -0.0014085458132248646 -0.027074927126469951 0 -0.001747231564452757 -0.027023558511122391 0 -0.0014381356841700031 -0.027329490839724111 0 -0.0014085458132248646 -0.027074927126469951 0 -0.001747231564452757 -0.027023558511122391 0 -0.0014708126359267723 -0.026816861525267608 0 -0.0011528966760674694 -0.02697663243412543 0 -0.0014085458132248646 -0.027074927126469951 0 -0.0014708126359267723 -0.026816861525267608 0 -0.001747231564452757 -0.027023558511122391 0 -0.0014708126359267723 -0.026816861525267608 0 -0.0018209459583548382 -0.026571437570299561 0 -0.0014708126359267723 -0.026816861525267608 0 -0.0014835545290362135 -0.026588743877569015 0 -0.0018209459583548382 -0.026571437570299561 0 -0.0014835545290362135 -0.026588743877569015 0 -0.0010769026475311945 -0.026708020341942966 0 -0.0011406429355018907 -0.02648963374000957 0 -0.0014708126359267723 -0.026816861525267608 0 -0.0014835545290362135 -0.026588743877569015 0 -0.0010769026475311945 -0.026708020341942966 0 -0.0011528966760674694 -0.02697663243412543 0 -0.0014708126359267723 -0.026816861525267608 0 -0.0010769026475311945 -0.026708020341942966 0 -0.0008449971619386231 -0.026868704526415037 0 -0.0010769026475311945 -0.026708020341942966 0 -0.00058298687498093609 -0.026585134145681037 0 -0.0010769026475311945 -0.026708020341942966 0 -0.00058298687498093609 -0.026585134145681037 0 -0.0011406429355018907 -0.02648963374000957 0 -0.00058298687498093609 -0.026585134145681037 0 0.00030377185358019631 -0.026634732556795694 0 7.9817983764733004e-05 -0.026319645010369343 0 0.00030377185358019631 -0.026634732556795694 0 -0.00046672076793955939 -0.027006314388926093 0 0.00023819514312134146 -0.027209886608499968 0 0.00030377185358019631 -0.026634732556795694 0 0.00023819514312134146 -0.027209886608499968 0 0.0011784599844498406 -0.02672371560055373 0 -0.00058298687498093609 -0.026585134145681037 0 0.00030377185358019631 -0.026634732556795694 0 -0.00046672076793955939 -0.027006314388926093 0 -0.0008449971619386231 -0.026868704526415037 0 -0.00058298687498093609 -0.026585134145681037 0 -0.00046672076793955939 -0.027006314388926093 0 -0.00046672076793955939 -0.027006314388926093 0 0.00023819514312134146 -0.027209886608499968 0 -0.0009978044626759346 -0.027468776839325148 0 0.00023819514312134146 -0.027209886608499968 0 -0.0010507041772139323 -0.027653794454001495 0 -0.0009978044626759346 -0.027468776839325148 0 0.00023819514312134146 -0.027209886608499968 0 0.00029797257331609108 -0.027510324813870585 0 5.217030434045385e-05 -0.027536622769802017 0 0.00023819514312134146 -0.027209886608499968 0 5.217030434045385e-05 -0.027536622769802017 0 -0.00013957648303187029 -0.027353998673520067 0 0.00066355553503318553 -0.02766682823353557 0 -0.0019142417048107251 -0.02556346709955707 0 0.00023819514312134146 -0.027209886608499968 0 0.0011784599844498406 -0.02672371560055373 0 0.0011250373571325995 -0.027120260084773674 0 0.00023819514312134146 -0.027209886608499968 0 0.00059590386732955329 -0.027465853479423586 0 0.0011250373571325995 -0.027120260084773674 0 0.00023819514312134146 -0.027209886608499968 0 0.00059590386732955329 -0.027465853479423586 0 0.00029797257331609108 -0.027510324813870585 0 0.00059590386732955329 -0.027465853479423586 0 0.00041102809417683248 -0.027752015544338201 0 0.0010827988069671273 -0.02775500033417359 0 0.00059590386732955329 -0.027465853479423586 0 0.00029797257331609108 -0.027510324813870585 0 0.00041102809417683248 -0.027752015544338201 0 0.00029797257331609108 -0.027510324813870585 0 0.00041102809417683248 -0.027752015544338201 0 0.00020592865916620623 -0.027644541862520546 0 0.00036038294307301976 -0.027761661275202194 0 0.00041102809417683248 -0.027752015544338201 0 0.00020592865916620623 -0.027644541862520546 0 0.00034096938461464622 -0.024986511995439779 0 9.6046984273354168e-05 -0.02609312866514666 0 0.0043652183285026475 -0.025894920065301943 0 0.0031475100586447332 -0.02663322912286379 0 0.003312532192312932 -0.025436524584517069 0 0.00034096938461464622 -0.024986511995439779 0 0.0022679541956728087 -0.027063389491556806 0 0.00034577126117205678 -0.027878601333629474 0 0.00041102809417683248 -0.027752015544338201 0 0.0010827988069671273 -0.02775500033417359 0 -3.3860684939978939e-05 -0.027746092905646235 0 5.217030434045385e-05 -0.027536622769802017 0 0.00020592865916620623 -0.027644541862520546 0 -3.3860684939978939e-05 -0.027746092905646235 0 0.00036038294307301976 -0.027761661275202194 0 0.00020592865916620623 -0.027644541862520546 0 0.00029797257331609108 -0.027510324813870585 0 5.217030434045385e-05 -0.027536622769802017 0 0.00020592865916620623 -0.027644541862520546 0 -3.3860684939978939e-05 -0.027746092905646235 0 5.217030434045385e-05 -0.027536622769802017 0 -0.00019117106298986776 -0.027617516508928831 0 5.217030434045385e-05 -0.027536622769802017 0 -0.00019117106298986776 -0.027617516508928831 0 -0.00013957648303187029 -0.027353998673520067 0 -0.0028681206745500951 -0.024970109422249084 0 -0.0019142417048107251 -0.02556346709955707 0 -0.001045028824813366 -0.027564253983871211 0 -0.0012740314626507961 -0.027450140967856657 0 -0.0009978044626759346 -0.027468776839325148 0 -0.0011911594799319312 -0.027254379364168062 0 -0.0012740314626507961 -0.027450140967856657 0 -0.0009978044626759346 -0.027468776839325148 0 -0.0011911594799319312 -0.027254379364168062 0 -0.0012740314626507961 -0.027450140967856657 0 -0.0014381356841700031 -0.027329490839724111 0 -0.0019142417048107251 -0.02556346709955707 0 -0.0019255859720284131 -0.026249378553711566 0 -0.001045028824813366 -0.027564253983871211 0 -0.0012740314626507961 -0.027450140967856657 0 -0.0016874431765195558 -0.027627448809905756 0 -0.010412323026636071 -0.019199687741914793 0 -0.010369038274769902 -0.019418714283502184 0 -0.010482573631248486 -0.019290217957761847 0 -0.001747231564452757 -0.027023558511122391 0 -0.0014381356841700031 -0.027329490839724111 0 -0.0016874431765195558 -0.027627448809905756 0 -0.0019142417048107251 -0.02556346709955707 0 -0.0071076221058417287 -0.021022327608767728 0 -0.0059404500193798674 -0.02366260300430012 0 -0.0071076221058417287 -0.021022327608767728 0 -0.0012740314626507961 -0.027450140967856657 0 -0.0014381356841700031 -0.027329490839724111 0 -0.0016874431765195558 -0.027627448809905756 0 -0.009279028786333016 -0.015535303908980631 0 -0.0071076221058417287 -0.021022327608767728 0 -0.0046742874572883366 -0.020882870521949704 0 -0.0053447866686562899 -0.021061143208426867 0 -0.0044569943608847177 -0.022152078548348535 0 -0.0053447866686562899 -0.021061143208426867 0 -0.0057340335538654426 -0.022477213396173694 0 -0.0044569943608847177 -0.022152078548348535 0 -0.013056581664804801 -0.01278252488721846 0 -0.01292128306293506 -0.0138337825359095 0 -0.012678517962228093 -0.013299768658388316 0 -0.013056581664804801 -0.01278252488721846 0 -0.012404601550222742 -0.012926510401778245 0 -0.012678517962228093 -0.013299768658388316 0 -0.01292128306293506 -0.0138337825359095 0 -0.012678517962228093 -0.013299768658388316 0 -0.012336353454514719 -0.013673848275227683 0 -0.012404601550222742 -0.012926510401778245 0 -0.012678517962228093 -0.013299768658388316 0 -0.012336353454514719 -0.013673848275227683 0 -0.011052916701904733 -0.018281612198132787 0 -0.01138145587425534 -0.016032481055167653 0 -0.012404601550222742 -0.012926510401778245 0 -0.012336353454514719 -0.013673848275227683 0 -0.011591624737154953 -0.012877112766319762 0 -0.011182366416990533 -0.01923196682991624 0 -0.011143493996275448 -0.019249152471433165 0 -0.011160844549869866 -0.019211810020635111 0 -0.011052916701904733 -0.018281612198132787 0 -0.010959533152928155 -0.019405687937460531 0 -0.011100866049876101 -0.019224764298907848 0 -0.011143493996275448 -0.019249152471433165 0 -0.011160844549869866 -0.019211810020635111 0 -0.010527435533383471 -0.019436790889735957 0 -0.010814417227883406 -0.019424838404886603 0 -0.010739145709047673 -0.019327460388134748 0 -0.010814417227883406 -0.019424838404886603 0 -0.010739145709047673 -0.019327460388134748 0 -0.010951105137794003 -0.019327534395099263 0 -0.010739145709047673 -0.019327460388134748 0 -0.010925367102957911 -0.019248486144009917 0 -0.010733692766074008 -0.019214569122476797 0 -0.010739145709047673 -0.019327460388134748 0 -0.010614280524745071 -0.019274285276975806 0 -0.010733692766074008 -0.019214569122476797 0 -0.010739145709047673 -0.019327460388134748 0 -0.010614280524745071 -0.019274285276975806 0 -0.010565720935147323 -0.019343260249204238 0 -0.010614280524745071 -0.019274285276975806 0 -0.010482573631248486 -0.019290217957761847 0 -0.010565720935147323 -0.019343260249204238 0 -0.010527435533383471 -0.019436790889735957 0 -0.010739145709047673 -0.019327460388134748 0 -0.010565720935147323 -0.019343260249204238 0 -0.010482573631248486 -0.019290217957761847 0 -0.010461235751415086 -0.019389611844376622 0 -0.010565720935147323 -0.019343260249204238 0 -0.010527435533383471 -0.019436790889735957 0 -0.010461235751415086 -0.019389611844376622 0 -0.010565720935147323 -0.019343260249204238 0 -0.010369038274769902 -0.019418714283502184 0 -0.010515111570821006 -0.019440127326089903 0 -0.010461235751415086 -0.019389611844376622 0 -0.010369038274769902 -0.019418714283502184 0 -0.010482573631248486 -0.019290217957761847 0 -0.010461235751415086 -0.019389611844376622 0 -0.0071076221058417287 -0.021022327608767728 0 -0.011052916701904733 -0.018281612198132787 0 -0.011052916701904733 -0.018281612198132787 0 -0.011003185122707702 -0.018784771491388193 0 -0.012056980098170663 -0.015691730709803259 0 -0.011681039048779356 -0.017687441163319207 0 -0.011075942095267629 -0.019301072391729748 0 -0.011046751315468843 -0.019301400863681966 0 -0.011039782965084437 -0.019274947320764835 0 -0.011046751315468843 -0.019301400863681966 0 -0.010951105137794003 -0.019327534395099263 0 -0.011039782965084437 -0.019274947320764835 0 -0.011013730336739665 -0.019201622740087184 0 -0.011075942095267629 -0.019301072391729748 0 -0.011046751315468843 -0.019301400863681966 0 -0.010959533152928155 -0.019405687937460531 0 -0.011024451667290155 -0.019298428365993079 0 -0.010814417227883406 -0.019424838404886603 0 -0.011046751315468843 -0.019301400863681966 0 -0.010951105137794003 -0.019327534395099263 0 -0.011100866049876101 -0.019224764298907848 0 -0.011143493996275448 -0.019249152471433165 0 -0.011046751315468843 -0.019301400863681966 0 -0.010925367102957911 -0.019248486144009917 0 -0.011039782965084437 -0.019274947320764835 0 -0.011038293201280767 -0.019138392289223975 0 -0.010739145709047673 -0.019327460388134748 0 -0.010951105137794003 -0.019327534395099263 0 -0.010925367102957911 -0.019248486144009917 0 -0.010951105137794003 -0.019327534395099263 0 -0.010925367102957911 -0.019248486144009917 0 -0.011039782965084437 -0.019274947320764835 0 -0.011075942095267629 -0.019301072391729748 0 -0.011215166640659652 -0.019175399787892768 0 -0.011039782965084437 -0.019274947320764835 0 -0.011215166640659652 -0.019175399787892768 0 -0.011039782965084437 -0.019274947320764835 0 -0.011038293201280767 -0.019138392289223975 0 -0.011215166640659652 -0.019175399787892768 0 -0.011038293201280767 -0.019138392289223975 0 -0.011113074469324467 -0.018957711526799204 0 -0.011038293201280767 -0.019138392289223975 0 -0.010865376514541693 -0.019134136050053884 0 -0.010884145797831368 -0.01898381506662597 0 -0.010925367102957911 -0.019248486144009917 0 -0.011038293201280767 -0.019138392289223975 0 -0.010865376514541693 -0.019134136050053884 0 -0.010925367102957911 -0.019248486144009917 0 -0.010865376514541693 -0.019134136050053884 0 -0.010733692766074008 -0.019214569122476797 0 -0.011038293201280767 -0.019138392289223975 0 -0.010884145797831368 -0.01898381506662597 0 -0.011113074469324467 -0.018957711526799204 0 -0.010884145797831368 -0.01898381506662597 0 -0.011113074469324467 -0.018957711526799204 0 -0.010871094300313232 -0.018791679378841551 0 -0.010412323026636071 -0.019199687741914793 0 -0.010560684325047512 -0.019177468108826305 0 -0.010426802370218792 -0.018978883356701483 0 -0.010412323026636071 -0.019199687741914793 0 -0.010482573631248486 -0.019290217957761847 0 -0.010560684325047512 -0.019177468108826305 0 -0.010614280524745071 -0.019274285276975806 0 -0.010482573631248486 -0.019290217957761847 0 -0.010560684325047512 -0.019177468108826305 0 -0.010614280524745071 -0.019274285276975806 0 -0.010560684325047512 -0.019177468108826305 0 -0.010733692766074008 -0.019214569122476797 0 -0.010560684325047512 -0.019177468108826305 0 -0.010733692766074008 -0.019214569122476797 0 -0.0106301446396095 -0.019061119576587987 0 -0.010865376514541693 -0.019134136050053884 0 -0.010733692766074008 -0.019214569122476797 0 -0.0106301446396095 -0.019061119576587987 0 -0.010884145797831368 -0.01898381506662597 0 -0.0106301446396095 -0.019061119576587987 0 -0.010672903642860372 -0.018900187395452562 0 -0.010865376514541693 -0.019134136050053884 0 -0.010884145797831368 -0.01898381506662597 0 -0.0106301446396095 -0.019061119576587987 0 -0.0106301446396095 -0.019061119576587987 0 -0.010566279587601196 -0.018951300948665276 0 -0.010672903642860372 -0.018900187395452562 0 -0.0059404500193798674 -0.02366260300430012 0 -0.0062021219537792835 -0.022512765172249493 0 -0.0106301446396095 -0.019061119576587987 0 -0.010566279587601196 -0.018951300948665276 0 -0.010426802370218792 -0.018978883356701483 0 -0.010560684325047512 -0.019177468108826305 0 -0.0106301446396095 -0.019061119576587987 0 -0.010426802370218792 -0.018978883356701483 0 -0.0018209459583548382 -0.026571437570299561 0 -0.0019231581195682068 -0.02639534371638905 0 -0.0017983748236122075 -0.026449856632058833 0 -0.010426802370218792 -0.018978883356701483 0 -0.010537350024860845 -0.018861066504186529 0 -0.010427526871228781 -0.018719575685883668 0 -0.0062021219537792835 -0.022512765172249493 0 -0.0056374736881202809 -0.023316620865441871 0 -0.010537350024860845 -0.018861066504186529 0 -0.010663970500166995 -0.018769749538616223 0 -0.010427526871228781 -0.018719575685883668 0 -0.010566279587601196 -0.018951300948665276 0 -0.010426802370218792 -0.018978883356701483 0 -0.010537350024860845 -0.018861066504186529 0 -0.010566279587601196 -0.018951300948665276 0 -0.010537350024860845 -0.018861066504186529 0 -0.010672903642860372 -0.018900187395452562 0 -0.010663970500166995 -0.018769749538616223 0 -0.010871094300313232 -0.018791679378841551 0 -0.01082273086535566 -0.018575318437584868 0 -0.010537350024860845 -0.018861066504186529 0 -0.010672903642860372 -0.018900187395452562 0 -0.010663970500166995 -0.018769749538616223 0 -0.010672903642860372 -0.018900187395452562 0 -0.010663970500166995 -0.018769749538616223 0 -0.010871094300313232 -0.018791679378841551 0 -0.0033502999929760097 -0.0262509090592709 0 -0.0028993417871767038 -0.026724518440520397 0 -0.0046999535468641197 -0.026603102291628638 0 -0.0056374736881202809 -0.023316620865441871 0 -0.008014534725430315 -0.022477742635362018 0 -0.010663970500166995 -0.018769749538616223 0 -0.010427526871228781 -0.018719575685883668 0 -0.01082273086535566 -0.018575318437584868 0 -0.0033502999929760097 -0.0262509090592709 0 -0.0026554529191647981 -0.026202393232163269 0 -0.0029111771138130081 -0.026628278034347943 0 -0.0033502999929760097 -0.0262509090592709 0 -0.0026554529191647981 -0.026202393232163269 0 -0.0028326591577558214 -0.025941148869938153 0 -0.0029111771138130081 -0.026628278034347943 0 -0.0023902910616951712 -0.026369099098188496 0 -0.0028735801262030495 -0.026721101972692726 0 -0.0026554529191647981 -0.026202393232163269 0 -0.0029111771138130081 -0.026628278034347943 0 -0.0023902910616951712 -0.026369099098188496 0 -0.0055137625827479525 -0.023685869415552608 0 -0.0056374736881202809 -0.023316620865441871 0 -0.0033502999929760097 -0.0262509090592709 0 -0.0029111771138130081 -0.026628278034347943 0 -0.0028993417871767038 -0.026724518440520397 0 -0.011362649314533124 -0.018910650372464952 0 -0.011113074469324467 -0.018957711526799204 0 -0.011185815101982232 -0.018701156520078591 0 -0.011113074469324467 -0.018957711526799204 0 -0.011185815101982232 -0.018701156520078591 0 -0.010871094300313232 -0.018791679378841551 0 -0.010884145797831368 -0.01898381506662597 0 -0.010672903642860372 -0.018900187395452562 0 -0.010871094300313232 -0.018791679378841551 0 -0.011185815101982232 -0.018701156520078591 0 -0.010871094300313232 -0.018791679378841551 0 -0.01082273086535566 -0.018575318437584868 0 -0.008014534725430315 -0.022477742635362018 0 -0.0086853818395239823 -0.022467330434995155 0 -0.011185815101982232 -0.018701156520078591 0 -0.01082273086535566 -0.018575318437584868 0 -0.011355397004360918 -0.018485758182124321 0 -0.0066906565775856257 -0.025740215334181315 0 -0.0061466808882349282 -0.026388233205990638 0 -0.0053694435482748871 -0.025750628311951265 0 -0.0046999535468641197 -0.026603102291628638 0 -0.0061466808882349282 -0.026388233205990638 0 -0.0053694435482748871 -0.025750628311951265 0 -0.0046999535468641197 -0.026603102291628638 0 -0.0053694435482748871 -0.025750628311951265 0 -0.0043777785341385248 -0.025737794549748304 0 -0.0053694435482748871 -0.025750628311951265 0 -0.0048679683968108102 -0.024999267260369568 0 -0.0043777785341385248 -0.025737794549748304 0 -0.0066906565775856257 -0.025740215334181315 0 -0.0063367920446730829 -0.025000047789731916 0 -0.0053694435482748871 -0.025750628311951265 0 -0.0063367920446730829 -0.025000047789731916 0 -0.0053694435482748871 -0.025750628311951265 0 -0.0048679683968108102 -0.024999267260369568 0 -0.0034777305008156212 -0.025321726238457725 0 -0.0028326591577558214 -0.025941148869938153 0 -0.0018838375293767516 -0.025929379101553358 0 -0.0033502999929760097 -0.0262509090592709 0 -0.0034777305008156212 -0.025321726238457725 0 -0.0028326591577558214 -0.025941148869938153 0 -0.0035683072383506003 -0.025515867851267519 0 -0.0021278951683262998 -0.026029252506205146 0 -0.0033502999929760097 -0.0262509090592709 0 -0.0034777305008156212 -0.025321726238457725 0 -0.0043777785341385248 -0.025737794549748304 0 -0.0033502999929760097 -0.0262509090592709 0 -0.0046999535468641197 -0.026603102291628638 0 -0.0043777785341385248 -0.025737794549748304 0 -0.0048681773342137569 -0.025000053371421051 0 -0.0037023233654260536 -0.02569220328464393 0 -0.0033885087702644344 -0.024999821744260176 0 -0.0048679683968108102 -0.024999267260369568 0 -0.0034777305008156212 -0.025321726238457725 0 -0.0043777785341385248 -0.025737794549748304 0 -0.0048678389253937896 -0.025000086773620981 0 -0.0035683072383506003 -0.025515867851267519 0 -0.0037023233654260536 -0.02569220328464393 0 -0.0033885087702644344 -0.024999821744260176 0 -0.0027542226703784738 -0.025542481611269558 0 -0.0033885087702644344 -0.024999821744260176 0 -0.0027542226703784738 -0.025542481611269558 0 -0.0019089834793686146 -0.02499971921042711 0 -0.0027542226703784738 -0.025542481611269558 0 -0.0019089834793686146 -0.02499971921042711 0 -0.0020548661921870976 -0.025691684922560288 0 -0.0019089834793686146 -0.02499971921042711 0 -0.0013127981201401808 -0.025730241001013666 0 -0.0020548661921870976 -0.025691684922560288 0 -0.0013127981201401808 -0.025730241001013666 0 -0.0020548661921870976 -0.025691684922560288 0 -0.0023642787801656032 -0.026167509388632031 0 -0.0037023233654260536 -0.02569220328464393 0 -0.0027542226703784738 -0.025542481611269558 0 -0.0023642787801656032 -0.026167509388632031 0 -0.0027542226703784738 -0.025542481611269558 0 -0.0020548661921870976 -0.025691684922560288 0 -0.0023642787801656032 -0.026167509388632031 0 -0.0026554529191647981 -0.026202393232163269 0 -0.0028326591577558214 -0.025941148869938153 0 -0.0018838375293767516 -0.025929379101553358 0 -0.0023902910616951712 -0.026369099098188496 0 -0.0018838375293767516 -0.025929379101553358 0 -0.0017983748236122075 -0.026449856632058833 0 -0.0026554529191647981 -0.026202393232163269 0 -0.0023902910616951712 -0.026369099098188496 0 -0.0018838375293767516 -0.025929379101553358 0 -0.0056374736881202809 -0.023316620865441871 0 -0.00086256869654185997 -0.026467930115456111 0 -0.0023902910616951712 -0.026369099098188496 0 -0.0028735801262030495 -0.026721101972692726 0 -0.0017983748236122075 -0.026449856632058833 0 -0.0018838375293767516 -0.025929379101553358 0 -0.0010083032064913061 -0.026281137713768631 0 -0.0017983748236122075 -0.026449856632058833 0 -0.0021278951683262998 -0.026029252506205146 0 -0.0011183574431357845 -0.026303383203240667 0 -0.0013127981201401808 -0.025730241001013666 0 -0.0023642787801656032 -0.026167509388632031 0 -0.0010083032064913061 -0.026281137713768631 0 -0.00058298687498093609 -0.026585134145681037 0 -0.0010083032064913061 -0.026281137713768631 0 -0.0011406429355018907 -0.02648963374000957 0 -0.0010083032064913061 -0.026281137713768631 0 -0.0011406429355018907 -0.02648963374000957 0 -0.0017983748236122075 -0.026449856632058833 0 -0.0014835545290362135 -0.026588743877569015 0 -0.0011406429355018907 -0.02648963374000957 0 -0.0017983748236122075 -0.026449856632058833 0 -0.0014835545290362135 -0.026588743877569015 0 -0.0018209459583548382 -0.026571437570299561 0 -0.0017983748236122075 -0.026449856632058833 0 7.9817983764733004e-05 -0.026319645010369343 0 -0.00017456027770071581 -0.025818827408652271 0 0.00069939814906311922 -0.026183583645697287 0 -0.00058298687498093609 -0.026585134145681037 0 -0.0010083032064913061 -0.026281137713768631 0 7.9817983764733004e-05 -0.026319645010369343 0 -0.0010083032064913061 -0.026281137713768631 0 7.9817983764733004e-05 -0.026319645010369343 0 -0.00017456027770071581 -0.025818827408652271 0 -0.0013127981201401808 -0.025730241001013666 0 -0.0010083032064913061 -0.026281137713768631 0 -0.00017456027770071581 -0.025818827408652271 0 -0.0013127981201401808 -0.025730241001013666 0 -0.00017456027770071581 -0.025818827408652271 0 -0.00042959733809982791 -0.024999830937883608 0 -0.00017456027770071581 -0.025818827408652271 0 -0.00042959733809982791 -0.024999830937883608 0 0.00049582222204367038 -0.025353492976454454 0 -0.0019089834793686146 -0.02499971921042711 0 -0.0013127981201401808 -0.025730241001013666 0 -0.00042959733809982791 -0.024999830937883608 0 -0.00042959733809982791 -0.024999830937883608 0 0.0010492863238784021 -0.024998839485787589 0 0.00049582222204367038 -0.025353492976454454 0 0.0010492863238784021 -0.024998839485787589 0 0.0012942132471094494 -0.025231422063592926 0 0.00049582222204367038 -0.025353492976454454 0 0.0010492863238784021 -0.024998839485787589 0 0.0012942132471094494 -0.025231422063592926 0 0.0021124744802257082 -0.02488236555488902 0 0.0012942132471094494 -0.025231422063592926 0 0.0021808578249154502 -0.025569183792374616 0 0.00091062169806677346 -0.025710769858292119 0 0.0012942132471094494 -0.025231422063592926 0 0.00049582222204367038 -0.025353492976454454 0 0.00091062169806677346 -0.025710769858292119 0 -0.00017456027770071581 -0.025818827408652271 0 0.00049582222204367038 -0.025353492976454454 0 0.00091062169806677346 -0.025710769858292119 0 0.0023761955554205331 -0.024999835716200996 0 0.0031323102111523496 -0.02541216245929773 0 0.0022069436235720723 -0.025607918523770142 0 0.0023761955554205331 -0.024999835716200996 0 0.0031323102111523496 -0.02541216245929773 0 0.0037027896847239457 -0.024999757711367906 0 0.0010497502450049967 -0.025000038873194252 0 0.0021834154634277837 -0.025255771484809703 0 0.0010493854488157219 -0.025000059618935498 0 0.0023761955554205331 -0.024999835716200996 0 0.0022069436235720723 -0.025607918523770142 0 0.0012942132471094494 -0.025231422063592926 0 0.0021124744802257082 -0.02488236555488902 0 0.0021808578249154502 -0.025569183792374616 0 0.0021124744802257082 -0.02488236555488902 0 0.0021808578249154502 -0.025569183792374616 0 0.0033685051228001584 -0.025171868054190135 0 0.0031323102111523496 -0.02541216245929773 0 0.0022069436235720723 -0.025607918523770142 0 0.0035030031524966748 -0.025910197414340058 0 0.0021834154634277837 -0.025255771484809703 0 0.0034288047056907781 -0.025530234817328412 0 0.0021808578249154502 -0.025569183792374616 0 0.0033890376918364147 -0.026121078899382533 0 0.0033685051228001584 -0.025171868054190135 0 0.0021808578249154502 -0.025569183792374616 0 0.0018639645115094789 -0.026241378101701504 0 0.0033890376918364147 -0.026121078899382533 0 -0.00017456027770071581 -0.025818827408652271 0 0.00091062169806677346 -0.025710769858292119 0 0.00069939814906311922 -0.026183583645697287 0 0.0021808578249154502 -0.025569183792374616 0 0.0018639645115094789 -0.026241378101701504 0 0.00091062169806677346 -0.025710769858292119 0 0.0018639645115094789 -0.026241378101701504 0 0.00091062169806677346 -0.025710769858292119 0 0.00069939814906311922 -0.026183583645697287 0 0.0018639645115094789 -0.026241378101701504 0 0.00069939814906311922 -0.026183583645697287 0 0.0011402242846109073 -0.026821610736944387 0 7.9817983764733004e-05 -0.026319645010369343 0 0.00069939814906311922 -0.026183583645697287 0 0.0011402242846109073 -0.026821610736944387 0 0.00030377185358019631 -0.026634732556795694 0 7.9817983764733004e-05 -0.026319645010369343 0 0.0015839611354142565 -0.025938398814919047 0 0.000217435335709677 -0.026298904299160642 0 0.0013668596437269784 -0.026391781460538874 0 0.00030377185358019631 -0.026634732556795694 0 0.0011784599844498406 -0.02672371560055373 0 0.0015839611354142565 -0.025938398814919047 0 0.0011784599844498406 -0.02672371560055373 0 0.0020849592989454586 -0.02664790459457108 0 0.0011250373571325995 -0.027120260084773674 0 0.0020849592989454586 -0.02664790459457108 0 0.0015839611354142565 -0.025938398814919047 0 0.0028382237355269613 -0.026059904345625159 0 0.0011784599844498406 -0.02672371560055373 0 0.0020849592989454586 -0.02664790459457108 0 0.0015839611354142565 -0.025938398814919047 0 0.0018639645115094789 -0.026241378101701504 0 0.0011402242846109073 -0.026821610736944387 0 0.0025676009334725225 -0.026877728206959328 0 0.0013668596437269784 -0.026391781460538874 0 0.0026880285173914603 -0.026451654578634475 0 0.0018639645115094789 -0.026241378101701504 0 0.0033890376918364147 -0.026121078899382533 0 0.0025676009334725225 -0.026877728206959328 0 0.0033890376918364147 -0.026121078899382533 0 0.0025676009334725225 -0.026877728206959328 0 0.0038026434068759067 -0.02644789345933168 0 0.0026880285173914603 -0.026451654578634475 0 0.0036852598217187349 -0.026479404196641621 0 0.0028382237355269613 -0.026059904345625159 0 0.0028196708637722727 -0.026646894459332448 0 0.0038026434068759067 -0.02644789345933168 0 0.0020849592989454586 -0.02664790459457108 0 0.0028382237355269613 -0.026059904345625159 0 0.0028196708637722727 -0.026646894459332448 0 0.0028196708637722727 -0.026646894459332448 0 0.0031339997921746316 -0.026774572707389501 0 0.0025716998737764546 -0.026827551036204843 0 0.0028196708637722727 -0.026646894459332448 0 0.0037491388048062077 -0.0266017961561715 0 0.0038026434068759067 -0.02644789345933168 0 0.0028196708637722727 -0.026646894459332448 0 0.0031339997921746316 -0.026774572707389501 0 0.0037491388048062077 -0.0266017961561715 0 0.0031339997921746316 -0.026774572707389501 0 0.0031685826500328198 -0.026983948961697288 0 0.0037525873625787504 -0.026924313151142052 0 0.0031339997921746316 -0.026774572707389501 0 0.0037491388048062077 -0.0266017961561715 0 0.0037525873625787504 -0.026924313151142052 0 0.0031339997921746316 -0.026774572707389501 0 0.0025716998737764546 -0.026827551036204843 0 0.0026848444176985555 -0.026782513641742882 0 0.0031339997921746316 -0.026774572707389501 0 0.0026848444176985555 -0.026782513641742882 0 0.0031685826500328198 -0.026983948961697288 0 0.0025716998737764546 -0.026827551036204843 0 0.0024482778338292556 -0.026562119693898406 0 0.0026848444176985555 -0.026782513641742882 0 0.0025716998737764546 -0.026827551036204843 0 0.0024482778338292556 -0.026562119693898406 0 0.0021983395639578979 -0.027086947526999337 0 0.0024482778338292556 -0.026562119693898406 0 0.0031475100586447332 -0.02663322912286379 0 0.003312532192312932 -0.025436524584517069 0 0.0022679541956728087 -0.027063389491556806 0 0.0021334602500608854 -0.027141903415678858 0 0.0024482778338292556 -0.026562119693898406 0 0.0031475100586447332 -0.02663322912286379 0 0.0021983395639578979 -0.027086947526999337 0 0.0010827988069671273 -0.02775500033417359 0 0.0011250373571325995 -0.027120260084773674 0 0.0021983395639578979 -0.027086947526999337 0 0.00059590386732955329 -0.027465853479423586 0 0.0010827988069671273 -0.02775500033417359 0 0.0011250373571325995 -0.027120260084773674 0 0.0020849592989454586 -0.02664790459457108 0 0.0028196708637722727 -0.026646894459332448 0 0.0021983395639578979 -0.027086947526999337 0 0.0028196708637722727 -0.026646894459332448 0 0.0025716998737764546 -0.026827551036204843 0 0.0021983395639578979 -0.027086947526999337 0 0.0020849592989454586 -0.02664790459457108 0 0.0011250373571325995 -0.027120260084773674 0 0.0021983395639578979 -0.027086947526999337 0 0.0053694177590139286 -0.026257674170337947 0 0.0046390423545043021 -0.026352018948603614 0 0.0055333526338109777 -0.026152798448998652 0 0.0053694177590139286 -0.026257674170337947 0 0.0055333526338109777 -0.026152798448998652 0 0.0059732044694749591 -0.026036151800030702 0 0.0053694177590139286 -0.026257674170337947 0 0.0059732044694749591 -0.026036151800030702 0 0.0056858068580192996 -0.025627284136156645 0 0.0053694177590139286 -0.026257674170337947 0 0.0048865619821241895 -0.02659281305824605 0 0.0051633806254037804 -0.026729255407508361 0 0.0053694177590139286 -0.026257674170337947 0 0.0048865619821241895 -0.02659281305824605 0 0.0044087897719576469 -0.026575956496060062 0 0.0048865619821241895 -0.02659281305824605 0 0.0044087897719576469 -0.026575956496060062 0 0.0043796392857847139 -0.026851711950243648 0 0.0044087897719576469 -0.026575956496060062 0 0.0037525873625787504 -0.026924313151142052 0 0.0043796392857847139 -0.026851711950243648 0 0.0044087897719576469 -0.026575956496060062 0 0.0037491388048062077 -0.0266017961561715 0 0.0037525873625787504 -0.026924313151142052 0 0.0037491388048062077 -0.0266017961561715 0 0.0046390423545043021 -0.026352018948603614 0 0.0038026434068759067 -0.02644789345933168 0 0.0044087897719576469 -0.026575956496060062 0 0.0037491388048062077 -0.0266017961561715 0 0.0046390423545043021 -0.026352018948603614 0 0.0053694177590139286 -0.026257674170337947 0 0.0044087897719576469 -0.026575956496060062 0 0.0046390423545043021 -0.026352018948603614 0 0.0046390423545043021 -0.026352018948603614 0 0.0038026434068759067 -0.02644789345933168 0 0.0047090430822725919 -0.026132854500704444 0 0.0033890376918364147 -0.026121078899382533 0 0.0038026434068759067 -0.02644789345933168 0 0.0047090430822725919 -0.026132854500704444 0 0.0047090430822725919 -0.026132854500704444 0 0.0055333526338109777 -0.026152798448998652 0 0.0059988501563171892 -0.025930694788534148 0 0.0046390423545043021 -0.026352018948603614 0 0.0047090430822725919 -0.026132854500704444 0 0.0055333526338109777 -0.026152798448998652 0 0.0047090430822725919 -0.026132854500704444 0 0.0059988501563171892 -0.025930694788534148 0 0.0052980890232858669 -0.025829974699160242 0 0.0059988501563171892 -0.025930694788534148 0 0.0052980890232858669 -0.025829974699160242 0 0.0060551047731480824 -0.025642147458615719 0 0.0047090430822725919 -0.026132854500704444 0 0.0052980890232858669 -0.025829974699160242 0 0.0045260281278783664 -0.025752873980219259 0 0.0052980890232858669 -0.025829974699160242 0 0.0045260281278783664 -0.025752873980219259 0 0.0052046938520490986 -0.025564398125269779 0 0.0052980890232858669 -0.025829974699160242 0 0.0060551047731480824 -0.025642147458615719 0 0.0052046938520490986 -0.025564398125269779 0 0.0033890376918364147 -0.026121078899382533 0 0.0047090430822725919 -0.026132854500704444 0 0.0045260281278783664 -0.025752873980219259 0 0.0033890376918364147 -0.026121078899382533 0 0.0045260281278783664 -0.025752873980219259 0 0.0033685051228001584 -0.025171868054190135 0 0.0044118111470054103 -0.025769072230583459 0 0.0034288047056907781 -0.025530234817328412 0 0.0045260281278783664 -0.025752873980219259 0 0.0035030031524966748 -0.025910197414340058 0 0.0042421387580814755 -0.025496961516376638 0 0.0031323102111523496 -0.02541216245929773 0 0.0035030031524966748 -0.025910197414340058 0 0.0042421387580814755 -0.025496961516376638 0 0.0045260281278783664 -0.025752873980219259 0 0.0042421387580814755 -0.025496961516376638 0 0.0052046938520490986 -0.025564398125269779 0 0.0042421387580814755 -0.025496961516376638 0 0.0037027896847239457 -0.024999757711367906 0 0.005029174408756003 -0.024999705518049972 0 0.0031323102111523496 -0.02541216245929773 0 0.0042421387580814755 -0.025496961516376638 0 0.0037027896847239457 -0.024999757711367906 0 0.0060551047731480824 -0.025642147458615719 0 0.0059826204380016863 -0.025346774335425877 0 0.0052046938520490986 -0.025564398125269779 0 0.0042421387580814755 -0.025496961516376638 0 0.0052046938520490986 -0.025564398125269779 0 0.005029174408756003 -0.024999705518049972 0 0.0059826204380016863 -0.025346774335425877 0 0.0052046938520490986 -0.025564398125269779 0 0.005029174408756003 -0.024999705518049972 0 0.0059826204380016863 -0.025346774335425877 0 0.005029174408756003 -0.024999705518049972 0 0.0063553823948270319 -0.024999582314681343 0 0.0059826204380016863 -0.025346774335425877 0 0.0063553823948270319 -0.024999582314681343 0 0.0068501022320992411 -0.025374028487757178 0 0.0063553823948270319 -0.024999582314681343 0 0.0068501022320992411 -0.025374028487757178 0 0.0076823102668646549 -0.024999651937348606 0 0.0060551047731480824 -0.025642147458615719 0 0.0059826204380016863 -0.025346774335425877 0 0.0068501022320992411 -0.025374028487757178 0 0.0068501022320992411 -0.025374028487757178 0 0.0076823102668646549 -0.024999651937348606 0 0.0076418416671790628 -0.02543444008933014 0 0.0076823102668646549 -0.024999651937348606 0 0.009006439618723168 -0.024999534977476024 0 0.0083290685002822169 -0.02522515450925026 0 0.0090086509851476457 -0.024999985576777264 0 0.0092353795866724469 -0.025322209238720986 0 0.009006439618723168 -0.024999534977476024 0 0.0083290685002822169 -0.02522515450925026 0 0.0085752628620306276 -0.025112271810754632 0 0.0083290685002822169 -0.02522515450925026 0 0.0082404857193821898 -0.025424109896223544 0 0.0085752628620306276 -0.025112271810754632 0 0.0083290685002822169 -0.02522515450925026 0 0.0076418416671790628 -0.02543444008933014 0 0.0082404857193821898 -0.025424109896223544 0 0.0076823102668646549 -0.024999651937348606 0 0.0083290685002822169 -0.02522515450925026 0 0.0076418416671790628 -0.02543444008933014 0 0.0076418416671790628 -0.02543444008933014 0 0.0082404857193821898 -0.025424109896223544 0 0.0075721388706214031 -0.025728997648355085 0 0.0076418416671790628 -0.02543444008933014 0 0.0075721388706214031 -0.025728997648355085 0 0.0068586730723388858 -0.025659885058877681 0 0.0082404857193821898 -0.025424109896223544 0 0.0075721388706214031 -0.025728997648355085 0 0.0082335591260570586 -0.025932431115230699 0 0.0075721388706214031 -0.025728997648355085 0 0.0068586730723388858 -0.025659885058877681 0 0.0069160004037092104 -0.025842416060549045 0 0.0059988501563171892 -0.025930694788534148 0 0.0068586730723388858 -0.025659885058877681 0 0.0069160004037092104 -0.025842416060549045 0 0.0059988501563171892 -0.025930694788534148 0 0.0060551047731480824 -0.025642147458615719 0 0.0068586730723388858 -0.025659885058877681 0 0.0060551047731480824 -0.025642147458615719 0 0.0068501022320992411 -0.025374028487757178 0 0.0068586730723388858 -0.025659885058877681 0 0.0068501022320992411 -0.025374028487757178 0 0.0076418416671790628 -0.02543444008933014 0 0.0068586730723388858 -0.025659885058877681 0 0.010886746403128152 -0.025523300986066283 0 0.010594233634717728 -0.024999679756520097 0 0.012751115239626579 -0.024999419289845962 0 0.010886746403128152 -0.025523300986066283 0 0.011351525715971625 -0.02579683095901452 0 0.012751115239626579 -0.024999419289845962 0 0.011351525715971625 -0.02579683095901452 0 0.012751115239626579 -0.024999419289845962 0 0.012534725033250142 -0.025826719427468517 0 0.0090091297320357491 -0.024999947843152813 0 0.010594233634717728 -0.024999679756520097 0 0.0098768963278699322 -0.025643585368523521 0 0.010886746403128152 -0.025523300986066283 0 0.010561301967655876 -0.02599767212526451 0 0.011351525715971625 -0.02579683095901452 0 0.010886746403128152 -0.025523300986066283 0 0.0098768963278699322 -0.025643585368523521 0 0.010561301967655876 -0.02599767212526451 0 0.010886746403128152 -0.025523300986066283 0 0.010594233634717728 -0.024999679756520097 0 0.0098768963278699322 -0.025643585368523521 0 0.0092353795866724469 -0.025322209238720986 0 0.0097659382950563717 -0.025623000581088056 0 0.0082404857193821898 -0.025424109896223544 0 0.0087624380673398151 -0.025735494599820479 0 0.0089370324310271525 -0.025158838143177511 0 0.0082404857193821898 -0.025424109896223544 0 0.0085752628620306276 -0.025112271810754632 0 0.0089370324310271525 -0.025158838143177511 0 0.0082404857193821898 -0.025424109896223544 0 0.0087624380673398151 -0.025735494599820479 0 0.0082335591260570586 -0.025932431115230699 0 0.0087624380673398151 -0.025735494599820479 0 0.0090314185720644403 -0.026146481090598788 0 0.0082335591260570586 -0.025932431115230699 0 0.0087624380673398151 -0.025735494599820479 0 0.010334576483676517 -0.026058966538200126 0 0.0090314185720644403 -0.026146481090598788 0 0.0087624380673398151 -0.025735494599820479 0 0.0089370324310271525 -0.025158838143177511 0 0.010334576483676517 -0.026058966538200126 0 0.010561301967655876 -0.02599767212526451 0 0.011351525715971625 -0.02579683095901452 0 0.010803400498926086 -0.025958451358167062 0 0.0097659382950563717 -0.025623000581088056 0 0.01029884073329717 -0.026079530585320393 0 0.010561301967655876 -0.02599767212526451 0 0.010803400498926086 -0.025958451358167062 0 0.010334576483676517 -0.026058966538200126 0 0.011351525715971625 -0.02579683095901452 0 0.011262740358850809 -0.026005695096766805 0 0.011897315650277206 -0.026089792811465028 0 0.011351525715971625 -0.02579683095901452 0 0.011262740358850809 -0.026005695096766805 0 0.010803400498926086 -0.025958451358167062 0 0.011262740358850809 -0.026005695096766805 0 0.010803400498926086 -0.025958451358167062 0 0.010691221747883695 -0.026070564547686696 0 0.010691221747883695 -0.026070564547686696 0 0.010334576483676517 -0.026058966538200126 0 0.0090683218687315006 -0.026230959985335763 0 0.010803400498926086 -0.025958451358167062 0 0.010691221747883695 -0.026070564547686696 0 0.010334576483676517 -0.026058966538200126 0 0.010691221747883695 -0.026070564547686696 0 0.011425877071075995 -0.026475580561883118 0 0.011571375806485217 -0.026271786131239774 0 0.011425877071075995 -0.026475580561883118 0 0.011571375806485217 -0.026271786131239774 0 0.011827630975867393 -0.026632222487026735 0 0.011262740358850809 -0.026005695096766805 0 0.010691221747883695 -0.026070564547686696 0 0.011571375806485217 -0.026271786131239774 0 0.011262740358850809 -0.026005695096766805 0 0.011571375806485217 -0.026271786131239774 0 0.011897315650277206 -0.026089792811465028 0 0.011571375806485217 -0.026271786131239774 0 0.012072797120448625 -0.026402344464083526 0 0.011897315650277206 -0.026089792811465028 0 0.011571375806485217 -0.026271786131239774 0 0.012072797120448625 -0.026402344464083526 0 0.011827630975867393 -0.026632222487026735 0 0.012072797120448625 -0.026402344464083526 0 0.012406466371495554 -0.026601261181665604 0 0.012627729857291096 -0.026330590089453751 0 0.012072797120448625 -0.026402344464083526 0 0.011897315650277206 -0.026089792811465028 0 0.012627729857291096 -0.026330590089453751 0 0.011351525715971625 -0.02579683095901452 0 0.011897315650277206 -0.026089792811465028 0 0.012534725033250142 -0.025826719427468517 0 0.011897315650277206 -0.026089792811465028 0 0.012534725033250142 -0.025826719427468517 0 0.012627729857291096 -0.026330590089453751 0 0.012246851335987654 -0.026860117669969791 0 0.012519277887791645 -0.026896211354458618 0 0.012639456732073466 -0.0268155486409218 0 0.012246851335987654 -0.026860117669969791 0 0.012198288533161241 -0.026767483333781858 0 0.011943228769596902 -0.026830286168115676 0 0.012246851335987654 -0.026860117669969791 0 0.012198288533161241 -0.026767483333781858 0 0.012639456732073466 -0.0268155486409218 0 0.012198288533161241 -0.026767483333781858 0 0.012406466371495554 -0.026601261181665604 0 0.012639456732073466 -0.0268155486409218 0 0.012072797120448625 -0.026402344464083526 0 0.012406466371495554 -0.026601261181665604 0 0.011827630975867393 -0.026632222487026735 0 0.012198288533161241 -0.026767483333781858 0 0.012406466371495554 -0.026601261181665604 0 0.011827630975867393 -0.026632222487026735 0 0.012198288533161241 -0.026767483333781858 0 0.011827630975867393 -0.026632222487026735 0 0.011943228769596902 -0.026830286168115676 0 0.011827630975867393 -0.026632222487026735 0 0.011637912278928108 -0.026794703540235158 0 0.011943228769596902 -0.026830286168115676 0 0.010632465909510707 -0.025945879973107065 0 0.010391868094169242 -0.026363454173513805 0 0.010691221747883695 -0.026070564547686696 0 0.011425877071075995 -0.026475580561883118 0 0.011637912278928108 -0.026794703540235158 0 0.011425877071075995 -0.026475580561883118 0 0.011827630975867393 -0.026632222487026735 0 0.011637912278928108 -0.026794703540235158 0 0.011637912278928108 -0.026794703540235158 0 0.011943228769596902 -0.026830286168115676 0 0.011981905590389324 -0.026878361355470465 0 0.012246851335987654 -0.026860117669969791 0 0.011943228769596902 -0.026830286168115676 0 0.012051612681462195 -0.026865906208749606 0 0.011943228769596902 -0.026830286168115676 0 0.011981905590389324 -0.026878361355470465 0 0.012051612681462195 -0.026865906208749606 0 0.010391868094169242 -0.026363454173513805 0 0.010291331371268963 -0.02654894990131217 0 0.008573597310249436 -0.026134563439284008 0 0.0082011032686528929 -0.026024719027298977 0 0.008491203539984598 -0.026079851421344027 0 0.0090683218687315006 -0.026230959985335763 0 0.008573597310249436 -0.026134563439284008 0 0.008491203539984598 -0.026079851421344027 0 0.0090683218687315006 -0.026230959985335763 0 0.008573597310249436 -0.026134563439284008 0 0.0090314185720644403 -0.026146481090598788 0 0.010334576483676517 -0.026058966538200126 0 0.0090683218687315006 -0.026230959985335763 0 0.0090314185720644403 -0.026146481090598788 0 0.008573597310249436 -0.026134563439284008 0 0.0090314185720644403 -0.026146481090598788 0 0.0082335591260570586 -0.025932431115230699 0 0.008573597310249436 -0.026134563439284008 0 0.0079449245717110994 -0.026020294813558224 0 0.0082011032686528929 -0.026024719027298977 0 0.008573597310249436 -0.026134563439284008 0 0.0082335591260570586 -0.025932431115230699 0 0.0079449245717110994 -0.026020294813558224 0 0.0079449245717110994 -0.026020294813558224 0 0.0082011032686528929 -0.026024719027298977 0 0.0077980698916806724 -0.025758905120599331 0 0.0085875502298650985 -0.025194104257913946 0 0.0077980698916806724 -0.025758905120599331 0 0.0081907813792975927 -0.025543522059403051 0 0.0082011032686528929 -0.026024719027298977 0 0.0083629045877593733 -0.026219132743840086 0 0.0077980698916806724 -0.025758905120599331 0 0.0094524162223586766 -0.025990901857137011 0 0.0074732416219794595 -0.025657168180611339 0 0.0085875502298650985 -0.025194104257913946 0 0.0086752728887651894 -0.025363833557328085 0 0.0081907813792975927 -0.025543522059403051 0 0.0087733720699497281 -0.024548252735199273 0 0.0093107299579997509 -0.02501673430168137 0 0.0086752728887651894 -0.025363833557328085 0 0.0094524162223586766 -0.025990901857137011 0 0.0089199360302908079 -0.025109844379603216 0 0.012057967604955892 -0.026750216677257421 0 0.011981905590389324 -0.026878361355470465 0 0.012006488587532475 -0.026793373851426168 0 0.0094524162223586766 -0.025990901857137011 0 0.010291331371268963 -0.02654894990131217 0 0.0082011032686528929 -0.026024719027298977 0 0.0083629045877593733 -0.026219132743840086 0 0.008491203539984598 -0.026079851421344027 0 0.011981905590389324 -0.026878361355470465 0 0.012051372670725298 -0.026856015370443326 0 0.012051612681462195 -0.026865906208749606 0 0.012051372670725298 -0.026856015370443326 0 0.012051612681462195 -0.026865906208749606 0 0.012223799363255881 -0.02691621515757691 0 0.012051372670725298 -0.026856015370443326 0 0.012006488587532475 -0.026793373851426168 0 0.012223799363255881 -0.02691621515757691 0 0.011981905590389324 -0.026878361355470465 0 0.012051372670725298 -0.026856015370443326 0 0.012006488587532475 -0.026793373851426168 0 0.0087733720699497281 -0.024548252735199273 0 0.0093107299579997509 -0.02501673430168137 0 0.010025247393925109 -0.024666600171497632 0 0.012057967604955892 -0.026750216677257421 0 0.012006488587532475 -0.026793373851426168 0 0.0119939034615486 -0.026402783811039596 0 0.0094524162223586766 -0.025990901857137011 0 0.011166790145837914 -0.025527504437700004 0 0.010025247393925109 -0.024666600171497632 0 0.010587178642995647 -0.025217961890601454 0 0.011316801037811403 -0.024891190305344785 0 0.011166790145837914 -0.025527504437700004 0 0.011665273318936685 -0.025453659466250302 0 0.012006488587532475 -0.026793373851426168 0 0.0119939034615486 -0.026402783811039596 0 0.012055173863956778 -0.026077950827395141 0 0.012072062077367164 -0.026768529827881856 0 0.012333051647356855 -0.026578302981141284 0 0.0119939034615486 -0.026402783811039596 0 0.012055173863956778 -0.026077950827395141 0 0.012153114673500606 -0.025975685220012708 0 0.012006488587532475 -0.026793373851426168 0 0.012526636630141691 -0.027126292901291302 0 0.012223799363255881 -0.02691621515757691 0 0.012526636630141691 -0.027126292901291302 0 0.012223799363255881 -0.02691621515757691 0 0.012519277887791645 -0.026896211354458618 0 0.012246851335987654 -0.026860117669969791 0 0.012223799363255881 -0.02691621515757691 0 0.012519277887791645 -0.026896211354458618 0 0.012246851335987654 -0.026860117669969791 0 0.012051612681462195 -0.026865906208749606 0 0.012223799363255881 -0.02691621515757691 0 0.0064070547792383368 -0.025996722304935816 0 0.0073040923955094445 -0.025939958459939468 0 0.0066798611132493271 -0.025911234571494742 0 0.0055333526338109777 -0.026152798448998652 0 0.0064070547792383368 -0.025996722304935816 0 0.0059732044694749591 -0.026036151800030702 0 0.0055333526338109777 -0.026152798448998652 0 0.0059988501563171892 -0.025930694788534148 0 0.0064070547792383368 -0.025996722304935816 0 0.0059988501563171892 -0.025930694788534148 0 0.0064070547792383368 -0.025996722304935816 0 0.0069160004037092104 -0.025842416060549045 0 0.0064070547792383368 -0.025996722304935816 0 0.0069160004037092104 -0.025842416060549045 0 0.0073040923955094445 -0.025939958459939468 0 0.0075721388706214031 -0.025728997648355085 0 0.0069160004037092104 -0.025842416060549045 0 0.0073040923955094445 -0.025939958459939468 0 0.0075721388706214031 -0.025728997648355085 0 0.0082335591260570586 -0.025932431115230699 0 0.0073040923955094445 -0.025939958459939468 0 0.0079449245717110994 -0.026020294813558224 0 0.0073040923955094445 -0.025939958459939468 0 0.0073840974174471941 -0.025901935813818892 0 0.0082335591260570586 -0.025932431115230699 0 0.0079449245717110994 -0.026020294813558224 0 0.0073040923955094445 -0.025939958459939468 0 0.0073040923955094445 -0.025939958459939468 0 0.0073840974174471941 -0.025901935813818892 0 0.0066798611132493271 -0.025911234571494742 0 0.0079449245717110994 -0.026020294813558224 0 0.0073840974174471941 -0.025901935813818892 0 0.0077980698916806724 -0.025758905120599331 0 0.0073840974174471941 -0.025901935813818892 0 0.0077980698916806724 -0.025758905120599331 0 0.0069490569547376313 -0.025712711225499188 0 0.0073840974174471941 -0.025901935813818892 0 0.0066798611132493271 -0.025911234571494742 0 0.0069490569547376313 -0.025712711225499188 0 0.0062835157650139219 -0.025765289895973431 0 0.0066798611132493271 -0.025911234571494742 0 0.0059732044694749591 -0.026036151800030702 0 0.0062835157650139219 -0.025765289895973431 0 0.0066798611132493271 -0.025911234571494742 0 0.0069490569547376313 -0.025712711225499188 0 0.0064070547792383368 -0.025996722304935816 0 0.0066798611132493271 -0.025911234571494742 0 0.0059732044694749591 -0.026036151800030702 0 0.0062835157650139219 -0.025765289895973431 0 0.0059732044694749591 -0.026036151800030702 0 0.0056858068580192996 -0.025627284136156645 0 0.0056858068580192996 -0.025627284136156645 0 0.0054242456051473266 -0.025047214037777307 0 0.0061005975949232488 -0.025537014104150036 0 0.0062835157650139219 -0.025765289895973431 0 0.0056858068580192996 -0.025627284136156645 0 0.0061005975949232488 -0.025537014104150036 0 0.0054242456051473266 -0.025047214037777307 0 0.0061005975949232488 -0.025537014104150036 0 0.0059535582618821768 -0.025500499425472875 0 0.0065424740453731735 -0.025722214164974739 0 0.0061005975949232488 -0.025537014104150036 0 0.0059535582618821768 -0.025500499425472875 0 0.0065424740453731735 -0.025722214164974739 0 0.0061005975949232488 -0.025537014104150036 0 0.0069490569547376313 -0.025712711225499188 0 0.0062835157650139219 -0.025765289895973431 0 0.0061005975949232488 -0.025537014104150036 0 0.0069490569547376313 -0.025712711225499188 0 0.0077980698916806724 -0.025758905120599331 0 0.0069490569547376313 -0.025712711225499188 0 0.0078311305744214795 -0.025693853710912911 0 0.0069490569547376313 -0.025712711225499188 0 0.0071434158736770528 -0.025751558496102143 0 0.0078311305744214795 -0.025693853710912911 0 0.0071434158736770528 -0.025751558496102143 0 0.0078311305744214795 -0.025693853710912911 0 0.0079378359221743983 -0.026086916372048137 0 0.0065424740453731735 -0.025722214164974739 0 0.0069490569547376313 -0.025712711225499188 0 0.0071434158736770528 -0.025751558496102143 0 0.0065424740453731735 -0.025722214164974739 0 0.0071434158736770528 -0.025751558496102143 0 0.0069522141324629694 -0.026062213009083096 0 0.0069522141324629694 -0.026062213009083096 0 0.0065896077231370502 -0.026163447028710467 0 0.0063167300720180933 -0.025847696155883334 0 0.0071434158736770528 -0.025751558496102143 0 0.0069522141324629694 -0.026062213009083096 0 0.0079378359221743983 -0.026086916372048137 0 0.0069522141324629694 -0.026062213009083096 0 0.0077250297307228039 -0.02688422283722593 0 0.0079378359221743983 -0.026086916372048137 0 0.0069671323792133474 -0.026084188353395026 0 0.0072724434587652905 -0.026450190692661277 0 0.0069522141324629694 -0.026062213009083096 0 0.0068208201150066526 -0.026156163531759802 0 0.0065896077231370502 -0.026163447028710467 0 0.0065896077231370502 -0.026163447028710467 0 0.0062730989982490281 -0.02626293412572972 0 0.0060626896883791779 -0.026038095363642523 0 0.0065896077231370502 -0.026163447028710467 0 0.0060626896883791779 -0.026038095363642523 0 0.0063167300720180933 -0.025847696155883334 0 0.0062730989982490281 -0.02626293412572972 0 0.0060626896883791779 -0.026038095363642523 0 0.0051365681023862768 -0.026286653989621916 0 0.0060626896883791779 -0.026038095363642523 0 0.0055202714100994199 -0.025493788184437316 0 0.0051365681023862768 -0.026286653989621916 0 0.0060626896883791779 -0.026038095363642523 0 0.0055202714100994199 -0.025493788184437316 0 0.0063167300720180933 -0.025847696155883334 0 0.0054242456051473266 -0.025047214037777307 0 0.0059535582618821768 -0.025500499425472875 0 0.0055202714100994199 -0.025493788184437316 0 0.0059535582618821768 -0.025500499425472875 0 0.0055202714100994199 -0.025493788184437316 0 0.0063167300720180933 -0.025847696155883334 0 0.0065424740453731735 -0.025722214164974739 0 0.0059535582618821768 -0.025500499425472875 0 0.0063167300720180933 -0.025847696155883334 0 0.0065424740453731735 -0.025722214164974739 0 0.0069522141324629694 -0.026062213009083096 0 0.0063167300720180933 -0.025847696155883334 0 0.010607893263050193 -0.025756720662975689 0 0.01029861806077938 -0.026740033153475066 0 0.011470625316638065 -0.026027968959379439 0 0.010607893263050193 -0.025756720662975689 0 0.0097173263417540331 -0.025465665251262728 0 0.01029861806077938 -0.026740033153475066 0 0.010607893263050193 -0.025756720662975689 0 0.010587178642995647 -0.025217961890601454 0 0.011208436948602275 -0.025534052142146987 0 0.010025247393925109 -0.024666600171497632 0 0.010587178642995647 -0.025217961890601454 0 0.0097173263417540331 -0.025465665251262728 0 0.010607893263050193 -0.025756720662975689 0 0.010587178642995647 -0.025217961890601454 0 0.0097173263417540331 -0.025465665251262728 0 0.0097173263417540331 -0.025465665251262728 0 0.0090717283156058967 -0.025781922304232336 0 0.0086752728887651894 -0.025363833557328085 0 0.0093107299579997509 -0.02501673430168137 0 0.0097173263417540331 -0.025465665251262728 0 0.0086752728887651894 -0.025363833557328085 0 0.0093107299579997509 -0.02501673430168137 0 0.010025247393925109 -0.024666600171497632 0 0.0097173263417540331 -0.025465665251262728 0 0.0090717283156058967 -0.025781922304232336 0 0.0089082991625413117 -0.025908857975560185 0 0.01029861806077938 -0.026740033153475066 0 0.0097173263417540331 -0.025465665251262728 0 0.0090717283156058967 -0.025781922304232336 0 0.01029861806077938 -0.026740033153475066 0 0.0090717283156058967 -0.025781922304232336 0 0.0085144651382463576 -0.025669656494299892 0 0.0089082991625413117 -0.025908857975560185 0 0.0090717283156058967 -0.025781922304232336 0 0.0086752728887651894 -0.025363833557328085 0 0.0085144651382463576 -0.025669656494299892 0 0.0086752728887651894 -0.025363833557328085 0 0.0085144651382463576 -0.025669656494299892 0 0.0081907813792975927 -0.025543522059403051 0 0.0077980698916806724 -0.025758905120599331 0 0.0081907813792975927 -0.025543522059403051 0 0.0078311305744214795 -0.025693853710912911 0 0.0085144651382463576 -0.025669656494299892 0 0.0081907813792975927 -0.025543522059403051 0 0.0078311305744214795 -0.025693853710912911 0 0.0085144651382463576 -0.025669656494299892 0 0.0078311305744214795 -0.025693853710912911 0 0.0089082991625413117 -0.025908857975560185 0 0.0078311305744214795 -0.025693853710912911 0 0.0079378359221743983 -0.026086916372048137 0 0.0089082991625413117 -0.025908857975560185 0 0.0079378359221743983 -0.026086916372048137 0 0.008763572016655858 -0.026520084027776957 0 0.0089082991625413117 -0.025908857975560185 0 0.0077250297307228039 -0.02688422283722593 0 0.0079378359221743983 -0.026086916372048137 0 0.008763572016655858 -0.026520084027776957 0 0.008763572016655858 -0.026520084027776957 0 0.0099704790193692501 -0.026301800132535094 0 0.0093569711264760626 -0.02689628403308544 0 0.008763572016655858 -0.026520084027776957 0 0.0089082991625413117 -0.025908857975560185 0 0.0099704790193692501 -0.026301800132535094 0 0.0090695592234704275 -0.025910942900795923 0 0.01054172230560063 -0.025952719954480567 0 0.0089082991625413117 -0.025908857975560185 0 0.0099704790193692501 -0.026301800132535094 0 0.010729285251877997 -0.025163873703488673 0 0.0099704790193692501 -0.026301800132535094 0 0.010888934974291598 -0.02664496189434291 0 0.011504174291610245 -0.025978199012571427 0 0.0099704790193692501 -0.026301800132535094 0 0.010729285251877997 -0.025163873703488673 0 0.011504174291610245 -0.025978199012571427 0 0.010953750536411887 -0.02801966984968517 0 0.01062479539140972 -0.027513582420086145 0 0.011917619570144219 -0.026753986319816497 0 0.010814928937924587 -0.027870708672606683 0 0.01062479539140972 -0.027513582420086145 0 0.010349688937838745 -0.027825104102414556 0 0.010814928937924587 -0.027870708672606683 0 0.010349688937838745 -0.027825104102414556 0 0.010222933674510515 -0.028375895570888623 0 0.012005212364966699 -0.026588991866340072 0 0.011502369870595951 -0.027133963928528269 0 0.012005212364966699 -0.026588991866340072 0 0.011666001813868239 -0.027071060177420819 0 0.01062479539140972 -0.027513582420086145 0 0.010888934974291598 -0.02664496189434291 0 0.011917619570144219 -0.026753986319816497 0 0.010888934974291598 -0.02664496189434291 0 0.011504174291610245 -0.025978199012571427 0 0.011917619570144219 -0.026753986319816497 0 0.01062479539140972 -0.027513582420086145 0 0.010888934974291598 -0.02664496189434291 0 0.010030692042276813 -0.027029340917580445 0 0.0099704790193692501 -0.026301800132535094 0 0.010030692042276813 -0.027029340917580445 0 0.0093569711264760626 -0.02689628403308544 0 0.0099704790193692501 -0.026301800132535094 0 0.010888934974291598 -0.02664496189434291 0 0.010030692042276813 -0.027029340917580445 0 0.010030692042276813 -0.027029340917580445 0 0.010112632927797091 -0.027476465958075645 0 0.0093594462624921673 -0.027459479950359262 0 0.010030692042276813 -0.027029340917580445 0 0.0093594462624921673 -0.027459479950359262 0 0.0093569711264760626 -0.02689628403308544 0 0.0099555830595693222 -0.027870832479294189 0 0.0093594462624921673 -0.027459479950359262 0 0.0096018366424149293 -0.028163323716826991 0 0.010112632927797091 -0.027476465958075645 0 0.0099555830595693222 -0.027870832479294189 0 0.0093594462624921673 -0.027459479950359262 0 0.01062479539140972 -0.027513582420086145 0 0.010112632927797091 -0.027476465958075645 0 0.010349688937838745 -0.027825104102414556 0 0.01062479539140972 -0.027513582420086145 0 0.010030692042276813 -0.027029340917580445 0 0.010112632927797091 -0.027476465958075645 0 0.010112632927797091 -0.027476465958075645 0 0.010349688937838745 -0.027825104102414556 0 0.0099555830595693222 -0.027870832479294189 0 0.010349688937838745 -0.027825104102414556 0 0.0099555830595693222 -0.027870832479294189 0 0.010222933674510515 -0.028375895570888623 0 0.0093568543306710994 -0.027305663287909201 0 0.009726217290027284 -0.028809846210805224 0 0.0089677722928290324 -0.027774806434372759 0 0.0093594462624921673 -0.027459479950359262 0 0.0093975048766865091 -0.028065831899183442 0 0.0089677722928290324 -0.027774806434372759 0 0.0093594462624921673 -0.027459479950359262 0 0.0087332604141606724 -0.027186478441832997 0 0.008763572016655858 -0.026520084027776957 0 0.0093569711264760626 -0.02689628403308544 0 0.0087332604141606724 -0.027186478441832997 0 0.0093594462624921673 -0.027459479950359262 0 0.0093569711264760626 -0.02689628403308544 0 0.0087332604141606724 -0.027186478441832997 0 0.0077250297307228039 -0.02688422283722593 0 0.0087332604141606724 -0.027186478441832997 0 0.0083802112138767204 -0.027654358182699609 0 0.0077250297307228039 -0.02688422283722593 0 0.008763572016655858 -0.026520084027776957 0 0.0087332604141606724 -0.027186478441832997 0 0.0089677722928290324 -0.027774806434372759 0 0.0083802112138767204 -0.027654358182699609 0 0.0089653701236065003 -0.028431567564762707 0 0.0089677722928290324 -0.027774806434372759 0 0.0087332604141606724 -0.027186478441832997 0 0.0083802112138767204 -0.027654358182699609 0 0.0070211304970073949 -0.026393656141382123 0 0.0069497712219562221 -0.026591857591077937 0 0.006853591219616156 -0.026431842561146966 0 0.0070211304970073949 -0.026393656141382123 0 0.0069497712219562221 -0.026591857591077937 0 0.0072919800115946983 -0.026754408418065218 0 0.006991121562368946 -0.025636023711902794 0 0.0096901493944842477 -0.025718283990265305 0 0.0075702254284597884 -0.02731230953119268 0 0.0096901493944842477 -0.025718283990265305 0 0.0075613088267690049 -0.024815112055395334 0 0.008639814298483069 -0.025304299535781592 0 0.0075733305374308451 -0.025488910700469224 0 0.01401307766445796 -0.01231896733588487 0 0.011829023727887892 -0.019001310685498228 0 0.015982953325541897 -0.0088383844004121248 0 0.017139787889382065 -0.011227001486472548 0 0.017351074409821664 -0.0098210627132789795 0 0.015982953325541897 -0.0088383844004121248 0 0.012810963175612027 -0.0093742778356670983 0 0.017139787889382065 -0.011227001486472548 0 0.0089808314893949914 -0.025950733225837828 0 0.008639814298483069 -0.025304299535781592 0 0.0075733305374308451 -0.025488910700469224 0 0.013405492728145554 -0.016060149053264305 0 0.0096901493944842477 -0.025718283990265305 0 0.0089808314893949914 -0.025950733225837828 0 0.0090601409857472299 -0.025868251635439151 0 0.008639814298483069 -0.025304299535781592 0 0.014575017435193145 -0.010309004847390063 0 0.01401307766445796 -0.01231896733588487 0 0.014575017435193145 -0.010309004847390063 0 0.013405492728145554 -0.016060149053264305 0 0.015365346152851473 -0.012312212332913131 0 0.013468027459306298 -0.0113252249338437 0 0.014312740573128561 -0.010483735930552086 0 0.01401307766445796 -0.01231896733588487 0 0.013405492728145554 -0.016060149053264305 0 0.016371046936754927 -0.011433341174374181 0 0.017025254930413739 -0.012597159311258181 0 0.015612800541268006 -0.012513652492224383 0 0.017025254930413739 -0.012597159311258181 0 0.015612800541268006 -0.012513652492224383 0 0.015556378741964427 -0.013181460812743243 0 0.016371046936754927 -0.011433341174374181 0 0.015612800541268006 -0.012513652492224383 0 0.014259064547903521 -0.012659490146099453 0 0.015612800541268006 -0.012513652492224383 0 0.015556378741964427 -0.013181460812743243 0 0.014874255079707351 -0.012855767343522922 0 0.011712350548413453 -0.020690373991554087 0 0.011071734259227551 -0.02133609953179234 0 0.012533413768316203 -0.022187639034238756 0 0.015556378741964427 -0.013181460812743243 0 0.015026621381997866 -0.013552306293475933 0 0.014874255079707351 -0.012855767343522922 0 0.0094258420146885961 -0.028634308416236084 0 0.0089653701236065003 -0.028431567564762707 0 0.009490295337524891 -0.028572359575819006 0 0.013405492728145554 -0.016060149053264305 0 0.013160182350539892 -0.020725745903180985 0 0.013160182350539892 -0.020725745903180985 0 0.0096901493944842477 -0.025718283990265305 0 0.015556378741964427 -0.013181460812743243 0 0.01524201282447772 -0.01438753939345167 0 0.015026621381997866 -0.013552306293475933 0 0.017025254930413739 -0.012597159311258181 0 0.015556378741964427 -0.013181460812743243 0 0.01524201282447772 -0.01438753939345167 0 0.0089677722928290324 -0.027774806434372759 0 0.0089653701236065003 -0.028431567564762707 0 0.0093975048766865091 -0.028065831899183442 0 0.0089653701236065003 -0.028431567564762707 0 0.0093975048766865091 -0.028065831899183442 0 0.009490295337524891 -0.028572359575819006 0 0.009726217290027284 -0.028809846210805224 0 0.012661977694287447 -0.023457955468311243 0 0.0096018366424149293 -0.028163323716826991 0 0.010222933674510515 -0.028375895570888623 0 0.009753477731072463 -0.028797780202474754 0 0.0099555830595693222 -0.027870832479294189 0 0.0096018366424149293 -0.028163323716826991 0 0.010222933674510515 -0.028375895570888623 0 0.014991089180922828 -0.022716891750421232 0 0.014982283768080655 -0.021403151579404287 0 0.013987792977664599 -0.022263160526985456 0 0.014991089180922828 -0.022716891750421232 0 0.016235709325548402 -0.021441512983900689 0 0.014982283768080655 -0.021403151579404287 0 0.012549567985191608 -0.025538233917208414 0 0.012661977694287447 -0.023457955468311243 0 0.016235709325548402 -0.021441512983900689 0 0.016178901694858742 -0.021062918059099628 0 0.014982283768080655 -0.021403151579404287 0 0.012661977694287447 -0.023457955468311243 0 0.014499584454148666 -0.018604864226487012 0 0.013723963804283684 -0.020277089661102168 0 0.014591101771182634 -0.019414699917996832 0 0.014824228560602915 -0.020888579913213686 0 0.013160182350539892 -0.020725745903180985 0 0.012661977694287447 -0.023457955468311243 0 0.013160182350539892 -0.020725745903180985 0 0.014499584454148666 -0.018604864226487012 0 0.01524201282447772 -0.01438753939345167 0 0.014460203510013429 -0.013944244930510346 0 0.015026621381997866 -0.013552306293475933 0 0.014499584454148666 -0.018604864226487012 0 0.016588334807746175 -0.010450197128755149 0 0.014460203510013429 -0.013944244930510346 0 0.014874255079707351 -0.012855767343522922 0 0.014267029662192031 -0.012665976267897233 0 0.014460203510013429 -0.013944244930510346 0 0.015026621381997866 -0.013552306293475933 0 0.014874255079707351 -0.012855767343522922 0 0.015612800541268006 -0.012513652492224383 0 0.014874255079707351 -0.012855767343522922 0 0.014259064547903521 -0.012659490146099453 0 0.020327412403037294 -0.0024378898605023932 0 0.020270142577856941 -0.002344808767255094 0 0.020330654719888212 -0.0023637786975425046 0 0.015595653785078279 -0.012497395517064788 0 0.015641104373574334 -0.012745643520787527 0 0.016618272045487555 -0.012983923179939837 0 0.016406300414740529 -0.010503431293516413 0 0.016588334807746175 -0.010450197128755149 0 0.016371046936754927 -0.011433341174374181 0 0.014259064547903521 -0.012659490146099453 0 0.013866077937088323 -0.010092006487297033 0 0.016588334807746175 -0.010450197128755149 0 0.016670569784534416 -0.005106935215655692 0 0.014575017435193145 -0.010309004847390063 0 0.016670569784534416 -0.005106935215655692 0 0.014499584454148666 -0.018604864226487012 0 0.017888269190969853 -0.0097176954437806426 0 0.016588334807746175 -0.010450197128755149 0 0.017888269190969853 -0.0097176954437806426 0 0.016178901694858742 -0.021062918059099628 0 0.014982283768080655 -0.021403151579404287 0 0.014502620369973133 -0.020092255863995996 0 0.014982283768080655 -0.021403151579404287 0 0.014502620369973133 -0.020092255863995996 0 0.013608960056232853 -0.021016797034902324 0 0.013925204881088005 -0.019912439457437862 0 0.013608960056232853 -0.021016797034902324 0 0.011550283429794247 -0.02040405059945373 0 0.014982283768080655 -0.021403151579404287 0 0.013608960056232853 -0.021016797034902324 0 0.013987792977664599 -0.022263160526985456 0 0.013925204881088005 -0.019912439457437862 0 0.014502620369973133 -0.020092255863995996 0 0.013608960056232853 -0.021016797034902324 0 0.01672678291940748 -0.010352597057429729 0 0.017888269190969853 -0.0097176954437806426 0 0.013608960056232853 -0.021016797034902324 0 0.013987792977664599 -0.022263160526985456 0 0.01263015782818922 -0.02218958794165583 0 0.013725159589184147 -0.023997522214794648 0 0.014991089180922828 -0.022716891750421232 0 0.013987792977664599 -0.022263160526985456 0 0.012005212364966699 -0.026588991866340072 0 0.012549567985191608 -0.025538233917208414 0 0.012005212364966699 -0.026588991866340072 0 0.012394807622175921 -0.024581024258159296 0 0.013725159589184147 -0.023997522214794648 0 0.013987792977664599 -0.022263160526985456 0 0.01263015782818922 -0.02218958794165583 0 0.0031812238821485399 -0.023135002611368385 0 0.0029821789314837428 -0.022199352110599504 0 0.0063049087384292844 -0.02451317699803086 0 0.0064784584250259158 -0.026526698476826552 0 0.0064020963861753568 -0.026068855446097234 0 0.0063049087384292844 -0.02451317699803086 0 0.006618902306011953 -0.01927540852963993 0 0.011933044420937828 -0.017343033472821939 0 0.0031812238821485399 -0.023135002611368385 0 0.0023262458809843794 -0.023317734056926481 0 0.0056412938891161881 -0.025040701204928493 0 0.014514176622986598 -0.0087843729780140625 0 0.017833334818035198 -0.010666507106420172 0 0.015806843342429266 -0.010708382768852222 0 0.0034576666059058475 -0.02097840503495459 0 0.006618902306011953 -0.01927540852963993 0 0.0031812238821485399 -0.023135002611368385 0 0.0026308333563617617 -0.022982115831105765 0 0.0027802965817288047 -0.022654759921798284 0 0.014514176622986598 -0.0087843729780140625 0 0.015806843342429266 -0.010708382768852222 0 0.014612165775483344 -0.010421498910071155 0 0.014514176622986598 -0.0087843729780140625 0 0.012978294936786774 -0.010838896815172222 0 0.014612165775483344 -0.010421498910071155 0 0.014514176622986598 -0.0087843729780140625 0 0.012978294936786774 -0.010838896815172222 0 0.010563723241522792 -0.0099333318629810912 0 0.006618902306011953 -0.01927540852963993 0 0.006810914749872843 -0.015478612320208994 0 0.0020800261275235772 -0.0223581323522501 0 0.0020998335464445178 -0.022366777113978074 0 0.0020730471658507669 -0.022024343756184499 0 0.0026308333563617617 -0.022982115831105765 0 0.002408997410122969 -0.022362541245629079 0 0.0027802965817288047 -0.022654759921798284 0 0.006618902306011953 -0.01927540852963993 0 0.0022358401229270316 -0.02128854815815933 0 0.0026308333563617617 -0.022982115831105765 0 0.002408997410122969 -0.022362541245629079 0 0.0020998335464445178 -0.022366777113978074 0 0.002408997410122969 -0.022362541245629079 0 0.0020998335464445178 -0.022366777113978074 0 0.00169017167336514 -0.022357959359550025 0 0.004724105688875717 -0.024345673728157463 0 0.0034815295682541735 -0.024305083032537245 0 0.002408997410122969 -0.022362541245629079 0 0.0029821789314837428 -0.022199352110599504 0 0.0027802965817288047 -0.022654759921798284 0 0.0062730989982490281 -0.02626293412572972 0 0.0064784584250259158 -0.026526698476826552 0 0.0051365681023862768 -0.026286653989621916 0 0.002408997410122969 -0.022362541245629079 0 0.0029821789314837428 -0.022199352110599504 0 0.00169017167336514 -0.022357959359550025 0 0.0062730989982490281 -0.02626293412572972 0 0.0064784584250259158 -0.026526698476826552 0 0.006496327415487173 -0.026282572143398058 0 0.0031812238821485399 -0.023135002611368385 0 0.0029821789314837428 -0.022199352110599504 0 0.0027802965817288047 -0.022654759921798284 0 0.0064784584250259158 -0.026526698476826552 0 0.0064020963861753568 -0.026068855446097234 0 0.006496327415487173 -0.026282572143398058 0 0.0065896077231370502 -0.026163447028710467 0 0.0062730989982490281 -0.02626293412572972 0 0.006496327415487173 -0.026282572143398058 0 0.0068208201150066526 -0.026156163531759802 0 0.0065896077231370502 -0.026163447028710467 0 0.0066276392729631801 -0.026219683262459156 0 0.0065896077231370502 -0.026163447028710467 0 0.006496327415487173 -0.026282572143398058 0 0.0066276392729631801 -0.026219683262459156 0 0.0066276392729631801 -0.026219683262459156 0 0.0066490673719149882 -0.026274308439250604 0 0.0067678600916236346 -0.026304439581990899 0 0.0066276392729631801 -0.026219683262459156 0 0.0066490673719149882 -0.026274308439250604 0 0.0065446864316887022 -0.026206537698645692 0 0.0064020963861753568 -0.026068855446097234 0 0.006496327415487173 -0.026282572143398058 0 0.0065446864316887022 -0.026206537698645692 0 0.006496327415487173 -0.026282572143398058 0 0.0066276392729631801 -0.026219683262459156 0 0.0065446864316887022 -0.026206537698645692 0 0.0068208201150066526 -0.026156163531759802 0 0.0070211304970073949 -0.026393656141382123 0 0.0067678600916236346 -0.026304439581990899 0 0.0072724434587652905 -0.026450190692661277 0 0.0075702254284597884 -0.02731230953119268 0 0.0068208201150066526 -0.026156163531759802 0 0.0066276392729631801 -0.026219683262459156 0 0.0067678600916236346 -0.026304439581990899 0 0.006991121562368946 -0.025636023711902794 0 0.0065990436131224076 -0.025617514832851421 0 0.0069497712219562221 -0.026591857591077937 0 0.006853591219616156 -0.026431842561146966 0 0.0066756755973338862 -0.026442000921625151 0 0.0075613088267690049 -0.024815112055395334 0 0.0063049087384292844 -0.02451317699803086 0 0.0062915714448104846 -0.024549252099324126 0 0.0070211304970073949 -0.026393656141382123 0 0.0067678600916236346 -0.026304439581990899 0 0.006853591219616156 -0.026431842561146966 0 0.0067678600916236346 -0.026304439581990899 0 0.006853591219616156 -0.026431842561146966 0 0.0066756755973338862 -0.026442000921625151 0 0.0064020963861753568 -0.026068855446097234 0 0.0065446864316887022 -0.026206537698645692 0 0.0066756755973338862 -0.026442000921625151 0 0.004724105688875717 -0.024345673728157463 0 0.006113024502380761 -0.024518851401151259 0 0.0031812238821485399 -0.023135002611368385 0 0.0063049087384292844 -0.02451317699803086 0 0.0056412938891161881 -0.025040701204928493 0 0.0064020963861753568 -0.026068855446097234 0 0.0063049087384292844 -0.02451317699803086 0 0.0062915714448104846 -0.024549252099324126 0 0.0065158907697759087 -0.02596115668846349 0 0.0065990436131224076 -0.025617514832851421 0 0.0066490673719149882 -0.026274308439250604 0 0.0067678600916236346 -0.026304439581990899 0 0.0066756755973338862 -0.026442000921625151 0 0.0066490673719149882 -0.026274308439250604 0 0.0065446864316887022 -0.026206537698645692 0 0.0066756755973338862 -0.026442000921625151 0 0.017833334818035198 -0.010666507106420172 0 0.017005842852970295 -0.011556092314086382 0 0.015806843342429266 -0.010708382768852222 0 0.017833334818035198 -0.010666507106420172 0 0.017955320214659683 -0.011017428169933174 0 0.017005842852970295 -0.011556092314086382 0 0.0063049087384292844 -0.02451317699803086 0 0.0056412938891161881 -0.025040701204928493 0 0.0075733305374308451 -0.025488910700469224 0 0.011933044420937828 -0.017343033472821939 0 0.011829023727887892 -0.019001310685498228 0 0.0075613088267690049 -0.024815112055395334 0 0.0063049087384292844 -0.02451317699803086 0 0.0075733305374308451 -0.025488910700469224 0 0.017833334818035198 -0.010666507106420172 0 0.017955320214659683 -0.011017428169933174 0 0.017139787889382065 -0.011227001486472548 0 0.018398452192243078 -0.011031243380233124 0 0.019470892319324841 -0.0076293920561751084 0 0.017772144296216402 -0.0078975096175710555 0 0.017955320214659683 -0.011017428169933174 0 0.017139787889382065 -0.011227001486472548 0 0.018398452192243078 -0.011031243380233124 0 0.017139787889382065 -0.011227001486472548 0 0.017351074409821664 -0.0098210627132789795 0 0.018398452192243078 -0.011031243380233124 0 0.017351074409821664 -0.0098210627132789795 0 0.018398452192243078 -0.011031243380233124 0 0.017772144296216402 -0.0078975096175710555 0 0.015982953325541897 -0.0088383844004121248 0 0.017351074409821664 -0.0098210627132789795 0 0.017772144296216402 -0.0078975096175710555 0 0.017005842852970295 -0.011556092314086382 0 0.018398452192243078 -0.011031243380233124 0 0.016829045908731632 -0.013825842708908336 0 0.018398452192243078 -0.011031243380233124 0 0.021248633525451463 -0.0089662379021477924 0 0.019470892319324841 -0.0076293920561751084 0 0.017955320214659683 -0.011017428169933174 0 0.017005842852970295 -0.011556092314086382 0 0.018398452192243078 -0.011031243380233124 0 0.018362905859501625 -0.011330165406524607 0 0.019246532951115353 -0.011143014911193162 0 0.017005842852970295 -0.011556092314086382 0 0.014794154116855295 -0.013495997021296283 0 0.014799372077460449 -0.011655845193917189 0 0.017005842852970295 -0.011556092314086382 0 0.016829045908731632 -0.013825842708908336 0 0.014794154116855295 -0.013495997021296283 0 0.017005842852970295 -0.011556092314086382 0 0.014799372077460449 -0.011655845193917189 0 0.015806843342429266 -0.010708382768852222 0 0.014799372077460449 -0.011655845193917189 0 0.015806843342429266 -0.010708382768852222 0 0.014612165775483344 -0.010421498910071155 0 0.014799372077460449 -0.011655845193917189 0 0.012978294936786774 -0.010838896815172222 0 0.014612165775483344 -0.010421498910071155 0 0.014799372077460449 -0.011655845193917189 0 0.012978294936786774 -0.010838896815172222 0 0.013117317883124285 -0.0126466142977644 0 0.012978294936786774 -0.010838896815172222 0 0.013117317883124285 -0.0126466142977644 0 0.011046383439494288 -0.012523608218215328 0 0.014794154116855295 -0.013495997021296283 0 0.013117317883124285 -0.0126466142977644 0 0.011863659926528571 -0.01491501612870139 0 0.014794154116855295 -0.013495997021296283 0 0.014799372077460449 -0.011655845193917189 0 0.013117317883124285 -0.0126466142977644 0 0.008839858333795976 -0.014338169591950521 0 0.011046383439494288 -0.012523608218215328 0 0.011863659926528571 -0.01491501612870139 0 0.013117317883124285 -0.0126466142977644 0 0.011046383439494288 -0.012523608218215328 0 0.011863659926528571 -0.01491501612870139 0 0.0074491191946359225 -0.014372010313205818 0 0.0083220231260983466 -0.014926742238937144 0 0.008839858333795976 -0.014338169591950521 0 0.0088739363813331047 -0.012137109985469283 0 0.011046383439494288 -0.012523608218215328 0 0.0088739363813331047 -0.012137109985469283 0 0.010563723241522792 -0.0099333318629810912 0 0.0065332981168638319 -0.011804232270913092 0 0.008839858333795976 -0.014338169591950521 0 0.0088739363813331047 -0.012137109985469283 0 0.005798514804515798 -0.013909417648774512 0 0.012978294936786774 -0.010838896815172222 0 0.011046383439494288 -0.012523608218215328 0 0.010563723241522792 -0.0099333318629810912 0 0.0088739363813331047 -0.012137109985469283 0 0.011046383439494288 -0.012523608218215328 0 0.010563723241522792 -0.0099333318629810912 0 0.0020998335464445178 -0.022366777113978074 0 0.0020730471658507669 -0.022024343756184499 0 0.0019882296785102803 -0.022240076894732931 0 0.006810914749872843 -0.015478612320208994 0 0.0043667253986600192 -0.016730521560112226 0 0.0020730471658507669 -0.022024343756184499 0 0.0021965913551093507 -0.021889675385731406 0 0.0022051677401748581 -0.021537225617285077 0 0.0020730471658507669 -0.022024343756184499 0 0.0021965913551093507 -0.021889675385731406 0 0.0021337040540013951 -0.022178413133279951 0 0.0021965913551093507 -0.021889675385731406 0 0.0021337040540013951 -0.022178413133279951 0 0.0024301653846291204 -0.02225392057244828 0 0.0021337040540013951 -0.022178413133279951 0 0.0024301653846291204 -0.02225392057244828 0 0.0024321853430479827 -0.022683315850702317 0 0.0020998335464445178 -0.022366777113978074 0 0.0019882296785102803 -0.022240076894732931 0 0.00169017167336514 -0.022357959359550025 0 0.0020730471658507669 -0.022024343756184499 0 0.0021337040540013951 -0.022178413133279951 0 0.0019882296785102803 -0.022240076894732931 0 0.0021337040540013951 -0.022178413133279951 0 0.0019882296785102803 -0.022240076894732931 0 0.00169017167336514 -0.022357959359550025 0 0.0023475551922791447 -0.021984549808220451 0 0.0022058562104428719 -0.02146648083948325 0 0.0022611747007311761 -0.021881237349727689 0 0.0023475551922791447 -0.021984549808220451 0 0.002280500496066274 -0.02179134535980963 0 0.0022058562104428719 -0.02146648083948325 0 0.0021965913551093507 -0.021889675385731406 0 0.0024301653846291204 -0.02225392057244828 0 0.002280500496066274 -0.02179134535980963 0 0.0023475551922791447 -0.021984549808220451 0 0.0024301653846291204 -0.02225392057244828 0 0.002280500496066274 -0.02179134535980963 0 0.002280500496066274 -0.02179134535980963 0 0.0022058562104428719 -0.02146648083948325 0 0.0022051677401748581 -0.021537225617285077 0 0.0021965913551093507 -0.021889675385731406 0 0.002280500496066274 -0.02179134535980963 0 0.0022051677401748581 -0.021537225617285077 0 0.0022058562104428719 -0.02146648083948325 0 0.0022051677401748581 -0.021537225617285077 0 0.0020563974695007271 -0.020686632159241852 0 0.0043667253986600192 -0.016730521560112226 0 0.0033738520947556275 -0.01717393069843633 0 0.0065332981168638319 -0.011804232270913092 0 0.005798514804515798 -0.013909417648774512 0 0.0044097776405101373 -0.013815350501015195 0 0.0088739363813331047 -0.012137109985469283 0 0.0065332981168638319 -0.011804232270913092 0 0.005798514804515798 -0.013909417648774512 0 0.0059560934016739762 -0.014473753819724234 0 0.005798514804515798 -0.013909417648774512 0 0.0055130667372476037 -0.014904783381211687 0 0.0074491191946359225 -0.014372010313205818 0 0.005818857626613441 -0.013886162451898616 0 0.005798514804515798 -0.013909417648774512 0 0.0046148489640198374 -0.014838238556333252 0 0.0044097776405101373 -0.013815350501015195 0 0.005798514804515798 -0.013909417648774512 0 0.0046148489640198374 -0.014838238556333252 0 0.0055130667372476037 -0.014904783381211687 0 0.0046148489640198374 -0.014838238556333252 0 0.0033874736191549398 -0.015288647985403867 0 0.0040969140049706507 -0.015548224213410487 0 0.0033874736191549398 -0.015288647985403867 0 0.0033272363921078517 -0.016078753420990667 0 0.0040969140049706507 -0.015548224213410487 0 0.0021140580073387137 -0.019203510684509369 0 0.0020563974695007271 -0.020686632159241852 0 0.0021413220035340352 -0.020447428609173496 0 0.0021140580073387137 -0.019203510684509369 0 0.0023644726285343702 -0.019651498910853254 0 0.0021413220035340352 -0.020447428609173496 0 0.0046148489640198374 -0.014838238556333252 0 0.0033874736191549398 -0.015288647985403867 0 0.0044097776405101373 -0.013815350501015195 0 0.0029020333455934675 -0.017218316992977285 0 0.0033738520947556275 -0.01717393069843633 0 0.0032106509853849783 -0.016941268260994579 0 0.0029269561706706426 -0.017121074935451952 0 0.0030260269355332175 -0.016579609397794497 0 0.0029020333455934675 -0.017218316992977285 0 0.0030839879865093671 -0.01709858066054332 0 0.0033874736191549398 -0.015288647985403867 0 0.0029269561706706426 -0.017121074935451952 0 0.0033272363921078517 -0.016078753420990667 0 0.0021140580073387137 -0.019203510684509369 0 0.0029269561706706426 -0.017121074935451952 0 0.0023644726285343702 -0.019651498910853254 0 0.0029269561706706426 -0.017121074935451952 0 0.0030052212539526156 -0.019356372331844427 0 0.0023644726285343702 -0.019651498910853254 0 0.0023644726285343702 -0.019651498910853254 0 0.0023677909405323818 -0.020698606802127668 0 0.0021413220035340352 -0.020447428609173496 0 0.0030052212539526156 -0.019356372331844427 0 0.0023644726285343702 -0.019651498910853254 0 0.0023677909405323818 -0.020698606802127668 0 0.0023677909405323818 -0.020698606802127668 0 0.0028371717643436191 -0.020673770741761997 0 0.0025489873776487542 -0.021453990239828802 0 0.0030052212539526156 -0.019356372331844427 0 0.0023677909405323818 -0.020698606802127668 0 0.0028371717643436191 -0.020673770741761997 0 0.0033262087954850292 -0.020100646657091333 0 0.0030052212539526156 -0.019356372331844427 0 0.0028371717643436191 -0.020673770741761997 0 0.0033262087954850292 -0.020100646657091333 0 0.0028371717643436191 -0.020673770741761997 0 0.0031357920328892773 -0.021232400507761314 0 0.0020563974695007271 -0.020686632159241852 0 0.0021540544350060076 -0.021168954751583369 0 0.0021413220035340352 -0.020447428609173496 0 0.0022058562104428719 -0.02146648083948325 0 0.0020563974695007271 -0.020686632159241852 0 0.0021540544350060076 -0.021168954751583369 0 0.0023677909405323818 -0.020698606802127668 0 0.0021413220035340352 -0.020447428609173496 0 0.0021795508917693647 -0.021513016647131802 0 0.0023677909405323818 -0.020698606802127668 0 0.0021795508917693647 -0.021513016647131802 0 0.0022625340515934301 -0.021599710813682008 0 0.0021540544350060076 -0.021168954751583369 0 0.0021413220035340352 -0.020447428609173496 0 0.0021795508917693647 -0.021513016647131802 0 0.0021540544350060076 -0.021168954751583369 0 0.0021795508917693647 -0.021513016647131802 0 0.0022611747007311761 -0.021881237349727689 0 0.0022058562104428719 -0.02146648083948325 0 0.0021540544350060076 -0.021168954751583369 0 0.0022611747007311761 -0.021881237349727689 0 0.0021795508917693647 -0.021513016647131802 0 0.0021275427596360802 -0.022140719970880247 0 0.0022429401337730023 -0.022442276915303278 0 0.0021795508917693647 -0.021513016647131802 0 0.0022611747007311761 -0.021881237349727689 0 0.0022429401337730023 -0.022442276915303278 0 0.0021795508917693647 -0.021513016647131802 0 0.0022625340515934301 -0.021599710813682008 0 0.0021275427596360802 -0.022140719970880247 0 0.0022625340515934301 -0.021599710813682008 0 0.0021275427596360802 -0.022140719970880247 0 0.0022419598863207585 -0.022167135549845372 0 0.0019248900904976758 -0.022541258508192774 0 0.0022419598863207585 -0.022167135549845372 0 0.0022194253898312117 -0.022986037925002277 0 0.0021275427596360802 -0.022140719970880247 0 0.0019248900904976758 -0.022541258508192774 0 0.0022429401337730023 -0.022442276915303278 0 0.0021275427596360802 -0.022140719970880247 0 0.0019248900904976758 -0.022541258508192774 0 0.0022419598863207585 -0.022167135549845372 0 0.0022429401337730023 -0.022442276915303278 0 0.002336431481075596 -0.022534583683585824 0 0.0025450864574206341 -0.022821616334233182 0 0.0019248900904976758 -0.022541258508192774 0 0.0022429401337730023 -0.022442276915303278 0 0.002336431481075596 -0.022534583683585824 0 0.0028371717643436191 -0.020673770741761997 0 0.0031357920328892773 -0.021232400507761314 0 0.0025489873776487542 -0.021453990239828802 0 0.0031357920328892773 -0.021232400507761314 0 0.0025489873776487542 -0.021453990239828802 0 0.0027601092405466787 -0.02223548545558961 0 0.0023677909405323818 -0.020698606802127668 0 0.0022625340515934301 -0.021599710813682008 0 0.0025489873776487542 -0.021453990239828802 0 0.0022625340515934301 -0.021599710813682008 0 0.0025489873776487542 -0.021453990239828802 0 0.0022419598863207585 -0.022167135549845372 0 0.0022419598863207585 -0.022167135549845372 0 0.0027601092405466787 -0.02223548545558961 0 0.0022194253898312117 -0.022986037925002277 0 0.0025489873776487542 -0.021453990239828802 0 0.0022419598863207585 -0.022167135549845372 0 0.0027601092405466787 -0.02223548545558961 0 0.0036481397618861053 -0.022074207915534196 0 0.0031357920328892773 -0.021232400507761314 0 0.0027601092405466787 -0.02223548545558961 0 0.0036481397618861053 -0.022074207915534196 0 0.0027601092405466787 -0.02223548545558961 0 0.0030257692635360964 -0.023348136272505236 0 0.0027601092405466787 -0.02223548545558961 0 0.0030257692635360964 -0.023348136272505236 0 0.0022194253898312117 -0.022986037925002277 0 0.0022194253898312117 -0.022986037925002277 0 0.0022613934955175202 -0.024024281392760371 0 0.0018087759953760421 -0.023238310879599801 0 0.0030257692635360964 -0.023348136272505236 0 0.0022194253898312117 -0.022986037925002277 0 0.0022613934955175202 -0.024024281392760371 0 0.0025349871021890166 -0.025287461942379918 0 0.002334402995692101 -0.025311832918587077 0 0.0024482778338292556 -0.026562119693898406 0 0.0024941509816327066 -0.026498903248479914 0 0.0026848444176985555 -0.026782513641742882 0 0.0025349871021890166 -0.025287461942379918 0 0.0033430956915482092 -0.025498415008566918 0 0.0030257692635360964 -0.023348136272505236 0 0.0022613934955175202 -0.024024281392760371 0 0.003312532192312932 -0.025436524584517069 0 0.0024482778338292556 -0.026562119693898406 0 0.0024941509816327066 -0.026498903248479914 0 0.003312532192312932 -0.025436524584517069 0 0.0025979320459706872 -0.024017403377982298 0 0.002334402995692101 -0.025311832918587077 0 0.0019248900904976758 -0.022541258508192774 0 0.00092675987513131364 -0.022867280066430191 0 0.0018087759953760421 -0.023238310879599801 0 0.0016598130777649937 -0.022480865550045987 0 0.0025979320459706872 -0.024017403377982298 0 0.0035164620261699266 -0.027569713678633305 0 0.002855217612324738 -0.02720645136761804 0 0.0031685826500328198 -0.026983948961697288 0 0.0019248900904976758 -0.022541258508192774 0 0.0022194253898312117 -0.022986037925002277 0 0.0018087759953760421 -0.023238310879599801 0 0.0024941509816327066 -0.026498903248479914 0 0.002855217612324738 -0.02720645136761804 0 0.0026848444176985555 -0.026782513641742882 0 0.002855217612324738 -0.02720645136761804 0 0.0026848444176985555 -0.026782513641742882 0 0.0031685826500328198 -0.026983948961697288 0 0.0035164620261699266 -0.027569713678633305 0 0.0031685826500328198 -0.026983948961697288 0 0.0037525873625787504 -0.026924313151142052 0 0.0037525873625787504 -0.026924313151142052 0 0.0043230442574639302 -0.027351769519276873 0 0.0043796392857847139 -0.026851711950243648 0 0.0025979320459706872 -0.024017403377982298 0 0.0037717023006670221 -0.025648836337744944 0 0.003259551136513363 -0.02357807842380542 0 0.0030014107525427633 -0.023681880984361671 0 0.002898736005631761 -0.023441956071205874 0 0.0035164620261699266 -0.027569713678633305 0 0.0037525873625787504 -0.026924313151142052 0 0.0043230442574639302 -0.027351769519276873 0 0.0025979320459706872 -0.024017403377982298 0 0.0028568238255640517 -0.023191203601331395 0 0.0037717023006670221 -0.025648836337744944 0 0.004586346521345732 -0.02547833562942731 0 0.0030014107525427633 -0.023681880984361671 0 0.0042255656473710393 -0.024099391596302987 0 0.003365317135273882 -0.023982477891703689 0 0.0030014107525427633 -0.023681880984361671 0 0.003365317135273882 -0.023982477891703689 0 0.002898736005631761 -0.023441956071205874 0 0.0043230442574639302 -0.027351769519276873 0 0.0043796392857847139 -0.026851711950243648 0 0.0051633806254037804 -0.026729255407508361 0 0.0048865619821241895 -0.02659281305824605 0 0.0043796392857847139 -0.026851711950243648 0 0.0051633806254037804 -0.026729255407508361 0 0.0056858068580192996 -0.025627284136156645 0 0.0054242456051473266 -0.025047214037777307 0 0.0042255656473710393 -0.024099391596302987 0 0.0053694177590139286 -0.026257674170337947 0 0.0056858068580192996 -0.025627284136156645 0 0.0051633806254037804 -0.026729255407508361 0 0.0054362719916950224 -0.025582934761971984 0 0.004586346521345732 -0.02547833562942731 0 0.0054242456051473266 -0.025047214037777307 0 0.0042255656473710393 -0.024099391596302987 0 0.0043668322839057775 -0.024592553206092587 0 0.0042255656473710393 -0.024099391596302987 0 0.003365317135273882 -0.023982477891703689 0 0.0043668322839057775 -0.024592553206092587 0 0.0029338726253716539 -0.023995484686443518 0 0.0043668322839057775 -0.024592553206092587 0 0.0051365681023862768 -0.026286653989621916 0 0.003365317135273882 -0.023982477891703689 0 0.0029338726253716539 -0.023995484686443518 0 0.0043668322839057775 -0.024592553206092587 0 0.0054242456051473266 -0.025047214037777307 0 0.0055202714100994199 -0.025493788184437316 0 0.0043668322839057775 -0.024592553206092587 0 0.0055202714100994199 -0.025493788184437316 0 0.0043668322839057775 -0.024592553206092587 0 0.0051365681023862768 -0.026286653989621916 0 0.0021337040540013951 -0.022178413133279951 0 0.00169017167336514 -0.022357959359550025 0 0.0024321853430479827 -0.022683315850702317 0 0.0030018634794214652 -0.024058960698531719 0 0.0034815295682541735 -0.024305083032537245 0 0.0029338726253716539 -0.023995484686443518 0 0.00169017167336514 -0.022357959359550025 0 0.0024321853430479827 -0.022683315850702317 0 0.0024301653846291204 -0.02225392057244828 0 0.0024321853430479827 -0.022683315850702317 0 0.0027338805156127857 -0.023033145019751188 0 0.0029338726253716539 -0.023995484686443518 0 0.0024321853430479827 -0.022683315850702317 0 0.0027338805156127857 -0.023033145019751188 0 0.0023475551922791447 -0.021984549808220451 0 0.0024301653846291204 -0.02225392057244828 0 0.0025419597835362024 -0.022639009826941899 0 0.0024301653846291204 -0.02225392057244828 0 0.0027338805156127857 -0.023033145019751188 0 0.0025419597835362024 -0.022639009826941899 0 0.0022611747007311761 -0.021881237349727689 0 0.0022429401337730023 -0.022442276915303278 0 0.0025419597835362024 -0.022639009826941899 0 0.0023475551922791447 -0.021984549808220451 0 0.0022611747007311761 -0.021881237349727689 0 0.0025419597835362024 -0.022639009826941899 0 0.0022429401337730023 -0.022442276915303278 0 0.0025419597835362024 -0.022639009826941899 0 0.0025450864574206341 -0.022821616334233182 0 0.002336431481075596 -0.022534583683585824 0 0.0025450864574206341 -0.022821616334233182 0 0.002898736005631761 -0.023441956071205874 0 0.0025419597835362024 -0.022639009826941899 0 0.0025450864574206341 -0.022821616334233182 0 0.002898736005631761 -0.023441956071205874 0 0.0029338726253716539 -0.023995484686443518 0 0.0027338805156127857 -0.023033145019751188 0 0.002898736005631761 -0.023441956071205874 0 0.0027338805156127857 -0.023033145019751188 0 0.0025419597835362024 -0.022639009826941899 0 0.002898736005631761 -0.023441956071205874 0 0.003365317135273882 -0.023982477891703689 0 0.0029338726253716539 -0.023995484686443518 0 0.002898736005631761 -0.023441956071205874 0 0.025964943046810778 -0.019614194771088896 0 0.02695768222166843 -0.019972198915259441 0 0.026036107008895977 -0.020486695076269018 0 0.025964943046810778 -0.019614194771088896 0 0.024999717741555561 -0.020259062942760392 0 0.026036107008895977 -0.020486695076269018 0 0.025964943046810778 -0.019614194771088896 0 0.024999717741555561 -0.020259062942760392 0 0.025000062515027434 -0.018992213040753506 0 0.025964943046810778 -0.019614194771088896 0 0.025000062515027434 -0.018992213040753506 0 0.025936577757832497 -0.018286030034725547 0 0.025964943046810778 -0.019614194771088896 0 0.026913482034152385 -0.018885096976364198 0 0.025936577757832497 -0.018286030034725547 0 0.025964943046810778 -0.019614194771088896 0 0.026913482034152385 -0.018885096976364198 0 0.02695768222166843 -0.019972198915259441 0 0.027100604797864133 -0.018778525300282338 0 0.024942231509778954 -0.020520737063130848 0 0.026558683756884163 -0.018611391996230089 0 0.027276307066182334 -0.019076189280106428 0 0.026977367514006961 -0.018079015996695414 0 0.026913482034152385 -0.018885096976364198 0 0.027879879839969028 -0.019507029882406216 0 0.02695768222166843 -0.019972198915259441 0 0.021120423971682619 -0.022158110704286405 0 0.021264176494850424 -0.022032437539041761 0 0.021159634656124922 -0.021752009775315242 0 0.024942231509778954 -0.020520737063130848 0 0.023856941646678377 -0.019805509110225904 0 0.021120423971682619 -0.022158110704286405 0 0.021205582743023914 -0.022202817520164637 0 0.021264176494850424 -0.022032437539041761 0 0.024942231509778954 -0.020520737063130848 0 0.023663304606442417 -0.020391322282184765 0 0.027879879839969028 -0.019507029882406216 0 0.028136602639214685 -0.020314285213137148 0 0.02695768222166843 -0.019972198915259441 0 0.024942231509778954 -0.020520737063130848 0 0.024638300127684434 -0.021313873023512668 0 0.02114289314336425 -0.022158905046549184 0 0.021205582743023914 -0.022202817520164637 0 0.021242944622214616 -0.02244362423171917 0 0.028136602639214685 -0.020314285213137148 0 0.02695768222166843 -0.019972198915259441 0 0.026960827856578416 -0.021196804519688979 0 0.02695768222166843 -0.019972198915259441 0 0.026960827856578416 -0.021196804519688979 0 0.026036107008895977 -0.020486695076269018 0 0.028136602639214685 -0.020314285213137148 0 0.026960827856578416 -0.021196804519688979 0 0.028368595182820679 -0.021088565001735071 0 0.025860912161370223 -0.022571528233097198 0 0.023797133466005246 -0.022935087447845146 0 0.023440774706732871 -0.023833696469920135 0 0.022120872165033313 -0.02435012161638328 0 0.022215181060020826 -0.025094703127377074 0 0.024235940527264077 -0.024001860906170736 0 0.023440774706732871 -0.023833696469920135 0 0.022383871161454023 -0.025316203921782271 0 0.023440774706732871 -0.023833696469920135 0 0.022215181060020826 -0.025094703127377074 0 0.022383871161454023 -0.025316203921782271 0 0.024235940527264077 -0.024001860906170736 0 0.023440774706732871 -0.023833696469920135 0 0.025034921553312738 -0.022552786121726166 0 0.024235940527264077 -0.024001860906170736 0 0.025265793899536312 -0.021533491926977621 0 0.025034921553312738 -0.022552786121726166 0 0.026960827856578416 -0.021196804519688979 0 0.026036107008895977 -0.020486695076269018 0 0.025265793899536312 -0.021533491926977621 0 0.025860912161370223 -0.022571528233097198 0 0.02500570640964276 -0.021718272813880876 0 0.024999717741555561 -0.020259062942760392 0 0.026036107008895977 -0.020486695076269018 0 0.025265793899536312 -0.021533491926977621 0 0.024999717741555561 -0.020259062942760392 0 0.025265793899536312 -0.021533491926977621 0 0.024999661895246713 -0.021527650349042273 0 0.025265793899536312 -0.021533491926977621 0 0.024999661895246713 -0.021527650349042273 0 0.025034921553312738 -0.022552786121726166 0 0.024999661895246713 -0.021527650349042273 0 0.025034921553312738 -0.022552786121726166 0 0.024999906935068993 -0.02279026122989734 0 0.024999910935716265 -0.02499592432149227 0 0.022407012471437546 -0.025219838725771295 0 0.019686334866860198 -0.024998603667050277 0 0.025034921553312738 -0.022552786121726166 0 0.024638859472653662 -0.022503865109779676 0 0.024999906935068993 -0.02279026122989734 0 0.024173300396524815 -0.023578120502750793 0 0.024999475158326224 -0.022792352752956786 0 0.023890898185403724 -0.024688739194062205 0 0.024999910935716265 -0.02499592432149227 0 0.022407012471437546 -0.025219838725771295 0 0.023890898185403724 -0.024688739194062205 0 0.024997244599152726 -0.022800015924753038 0 0.024999910935716265 -0.02499592432149227 0 0.024173300396524815 -0.023578120502750793 0 0.022615192704029809 -0.024273716822042726 0 0.023440774706732871 -0.023833696469920135 0 0.024638859472653662 -0.022503865109779676 0 0.022719842125914203 -0.023244249371625836 0 0.023440774706732871 -0.023833696469920135 0 0.025034921553312738 -0.022552786121726166 0 0.024638859472653662 -0.022503865109779676 0 0.023440774706732871 -0.023833696469920135 0 0.022719842125914203 -0.023244249371625836 0 0.022120872165033313 -0.02435012161638328 0 0.022719842125914203 -0.023244249371625836 0 0.022120872165033313 -0.02435012161638328 0 0.020930847746353121 -0.025096461598030362 0 0.02114465381000908 -0.025011216282557158 0 0.020930847746353121 -0.025096461598030362 0 0.020316381332676114 -0.025349715430092498 0 0.022120872165033313 -0.02435012161638328 0 0.02114465381000908 -0.025011216282557158 0 0.020930847746353121 -0.025096461598030362 0 0.022615192704029809 -0.024273716822042726 0 0.021100809573824004 -0.024955191515468055 0 0.022407012471437546 -0.025219838725771295 0 0.020930847746353121 -0.025096461598030362 0 0.019686334866860198 -0.024998603667050277 0 0.020930847746353121 -0.025096461598030362 0 0.019686334866860198 -0.024998603667050277 0 0.019756865011511218 -0.025365923633314226 0 0.019686334866860198 -0.024998603667050277 0 0.019756865011511218 -0.025365923633314226 0 0.01853868710833163 -0.02568585678078858 0 0.019756865011511218 -0.025365923633314226 0 0.019603094559432377 -0.025611953418532479 0 0.020316381332676114 -0.025349715430092498 0 0.019756865011511218 -0.025365923633314226 0 0.019603094559432377 -0.025611953418532479 0 0.01853868710833163 -0.02568585678078858 0 0.020930847746353121 -0.025096461598030362 0 0.019756865011511218 -0.025365923633314226 0 0.020316381332676114 -0.025349715430092498 0 0.02114465381000908 -0.025011216282557158 0 0.020316381332676114 -0.025349715430092498 0 0.020759707073288263 -0.025377440880496399 0 0.020316381332676114 -0.025349715430092498 0 0.020269237858578655 -0.025501133513541174 0 0.020759707073288263 -0.025377440880496399 0 0.018866608037998514 -0.026443673759544015 0 0.01910746051717243 -0.026949026378889917 0 0.018619744761614546 -0.026901727457162222 0 0.019144294743026834 -0.025926017103175963 0 0.019827404508480119 -0.026460542845996075 0 0.019603094559432377 -0.025611953418532479 0 0.020316381332676114 -0.025349715430092498 0 0.020269237858578655 -0.025501133513541174 0 0.016962962732310616 -0.027508353715509384 0 0.01821380320097301 -0.026670374383001638 0 0.01910746051717243 -0.026949026378889917 0 0.018970361695841039 -0.027379304048170974 0 0.018619744761614546 -0.026901727457162222 0 0.01910746051717243 -0.026949026378889917 0 0.018970361695841039 -0.027379304048170974 0 0.01934774700540496 -0.027343926481010829 0 0.017542825303055912 -0.026725195714327729 0 0.017556664965262966 -0.026753690163091468 0 0.017399042637053344 -0.026610513663320751 0 0.013794409914959557 -0.026782385357804309 0 0.013929498997230434 -0.026646168699071934 0 0.014058002291328489 -0.02677461863011733 0 0.015688869594888046 -0.027487898405822147 0 0.015568048335755065 -0.027299846567822448 0 0.015198732912089978 -0.027272857031553882 0 0.016962962732310616 -0.027508353715509384 0 0.015495835023419809 -0.026752530826735354 0 0.016962962732310616 -0.027508353715509384 0 0.019134967753476118 -0.025458823755103041 0 0.015688869594888046 -0.027487898405822147 0 0.015198732912089978 -0.027272857031553882 0 0.014734525027540472 -0.027528078845875725 0 0.015568048335755065 -0.027299846567822448 0 0.015198732912089978 -0.027272857031553882 0 0.014803128499789755 -0.026778414060136035 0 0.015198732912089978 -0.027272857031553882 0 0.014734525027540472 -0.027528078845875725 0 0.014803128499789755 -0.026778414060136035 0 0.015495835023419809 -0.026752530826735354 0 0.01456976964327363 -0.026660566682818455 0 0.019827404508480119 -0.026460542845996075 0 0.019134967753476118 -0.025458823755103041 0 0.020269237858578655 -0.025501133513541174 0 0.020668014755010684 -0.025801679745060788 0 0.020759707073288263 -0.025377440880496399 0 0.02114465381000908 -0.025011216282557158 0 0.020759707073288263 -0.025377440880496399 0 0.021478305837834284 -0.025115974423541347 0 0.020759707073288263 -0.025377440880496399 0 0.021478305837834284 -0.025115974423541347 0 0.021299665836359023 -0.02570515273576169 0 0.022120872165033313 -0.02435012161638328 0 0.02114465381000908 -0.025011216282557158 0 0.021478305837834284 -0.025115974423541347 0 0.022120872165033313 -0.02435012161638328 0 0.021478305837834284 -0.025115974423541347 0 0.022215181060020826 -0.025094703127377074 0 0.021478305837834284 -0.025115974423541347 0 0.022215181060020826 -0.025094703127377074 0 0.021299665836359023 -0.02570515273576169 0 0.023797133466005246 -0.022935087447845146 0 0.02148680908785772 -0.024192487603594277 0 0.021342351257427877 -0.022708080196295232 0 0.021611500480024227 -0.022698923540405279 0 0.021451148244758383 -0.022481220971452536 0 0.022215181060020826 -0.025094703127377074 0 0.022352451735290081 -0.025480634330194072 0 0.021299665836359023 -0.02570515273576169 0 0.023562960441250509 -0.024327017022655859 0 0.023797133466005246 -0.022935087447845146 0 0.024638300127684434 -0.021313873023512668 0 0.023797133466005246 -0.022935087447845146 0 0.021242944622214616 -0.02244362423171917 0 0.021342351257427877 -0.022708080196295232 0 0.021451148244758383 -0.022481220971452536 0 0.020668014755010684 -0.025801679745060788 0 0.020759707073288263 -0.025377440880496399 0 0.021299665836359023 -0.02570515273576169 0 0.019134967753476118 -0.025458823755103041 0 0.02148680908785772 -0.024192487603594277 0 0.021866812641557494 -0.022701018814528327 0 0.021611500480024227 -0.022698923540405279 0 0.021663199758221834 -0.022291413957959888 0 0.013903045892485448 -0.026345270173838867 0 0.014013364609407712 -0.026302835571536471 0 0.014803128499789755 -0.026778414060136035 0 0.019134967753476118 -0.025458823755103041 0 0.017649750013946124 -0.024212491169834226 0 0.021611500480024227 -0.022698923540405279 0 0.021663199758221834 -0.022291413957959888 0 0.021451148244758383 -0.022481220971452536 0 0.021663199758221834 -0.022291413957959888 0 0.021451148244758383 -0.022481220971452536 0 0.021389156782158653 -0.022248155451511771 0 0.021242944622214616 -0.02244362423171917 0 0.021451148244758383 -0.022481220971452536 0 0.021389156782158653 -0.022248155451511771 0 0.021205582743023914 -0.022202817520164637 0 0.021242944622214616 -0.02244362423171917 0 0.021389156782158653 -0.022248155451511771 0 0.017649750013946124 -0.024212491169834226 0 0.017423263758194175 -0.023810621987451118 0 0.021389156782158653 -0.022248155451511771 0 0.021264176494850424 -0.022032437539041761 0 0.021435011525980058 -0.02178279959329749 0 0.021663199758221834 -0.022291413957959888 0 0.021389156782158653 -0.022248155451511771 0 0.021435011525980058 -0.02178279959329749 0 0.021205582743023914 -0.022202817520164637 0 0.021389156782158653 -0.022248155451511771 0 0.021264176494850424 -0.022032437539041761 0 0.014013364609407712 -0.026302835571536471 0 0.0143884252169026 -0.026305267064088797 0 0.013984290933942732 -0.025797277216637972 0 0.013903045892485448 -0.026345270173838867 0 0.014013364609407712 -0.026302835571536471 0 0.013984290933942732 -0.025797277216637972 0 0.013903045892485448 -0.026345270173838867 0 0.013984290933942732 -0.025797277216637972 0 0.013475331941747035 -0.025762936147911007 0 0.013847511717807957 -0.026346580919584878 0 0.013741899263267191 -0.026048964459959495 0 0.013609851830565388 -0.026499316857846074 0 0.013620738259860491 -0.026269062747490721 0 0.013444298609355615 -0.026231682008060808 0 0.013777338014133342 -0.026384067227238552 0 0.013609851830565388 -0.026499316857846074 0 0.013620738259860491 -0.026269062747490721 0 0.013777338014133342 -0.026384067227238552 0 0.01374088920252233 -0.026190626245547265 0 0.013620738259860491 -0.026269062747490721 0 0.013777338014133342 -0.026384067227238552 0 0.013969255557433367 -0.026313208790817954 0 0.01374088920252233 -0.026190626245547265 0 0.013777338014133342 -0.026384067227238552 0 0.013800069215307466 -0.026569661734659571 0 0.013919345004182756 -0.026490450348409647 0 0.013777338014133342 -0.026384067227238552 0 0.013919345004182756 -0.026490450348409647 0 0.013969255557433367 -0.026313208790817954 0 0.013777338014133342 -0.026384067227238552 0 0.013800069215307466 -0.026569661734659571 0 0.013609851830565388 -0.026499316857846074 0 0.013794409914959557 -0.026782385357804309 0 0.013800069215307466 -0.026569661734659571 0 0.013609851830565388 -0.026499316857846074 0 0.013800069215307466 -0.026569661734659571 0 0.013929498997230434 -0.026646168699071934 0 0.013919345004182756 -0.026490450348409647 0 0.013794409914959557 -0.026782385357804309 0 0.013800069215307466 -0.026569661734659571 0 0.013929498997230434 -0.026646168699071934 0 0.015495835023419809 -0.026752530826735354 0 0.013847511717807957 -0.026346580919584878 0 0.014734525027540472 -0.027528078845875725 0 0.013903045892485448 -0.026345270173838867 0 0.014803128499789755 -0.026778414060136035 0 0.014755799458043863 -0.026843159362923936 0 0.014370791374726362 -0.026572342482279528 0 0.0143884252169026 -0.026305267064088797 0 0.014013364609407712 -0.026302835571536471 0 0.014370791374726362 -0.026572342482279528 0 0.0143884252169026 -0.026305267064088797 0 0.014098708660787343 -0.026349225671463177 0 0.01456976964327363 -0.026660566682818455 0 0.014149379102955207 -0.026418736071985832 0 0.014309393143602035 -0.026799856331246479 0 0.01408665081372874 -0.026574445958188756 0 0.014247622696058622 -0.026441712981677887 0 0.014359173502093397 -0.02684238502408131 0 0.013993110123951817 -0.0264159889576535 0 0.014316395736406539 -0.026592469154786226 0 0.014485409675316597 -0.026783976079273415 0 0.013929498997230434 -0.026646168699071934 0 0.01408665081372874 -0.026574445958188756 0 0.014058002291328489 -0.02677461863011733 0 0.013929498997230434 -0.026646168699071934 0 0.013919345004182756 -0.026490450348409647 0 0.01408665081372874 -0.026574445958188756 0 0.013969255557433367 -0.026313208790817954 0 0.014247622696058622 -0.026441712981677887 0 0.014129727512387568 -0.026064230049082471 0 0.01408665081372874 -0.026574445958188756 0 0.013969255557433367 -0.026313208790817954 0 0.014247622696058622 -0.026441712981677887 0 0.013919345004182756 -0.026490450348409647 0 0.01408665081372874 -0.026574445958188756 0 0.013969255557433367 -0.026313208790817954 0 0.01454190021801631 -0.026644288146633784 0 0.014316395736406539 -0.026592469154786226 0 0.014085100200938805 -0.026061772705127453 0 0.013993110123951817 -0.0264159889576535 0 0.014316395736406539 -0.026592469154786226 0 0.014085100200938805 -0.026061772705127453 0 0.013993141682273552 -0.026275028817502454 0 0.014065632673231649 -0.026080639667033955 0 0.013472037759816223 -0.02583837885065882 0 0.013560111696493623 -0.025937729272376243 0 0.014085100200938805 -0.026061772705127453 0 0.01454190021801631 -0.026644288146633784 0 0.014316395736406539 -0.026592469154786226 0 0.014509771110301575 -0.026773873218714411 0 0.01454190021801631 -0.026644288146633784 0 0.014509771110301575 -0.026773873218714411 0 0.014454875379715097 -0.026840738656272924 0 0.014316395736406539 -0.026592469154786226 0 0.014509771110301575 -0.026773873218714411 0 0.014485409675316597 -0.026783976079273415 0 0.014509771110301575 -0.026773873218714411 0 0.014682852636170097 -0.026723921017416066 0 0.014485409675316597 -0.026783976079273415 0 0.014509771110301575 -0.026773873218714411 0 0.014605485248798915 -0.026744808764794469 0 0.014454875379715097 -0.026840738656272924 0 0.014509771110301575 -0.026773873218714411 0 0.014605485248798915 -0.026744808764794469 0 0.014682852636170097 -0.026723921017416066 0 0.014605485248798915 -0.026744808764794469 0 0.014867985441027493 -0.026604426447857127 0 0.014513839091959975 -0.026546159981533986 0 0.014605485248798915 -0.026744808764794469 0 0.014682852636170097 -0.026723921017416066 0 0.014867985441027493 -0.026604426447857127 0 0.014682852636170097 -0.026723921017416066 0 0.014485409675316597 -0.026783976079273415 0 0.014916472406517943 -0.026611995897439317 0 0.014682852636170097 -0.026723921017416066 0 0.014916472406517943 -0.026611995897439317 0 0.014867985441027493 -0.026604426447857127 0 0.014309393143602035 -0.026799856331246479 0 0.015460002459257249 -0.026803368817430513 0 0.015849991558052348 -0.026843040999654271 0 0.015460002459257249 -0.026803368817430513 0 0.014359173502093397 -0.02684238502408131 0 0.014121789807382436 -0.027018684132018418 0 0.014461173765383211 -0.027253165503463343 0 0.014359173502093397 -0.02684238502408131 0 0.014058002291328489 -0.02677461863011733 0 0.014121789807382436 -0.027018684132018418 0 0.01408665081372874 -0.026574445958188756 0 0.014359173502093397 -0.02684238502408131 0 0.014058002291328489 -0.02677461863011733 0 0.013794409914959557 -0.026782385357804309 0 0.014058002291328489 -0.02677461863011733 0 0.014121789807382436 -0.027018684132018418 0 0.015495835023419809 -0.026752530826735354 0 0.015849991558052348 -0.026843040999654271 0 0.017542825303055912 -0.026725195714327729 0 0.017399042637053344 -0.026610513663320751 0 0.01746222170110473 -0.026508217442165506 0 0.017399042637053344 -0.026610513663320751 0 0.01746222170110473 -0.026508217442165506 0 0.017313286257879538 -0.026387244036072899 0 0.019686334866860198 -0.024998603667050277 0 0.015686488065831363 -0.024999611915373296 0 0.016542374957087602 -0.025240251275987145 0 0.019686334866860198 -0.024998603667050277 0 0.016542374957087602 -0.025240251275987145 0 0.017057660829579692 -0.025524121709331236 0 0.01821380320097301 -0.026670374383001638 0 0.017632014760978653 -0.026175138763388187 0 0.018866608037998514 -0.026443673759544015 0 0.018619744761614546 -0.026901727457162222 0 0.018054942144819369 -0.026249208515356053 0 0.017313286257879538 -0.026387244036072899 0 0.017328581966070799 -0.026149441031061971 0 0.017083589650679246 -0.026419679241019171 0 0.017399042637053344 -0.026610513663320751 0 0.017313286257879538 -0.026387244036072899 0 0.017083589650679246 -0.026419679241019171 0 0.01746222170110473 -0.026508217442165506 0 0.017313286257879538 -0.026387244036072899 0 0.017328581966070799 -0.026149441031061971 0 0.019144294743026834 -0.025926017103175963 0 0.01862758709240531 -0.025647845252194896 0 0.018866608037998514 -0.026443673759544015 0 0.018054942144819369 -0.026249208515356053 0 0.01853868710833163 -0.02568585678078858 0 0.019686334866860198 -0.024998603667050277 0 0.01853868710833163 -0.02568585678078858 0 0.017057660829579692 -0.025524121709331236 0 0.018054942144819369 -0.026249208515356053 0 0.01853868710833163 -0.02568585678078858 0 0.017057660829579692 -0.025524121709331236 0 0.017632014760978653 -0.026175138763388187 0 0.017105640657207582 -0.025529500162683738 0 0.015686488065831363 -0.024999611915373296 0 0.016542374957087602 -0.025240251275987145 0 0.01573125868290004 -0.025724114353048937 0 0.016542374957087602 -0.025240251275987145 0 0.017057660829579692 -0.025524121709331236 0 0.016976207045950667 -0.025961381252192325 0 0.016542374957087602 -0.025240251275987145 0 0.01573125868290004 -0.025724114353048937 0 0.015763237236477188 -0.025995077299153495 0 0.017328581966070799 -0.026149441031061971 0 0.017057660829579692 -0.025524121709331236 0 0.016976207045950667 -0.025961381252192325 0 0.01645239482196597 -0.025232011173846811 0 0.016482476137734965 -0.025906113584817824 0 0.015686488065831363 -0.024999611915373296 0 0.01573125868290004 -0.025724114353048937 0 0.015027408123544982 -0.025852156138944361 0 0.01573125868290004 -0.025724114353048937 0 0.01536550351884786 -0.026087242098932838 0 0.015763237236477188 -0.025995077299153495 0 0.01573125868290004 -0.025724114353048937 0 0.01536550351884786 -0.026087242098932838 0 0.015027408123544982 -0.025852156138944361 0 0.01536550351884786 -0.026087242098932838 0 0.01490865813360564 -0.026332313320042506 0 0.015027408123544982 -0.025852156138944361 0 0.01536550351884786 -0.026087242098932838 0 0.015206111925010257 -0.026460970997277254 0 0.01490865813360564 -0.026332313320042506 0 0.016482476137734965 -0.025906113584817824 0 0.015460002459257249 -0.026803368817430513 0 0.017328581966070799 -0.026149441031061971 0 0.016976207045950667 -0.025961381252192325 0 0.017083589650679246 -0.026419679241019171 0 0.015206111925010257 -0.026460970997277254 0 0.015763237236477188 -0.025995077299153495 0 0.015689703625921703 -0.026818167194383895 0 0.01536550351884786 -0.026087242098932838 0 0.015206111925010257 -0.026460970997277254 0 0.015763237236477188 -0.025995077299153495 0 0.015206111925010257 -0.026460970997277254 0 0.014916472406517943 -0.026611995897439317 0 0.014867985441027493 -0.026604426447857127 0 0.015130038688420621 -0.026472588983543602 0 0.015460002459257249 -0.026803368817430513 0 0.01490865813360564 -0.026332313320042506 0 0.014867985441027493 -0.026604426447857127 0 0.014513839091959975 -0.026546159981533986 0 0.015206111925010257 -0.026460970997277254 0 0.01490865813360564 -0.026332313320042506 0 0.014867985441027493 -0.026604426447857127 0 0.014513839091959975 -0.026546159981533986 0 0.014025150494804359 -0.026429474099646764 0 0.014341475777667995 -0.026210670181839091 0 0.01490865813360564 -0.026332313320042506 0 0.014513839091959975 -0.026546159981533986 0 0.014341475777667995 -0.026210670181839091 0 0.014025150494804359 -0.026429474099646764 0 0.014341475777667995 -0.026210670181839091 0 0.013672832833851437 -0.026165508976591905 0 0.014341475777667995 -0.026210670181839091 0 0.013763022398176127 -0.025713135581609169 0 0.013672832833851437 -0.026165508976591905 0 0.01490865813360564 -0.026332313320042506 0 0.014341475777667995 -0.026210670181839091 0 0.015027408123544982 -0.025852156138944361 0 0.015686488065831363 -0.024999611915373296 0 0.015027408123544982 -0.025852156138944361 0 0.013763022398176127 -0.025713135581609169 0 0.015686488065831363 -0.024999611915373296 0 0.012751115239626579 -0.024999419289845962 0 0.013763022398176127 -0.025713135581609169 0 0.014341475777667995 -0.026210670181839091 0 0.015027408123544982 -0.025852156138944361 0 0.013763022398176127 -0.025713135581609169 0 0.012751115239626579 -0.024999419289845962 0 0.013763022398176127 -0.025713135581609169 0 0.012534725033250142 -0.025826719427468517 0 0.012534725033250142 -0.025826719427468517 0 0.01317185713727077 -0.026064417343543554 0 0.012627729857291096 -0.026330590089453751 0 0.013763022398176127 -0.025713135581609169 0 0.01317185713727077 -0.026064417343543554 0 0.013672832833851437 -0.026165508976591905 0 0.013763022398176127 -0.025713135581609169 0 0.012534725033250142 -0.025826719427468517 0 0.01317185713727077 -0.026064417343543554 0 0.014025150494804359 -0.026429474099646764 0 0.013672832833851437 -0.026165508976591905 0 0.013276464737994684 -0.026486935858775582 0 0.01317185713727077 -0.026064417343543554 0 0.013672832833851437 -0.026165508976591905 0 0.013276464737994684 -0.026486935858775582 0 0.013276464737994684 -0.026486935858775582 0 0.012627729857291096 -0.026330590089453751 0 0.012890605271135379 -0.026680865380197531 0 0.01317185713727077 -0.026064417343543554 0 0.013276464737994684 -0.026486935858775582 0 0.012627729857291096 -0.026330590089453751 0 0.012406466371495554 -0.026601261181665604 0 0.012890605271135379 -0.026680865380197531 0 0.012639456732073466 -0.0268155486409218 0 0.012406466371495554 -0.026601261181665604 0 0.012627729857291096 -0.026330590089453751 0 0.012890605271135379 -0.026680865380197531 0 0.012639456732073466 -0.0268155486409218 0 0.013245524759886107 -0.026835918153275913 0 0.012935200172151117 -0.026828997134630665 0 0.012890605271135379 -0.026680865380197531 0 0.012639456732073466 -0.0268155486409218 0 0.013245524759886107 -0.026835918153275913 0 0.013276464737994684 -0.026486935858775582 0 0.012890605271135379 -0.026680865380197531 0 0.013245524759886107 -0.026835918153275913 0 0.013276464737994684 -0.026486935858775582 0 0.013245524759886107 -0.026835918153275913 0 0.014094015354933884 -0.026699008998510774 0 0.014513839091959975 -0.026546159981533986 0 0.014025150494804359 -0.026429474099646764 0 0.014094015354933884 -0.026699008998510774 0 0.014025150494804359 -0.026429474099646764 0 0.013276464737994684 -0.026486935858775582 0 0.014094015354933884 -0.026699008998510774 0 0.014605485248798915 -0.026744808764794469 0 0.014513839091959975 -0.026546159981533986 0 0.014094015354933884 -0.026699008998510774 0 0.014605485248798915 -0.026744808764794469 0 0.014094015354933884 -0.026699008998510774 0 0.01437132039542042 -0.026816608075672998 0 0.01437132039542042 -0.026816608075672998 0 0.014212323570128102 -0.027050797618291919 0 0.014454875379715097 -0.026840738656272924 0 0.014094015354933884 -0.026699008998510774 0 0.01437132039542042 -0.026816608075672998 0 0.014212323570128102 -0.027050797618291919 0 0.014605485248798915 -0.026744808764794469 0 0.01437132039542042 -0.026816608075672998 0 0.014454875379715097 -0.026840738656272924 0 0.013245524759886107 -0.026835918153275913 0 0.014094015354933884 -0.026699008998510774 0 0.014212323570128102 -0.027050797618291919 0 0.013291864118563345 -0.026801905731011183 0 0.013723693733598942 -0.026739434030244858 0 0.01323428111475443 -0.026480315619551865 0 0.013270438647086205 -0.026450476048524192 0 0.013342120007983835 -0.02593034403472003 0 0.013245524759886107 -0.026835918153275913 0 0.01323428111475443 -0.026480315619551865 0 0.013220225718141252 -0.026636742690145931 0 0.01323428111475443 -0.026480315619551865 0 0.013270438647086205 -0.026450476048524192 0 0.013220225718141252 -0.026636742690145931 0 0.01454190021801631 -0.026644288146633784 0 0.014212323570128102 -0.027050797618291919 0 0.014454875379715097 -0.026840738656272924 0 0.013993141682273552 -0.026275028817502454 0 0.013723693733598942 -0.026739434030244858 0 0.013472037759816223 -0.02583837885065882 0 0.01323428111475443 -0.026480315619551865 0 0.013342120007983835 -0.02593034403472003 0 0.013342120007983835 -0.02593034403472003 0 0.012995145442829117 -0.025774741252846789 0 0.013355878150321824 -0.025918945204516756 0 0.013342120007983835 -0.02593034403472003 0 0.013355878150321824 -0.025918945204516756 0 0.013560111696493623 -0.025937729272376243 0 0.013472037759816223 -0.02583837885065882 0 0.013342120007983835 -0.02593034403472003 0 0.013560111696493623 -0.025937729272376243 0 0.013270438647086205 -0.026450476048524192 0 0.013342120007983835 -0.02593034403472003 0 0.013187755221963027 -0.026782833325886674 0 0.013342120007983835 -0.02593034403472003 0 0.012504701513192742 -0.025435011269767393 0 0.012995145442829117 -0.025774741252846789 0 0.013239719870459101 -0.025953184218019024 0 0.012822495291115286 -0.026133743101151637 0 0.012507114927340905 -0.025535588107203518 0 0.012504701513192742 -0.025435011269767393 0 0.012995145442829117 -0.025774741252846789 0 0.012507114927340905 -0.025535588107203518 0 0.012504701513192742 -0.025435011269767393 0 0.012153114673500606 -0.025975685220012708 0 0.012055173863956778 -0.026077950827395141 0 0.012504701513192742 -0.025435011269767393 0 0.012153114673500606 -0.025975685220012708 0 0.012386279096992036 -0.025514898871353751 0 0.011665273318936685 -0.025453659466250302 0 0.012526636630141691 -0.027126292901291302 0 0.013187755221963027 -0.026782833325886674 0 0.012935200172151117 -0.026828997134630665 0 0.012333051647356855 -0.026578302981141284 0 0.012822495291115286 -0.026133743101151637 0 0.012519277887791645 -0.026896211354458618 0 0.012639456732073466 -0.0268155486409218 0 0.012935200172151117 -0.026828997134630665 0 0.012526636630141691 -0.027126292901291302 0 0.012519277887791645 -0.026896211354458618 0 0.012935200172151117 -0.026828997134630665 0 0.013187755221963027 -0.026782833325886674 0 0.012935200172151117 -0.026828997134630665 0 0.013220225718141252 -0.026636742690145931 0 0.013245524759886107 -0.026835918153275913 0 0.012935200172151117 -0.026828997134630665 0 0.013220225718141252 -0.026636742690145931 0 0.013270438647086205 -0.026450476048524192 0 0.013187755221963027 -0.026782833325886674 0 0.013220225718141252 -0.026636742690145931 0 0.011470625316638065 -0.026027968959379439 0 0.012593898051209916 -0.026020099452597235 0 0.012094121397436892 -0.026862212716979122 0 0.01029861806077938 -0.026740033153475066 0 0.011470625316638065 -0.026027968959379439 0 0.012094121397436892 -0.026862212716979122 0 0.012507114927340905 -0.025535588107203518 0 0.011316801037811403 -0.024891190305344785 0 0.011874070257152943 -0.025588662944595109 0 0.011470625316638065 -0.026027968959379439 0 0.011208436948602275 -0.025534052142146987 0 0.011874070257152943 -0.025588662944595109 0 0.010607893263050193 -0.025756720662975689 0 0.011470625316638065 -0.026027968959379439 0 0.011208436948602275 -0.025534052142146987 0 0.010587178642995647 -0.025217961890601454 0 0.011316801037811403 -0.024891190305344785 0 0.011208436948602275 -0.025534052142146987 0 0.011316801037811403 -0.024891190305344785 0 0.011208436948602275 -0.025534052142146987 0 0.011874070257152943 -0.025588662944595109 0 0.011470625316638065 -0.026027968959379439 0 0.011874070257152943 -0.025588662944595109 0 0.012593898051209916 -0.026020099452597235 0 0.012507114927340905 -0.025535588107203518 0 0.011874070257152943 -0.025588662944595109 0 0.012593898051209916 -0.026020099452597235 0 0.012507114927340905 -0.025535588107203518 0 0.012593898051209916 -0.026020099452597235 0 0.012995145442829117 -0.025774741252846789 0 0.012593898051209916 -0.026020099452597235 0 0.012995145442829117 -0.025774741252846789 0 0.013201129534572337 -0.026028317601282082 0 0.012995145442829117 -0.025774741252846789 0 0.013201129534572337 -0.026028317601282082 0 0.013355878150321824 -0.025918945204516756 0 0.013201129534572337 -0.026028317601282082 0 0.013355878150321824 -0.025918945204516756 0 0.013690606297596913 -0.026016385736625323 0 0.013355878150321824 -0.025918945204516756 0 0.013690606297596913 -0.026016385736625323 0 0.013560111696493623 -0.025937729272376243 0 0.013201129534572337 -0.026028317601282082 0 0.013325969654234314 -0.026530484874649145 0 0.013690606297596913 -0.026016385736625323 0 0.013325969654234314 -0.026530484874649145 0 0.013975904217410191 -0.025804141726590991 0 0.013690606297596913 -0.026016385736625323 0 0.012593898051209916 -0.026020099452597235 0 0.013325969654234314 -0.026530484874649145 0 0.012094121397436892 -0.026862212716979122 0 0.012593898051209916 -0.026020099452597235 0 0.013201129534572337 -0.026028317601282082 0 0.013325969654234314 -0.026530484874649145 0 0.013351179478960196 -0.025900350334287212 0 0.012195992432441505 -0.025967521280835539 0 0.013472405378312489 -0.025279941278965948 0 0.013884034855377288 -0.025673175481304145 0 0.013975904217410191 -0.025804141726590991 0 0.013351179478960196 -0.025900350334287212 0 0.013890549932070511 -0.02582103509309025 0 0.013472405378312489 -0.025279941278965948 0 0.013309477421444237 -0.025735200422436152 0 0.013884034855377288 -0.025673175481304145 0 0.013472405378312489 -0.025279941278965948 0 0.013309477421444237 -0.025735200422436152 0 0.01261610089048293 -0.025958284117246034 0 0.013472405378312489 -0.025279941278965948 0 0.01261610089048293 -0.025958284117246034 0 0.01233329446695304 -0.025083615703383706 0 0.01054172230560063 -0.025952719954480567 0 0.012195992432441505 -0.025967521280835539 0 0.010729285251877997 -0.025163873703488673 0 0.01233329446695304 -0.025083615703383706 0 0.011504174291610245 -0.025978199012571427 0 0.01261610089048293 -0.025958284117246034 0 0.01233329446695304 -0.025083615703383706 0 0.011504174291610245 -0.025978199012571427 0 0.01261610089048293 -0.025958284117246034 0 0.011504174291610245 -0.025978199012571427 0 0.011917619570144219 -0.026753986319816497 0 0.01261610089048293 -0.025958284117246034 0 0.011917619570144219 -0.026753986319816497 0 0.012503063786009858 -0.026447784693148658 0 0.01261610089048293 -0.025958284117246034 0 0.012503063786009858 -0.026447784693148658 0 0.013158912900006554 -0.026103657673519489 0 0.012503063786009858 -0.026447784693148658 0 0.012209075668879625 -0.026670686095736293 0 0.012704007760317625 -0.026546550242061543 0 0.012503063786009858 -0.026447784693148658 0 0.012704007760317625 -0.026546550242061543 0 0.013158912900006554 -0.026103657673519489 0 0.011917619570144219 -0.026753986319816497 0 0.012503063786009858 -0.026447784693148658 0 0.012209075668879625 -0.026670686095736293 0 0.012044256274076131 -0.02668948527768953 0 0.011917619570144219 -0.026753986319816497 0 0.012209075668879625 -0.026670686095736293 0 0.012044256274076131 -0.02668948527768953 0 0.012209075668879625 -0.026670686095736293 0 0.012139346274452747 -0.026801312489855261 0 0.012209075668879625 -0.026670686095736293 0 0.012139346274452747 -0.026801312489855261 0 0.012455661480302617 -0.026798927192559004 0 0.012209075668879625 -0.026670686095736293 0 0.012455661480302617 -0.026798927192559004 0 0.012704007760317625 -0.026546550242061543 0 0.012455661480302617 -0.026798927192559004 0 0.012704007760317625 -0.026546550242061543 0 0.013012610358927194 -0.026926027550847696 0 0.014810239461498276 -0.020773387687956838 0 0.015236490821698706 -0.024015609416729127 0 0.012455661480302617 -0.026798927192559004 0 0.012333140023957342 -0.027092003569421732 0 0.013012610358927194 -0.026926027550847696 0 0.018140081769517608 -0.020200505884762854 0 0.017302666128123808 -0.02043095875619011 0 0.017895611655614114 -0.019763120538256129 0 0.01672678291940748 -0.010352597057429729 0 0.014810239461498276 -0.020773387687956838 0 0.012139346274452747 -0.026801312489855261 0 0.012455661480302617 -0.026798927192559004 0 0.012333140023957342 -0.027092003569421732 0 0.013608960056232853 -0.021016797034902324 0 0.01263015782818922 -0.02218958794165583 0 0.011550283429794247 -0.02040405059945373 0 0.012394807622175921 -0.024581024258159296 0 0.014810239461498276 -0.020773387687956838 0 0.015236490821698706 -0.024015609416729127 0 0.01487703886545351 -0.023559528094236528 0 0.017058766135959136 -0.02012749297721558 0 0.016337969676696068 -0.020539860677447994 0 0.016462995393044071 -0.020689952493309453 0 0.020120679340010088 -0.020946746143062765 0 0.018975397543329661 -0.020616556597195617 0 0.017058766135959136 -0.02012749297721558 0 0.017302666128123808 -0.02043095875619011 0 0.016462995393044071 -0.020689952493309453 0 0.023523631291754356 -0.019857399692169642 0 0.021078294535001967 -0.021222907219940013 0 0.021370499879039401 -0.019156935579189151 0 0.017058766135959136 -0.02012749297721558 0 0.017302666128123808 -0.02043095875619011 0 0.017778782077090289 -0.019728285788498206 0 0.012704007760317625 -0.026546550242061543 0 0.013012610358927194 -0.026926027550847696 0 0.013303885237805188 -0.026352457546606912 0 0.013303885237805188 -0.026352457546606912 0 0.013820866061925301 -0.025870789416806969 0 0.013829355758940585 -0.026409188126519538 0 0.013012610358927194 -0.026926027550847696 0 0.013303885237805188 -0.026352457546606912 0 0.013829355758940585 -0.026409188126519538 0 0.013303885237805188 -0.026352457546606912 0 0.013158912900006554 -0.026103657673519489 0 0.013820866061925301 -0.025870789416806969 0 0.012704007760317625 -0.026546550242061543 0 0.013303885237805188 -0.026352457546606912 0 0.013158912900006554 -0.026103657673519489 0 0.013309477421444237 -0.025735200422436152 0 0.01261610089048293 -0.025958284117246034 0 0.013158912900006554 -0.026103657673519489 0 0.013158912900006554 -0.026103657673519489 0 0.013820866061925301 -0.025870789416806969 0 0.013884034855377288 -0.025673175481304145 0 0.013309477421444237 -0.025735200422436152 0 0.013158912900006554 -0.026103657673519489 0 0.013884034855377288 -0.025673175481304145 0 0.014263861284654096 -0.025465317253365944 0 0.013820866061925301 -0.025870789416806969 0 0.013884034855377288 -0.025673175481304145 0 0.014263861284654096 -0.025465317253365944 0 0.014134359107143703 -0.025590088558343861 0 0.013884034855377288 -0.025673175481304145 0 0.014263861284654096 -0.025465317253365944 0 0.014295479923867788 -0.025444638943350355 0 0.014134359107143703 -0.025590088558343861 0 0.014263861284654096 -0.025465317253365944 0 0.01438501409580706 -0.025476863389483542 0 0.014660888872517836 -0.024997349190650928 0 0.01438501409580706 -0.025476863389483542 0 0.014712027746292197 -0.02495967247723991 0 0.014660888872517836 -0.024997349190650928 0 0.014263861284654096 -0.025465317253365944 0 0.013820866061925301 -0.025870789416806969 0 0.01438501409580706 -0.025476863389483542 0 0.016085408745851175 -0.022951639545800716 0 0.01487703886545351 -0.023559528094236528 0 0.013820866061925301 -0.025870789416806969 0 0.01438501409580706 -0.025476863389483542 0 0.013829355758940585 -0.026409188126519538 0 0.01438501409580706 -0.025476863389483542 0 0.014559015354797183 -0.025559820063815884 0 0.013829355758940585 -0.026409188126519538 0 0.01438501409580706 -0.025476863389483542 0 0.014559015354797183 -0.025559820063815884 0 0.014712027746292197 -0.02495967247723991 0 0.018394083870872692 -0.022824322617543087 0 0.018914627072621724 -0.020016287479591829 0 0.016657206855993697 -0.021521009888764278 0 0.018394083870872692 -0.022824322617543087 0 0.018914627072621724 -0.020016287479591829 0 0.021078294535001967 -0.021222907219940013 0 0.016085408745851175 -0.022951639545800716 0 0.018975397543329661 -0.020616556597195617 0 0.01561412218169872 -0.020968647931800168 0 0.016337969676696068 -0.020539860677447994 0 0.016462995393044071 -0.020689952493309453 0 0.018914627072621724 -0.020016287479591829 0 0.021078294535001967 -0.021222907219940013 0 0.021370499879039401 -0.019156935579189151 0 0.014313197075923469 -0.021409976723790212 0 0.016657206855993697 -0.021521009888764278 0 0.016470929635243672 -0.019330141045232486 0 0.014313197075923469 -0.021409976723790212 0 0.016657206855993697 -0.021521009888764278 0 0.015144999502676245 -0.02390023474580142 0 0.018914627072621724 -0.020016287479591829 0 0.016657206855993697 -0.021521009888764278 0 0.016470929635243672 -0.019330141045232486 0 0.014559015354797183 -0.025559820063815884 0 0.014712027746292197 -0.02495967247723991 0 0.015144999502676245 -0.02390023474580142 0 0.018394083870872692 -0.022824322617543087 0 0.016657206855993697 -0.021521009888764278 0 0.015144999502676245 -0.02390023474580142 0 0.016085408745851175 -0.022951639545800716 0 0.01519359196906068 -0.024181267959014846 0 0.014712027746292197 -0.02495967247723991 0 0.015144999502676245 -0.02390023474580142 0 0.014660888872517836 -0.024997349190650928 0 0.014313197075923469 -0.021409976723790212 0 0.015144999502676245 -0.02390023474580142 0 0.013512002701869787 -0.023641872970082085 0 0.015144999502676245 -0.02390023474580142 0 0.014170446844280583 -0.024830373049043165 0 0.013512002701869787 -0.023641872970082085 0 0.015144999502676245 -0.02390023474580142 0 0.014170446844280583 -0.024830373049043165 0 0.014660888872517836 -0.024997349190650928 0 0.014170446844280583 -0.024830373049043165 0 0.014660888872517836 -0.024997349190650928 0 0.014295479923867788 -0.025444638943350355 0 0.014263861284654096 -0.025465317253365944 0 0.014660888872517836 -0.024997349190650928 0 0.014295479923867788 -0.025444638943350355 0 0.014170446844280583 -0.024830373049043165 0 0.014295479923867788 -0.025444638943350355 0 0.013740643998815454 -0.025301606202283985 0 0.014264275624479156 -0.025438783723130836 0 0.013830213901476637 -0.025574555881233762 0 0.014295479923867788 -0.025444638943350355 0 0.01385834638059638 -0.025635791185866012 0 0.014009773291133823 -0.025726677273091209 0 0.014295479923867788 -0.025444638943350355 0 0.01375637348346594 -0.02553296077926414 0 0.013740643998815454 -0.025301606202283985 0 0.01385834638059638 -0.025635791185866012 0 0.014009773291133823 -0.025726677273091209 0 0.013859106765754683 -0.025887873886759147 0 0.014009773291133823 -0.025726677273091209 0 0.014018565015333698 -0.025819800628314401 0 0.014117765579607353 -0.025668626815191196 0 0.014295479923867788 -0.025444638943350355 0 0.014009773291133823 -0.025726677273091209 0 0.014117765579607353 -0.025668626815191196 0 0.014295479923867788 -0.025444638943350355 0 0.014117765579607353 -0.025668626815191196 0 0.014134359107143703 -0.025590088558343861 0 0.014117765579607353 -0.025668626815191196 0 0.014134359107143703 -0.025590088558343861 0 0.013975904217410191 -0.025804141726590991 0 0.014134359107143703 -0.025590088558343861 0 0.013884034855377288 -0.025673175481304145 0 0.013975904217410191 -0.025804141726590991 0 0.014018565015333698 -0.025819800628314401 0 0.014117765579607353 -0.025668626815191196 0 0.013975904217410191 -0.025804141726590991 0 0.014018565015333698 -0.025819800628314401 0 0.013975904217410191 -0.025804141726590991 0 0.013995323127786027 -0.025942040124242578 0 0.013975904217410191 -0.025804141726590991 0 0.013995323127786027 -0.025942040124242578 0 0.013690606297596913 -0.026016385736625323 0 0.013690606297596913 -0.026016385736625323 0 0.013560111696493623 -0.025937729272376243 0 0.014085100200938805 -0.026061772705127453 0 0.013995323127786027 -0.025942040124242578 0 0.013690606297596913 -0.026016385736625323 0 0.014085100200938805 -0.026061772705127453 0 0.013995323127786027 -0.025942040124242578 0 0.014085100200938805 -0.026061772705127453 0 0.013913013267017205 -0.02593486981445799 0 0.013993110123951817 -0.0264159889576535 0 0.014085100200938805 -0.026061772705127453 0 0.013913013267017205 -0.02593486981445799 0 0.014149379102955207 -0.026418736071985832 0 0.014023942104819815 -0.026007139247962194 0 0.013969255557433367 -0.026313208790817954 0 0.014129727512387568 -0.026064230049082471 0 0.013881176425244005 -0.026091683504602309 0 0.014129727512387568 -0.026064230049082471 0 0.013859106765754683 -0.025887873886759147 0 0.013881176425244005 -0.026091683504602309 0 0.014009773291133823 -0.025726677273091209 0 0.014129727512387568 -0.026064230049082471 0 0.013859106765754683 -0.025887873886759147 0 0.014007176263643732 -0.025747550764358227 0 0.014023942104819815 -0.026007139247962194 0 0.014018565015333698 -0.025819800628314401 0 0.013995323127786027 -0.025942040124242578 0 0.013913013267017205 -0.02593486981445799 0 0.014009773291133823 -0.025726677273091209 0 0.014018565015333698 -0.025819800628314401 0 0.013913013267017205 -0.02593486981445799 0 0.013535145057509745 -0.02605073293922134 0 0.013711879664353511 -0.026011942574346272 0 0.013590981390803778 -0.025806079317835663 0 0.013859106765754683 -0.025887873886759147 0 0.013711879664353511 -0.026011942574346272 0 0.013881176425244005 -0.026091683504602309 0 0.013859106765754683 -0.025887873886759147 0 0.013711879664353511 -0.026011942574346272 0 0.013590981390803778 -0.025806079317835663 0 0.013969255557433367 -0.026313208790817954 0 0.013881176425244005 -0.026091683504602309 0 0.01374088920252233 -0.026190626245547265 0 0.013711879664353511 -0.026011942574346272 0 0.013881176425244005 -0.026091683504602309 0 0.01374088920252233 -0.026190626245547265 0 0.013535145057509745 -0.02605073293922134 0 0.013711879664353511 -0.026011942574346272 0 0.01374088920252233 -0.026190626245547265 0 0.013535145057509745 -0.02605073293922134 0 0.01374088920252233 -0.026190626245547265 0 0.013620738259860491 -0.026269062747490721 0 0.013535145057509745 -0.02605073293922134 0 0.013620738259860491 -0.026269062747490721 0 0.013444298609355615 -0.026231682008060808 0 0.013984290933942732 -0.025797277216637972 0 0.013475331941747035 -0.025762936147911007 0 0.013568796920224889 -0.025422825027512089 0 0.013741899263267191 -0.026048964459959495 0 0.013405501644513873 -0.025670520528864371 0 0.013535145057509745 -0.02605073293922134 0 0.013444298609355615 -0.026231682008060808 0 0.013287220385902765 -0.025978997864964739 0 0.013475331941747035 -0.025762936147911007 0 0.01346873285868253 -0.025483806424686419 0 0.013568796920224889 -0.025422825027512089 0 0.021264176494850424 -0.022032437539041761 0 0.021435011525980058 -0.02178279959329749 0 0.021159634656124922 -0.021752009775315242 0 0.013475331941747035 -0.025762936147911007 0 0.013358692314082817 -0.025443589549762839 0 0.013222906533716675 -0.02540609475395492 0 0.013385011068091174 -0.025424659797374474 0 0.013389213996264032 -0.02541104084690925 0 0.01336825362420065 -0.025371603605693037 0 0.013475331941747035 -0.025762936147911007 0 0.01346873285868253 -0.025483806424686419 0 0.013358692314082817 -0.025443589549762839 0 0.017423263758194175 -0.023810621987451118 0 0.017592063301060126 -0.023079811864686457 0 0.01346873285868253 -0.025483806424686419 0 0.013470715717973047 -0.025460642023076949 0 0.013427126204655413 -0.025448193131581837 0 0.01346873285868253 -0.025483806424686419 0 0.013427126204655413 -0.025448193131581837 0 0.013358692314082817 -0.025443589549762839 0 0.013477088139360235 -0.025595879969609731 0 0.013405501644513873 -0.025670520528864371 0 0.013470715717973047 -0.025460642023076949 0 0.013389213996264032 -0.02541104084690925 0 0.013427126204655413 -0.025448193131581837 0 0.013405501644513873 -0.025670520528864371 0 0.013354995795370889 -0.025510175268757925 0 0.013389213996264032 -0.02541104084690925 0 0.013427126204655413 -0.025448193131581837 0 0.013358692314082817 -0.025443589549762839 0 0.013389213996264032 -0.02541104084690925 0 0.013358692314082817 -0.025443589549762839 0 0.0133211536599017 -0.025377065301904776 0 0.013358692314082817 -0.025443589549762839 0 0.0133211536599017 -0.025377065301904776 0 0.013222906533716675 -0.02540609475395492 0 0.013405501644513873 -0.025670520528864371 0 0.013505297458009297 -0.025637335381279425 0 0.013535145057509745 -0.02605073293922134 0 0.013287220385902765 -0.025978997864964739 0 0.013590981390803778 -0.025806079317835663 0 0.013385011068091174 -0.025424659797374474 0 0.01336825362420065 -0.025371603605693037 0 0.013432139714850135 -0.025448349044123516 0 0.01336825362420065 -0.025371603605693037 0 0.013407167210735494 -0.025318843842912747 0 0.013432139714850135 -0.025448349044123516 0 0.013389213996264032 -0.02541104084690925 0 0.01336825362420065 -0.025371603605693037 0 0.0133211536599017 -0.025377065301904776 0 0.01336825362420065 -0.025371603605693037 0 0.0133211536599017 -0.025377065301904776 0 0.013256559417884648 -0.025293820154200047 0 0.013256559417884648 -0.025293820154200047 0 0.01332776073351857 -0.025217230635552416 0 0.013159901315174393 -0.025112205640408086 0 0.01336825362420065 -0.025371603605693037 0 0.013256559417884648 -0.025293820154200047 0 0.01332776073351857 -0.025217230635552416 0 0.01332776073351857 -0.025217230635552416 0 0.013407167210735494 -0.025318843842912747 0 0.013449069460592059 -0.025140631869919303 0 0.01336825362420065 -0.025371603605693037 0 0.01332776073351857 -0.025217230635552416 0 0.013407167210735494 -0.025318843842912747 0 0.013407167210735494 -0.025318843842912747 0 0.013408078073666294 -0.025347201944644841 0 0.013449069460592059 -0.025140631869919303 0 0.013407167210735494 -0.025318843842912747 0 0.013408078073666294 -0.025347201944644841 0 0.013432139714850135 -0.025448349044123516 0 0.013830213901476637 -0.025574555881233762 0 0.013505297458009297 -0.025637335381279425 0 0.01385834638059638 -0.025635791185866012 0 0.013859106765754683 -0.025887873886759147 0 0.013590981390803778 -0.025806079317835663 0 0.01375637348346594 -0.02553296077926414 0 0.013408078073666294 -0.025347201944644841 0 0.013432139714850135 -0.025448349044123516 0 0.01375637348346594 -0.02553296077926414 0 0.013408078073666294 -0.025347201944644841 0 0.013740643998815454 -0.025301606202283985 0 0.013408078073666294 -0.025347201944644841 0 0.013740643998815454 -0.025301606202283985 0 0.012485582092405603 -0.024658315826360105 0 0.013408078073666294 -0.025347201944644841 0 0.013672150474026064 -0.024903862038548819 0 0.013449069460592059 -0.025140631869919303 0 0.013352167518102549 -0.025334180563287772 0 0.013063428345775677 -0.024543370257145328 0 0.014170446844280583 -0.024830373049043165 0 0.012485582092405603 -0.024658315826360105 0 0.013512002701869787 -0.023641872970082085 0 0.014170446844280583 -0.024830373049043165 0 0.013740643998815454 -0.025301606202283985 0 0.012485582092405603 -0.024658315826360105 0 0.014313197075923469 -0.021409976723790212 0 0.013512002701869787 -0.023641872970082085 0 0.011367333064558338 -0.022321020509879396 0 0.013063428345775677 -0.024543370257145328 0 0.012444223303187653 -0.024071326385106645 0 0.012485582092405603 -0.024658315826360105 0 0.013512002701869787 -0.023641872970082085 0 0.011367333064558338 -0.022321020509879396 0 0.013724239468790377 -0.024406595385045089 0 0.013563851870557227 -0.023836037621322283 0 0.013713771784147896 -0.023763898582257584 0 0.011367333064558338 -0.022321020509879396 0 0.012780835056277607 -0.019818588537496434 0 0.010504670592329249 -0.018738337498092686 0 0.012444223303187653 -0.024071326385106645 0 0.013736181807167794 -0.017564368986509205 0 0.014313197075923469 -0.021409976723790212 0 0.012780835056277607 -0.019818588537496434 0 0.014459398080501224 -0.018901721948293877 0 0.014313197075923469 -0.021409976723790212 0 0.011367333064558338 -0.022321020509879396 0 0.012780835056277607 -0.019818588537496434 0 0.01777150100836258 -0.018206750050810735 0 0.017972299556989285 -0.018382768560627261 0 0.017381980552797733 -0.018589460741473742 0 0.01777150100836258 -0.018206750050810735 0 0.017972299556989285 -0.018382768560627261 0 0.01800088018436094 -0.018156637862681225 0 0.013724239468790377 -0.024406595385045089 0 0.013231823154638916 -0.024395469945004598 0 0.013563851870557227 -0.023836037621322283 0 0.015415498062947156 -0.021904002545245237 0 0.015306308149526174 -0.01774541688650234 0 0.013724239468790377 -0.024406595385045089 0 0.013231823154638916 -0.024395469945004598 0 0.01332534422605328 -0.024928974212872757 0 0.015415498062947156 -0.021904002545245237 0 0.015366421285780184 -0.02131900424465253 0 0.013231823154638916 -0.024395469945004598 0 0.01332534422605328 -0.024928974212872757 0 0.0130811934706916 -0.024805331139170786 0 0.01777150100836258 -0.018206750050810735 0 0.018111168634544032 -0.017923825438566986 0 0.01800088018436094 -0.018156637862681225 0 0.01332534422605328 -0.024928974212872757 0 0.013159901315174393 -0.025112205640408086 0 0.0130811934706916 -0.024805331139170786 0 0.013672150474026064 -0.024903862038548819 0 0.013724239468790377 -0.024406595385045089 0 0.01332534422605328 -0.024928974212872757 0 0.013672150474026064 -0.024903862038548819 0 0.01332534422605328 -0.024928974212872757 0 0.013449069460592059 -0.025140631869919303 0 0.01332776073351857 -0.025217230635552416 0 0.01332534422605328 -0.024928974212872757 0 0.013449069460592059 -0.025140631869919303 0 0.01332776073351857 -0.025217230635552416 0 0.01332534422605328 -0.024928974212872757 0 0.013159901315174393 -0.025112205640408086 0 0.013159901315174393 -0.025112205640408086 0 0.012992041074077962 -0.025044918946453811 0 0.0130811934706916 -0.024805331139170786 0 0.017338486703059312 -0.02142538150936537 0 0.019789133270241777 -0.01714465831294992 0 0.021148547615682464 -0.019206107702881121 0 0.020494692148026621 -0.017676687061568937 0 0.020546799210396743 -0.019385888187741347 0 0.021885156367797195 -0.018488394042984059 0 0.021159480480582187 -0.019606508255056533 0 0.021148547615682464 -0.019206107702881121 0 0.020546799210396743 -0.019385888187741347 0 0.020691295719855438 -0.01976205781688456 0 0.023539467543250685 -0.017900713591759571 0 0.023542429661288295 -0.018912889253105261 0 0.023806178747773396 -0.018594970616144721 0 0.017338486703059312 -0.02142538150936537 0 0.021159480480582187 -0.019606508255056533 0 0.018317918128448862 -0.017755145323082287 0 0.018239291004499017 -0.017869616201461297 0 0.018111168634544032 -0.017923825438566986 0 0.017338486703059312 -0.02142538150936537 0 0.015366421285780184 -0.02131900424465253 0 0.018317918128448862 -0.017755145323082287 0 0.018239291004499017 -0.017869616201461297 0 0.018387151518574854 -0.017901386438416898 0 0.017952573535903588 -0.017708979817429624 0 0.019789133270241777 -0.01714465831294992 0 0.018239291004499017 -0.017869616201461297 0 0.018310930324373448 -0.018017062673959049 0 0.018470431238170399 -0.017864528412943326 0 0.018239291004499017 -0.017869616201461297 0 0.018111168634544032 -0.017923825438566986 0 0.018310930324373448 -0.018017062673959049 0 0.018111168634544032 -0.017923825438566986 0 0.018154034160552227 -0.018140721289043218 0 0.018310930324373448 -0.018017062673959049 0 0.018111168634544032 -0.017923825438566986 0 0.01800088018436094 -0.018156637862681225 0 0.018154034160552227 -0.018140721289043218 0 0.018154034160552227 -0.018140721289043218 0 0.018310930324373448 -0.018017062673959049 0 0.018425793486326732 -0.018184564184812992 0 0.018310930324373448 -0.018017062673959049 0 0.018425793486326732 -0.018184564184812992 0 0.018608414823112238 -0.018080610660762483 0 0.018310930324373448 -0.018017062673959049 0 0.018608414823112238 -0.018080610660762483 0 0.018470431238170399 -0.017864528412943326 0 0.022957490634444674 -0.0080106298499978273 0 0.023773627811344695 -0.0089167783381368868 0 0.022166258078792911 -0.0094117343374002377 0 0.020073288285252344 -0.0082584948505612238 0 0.022957490634444674 -0.0080106298499978273 0 0.023678518301057435 -0.0078248591281783048 0 0.022957490634444674 -0.0080106298499978273 0 0.023462020419753704 -0.007893386229429946 0 0.023773627811344695 -0.0089167783381368868 0 0.023422380141042157 -0.010195059799646272 0 0.021430576741729115 -0.012355909262247907 0 0.020073288285252344 -0.0082584948505612238 0 0.022957490634444674 -0.0080106298499978273 0 0.022166258078792911 -0.0094117343374002377 0 0.019147818721554199 -0.012895685018556454 0 0.021430576741729115 -0.012355909262247907 0 0.017972299556989285 -0.018382768560627261 0 0.018154034160552227 -0.018140721289043218 0 0.018425793486326732 -0.018184564184812992 0 0.017972299556989285 -0.018382768560627261 0 0.01800088018436094 -0.018156637862681225 0 0.018154034160552227 -0.018140721289043218 0 0.025375677525962936 -0.012620261200294709 0 0.025709631638250845 -0.013041872677236884 0 0.025380562688133376 -0.012134280406583891 0 0.025561891902025024 -0.012925047711165327 0 0.024999984813395184 -0.013046061191450228 0 0.024999999430892064 -0.012135809789844149 0 0.025385054790450803 -0.012817508217967512 0 0.024138625799674625 -0.013818245211332294 0 0.025561891902025024 -0.012925047711165327 0 0.024999984813395184 -0.013046061191450228 0 0.025483412079858329 -0.013324577779209675 0 0.023462020419753704 -0.007893386229429946 0 0.023773627811344695 -0.0089167783381368868 0 0.024587214126261438 -0.0076072219271422605 0 0.023773627811344695 -0.0089167783381368868 0 0.024587214126261438 -0.0076072219271422605 0 0.025259818952287273 -0.0098691008715005111 0 0.02298297816252803 -0.012759440159720614 0 0.025497038523768851 -0.010544678898109934 0 0.021950414696988378 -0.015098189801668759 0 0.019789133270241777 -0.01714465831294992 0 0.025375677525962936 -0.012620261200294709 0 0.025709631638250845 -0.013041872677236884 0 0.025533016054708053 -0.01310935797522041 0 0.021585510977898313 -0.01554450465234883 0 0.021396145935352495 -0.015649105306015057 0 0.021585648520992849 -0.016173850833858874 0 0.022522919417291717 -0.014943379841249462 0 0.022324006123249088 -0.014493416797368368 0 0.023053219896859808 -0.014437952059404157 0 0.021950414696988378 -0.015098189801668759 0 0.023456943472289705 -0.014743560729490112 0 0.022324006123249088 -0.014493416797368368 0 0.023053219896859808 -0.014437952059404157 0 0.023544489901006035 -0.013824712490114022 0 0.02298297816252803 -0.012759440159720614 0 0.021950414696988378 -0.015098189801668759 0 0.02298297816252803 -0.012759440159720614 0 0.024138625799674625 -0.013818245211332294 0 0.023053219896859808 -0.014437952059404157 0 0.023789579252415458 -0.014460038435929169 0 0.023544489901006035 -0.013824712490114022 0 0.022522919417291717 -0.014943379841249462 0 0.023053219896859808 -0.014437952059404157 0 0.023789579252415458 -0.014460038435929169 0 0.024138625799674625 -0.013818245211332294 0 0.023456943472289705 -0.014743560729490112 0 0.021430576741729115 -0.012355909262247907 0 0.021950414696988378 -0.015098189801668759 0 0.021575757937747023 -0.013102687846285301 0 0.022411270883266138 -0.0128041461369134 0 0.022362159352782553 -0.012693949480139152 0 0.021430576741729115 -0.012355909262247907 0 0.02298297816252803 -0.012759440159720614 0 0.023456943472289705 -0.014743560729490112 0 0.022130682694301122 -0.016438656126395054 0 0.02499999938384681 -0.013046079606147547 0 0.025448525047944769 -0.013748262517835117 0 0.024999995790104392 -0.01392022168703295 0 0.023476876478834192 -0.015181481695555882 0 0.023316417428448609 -0.015270260002066953 0 0.023447238125247363 -0.015483819898270187 0 0.024551405783593477 -0.01450874107019666 0 0.024975693338081625 -0.014021256204696016 0 0.024138625799674625 -0.013818245211332294 0 0.024975693338081625 -0.014021256204696016 0 0.024041694026943283 -0.014584572134056523 0 0.023963605696125805 -0.014382818356068847 0 0.02448602214814919 -0.014096847207415004 0 0.024041694026943283 -0.014584572134056523 0 0.02448602214814919 -0.014096847207415004 0 0.024651220215867981 -0.014351969585687092 0 0.023456943472289705 -0.014743560729490112 0 0.024551405783593477 -0.01450874107019666 0 0.025802059689826955 -0.013585772190438153 0 0.025434590437325329 -0.013727196854112307 0 0.025483412079858329 -0.013324577779209675 0 0.025561891902025024 -0.012925047711165327 0 0.025802059689826955 -0.013585772190438153 0 0.025483412079858329 -0.013324577779209675 0 0.025000117488542178 -0.013046304084581774 0 0.024975693338081625 -0.014021256204696016 0 0.024999984813395184 -0.013046061191450228 0 0.025434590437325329 -0.013727196854112307 0 0.025483412079858329 -0.013324577779209675 0 0.024975693338081625 -0.014021256204696016 0 0.025000287533355987 -0.013920180470069338 0 0.025448944641822225 -0.013921507246242509 0 0.024999367148312232 -0.01392039112273463 0 0.024945483325632723 -0.014183861034987671 0 0.025448944641822225 -0.013921507246242509 0 0.025364274141532406 -0.01378944568932456 0 0.024999367148312232 -0.01392039112273463 0 0.024551405783593477 -0.01450874107019666 0 0.025068546989930343 -0.014586674936188596 0 0.024945005404173135 -0.01418404122363116 0 0.025258112539017427 -0.014622289406775048 0 0.02499989320557083 -0.015384753940301506 0 0.024591115592560248 -0.014983425451111972 0 0.024823472882910237 -0.014855559785846186 0 0.024464808165028683 -0.01479082605050689 0 0.025068546989930343 -0.014586674936188596 0 0.024279540000978823 -0.015364833077520597 0 0.024945005404173135 -0.01418404122363116 0 0.025258112539017427 -0.014622289406775048 0 0.025769850236453267 -0.014339820770284945 0 0.024551405783593477 -0.01450874107019666 0 0.024279540000978823 -0.015364833077520597 0 0.025258112539017427 -0.014622289406775048 0 0.025769850236453267 -0.014339820770284945 0 0.025593318375874054 -0.015064639071876858 0 0.019860389627281809 -0.017549624711886872 0 0.020494692148026621 -0.017676687061568937 0 0.020546799210396743 -0.019385888187741347 0 0.021585510977898313 -0.01554450465234883 0 0.021585648520992849 -0.016173850833858874 0 0.021869357320147276 -0.016232131529374003 0 0.022130682694301122 -0.016438656126395054 0 0.019789133270241777 -0.01714465831294992 0 0.023476876478834192 -0.015181481695555882 0 0.023597745345921989 -0.015515690588033468 0 0.023447238125247363 -0.015483819898270187 0 0.022130682694301122 -0.016438656126395054 0 0.024279540000978823 -0.015364833077520597 0 0.025769850236453267 -0.014339820770284945 0 0.026259424615581187 -0.015115577520147864 0 0.025593318375874054 -0.015064639071876858 0 0.023526255481895603 -0.015793204073144957 0 0.023243584454211267 -0.015736936609057887 0 0.023686557941966026 -0.016438721503995505 0 0.024279540000978823 -0.015364833077520597 0 0.02358201952681821 -0.016619222802860236 0 0.022130682694301122 -0.016438656126395054 0 0.02358201952681821 -0.016619222802860236 0 0.026259424615581187 -0.015115577520147864 0 0.025655569074685046 -0.015883140734273667 0 0.026490799948002765 -0.015788385786897279 0 0.026259424615581187 -0.015115577520147864 0 0.025593318375874054 -0.015064639071876858 0 0.025655569074685046 -0.015883140734273667 0 0.022092616968348727 -0.016428468075908659 0 0.022340309028268484 -0.017429051229728272 0 0.022661088641080712 -0.017935816453094462 0 0.022130682694301122 -0.016438656126395054 0 0.021885156367797195 -0.018488394042984059 0 0.02358201952681821 -0.016619222802860236 0 0.024009604675487437 -0.017508846644589533 0 0.022812950942119242 -0.016768332606465524 0 0.023539467543250685 -0.017900713591759571 0 0.023542429661288295 -0.018912889253105261 0 0.02358201952681821 -0.016619222802860236 0 0.021885156367797195 -0.018488394042984059 0 0.025593318375874054 -0.015064639071876858 0 0.02499989320557083 -0.015384753940301506 0 0.025655569074685046 -0.015883140734273667 0 0.025258112539017427 -0.014622289406775048 0 0.025593318375874054 -0.015064639071876858 0 0.02499989320557083 -0.015384753940301506 0 0.025655569074685046 -0.015883140734273667 0 0.025697216585595369 -0.016759233080566299 0 0.02499994884638421 -0.01655529056675014 0 0.02499989320557083 -0.015384753940301506 0 0.025655569074685046 -0.015883140734273667 0 0.02499994884638421 -0.01655529056675014 0 0.025697216585595369 -0.016759233080566299 0 0.02499994884638421 -0.01655529056675014 0 0.025000014115259851 -0.017725349568602063 0 0.025697216585595369 -0.016759233080566299 0 0.02665217565081111 -0.017032191542361987 0 0.026028513159753592 -0.017466762620505016 0 0.025697216585595369 -0.016759233080566299 0 0.026300092489215606 -0.016059948933161112 0 0.02665217565081111 -0.017032191542361987 0 0.025655569074685046 -0.015883140734273667 0 0.025697216585595369 -0.016759233080566299 0 0.026490799948002765 -0.015788385786897279 0 0.026590400399775359 -0.015947997815152819 0 0.024009604675487437 -0.017508846644589533 0 0.020476348021409931 -0.019831614237167245 0 0.020542589758050549 -0.019753859475847749 0 0.020767577026025517 -0.020561810471526373 0 0.02050351660897267 -0.020221977139427978 0 0.020816638904120548 -0.020685040225549581 0 0.020707519625132988 -0.020773237167243504 0 0.024009604675487437 -0.017508846644589533 0 0.021159480480582187 -0.019606508255056533 0 0.017338486703059312 -0.02142538150936537 0 0.015319710858492017 -0.024009488324420743 0 0.017741259913025872 -0.021376723229350268 0 0.01756100396169737 -0.021597511307601725 0 0.018034695505178208 -0.022100312222394961 0 0.021159480480582187 -0.019606508255056533 0 0.019379119487423716 -0.021466263462690767 0 0.01756100396169737 -0.021597511307601725 0 0.018034695505178208 -0.022100312222394961 0 0.017954625162542932 -0.022196813107471864 0 0.021159480480582187 -0.019606508255056533 0 0.020698142017214212 -0.020712276965960917 0 0.024009604675487437 -0.017508846644589533 0 0.0236265604026203 -0.018985980540622106 0 0.013159901315174393 -0.025112205640408086 0 0.012992041074077962 -0.025044918946453811 0 0.013105515268211181 -0.025260683193247809 0 0.013256559417884648 -0.025293820154200047 0 0.013159901315174393 -0.025112205640408086 0 0.013105515268211181 -0.025260683193247809 0 0.013256559417884648 -0.025293820154200047 0 0.013105515268211181 -0.025260683193247809 0 0.013222906533716675 -0.02540609475395492 0 0.015319710858492017 -0.024009488324420743 0 0.017592063301060126 -0.023079811864686457 0 0.020816638904120548 -0.020685040225549581 0 0.020707519625132988 -0.020773237167243504 0 0.02111876747376128 -0.021141187999322946 0 0.0133211536599017 -0.025377065301904776 0 0.013256559417884648 -0.025293820154200047 0 0.013222906533716675 -0.02540609475395492 0 0.019379119487423716 -0.021466263462690767 0 0.017592063301060126 -0.023079811864686457 0 0.018034695505178208 -0.022100312222394961 0 0.017954625162542932 -0.022196813107471864 0 0.018301877032898491 -0.022808979427361976 0 0.020476348021409931 -0.019831614237167245 0 0.020767577026025517 -0.020561810471526373 0 0.020703556604020561 -0.020780868837947199 0 0.020767577026025517 -0.020561810471526373 0 0.020703556604020561 -0.020780868837947199 0 0.02092617002478812 -0.021285309565429136 0 0.020703556604020561 -0.020780868837947199 0 0.02092617002478812 -0.021285309565429136 0 0.020896901660058212 -0.021577590404104105 0 0.02665217565081111 -0.017032191542361987 0 0.026405939159268151 -0.0178719696055398 0 0.026977367514006961 -0.018079015996695414 0 0.02665217565081111 -0.017032191542361987 0 0.026405939159268151 -0.0178719696055398 0 0.026028513159753592 -0.017466762620505016 0 0.020698142017214212 -0.020712276965960917 0 0.020918796395912573 -0.021214885900739555 0 0.0236265604026203 -0.018985980540622106 0 0.023856941646678377 -0.019805509110225904 0 0.02092617002478812 -0.021285309565429136 0 0.02111876747376128 -0.021141187999322946 0 0.020896901660058212 -0.021577590404104105 0 0.020707519625132988 -0.020773237167243504 0 0.02092617002478812 -0.021285309565429136 0 0.02111876747376128 -0.021141187999322946 0 0.021120423971682619 -0.022158110704286405 0 0.020896901660058212 -0.021577590404104105 0 0.021159634656124922 -0.021752009775315242 0 0.02111876747376128 -0.021141187999322946 0 0.020896901660058212 -0.021577590404104105 0 0.021159634656124922 -0.021752009775315242 0 0.021435011525980058 -0.02178279959329749 0 0.02111876747376128 -0.021141187999322946 0 0.021159634656124922 -0.021752009775315242 0 0.026558683756884163 -0.018611391996230089 0 0.026405939159268151 -0.0178719696055398 0 0.026977367514006961 -0.018079015996695414 0 0.026558683756884163 -0.018611391996230089 0 0.026405939159268151 -0.0178719696055398 0 0.02580357474915055 -0.018155307071729621 0 0.027100604797864133 -0.018778525300282338 0 0.025806427794272325 -0.018199519980023626 0 0.025806427794272325 -0.018199519980023626 0 0.02500026342471642 -0.017725706253321184 0 0.025000062515027434 -0.018992213040753506 0 0.025936577757832497 -0.018286030034725547 0 0.024999972705298492 -0.017725554621975646 0 0.025697216585595369 -0.016759233080566299 0 0.025000014115259851 -0.017725349568602063 0 0.026028513159753592 -0.017466762620505016 0 0.02580357474915055 -0.018155307071729621 0 0.025000014115259851 -0.017725349568602063 0 0.026028513159753592 -0.017466762620505016 0 0.026405939159268151 -0.0178719696055398 0 0.02580357474915055 -0.018155307071729621 0 0.026028513159753592 -0.017466762620505016 0 0.025592151966331474 -0.0056132383858607344 0 0.025594186249583917 -0.0060226040082809375 0 0.025278070708526772 -0.0044962774059908572 0 0.025221816803364612 -0.0044635523418057712 0 0.02524181657803095 -0.0044233978108110398 0 0.025000006165616411 -0.0069879315561542886 0 0.026404056136726799 -0.0078875479655672372 0 0.024999962996069547 -0.0080498456572034478 0 0.025000006165616411 -0.0069879315561542886 0 0.02584533474175256 -0.0066477130536612391 0 0.026404056136726799 -0.0078875479655672372 0 0.025000184630219306 -0.0069879239832784743 0 0.025592151966331474 -0.0056132383858607344 0 0.025000074947764715 -0.0069883383025646931 0 0.025918050069862579 -0.0066842771233783455 0 0.024999921522728997 -0.0056895619932226657 0 0.025278070708526772 -0.0044962774059908572 0 0.025226456667728062 -0.0045062370979578065 0 0.025221816803364612 -0.0044635523418057712 0 0.025592151966331474 -0.0056132383858607344 0 0.025246947906392092 -0.004372600801429166 0 0.025187974648168059 -0.0044783612193066173 0 0.025226456667728062 -0.0045062370979578065 0 0.025221816803364612 -0.0044635523418057712 0 0.025187974648168059 -0.0044783612193066173 0 0.025170442654047994 -0.0044757592555572821 0 0.025127941170051286 -0.0044277086973982596 0 0.023779129838173201 -0.0028039664503344891 0 0.023810124891072364 -0.002675221834989533 0 0.023738726793448548 -0.0027350626737951988 0 0.025187974648168059 -0.0044783612193066173 0 0.025170442654047994 -0.0044757592555572821 0 0.025175695630105563 -0.0044184940832261545 0 0.023810124891072364 -0.002675221834989533 0 0.023738726793448548 -0.0027350626737951988 0 0.023683108684693952 -0.0026769899365069257 0 0.024501589701005449 -0.0037210892815416107 0 0.024156679174053185 -0.0031172370392905484 0 0.025187974648168059 -0.0044783612193066173 0 0.025221816803364612 -0.0044635523418057712 0 0.025175695630105563 -0.0044184940832261545 0 0.025221816803364612 -0.0044635523418057712 0 0.025175695630105563 -0.0044184940832261545 0 0.02524181657803095 -0.0044233978108110398 0 0.024156679174053185 -0.0031172370392905484 0 0.025594186249583917 -0.0060226040082809375 0 0.02450729414130989 -0.0027676303302509278 0 0.024088590723681549 -0.0027975048232543966 0 0.024573408218673907 -0.0029134506444138831 0 0.024060396679994562 -0.0029176300434270363 0 0.024088590723681549 -0.0027975048232543966 0 0.024573408218673907 -0.0029134506444138831 0 0.02450729414130989 -0.0027676303302509278 0 0.024088590723681549 -0.0027975048232543966 0 0.02396760697292959 -0.0025810491613959164 0 0.025071286977592828 -0.0053781803706518961 0 0.024195631756892426 -0.0030244106796163202 0 0.024156679174053185 -0.0031172370392905484 0 0.023654668213705474 -0.0027308810711829906 0 0.023891750031781078 -0.0027425268677242769 0 0.024057711970376868 -0.0028736307069862563 0 0.023699160320981853 -0.0028157257443236824 0 0.023891750031781078 -0.0027425268677242769 0 0.024057711970376868 -0.0028736307069862563 0 0.024088590723681549 -0.0027975048232543966 0 0.024156679174053185 -0.0031172370392905484 0 0.024164145083084409 -0.0029543395396101129 0 0.023891750031781078 -0.0027425268677242769 0 0.024088590723681549 -0.0027975048232543966 0 0.02396760697292959 -0.0025810491613959164 0 0.023891750031781078 -0.0027425268677242769 0 0.02396760697292959 -0.0025810491613959164 0 0.023729911272015444 -0.0026586892722941461 0 0.024570800552349063 -0.0038912516208896432 0 0.025133386635475069 -0.003540941237210396 0 0.024125100404010561 -0.0031419945646674816 0 0.024217893615115806 -0.013138269141444789 0 0.021534167655612283 -0.01063962145131298 0 0.023542675566273895 -0.018151609704641261 0 0.025216290708324953 -0.018519603110551591 0 0.024194399314014695 -0.016822657180716485 0 0.025457350373306185 -0.0042609297200166471 0 0.024570800552349063 -0.0038912516208896432 0 0.025133386635475069 -0.003540941237210396 0 0.025686670002870501 -0.0090762792903083846 0 0.02624728674188434 -0.010376274558503385 0 0.025197765596577749 -0.010031118437650951 0 0.025071286977592828 -0.0053781803706518961 0 0.024217893615115806 -0.013138269141444789 0 0.024217893615115806 -0.013138269141444789 0 0.025529766976252539 -0.014311306335214944 0 0.025216290708324953 -0.018519603110551591 0 0.026675018708666516 -0.018900500799457112 0 0.025524447956492585 -0.017262543963311849 0 0.025197765596577749 -0.010031118437650951 0 0.024789390758857978 -0.0094843950036977067 0 0.024158784765679096 -0.0096925171044087259 0 0.025529766976252539 -0.014311306335214944 0 0.025040129573047264 -0.011646378422882053 0 0.025078726366757131 -0.0088620956582608022 0 0.025501995304272836 -0.0086701838561286139 0 0.023573246278988113 -0.0088714790716279031 0 0.025686670002870501 -0.0090762792903083846 0 0.025197765596577749 -0.010031118437650951 0 0.024789390758857978 -0.0094843950036977067 0 0.025686670002870501 -0.0090762792903083846 0 0.024789390758857978 -0.0094843950036977067 0 0.025078726366757131 -0.0088620956582608022 0 0.025669754324849008 -0.009037332300800973 0 0.025078726366757131 -0.0088620956582608022 0 0.025501995304272836 -0.0086701838561286139 0 0.025071286977592828 -0.0053781803706518961 0 0.025817806485971252 -0.0075982953712165268 0 0.025071286977592828 -0.0053781803706518961 0 0.025594186249583917 -0.0060226040082809375 0 0.024789390758857978 -0.0094843950036977067 0 0.025078726366757131 -0.0088620956582608022 0 0.023573246278988113 -0.0088714790716279031 0 0.024789390758857978 -0.0094843950036977067 0 0.023573246278988113 -0.0088714790716279031 0 0.024158784765679096 -0.0096925171044087259 0 0.025594186249583917 -0.0060226040082809375 0 0.024276470162596368 -0.0087440939503259409 0 0.024999449950189514 -0.0085264643259608183 0 0.025040129573047264 -0.011646378422882053 0 0.024999995783992184 -0.0080499295769729147 0 0.025000001078985819 -0.0085242233644677676 0 0.025438994630943318 -0.0086739802796121229 0 0.024276470162596368 -0.0087440939503259409 0 0.025040129573047264 -0.011646378422882053 0 0.025040129573047264 -0.011646378422882053 0 0.025634513088702734 -0.014014241669325805 0 0.025000000897658983 -0.0085244545607360521 0 0.025301475295202512 -0.0088056007092828965 0 0.025168192689556113 -0.0095016643092901854 0 0.025301475295202512 -0.0088056007092828965 0 0.025168192689556113 -0.0095016643092901854 0 0.025363432135415056 -0.010037058801225365 0 0.025000000897658983 -0.0085244545607360521 0 0.025168192689556113 -0.0095016643092901854 0 0.024999211879577606 -0.0097785188309774153 0 0.025168192689556113 -0.0095016643092901854 0 0.025125021098449447 -0.010019798601940993 0 0.024999211879577606 -0.0097785188309774153 0 0.025125021098449447 -0.010019798601940993 0 0.024999211879577606 -0.0097785188309774153 0 0.02500658375819222 -0.010727354786038687 0 0.025168192689556113 -0.0095016643092901854 0 0.025125021098449447 -0.010019798601940993 0 0.025363432135415056 -0.010037058801225365 0 0.025634513088702734 -0.014014241669325805 0 0.024269796047373199 -0.012992448936259764 0 0.025524447956492585 -0.017262543963311849 0 0.02432584965044934 -0.015210727264849696 0 0.024194399314014695 -0.016822657180716485 0 0.025125021098449447 -0.010019798601940993 0 0.025363432135415056 -0.010037058801225365 0 0.02500658375819222 -0.010727354786038687 0 0.025216290708324953 -0.018519603110551591 0 0.025524447956492585 -0.017262543963311849 0 0.024194399314014695 -0.016822657180716485 0 0.025363432135415056 -0.010037058801225365 0 0.02500658375819222 -0.010727354786038687 0 0.024616320254773789 -0.011220199830604764 0 0.02500658375819222 -0.010727354786038687 0 0.024682590452380106 -0.011036745970770066 0 0.024616320254773789 -0.011220199830604764 0 0.024682590452380106 -0.011036745970770066 0 0.024030976841283008 -0.011324592983221946 0 0.024616320254773789 -0.011220199830604764 0 0.024999211879577606 -0.0097785188309774153 0 0.02500658375819222 -0.010727354786038687 0 0.025000496683910731 -0.011029550839151202 0 0.02500658375819222 -0.010727354786038687 0 0.025000496683910731 -0.011029550839151202 0 0.024682590452380106 -0.011036745970770066 0 0.025000460182950216 -0.011031502140599614 0 0.024999508919470427 -0.011224553750626821 0 0.025380562688133376 -0.012134280406583891 0 0.025000496683910731 -0.011029550839151202 0 0.024682590452380106 -0.011036745970770066 0 0.025259818952287273 -0.0098691008715005111 0 0.025000088446179115 -0.011030934151395826 0 0.025497038523768851 -0.010544678898109934 0 0.02500006202330678 -0.011225766326903574 0 0.025239210069166181 -0.012020124237807447 0 0.024682590452380106 -0.011036745970770066 0 0.023993179477261879 -0.010466448364557797 0 0.024030976841283008 -0.011324592983221946 0 0.024682590452380106 -0.011036745970770066 0 0.025259818952287273 -0.0098691008715005111 0 0.023993179477261879 -0.010466448364557797 0 0.023773627811344695 -0.0089167783381368868 0 0.025259818952287273 -0.0098691008715005111 0 0.023993179477261879 -0.010466448364557797 0 0.024999508919470427 -0.011224553750626821 0 0.025380562688133376 -0.012134280406583891 0 0.025187008606582451 -0.011970506437439023 0 0.025375677525962936 -0.012620261200294709 0 0.025380562688133376 -0.012134280406583891 0 0.025187008606582451 -0.011970506437439023 0 0.024999998625754177 -0.011225524633922446 0 0.024999999430892064 -0.012135809789844149 0 0.025286885763764488 -0.012074559285899638 0 0.025561891902025024 -0.012925047711165327 0 0.024999999430892064 -0.012135809789844149 0 0.025286885763764488 -0.012074559285899638 0 0.025385054790450803 -0.012817508217967512 0 0.025239210069166181 -0.012020124237807447 0 0.020073288285252344 -0.0082584948505612238 0 0.022166258078792911 -0.0094117343374002377 0 0.019980855605022982 -0.010967483008984192 0 0.022166258078792911 -0.0094117343374002377 0 0.02266839339961519 -0.01197237132020337 0 0.019980855605022982 -0.010967483008984192 0 0.022166258078792911 -0.0094117343374002377 0 0.023993179477261879 -0.010466448364557797 0 0.02266839339961519 -0.01197237132020337 0 0.023773627811344695 -0.0089167783381368868 0 0.022166258078792911 -0.0094117343374002377 0 0.023993179477261879 -0.010466448364557797 0 0.024030976841283008 -0.011324592983221946 0 0.02266839339961519 -0.01197237132020337 0 0.024616320254773789 -0.011220199830604764 0 0.023993179477261879 -0.010466448364557797 0 0.024030976841283008 -0.011324592983221946 0 0.02266839339961519 -0.01197237132020337 0 0.02266839339961519 -0.01197237132020337 0 0.019438838162726207 -0.013425721314582464 0 0.019980855605022982 -0.010967483008984192 0 0.02266839339961519 -0.01197237132020337 0 0.021759213540109623 -0.015338024221763145 0 0.019438838162726207 -0.013425721314582464 0 0.02266839339961519 -0.01197237132020337 0 0.021759213540109623 -0.015338024221763145 0 0.02432584965044934 -0.015210727264849696 0 0.022853978808092954 -0.011916081590627405 0 0.024269796047373199 -0.012992448936259764 0 0.021759213540109623 -0.015338024221763145 0 0.02432584965044934 -0.015210727264849696 0 0.024194399314014695 -0.016822657180716485 0 0.023542675566273895 -0.018151609704641261 0 0.021759213540109623 -0.015338024221763145 0 0.024194399314014695 -0.016822657180716485 0 0.024217893615115806 -0.013138269141444789 0 0.022093571435533421 -0.017813458568301185 0 0.023850718655261331 -0.019948989827142369 0 0.021759213540109623 -0.015338024221763145 0 0.018915976701461702 -0.018540862998876653 0 0.021759213540109623 -0.015338024221763145 0 0.018915976701461702 -0.018540862998876653 0 0.017251191233174243 -0.015800319395881422 0 0.021534167655612283 -0.01063962145131298 0 0.018951850042614914 -0.0098259054045606361 0 0.024125100404010561 -0.0031419945646674816 0 0.023333392346822603 -0.0027459251466007998 0 0.023769457859807993 -0.0034413103036550646 0 0.023333392346822603 -0.0027459251466007998 0 0.023191085571332246 -0.0029606433775272905 0 0.023769457859807993 -0.0034413103036550646 0 0.018915976701461702 -0.018540862998876653 0 0.01440404945236776 -0.01689108329864485 0 0.017251191233174243 -0.015800319395881422 0 0.01440404945236776 -0.01689108329864485 0 0.014247870954909548 -0.015287706091797861 0 0.017251191233174243 -0.015800319395881422 0 0.014247870954909548 -0.015287706091797861 0 0.017251191233174243 -0.015800319395881422 0 0.016830895746404239 -0.0140251368682937 0 0.021759213540109623 -0.015338024221763145 0 0.017251191233174243 -0.015800319395881422 0 0.019438838162726207 -0.013425721314582464 0 0.017251191233174243 -0.015800319395881422 0 0.019438838162726207 -0.013425721314582464 0 0.016830895746404239 -0.0140251368682937 0 0.019438838162726207 -0.013425721314582464 0 0.017902099318892282 -0.012484423844863233 0 0.019980855605022982 -0.010967483008984192 0 0.017902099318892282 -0.012484423844863233 0 0.019980855605022982 -0.010967483008984192 0 0.017408739044008959 -0.010741891166994401 0 0.019438838162726207 -0.013425721314582464 0 0.017902099318892282 -0.012484423844863233 0 0.016830895746404239 -0.0140251368682937 0 0.014247870954909548 -0.015287706091797861 0 0.015560756504112518 -0.01248979539900273 0 0.013649150317499017 -0.0100191853353072 0 0.017902099318892282 -0.012484423844863233 0 0.016830895746404239 -0.0140251368682937 0 0.015560756504112518 -0.01248979539900273 0 0.014247870954909548 -0.015287706091797861 0 0.016830895746404239 -0.0140251368682937 0 0.015560756504112518 -0.01248979539900273 0 0.017902099318892282 -0.012484423844863233 0 0.015560756504112518 -0.01248979539900273 0 0.017408739044008959 -0.010741891166994401 0 0.015560756504112518 -0.01248979539900273 0 0.015280592921891758 -0.010549034069454934 0 0.017408739044008959 -0.010741891166994401 0 0.015280592921891758 -0.010549034069454934 0 0.014953403985971836 -0.0096382306824639927 0 0.017408739044008959 -0.010741891166994401 0 0.015560756504112518 -0.01248979539900273 0 0.015280592921891758 -0.010549034069454934 0 0.013649150317499017 -0.0100191853353072 0 0.015280592921891758 -0.010549034069454934 0 0.014953403985971836 -0.0096382306824639927 0 0.013649150317499017 -0.0100191853353072 0 0.015306308149526174 -0.01774541688650234 0 0.013736181807167794 -0.017564368986509205 0 0.019147818721554199 -0.012895685018556454 0 0.015306308149526174 -0.01774541688650234 0 0.020073288285252344 -0.0082584948505612238 0 0.019980855605022982 -0.010967483008984192 0 0.017408739044008959 -0.010741891166994401 0 0.020073288285252344 -0.0082584948505612238 0 0.014953403985971836 -0.0096382306824639927 0 0.017408739044008959 -0.010741891166994401 0 0.013688086277302943 -0.017299285390262778 0 0.014813771231963205 -0.017029481145508091 0 0.014459398080501224 -0.018901721948293877 0 0.012780835056277607 -0.019818588537496434 0 0.013688086277302943 -0.017299285390262778 0 0.014459398080501224 -0.018901721948293877 0 0.013736181807167794 -0.017564368986509205 0 0.012973171743411225 -0.017480884588839188 0 0.012780835056277607 -0.019818588537496434 0 0.010504670592329249 -0.018738337498092686 0 0.013688086277302943 -0.017299285390262778 0 0.013456184466011619 -0.016832639853016911 0 0.013802731814651406 -0.016225613763385133 0 0.013688086277302943 -0.017299285390262778 0 0.014003366294770555 -0.013571337410148803 0 0.013736181807167794 -0.017564368986509205 0 0.014247870954909548 -0.015287706091797861 0 0.013456184466011619 -0.016832639853016911 0 0.013802731814651406 -0.016225613763385133 0 0.014247870954909548 -0.015287706091797861 0 0.013802731814651406 -0.016225613763385133 0 0.013913731280112036 -0.015852018616559879 0 0.013802731814651406 -0.016225613763385133 0 0.013940877229838803 -0.016251665048100775 0 0.013913731280112036 -0.015852018616559879 0 0.013802731814651406 -0.016225613763385133 0 0.013940877229838803 -0.016251665048100775 0 0.013688086277302943 -0.017299285390262778 0 0.013940877229838803 -0.016251665048100775 0 0.013688086277302943 -0.017299285390262778 0 0.014813771231963205 -0.017029481145508091 0 0.013940877229838803 -0.016251665048100775 0 0.014000871469313255 -0.015560166192254761 0 0.014813771231963205 -0.017029481145508091 0 0.013940877229838803 -0.016251665048100775 0 0.014000871469313255 -0.015560166192254761 0 0.013913731280112036 -0.015852018616559879 0 0.01440404945236776 -0.01689108329864485 0 0.014247870954909548 -0.015287706091797861 0 0.013913731280112036 -0.015852018616559879 0 0.01440404945236776 -0.01689108329864485 0 0.014000871469313255 -0.015560166192254761 0 0.013913731280112036 -0.015852018616559879 0 0.018951850042614914 -0.0098259054045606361 0 0.018543802245061341 -0.0090275017948674846 0 0.023333392346822603 -0.0027459251466007998 0 0.0229891528186182 -0.0024107632596136177 0 0.023109879482117839 -0.0026551255421534952 0 0.023333392346822603 -0.0027459251466007998 0 0.023191085571332246 -0.0029606433775272905 0 0.023109879482117839 -0.0026551255421534952 0 0.023273855671543449 -0.0027084732071684073 0 0.023018231555956229 -0.0025305618710830353 0 0.023191085571332246 -0.0029606433775272905 0 0.022976882424605806 -0.0024914821175951482 0 0.023109879482117839 -0.0026551255421534952 0 0.023326668625430234 -0.002454744479932536 0 0.022976882424605806 -0.0024914821175951482 0 0.023132215409064544 -0.0025632895445091247 0 0.0229891528186182 -0.0024107632596136177 0 0.022976882424605806 -0.0024914821175951482 0 0.023109879482117839 -0.0026551255421534952 0 0.023132215409064544 -0.0025632895445091247 0 0.023121605650021877 -0.0026988068137466831 0 0.022931823365416732 -0.0026106627946368807 0 0.022976882424605806 -0.0024914821175951482 0 0.023132215409064544 -0.0025632895445091247 0 0.022993782975557927 -0.0025377309606733653 0 0.023121605650021877 -0.0026988068137466831 0 0.023345023586223101 -0.0026351437442580505 0 0.023309876276992669 -0.0027758446581575944 0 0.023132215409064544 -0.0025632895445091247 0 0.023121605650021877 -0.0026988068137466831 0 0.023345023586223101 -0.0026351437442580505 0 0.023345023586223101 -0.0026351437442580505 0 0.02348329938292272 -0.0027319244080874459 0 0.023309876276992669 -0.0027758446581575944 0 0.023326668625430234 -0.002454744479932536 0 0.023132215409064544 -0.0025632895445091247 0 0.023345023586223101 -0.0026351437442580505 0 0.023326668625430234 -0.002454744479932536 0 0.023345023586223101 -0.0026351437442580505 0 0.023450790002581708 -0.0025598858425277754 0 0.023326668625430234 -0.002454744479932536 0 0.023450790002581708 -0.0025598858425277754 0 0.023613700040827201 -0.0025000197236200779 0 0.023273855671543449 -0.0027084732071684073 0 0.023732981552910083 -0.0029990473050401619 0 0.023450790002581708 -0.0025598858425277754 0 0.023613700040827201 -0.0025000197236200779 0 0.023527078979193271 -0.0026457301368127397 0 0.024195631756892426 -0.0030244106796163202 0 0.023732981552910083 -0.0029990473050401619 0 0.024570800552349063 -0.0038912516208896432 0 0.024125100404010561 -0.0031419945646674816 0 0.023769457859807993 -0.0034413103036550646 0 0.02396760697292959 -0.0025810491613959164 0 0.023613700040827201 -0.0025000197236200779 0 0.023729911272015444 -0.0026586892722941461 0 0.023613700040827201 -0.0025000197236200779 0 0.023729911272015444 -0.0026586892722941461 0 0.023527078979193271 -0.0026457301368127397 0 0.023729911272015444 -0.0026586892722941461 0 0.023527078979193271 -0.0026457301368127397 0 0.023699160320981853 -0.0028157257443236824 0 0.023891750031781078 -0.0027425268677242769 0 0.023729911272015444 -0.0026586892722941461 0 0.023699160320981853 -0.0028157257443236824 0 0.023345023586223101 -0.0026351437442580505 0 0.023450790002581708 -0.0025598858425277754 0 0.023527078979193271 -0.0026457301368127397 0 0.023527078979193271 -0.0026457301368127397 0 0.02348329938292272 -0.0027319244080874459 0 0.023699160320981853 -0.0028157257443236824 0 0.023345023586223101 -0.0026351437442580505 0 0.023527078979193271 -0.0026457301368127397 0 0.02348329938292272 -0.0027319244080874459 0 0.02348329938292272 -0.0027319244080874459 0 0.023559241216520581 -0.0027839062013308019 0 0.023445424364099934 -0.0028187838703839572 0 0.02348329938292272 -0.0027319244080874459 0 0.023683108684693952 -0.0026769899365069257 0 0.023559241216520581 -0.0027839062013308019 0 0.023525589849536888 -0.0027384186348061047 0 0.023654668213705474 -0.0027308810711829906 0 0.023738726793448548 -0.0027350626737951988 0 0.023683108684693952 -0.0026769899365069257 0 0.023692063975775141 -0.0027836775060909418 0 0.023683108684693952 -0.0026769899365069257 0 0.023692063975775141 -0.0027836775060909418 0 0.023559241216520581 -0.0027839062013308019 0 0.023779129838173201 -0.0028039664503344891 0 0.023692063975775141 -0.0027836775060909418 0 0.023746174617327257 -0.0028248489790611599 0 0.023779129838173201 -0.0028039664503344891 0 0.023738726793448548 -0.0027350626737951988 0 0.023692063975775141 -0.0027836775060909418 0 0.023692063975775141 -0.0027836775060909418 0 0.023619056792317968 -0.0028217449766642401 0 0.023746174617327257 -0.0028248489790611599 0 0.023559241216520581 -0.0027839062013308019 0 0.023619056792317968 -0.0028217449766642401 0 0.023445424364099934 -0.0028187838703839572 0 0.023692063975775141 -0.0027836775060909418 0 0.023559241216520581 -0.0027839062013308019 0 0.023619056792317968 -0.0028217449766642401 0 0.023445424364099934 -0.0028187838703839572 0 0.023339651481211109 -0.0028625021207806826 0 0.023309876276992669 -0.0027758446581575944 0 0.023339651481211109 -0.0028625021207806826 0 0.023309876276992669 -0.0027758446581575944 0 0.023120808340625694 -0.0028283451732365205 0 0.023121605650021877 -0.0026988068137466831 0 0.023309876276992669 -0.0027758446581575944 0 0.023120808340625694 -0.0028283451732365205 0 0.02348329938292272 -0.0027319244080874459 0 0.023445424364099934 -0.0028187838703839572 0 0.023309876276992669 -0.0027758446581575944 0 0.022840076812319737 -0.0029039725258818211 0 0.022503998010447831 -0.0028509851271002681 0 0.022877746863928967 -0.0027650738458411743 0 0.022840076812319737 -0.0029039725258818211 0 0.023120808340625694 -0.0028283451732365205 0 0.022877746863928967 -0.0027650738458411743 0 0.023339651481211109 -0.0028625021207806826 0 0.023120808340625694 -0.0028283451732365205 0 0.023118312735450883 -0.0029032520528839687 0 0.022840076812319737 -0.0029039725258818211 0 0.023120808340625694 -0.0028283451732365205 0 0.023118312735450883 -0.0029032520528839687 0 0.022840076812319737 -0.0029039725258818211 0 0.023118312735450883 -0.0029032520528839687 0 0.022925937437665526 -0.0029689716479792297 0 0.022840076812319737 -0.0029039725258818211 0 0.02260537566491997 -0.0029988082885908608 0 0.022925937437665526 -0.0029689716479792297 0 0.022840076812319737 -0.0029039725258818211 0 0.02260537566491997 -0.0029988082885908608 0 0.02255869838986297 -0.0029472727183344101 0 0.02260537566491997 -0.0029988082885908608 0 0.022197186738634696 -0.0030322856497328283 0 0.022186961318375782 -0.003120337841644753 0 0.02260537566491997 -0.0029988082885908608 0 0.022197186738634696 -0.0030322856497328283 0 0.02255869838986297 -0.0029472727183344101 0 0.022197186738634696 -0.0030322856497328283 0 0.022503998010447831 -0.0028509851271002681 0 0.022110008009634471 -0.0028932666634422137 0 0.022197186738634696 -0.0030322856497328283 0 0.02255869838986297 -0.0029472727183344101 0 0.022503998010447831 -0.0028509851271002681 0 0.022840076812319737 -0.0029039725258818211 0 0.02255869838986297 -0.0029472727183344101 0 0.022503998010447831 -0.0028509851271002681 0 0.022503998010447831 -0.0028509851271002681 0 0.022313326402831672 -0.0026779983402776351 0 0.022636119311019037 -0.0026387426065261803 0 0.022503998010447831 -0.0028509851271002681 0 0.022110008009634471 -0.0028932666634422137 0 0.022313326402831672 -0.0026779983402776351 0 0.022313326402831672 -0.0026779983402776351 0 0.022176811138977785 -0.0023945144344604493 0 0.021871404613813279 -0.0027352838329296613 0 0.022110008009634471 -0.0028932666634422137 0 0.022313326402831672 -0.0026779983402776351 0 0.021871404613813279 -0.0027352838329296613 0 0.022313326402831672 -0.0026779983402776351 0 0.022636119311019037 -0.0026387426065261803 0 0.022535471820288477 -0.002466143111665453 0 0.022636119311019037 -0.0026387426065261803 0 0.022931823365416732 -0.0026106627946368807 0 0.022822863279225097 -0.0024542206640285995 0 0.022636119311019037 -0.0026387426065261803 0 0.022877746863928967 -0.0027650738458411743 0 0.022931823365416732 -0.0026106627946368807 0 0.022503998010447831 -0.0028509851271002681 0 0.022636119311019037 -0.0026387426065261803 0 0.022877746863928967 -0.0027650738458411743 0 0.023121605650021877 -0.0026988068137466831 0 0.022877746863928967 -0.0027650738458411743 0 0.022931823365416732 -0.0026106627946368807 0 0.023121605650021877 -0.0026988068137466831 0 0.023120808340625694 -0.0028283451732365205 0 0.022877746863928967 -0.0027650738458411743 0 0.023132215409064544 -0.0025632895445091247 0 0.022931823365416732 -0.0026106627946368807 0 0.022993782975557927 -0.0025377309606733653 0 0.022931823365416732 -0.0026106627946368807 0 0.022993782975557927 -0.0025377309606733653 0 0.022822863279225097 -0.0024542206640285995 0 0.022976882424605806 -0.0024914821175951482 0 0.022993782975557927 -0.0025377309606733653 0 0.022822863279225097 -0.0024542206640285995 0 0.0229891528186182 -0.0024107632596136177 0 0.022976882424605806 -0.0024914821175951482 0 0.022822863279225097 -0.0024542206640285995 0 0.022822863279225097 -0.0024542206640285995 0 0.022694341037050338 -0.0021347232766106583 0 0.022535471820288477 -0.002466143111665453 0 0.022636119311019037 -0.0026387426065261803 0 0.022822863279225097 -0.0024542206640285995 0 0.022535471820288477 -0.002466143111665453 0 0.018543802245061341 -0.0090275017948674846 0 0.019745276399995963 -0.0090041157644014155 0 0.014000871469313255 -0.015560166192254761 0 0.016751268561029112 -0.015825053240204959 0 0.014813771231963205 -0.017029481145508091 0 0.0229891528186182 -0.0024107632596136177 0 0.022822863279225097 -0.0024542206640285995 0 0.022694341037050338 -0.0021347232766106583 0 0.016751268561029112 -0.015825053240204959 0 0.014813771231963205 -0.017029481145508091 0 0.016470929635243672 -0.019330141045232486 0 0.016751268561029112 -0.015825053240204959 0 0.016470929635243672 -0.019330141045232486 0 0.01809555814440136 -0.017895725073374197 0 0.018914627072621724 -0.020016287479591829 0 0.016470929635243672 -0.019330141045232486 0 0.01809555814440136 -0.017895725073374197 0 0.014813771231963205 -0.017029481145508091 0 0.016470929635243672 -0.019330141045232486 0 0.014459398080501224 -0.018901721948293877 0 0.014313197075923469 -0.021409976723790212 0 0.016470929635243672 -0.019330141045232486 0 0.014459398080501224 -0.018901721948293877 0 0.018914627072621724 -0.020016287479591829 0 0.021370499879039401 -0.019156935579189151 0 0.020042400186371451 -0.016810486366919362 0 0.018914627072621724 -0.020016287479591829 0 0.01809555814440136 -0.017895725073374197 0 0.020042400186371451 -0.016810486366919362 0 0.019745276399995963 -0.0090041157644014155 0 0.020966435324180011 -0.0093365560522583359 0 0.016751268561029112 -0.015825053240204959 0 0.01809555814440136 -0.017895725073374197 0 0.020042400186371451 -0.016810486366919362 0 0.021370499879039401 -0.019156935579189151 0 0.020042400186371451 -0.016810486366919362 0 0.023082888076385574 -0.017855749007157938 0 0.020966435324180011 -0.0093365560522583359 0 0.022742629171922969 -0.0096328531998437061 0 0.022140276843722231 -0.0018631486880260077 0 0.022176811138977785 -0.0023945144344604493 0 0.021729123279901952 -0.0023798369746091479 0 0.022694341037050338 -0.0021347232766106583 0 0.022140276843722231 -0.0018631486880260077 0 0.022176811138977785 -0.0023945144344604493 0 0.022694341037050338 -0.0021347232766106583 0 0.022535471820288477 -0.002466143111665453 0 0.022176811138977785 -0.0023945144344604493 0 0.022313326402831672 -0.0026779983402776351 0 0.022535471820288477 -0.002466143111665453 0 0.022176811138977785 -0.0023945144344604493 0 0.022176811138977785 -0.0023945144344604493 0 0.021729123279901952 -0.0023798369746091479 0 0.021871404613813279 -0.0027352838329296613 0 0.021729123279901952 -0.0023798369746091479 0 0.021279567226462636 -0.0024322753305722269 0 0.021425323419137544 -0.0027514232302870744 0 0.020850063551048445 -0.002688837763534702 0 0.021279567226462636 -0.0024322753305722269 0 0.021425323419137544 -0.0027514232302870744 0 0.020850063551048445 -0.002688837763534702 0 0.021279567226462636 -0.0024322753305722269 0 0.020938523682475511 -0.0022460927662280939 0 0.020938523682475511 -0.0022460927662280939 0 0.021414761800948444 -0.0020634007500709901 0 0.020833774778592998 -0.0018931317012371848 0 0.021279567226462636 -0.0024322753305722269 0 0.020938523682475511 -0.0022460927662280939 0 0.021414761800948444 -0.0020634007500709901 0 0.020938523682475511 -0.0022460927662280939 0 0.020833774778592998 -0.0018931317012371848 0 0.020574372855427962 -0.0020849849433452472 0 0.022140276843722231 -0.0018631486880260077 0 0.021729123279901952 -0.0023798369746091479 0 0.021414761800948444 -0.0020634007500709901 0 0.021729123279901952 -0.0023798369746091479 0 0.021279567226462636 -0.0024322753305722269 0 0.021414761800948444 -0.0020634007500709901 0 0.022140276843722231 -0.0018631486880260077 0 0.021414761800948444 -0.0020634007500709901 0 0.021359356251111374 -0.0015884134865845297 0 0.021414761800948444 -0.0020634007500709901 0 0.021359356251111374 -0.0015884134865845297 0 0.020833774778592998 -0.0018931317012371848 0 0.021359356251111374 -0.0015884134865845297 0 0.020833774778592998 -0.0018931317012371848 0 0.020618847399988018 -0.0014626667375653335 0 0.022742629171922969 -0.0096328531998437061 0 0.020684066777147909 -0.011197817449993484 0 0.023523631291754356 -0.019857399692169642 0 0.023082888076385574 -0.017855749007157938 0 0.025813105124422479 -0.018685799359129666 0 0.020120679340010088 -0.020946746143062765 0 0.020684066777147909 -0.011197817449993484 0 0.023523631291754356 -0.019857399692169642 0 0.021370499879039401 -0.019156935579189151 0 0.023082888076385574 -0.017855749007157938 0 0.016928840579853367 -0.012773295328699859 0 0.017427704904146704 -0.012697057619956181 0 0.017635186072124859 -0.012990745213806894 0 0.01672678291940748 -0.010352597057429729 0 0.019678122666793734 -0.0099350199071693984 0 0.020187046675412809 -0.002151107244354271 0 0.020301156292850273 -0.0020295734357669596 0 0.020243263400583519 -0.0022451414988465717 0 0.020248166669144377 -0.0022935147501380719 0 0.020187046675412809 -0.002151107244354271 0 0.020243263400583519 -0.0022451414988465717 0 0.020187046675412809 -0.002151107244354271 0 0.020174536697900921 -0.0021330413833825831 0 0.020301156292850273 -0.0020295734357669596 0 0.020380097592910269 -0.0065427187233642646 0 0.02091956626836566 -0.0020264645583996771 0 0.014810239461498276 -0.020773387687956838 0 0.019678122666793734 -0.0099350199071693984 0 0.017302666128123808 -0.02043095875619011 0 0.017895611655614114 -0.019763120538256129 0 0.017778782077090289 -0.019728285788498206 0 0.019678122666793734 -0.0099350199071693984 0 0.020684066777147909 -0.011197817449993484 0 0.019678122666793734 -0.0099350199071693984 0 0.020380097592910269 -0.0065427187233642646 0 0.018219201062692734 -0.010352738519156055 0 0.02101529452751727 -0.011215653399370994 0 0.019251327731314712 -0.011990889076678082 0 0.020684066777147909 -0.011197817449993484 0 0.020380097592910269 -0.0065427187233642646 0 0.020833774778592998 -0.0018931317012371848 0 0.020618847399988018 -0.0014626667375653335 0 0.020569400333257989 -0.0014874295988223229 0 0.020833774778592998 -0.0018931317012371848 0 0.020425081918129598 -0.0017692996654771088 0 0.020503191859445373 -0.0018380117934868345 0 0.020348811181749582 -0.00021959393665309251 0 0.020380097592910269 -0.0065427187233642646 0 0.020425081918129598 -0.0017692996654771088 0 0.020503191859445373 -0.0018380117934868345 0 0.020301156292850273 -0.0020295734357669596 0 0.020503191859445373 -0.0018380117934868345 0 0.020301156292850273 -0.0020295734357669596 0 0.02023137036861742 -0.0021210398052339055 0 0.020340324642167642 -0.0019523300508187621 0 0.019950892620331152 -0.00095761724544644368 0 0.020503191859445373 -0.0018380117934868345 0 0.0196011269508298 -0.0017024629679219649 0 0.019044493755691672 -0.00085189341571857452 0 0.020503191859445373 -0.0018380117934868345 0 0.0196011269508298 -0.0017024629679219649 0 0.020073087395537877 -0.0021378700270379631 0 0.0196011269508298 -0.0017024629679219649 0 0.018977123773756155 -0.0016777671232273198 0 0.019044493755691672 -0.00085189341571857452 0 0.0196011269508298 -0.0017024629679219649 0 0.019328846638906112 -0.0021346945386447147 0 0.018977123773756155 -0.0016777671232273198 0 0.0196011269508298 -0.0017024629679219649 0 0.019328846638906112 -0.0021346945386447147 0 0.020073087395537877 -0.0021378700270379631 0 0.019328846638906112 -0.0021346945386447147 0 0.020073087395537877 -0.0021378700270379631 0 0.019723577841616179 -0.0026031737364908959 0 0.020073087395537877 -0.0021378700270379631 0 0.020425011300024217 -0.0024128853217242115 0 0.019723577841616179 -0.0026031737364908959 0 0.019328846638906112 -0.0021346945386447147 0 0.019723577841616179 -0.0026031737364908959 0 0.018795778779672423 -0.0028797196326165006 0 0.020833774778592998 -0.0018931317012371848 0 0.020503191859445373 -0.0018380117934868345 0 0.020574372855427962 -0.0020849849433452472 0 0.020503191859445373 -0.0018380117934868345 0 0.020073087395537877 -0.0021378700270379631 0 0.020574372855427962 -0.0020849849433452472 0 0.020073087395537877 -0.0021378700270379631 0 0.020574372855427962 -0.0020849849433452472 0 0.020425011300024217 -0.0024128853217242115 0 0.020938523682475511 -0.0022460927662280939 0 0.020574372855427962 -0.0020849849433452472 0 0.020425011300024217 -0.0024128853217242115 0 0.020850063551048445 -0.002688837763534702 0 0.020938523682475511 -0.0022460927662280939 0 0.020425011300024217 -0.0024128853217242115 0 0.020425011300024217 -0.0024128853217242115 0 0.020242116700888074 -0.0028250409533609705 0 0.019723577841616179 -0.0026031737364908959 0 0.020850063551048445 -0.002688837763534702 0 0.020425011300024217 -0.0024128853217242115 0 0.020242116700888074 -0.0028250409533609705 0 0.020242116700888074 -0.0028250409533609705 0 0.019723577841616179 -0.0026031737364908959 0 0.01928348062066914 -0.0031230411643858578 0 0.019723577841616179 -0.0026031737364908959 0 0.01928348062066914 -0.0031230411643858578 0 0.018795778779672423 -0.0028797196326165006 0 0.01928348062066914 -0.0031230411643858578 0 0.019832285092433604 -0.0032375642735682415 0 0.018911273286468432 -0.0035448791342253933 0 0.020242116700888074 -0.0028250409533609705 0 0.01928348062066914 -0.0031230411643858578 0 0.019832285092433604 -0.0032375642735682415 0 0.020229104420484024 -0.0034243519867189999 0 0.019131961235689048 -0.0028264101609518397 0 0.019749665416313511 -0.0035325541407960673 0 0.019832285092433604 -0.0032375642735682415 0 0.020229104420484024 -0.0034243519867189999 0 0.018911273286468432 -0.0035448791342253933 0 0.020052558040174133 -0.0034507219026918053 0 0.018876280254250848 -0.0034735478198304583 0 0.019832285092433604 -0.0032375642735682415 0 0.020229104420484024 -0.0034243519867189999 0 0.020511650923343224 -0.0030903627124618731 0 0.020229104420484024 -0.0034243519867189999 0 0.020882051651123064 -0.003214352229182075 0 0.020511650923343224 -0.0030903627124618731 0 0.020882051651123064 -0.003214352229182075 0 0.020511650923343224 -0.0030903627124618731 0 0.021032397993000749 -0.0029604085495529768 0 0.020242116700888074 -0.0028250409533609705 0 0.019832285092433604 -0.0032375642735682415 0 0.020511650923343224 -0.0030903627124618731 0 0.020850063551048445 -0.002688837763534702 0 0.020242116700888074 -0.0028250409533609705 0 0.020511650923343224 -0.0030903627124618731 0 0.020850063551048445 -0.002688837763534702 0 0.020511650923343224 -0.0030903627124618731 0 0.021032397993000749 -0.0029604085495529768 0 0.020850063551048445 -0.002688837763534702 0 0.021032397993000749 -0.0029604085495529768 0 0.021425323419137544 -0.0027514232302870744 0 0.021032397993000749 -0.0029604085495529768 0 0.021425323419137544 -0.0027514232302870744 0 0.021580421717706164 -0.003050340485975662 0 0.021871404613813279 -0.0027352838329296613 0 0.021425323419137544 -0.0027514232302870744 0 0.021580421717706164 -0.003050340485975662 0 0.021729123279901952 -0.0023798369746091479 0 0.021871404613813279 -0.0027352838329296613 0 0.021425323419137544 -0.0027514232302870744 0 0.022197186738634696 -0.0030322856497328283 0 0.022110008009634471 -0.0028932666634422137 0 0.021580421717706164 -0.003050340485975662 0 0.022110008009634471 -0.0028932666634422137 0 0.021871404613813279 -0.0027352838329296613 0 0.021580421717706164 -0.003050340485975662 0 0.020882051651123064 -0.003214352229182075 0 0.021580421717706164 -0.003050340485975662 0 0.021114278587993252 -0.0033906218275744308 0 0.020882051651123064 -0.003214352229182075 0 0.021032397993000749 -0.0029604085495529768 0 0.021580421717706164 -0.003050340485975662 0 0.021580421717706164 -0.003050340485975662 0 0.021775601766032625 -0.0031635020999800662 0 0.021114278587993252 -0.0033906218275744308 0 0.022197186738634696 -0.0030322856497328283 0 0.021580421717706164 -0.003050340485975662 0 0.021775601766032625 -0.0031635020999800662 0 0.021775601766032625 -0.0031635020999800662 0 0.022186961318375782 -0.003120337841644753 0 0.021695325656127598 -0.0031375024473332758 0 0.022197186738634696 -0.0030322856497328283 0 0.021775601766032625 -0.0031635020999800662 0 0.022186961318375782 -0.003120337841644753 0 0.021775601766032625 -0.0031635020999800662 0 0.021695325656127598 -0.0031375024473332758 0 0.021114278587993252 -0.0033906218275744308 0 0.021536935323122595 -0.0031538069277891648 0 0.020177914877944816 -0.0031238174047007621 0 0.021695325656127598 -0.0031375024473332758 0 0.020432360465097166 -0.0039014933700921035 0 0.021114278587993252 -0.0033906218275744308 0 0.021695325656127598 -0.0031375024473332758 0 0.019963479991137133 -0.0023513710069402961 0 0.020177346064123514 -0.0033444658757117982 0 0.020229104420484024 -0.0034243519867189999 0 0.020432360465097166 -0.0039014933700921035 0 0.019749665416313511 -0.0035325541407960673 0 0.020229104420484024 -0.0034243519867189999 0 0.020432360465097166 -0.0039014933700921035 0 0.021114278587993252 -0.0033906218275744308 0 0.020229104420484024 -0.0034243519867189999 0 0.020882051651123064 -0.003214352229182075 0 0.021114278587993252 -0.0033906218275744308 0 0.021656168732379411 -0.003467013914610617 0 0.021209136815242995 -0.0039300028097746928 0 0.021638008235273159 -0.0034643598478490776 0 0.022040923501097622 -0.0032524085534062102 0 0.022271123935122775 -0.0033071147446775053 0 0.020177346064123514 -0.0033444658757117982 0 0.021638008235273159 -0.0034643598478490776 0 0.020197318886917431 -0.0045868763029492865 0 0.020177346064123514 -0.0033444658757117982 0 0.020197318886917431 -0.0045868763029492865 0 0.018851529343959832 -0.0042542302907922326 0 0.020177346064123514 -0.0033444658757117982 0 0.018851529343959832 -0.0042542302907922326 0 0.018654032470194697 -0.0031848883435095349 0 0.019963479991137133 -0.0023513710069402961 0 0.020177346064123514 -0.0033444658757117982 0 0.018654032470194697 -0.0031848883435095349 0 0.021695325656127598 -0.0031375024473332758 0 0.020177346064123514 -0.0033444658757117982 0 0.021638008235273159 -0.0034643598478490776 0 0.021695325656127598 -0.0031375024473332758 0 0.021638008235273159 -0.0034643598478490776 0 0.021996227268248885 -0.003230936585059299 0 0.021638008235273159 -0.0034643598478490776 0 0.021996227268248885 -0.003230936585059299 0 0.022279808942823998 -0.0031787676183146424 0 0.022186961318375782 -0.003120337841644753 0 0.022279808942823998 -0.0031787676183146424 0 0.022651914165008547 -0.003043166673709951 0 0.022186961318375782 -0.003120337841644753 0 0.021996227268248885 -0.003230936585059299 0 0.022279808942823998 -0.0031787676183146424 0 0.022186961318375782 -0.003120337841644753 0 0.021695325656127598 -0.0031375024473332758 0 0.021996227268248885 -0.003230936585059299 0 0.021638008235273159 -0.0034643598478490776 0 0.022279808942823998 -0.0031787676183146424 0 0.022040923501097622 -0.0032524085534062102 0 0.022292204733771907 -0.0031533108451840381 0 0.022040923501097622 -0.0032524085534062102 0 0.022222515434725133 -0.003126006458220689 0 0.022279808942823998 -0.0031787676183146424 0 0.022292204733771907 -0.0031533108451840381 0 0.022040923501097622 -0.0032524085534062102 0 0.022279808942823998 -0.0031787676183146424 0 0.022292204733771907 -0.0031533108451840381 0 0.022727983516473281 -0.0030219413049016913 0 0.022292204733771907 -0.0031533108451840381 0 0.022627832451469616 -0.0031290292891278468 0 0.022727983516473281 -0.0030219413049016913 0 0.022292204733771907 -0.0031533108451840381 0 0.022627832451469616 -0.0031290292891278468 0 0.022375242014286218 -0.0032523743271010278 0 0.022627832451469616 -0.0031290292891278468 0 0.022375242014286218 -0.0032523743271010278 0 0.022644147432381499 -0.003381670802750552 0 0.022292204733771907 -0.0031533108451840381 0 0.022222515434725133 -0.003126006458220689 0 0.022375242014286218 -0.0032523743271010278 0 0.022222515434725133 -0.003126006458220689 0 0.022328840523473371 -0.0031407019171482073 0 0.022337958624337767 -0.0028872341076950922 0 0.022040923501097622 -0.0032524085534062102 0 0.022271123935122775 -0.0033071147446775053 0 0.022328840523473371 -0.0031407019171482073 0 0.022040923501097622 -0.0032524085534062102 0 0.022222515434725133 -0.003126006458220689 0 0.022328840523473371 -0.0031407019171482073 0 0.020197318886917431 -0.0045868763029492865 0 0.018851529343959832 -0.0042542302907922326 0 0.018974176028512649 -0.0056390401884787887 0 0.022271123935122775 -0.0033071147446775053 0 0.022328840523473371 -0.0031407019171482073 0 0.022622336295509669 -0.0031406539469792517 0 0.021209136815242995 -0.0039300028097746928 0 0.02105322986719806 -0.0044178201777704765 0 0.022337958624337767 -0.0028872341076950922 0 0.022622336295509669 -0.0031406539469792517 0 0.022745507063665557 -0.002705728007199976 0 0.022328840523473371 -0.0031407019171482073 0 0.022337958624337767 -0.0028872341076950922 0 0.022622336295509669 -0.0031406539469792517 0 0.022337958624337767 -0.0028872341076950922 0 0.022342719877049558 -0.0020124344992153973 0 0.022683150729228933 -0.0023451931493324199 0 0.022337958624337767 -0.0028872341076950922 0 0.022683150729228933 -0.0023451931493324199 0 0.022745507063665557 -0.002705728007199976 0 0.022222515434725133 -0.003126006458220689 0 0.022337958624337767 -0.0028872341076950922 0 0.022261125270401874 -0.0032315589581292368 0 0.022337958624337767 -0.0028872341076950922 0 0.021922262961128341 -0.0023557616351624661 0 0.022342719877049558 -0.0020124344992153973 0 0.022365691697157131 -0.0029059413632756587 0 0.022025825074631137 -0.0028500824377215546 0 0.021922262961128341 -0.0023557616351624661 0 0.021996637863489515 -0.0017992089609304592 0 0.022342719877049558 -0.0020124344992153973 0 0.022342719877049558 -0.0020124344992153973 0 0.022729591466143687 -0.0018939414121135754 0 0.022683150729228933 -0.0023451931493324199 0 0.022342719877049558 -0.0020124344992153973 0 0.022506483046290163 -0.0015542655089067691 0 0.022729591466143687 -0.0018939414121135754 0 0.022342719877049558 -0.0020124344992153973 0 0.022506483046290163 -0.0015542655089067691 0 0.022259694582976126 -0.0015299804895177113 0 0.022506483046290163 -0.0015542655089067691 0 0.022259694582976126 -0.0015299804895177113 0 0.022315877577642779 -0.001243309748542515 0 0.021996637863489515 -0.0017992089609304592 0 0.022342719877049558 -0.0020124344992153973 0 0.022259694582976126 -0.0015299804895177113 0 0.021996637863489515 -0.0017992089609304592 0 0.022259694582976126 -0.0015299804895177113 0 0.022132962016532667 -0.0011124372813369116 0 0.022259694582976126 -0.0015299804895177113 0 0.022315877577642779 -0.001243309748542515 0 0.022132962016532667 -0.0011124372813369116 0 0.022315877577642779 -0.001243309748542515 0 0.022132962016532667 -0.0011124372813369116 0 0.022276661485013626 -0.001149700867963624 0 0.022315877577642779 -0.001243309748542515 0 0.022552562554375093 -0.0012551813843646772 0 0.022356621382705378 -0.0011294652524513618 0 0.022506483046290163 -0.0015542655089067691 0 0.022315877577642779 -0.001243309748542515 0 0.022552562554375093 -0.0012551813843646772 0 0.022916259082218549 -0.0010129908484789933 0 0.022441296585900859 -0.0011186378062947944 0 0.022675516985669966 -0.00081766426107801962 0 0.022916259082218549 -0.0010129908484789933 0 0.022675516985669966 -0.00081766426107801962 0 0.023151842100931602 -0.00064039966816828214 0 0.022441296585900859 -0.0011186378062947944 0 0.022132962016532667 -0.0011124372813369116 0 0.022276661485013626 -0.001149700867963624 0 0.022441296585900859 -0.0011186378062947944 0 0.022132962016532667 -0.0011124372813369116 0 0.022675516985669966 -0.00081766426107801962 0 0.021952898342234749 -0.0008649209749267122 0 0.022679979673959391 -0.0019108846754180371 0 0.022132962016532667 -0.0011124372813369116 0 0.022675516985669966 -0.00081766426107801962 0 0.022591730961451964 -0.00028304106339359071 0 0.021996637863489515 -0.0017992089609304592 0 0.022132962016532667 -0.0011124372813369116 0 0.021355485269411934 -0.0019400864025913831 0 0.022675516985669966 -0.00081766426107801962 0 0.022591730961451964 -0.00028304106339359071 0 0.023151842100931602 -0.00064039966816828214 0 0.022679979673959391 -0.0019108846754180371 0 0.023742610766773337 -0.0010799306276426176 0 0.022679979673959391 -0.0019108846754180371 0 0.023437102192375804 -0.0029170397933147964 0 0.024377706798390502 -0.0019128018034759104 0 0.024112782430719529 -0.001958186249322323 0 0.02410385560675838 -0.0016950732596366217 0 0.024377706798390502 -0.0019128018034759104 0 0.024095025763392217 -0.0022850774851977699 0 0.024112782430719529 -0.001958186249322323 0 0.021922262961128341 -0.0023557616351624661 0 0.021996637863489515 -0.0017992089609304592 0 0.021355485269411934 -0.0019400864025913831 0 0.022025825074631137 -0.0028500824377215546 0 0.022679979673959391 -0.0019108846754180371 0 0.022222515434725133 -0.003126006458220689 0 0.022261125270401874 -0.0032315589581292368 0 0.022375242014286218 -0.0032523743271010278 0 0.022261125270401874 -0.0032315589581292368 0 0.022427166817480883 -0.0034519504888234688 0 0.022375242014286218 -0.0032523743271010278 0 0.022427166817480883 -0.0034519504888234688 0 0.022375242014286218 -0.0032523743271010278 0 0.022644147432381499 -0.003381670802750552 0 0.024095025763392217 -0.0022850774851977699 0 0.023595459020387802 -0.0024097298663457003 0 0.023912095045097219 -0.0019624119197194779 0 0.023912095045097219 -0.0019624119197194779 0 0.024112782430719529 -0.001958186249322323 0 0.02410385560675838 -0.0016950732596366217 0 0.024095025763392217 -0.0022850774851977699 0 0.023912095045097219 -0.0019624119197194779 0 0.024112782430719529 -0.001958186249322323 0 0.02410385560675838 -0.0016950732596366217 0 0.024103997669801799 -0.0014799939628413576 0 0.024001038486617641 -0.0016899585283053238 0 0.023912095045097219 -0.0019624119197194779 0 0.02410385560675838 -0.0016950732596366217 0 0.024001038486617641 -0.0016899585283053238 0 0.023742610766773337 -0.0010799306276426176 0 0.023841395258446595 -0.0011577719770693733 0 0.023151842100931602 -0.00064039966816828214 0 0.023616038198322302 -0.00084441191757749921 0 0.023293519229206562 -0.0010113501662354749 0 0.022916259082218549 -0.0010129908484789933 0 0.023151842100931602 -0.00064039966816828214 0 0.023293519229206562 -0.0010113501662354749 0 0.024096964072753118 -0.0014706780883428333 0 0.024333091067014066 -0.0011746263103792108 0 0.024111997479728715 -0.0011052429365295516 0 0.024096964072753118 -0.0014706780883428333 0 0.024245313309986066 -0.0013779807870772265 0 0.024333091067014066 -0.0011746263103792108 0 0.023841395258446595 -0.0011577719770693733 0 0.024077307772425914 -0.0011217537953587598 0 0.024103997669801799 -0.0014799939628413576 0 0.024096964072753118 -0.0014706780883428333 0 0.024111997479728715 -0.0011052429365295516 0 0.024103997669801799 -0.0014799939628413576 0 0.024001038486617641 -0.0016899585283053238 0 0.024096964072753118 -0.0014706780883428333 0 0.024001038486617641 -0.0016899585283053238 0 0.024096964072753118 -0.0014706780883428333 0 0.023851234993207956 -0.0019419179170879059 0 0.024096964072753118 -0.0014706780883428333 0 0.023851234993207956 -0.0019419179170879059 0 0.02412575370000378 -0.0016225222499232465 0 0.023851234993207956 -0.0019419179170879059 0 0.023887676598060924 -0.0019968710674263461 0 0.02412575370000378 -0.0016225222499232465 0 0.023912095045097219 -0.0019624119197194779 0 0.024001038486617641 -0.0016899585283053238 0 0.023851234993207956 -0.0019419179170879059 0 0.023595459020387802 -0.0024097298663457003 0 0.023851234993207956 -0.0019419179170879059 0 0.023691744397828923 -0.002298688044635711 0 0.023595459020387802 -0.0024097298663457003 0 0.023912095045097219 -0.0019624119197194779 0 0.023851234993207956 -0.0019419179170879059 0 0.023851234993207956 -0.0019419179170879059 0 0.023691744397828923 -0.002298688044635711 0 0.023887676598060924 -0.0019968710674263461 0 0.023691744397828923 -0.002298688044635711 0 0.023450922506127771 -0.0027036377366022792 0 0.023634242365583719 -0.0024739813634421072 0 0.023450922506127771 -0.0027036377366022792 0 0.023440675933405972 -0.0027742567311413767 0 0.023634242365583719 -0.0024739813634421072 0 0.023595459020387802 -0.0024097298663457003 0 0.023691744397828923 -0.002298688044635711 0 0.023450922506127771 -0.0027036377366022792 0 0.023595459020387802 -0.0024097298663457003 0 0.023450922506127771 -0.0027036377366022792 0 0.023325612129026403 -0.0029207178171793136 0 0.023437102192375804 -0.0029170397933147964 0 0.02333913652788052 -0.0028600448682008952 0 0.024095025763392217 -0.0022850774851977699 0 0.023595459020387802 -0.0024097298663457003 0 0.023325612129026403 -0.0029207178171793136 0 0.022627832451469616 -0.0031290292891278468 0 0.022644147432381499 -0.003381670802750552 0 0.023325612129026403 -0.0029207178171793136 0 0.023325612129026403 -0.0029207178171793136 0 0.022727983516473281 -0.0030219413049016913 0 0.023121278708337314 -0.0029281489962459661 0 0.022627832451469616 -0.0031290292891278468 0 0.023325612129026403 -0.0029207178171793136 0 0.022727983516473281 -0.0030219413049016913 0 0.023450922506127771 -0.0027036377366022792 0 0.023325612129026403 -0.0029207178171793136 0 0.023121278708337314 -0.0029281489962459661 0 0.022727983516473281 -0.0030219413049016913 0 0.023121278708337314 -0.0029281489962459661 0 0.022651914165008547 -0.003043166673709951 0 0.022279808942823998 -0.0031787676183146424 0 0.022727983516473281 -0.0030219413049016913 0 0.022651914165008547 -0.003043166673709951 0 0.02260537566491997 -0.0029988082885908608 0 0.022186961318375782 -0.003120337841644753 0 0.022651914165008547 -0.003043166673709951 0 0.02260537566491997 -0.0029988082885908608 0 0.022651914165008547 -0.003043166673709951 0 0.022925937437665526 -0.0029689716479792297 0 0.023121278708337314 -0.0029281489962459661 0 0.022651914165008547 -0.003043166673709951 0 0.022925937437665526 -0.0029689716479792297 0 0.023118312735450883 -0.0029032520528839687 0 0.022925937437665526 -0.0029689716479792297 0 0.023200738465004089 -0.0029045459649406609 0 0.023118312735450883 -0.0029032520528839687 0 0.023311110910958614 -0.002879110728270619 0 0.023200738465004089 -0.0029045459649406609 0 0.023339651481211109 -0.0028625021207806826 0 0.023118312735450883 -0.0029032520528839687 0 0.023311110910958614 -0.002879110728270619 0 0.023311110910958614 -0.002879110728270619 0 0.023440675933405972 -0.0027742567311413767 0 0.023200738465004089 -0.0029045459649406609 0 0.023450922506127771 -0.0027036377366022792 0 0.023440675933405972 -0.0027742567311413767 0 0.023200738465004089 -0.0029045459649406609 0 0.023121278708337314 -0.0029281489962459661 0 0.022925937437665526 -0.0029689716479792297 0 0.023200738465004089 -0.0029045459649406609 0 0.023450922506127771 -0.0027036377366022792 0 0.023121278708337314 -0.0029281489962459661 0 0.023200738465004089 -0.0029045459649406609 0 0.023458757793890655 -0.0028586410472408773 0 0.023544126322829963 -0.0028615024520207916 0 0.023564255999730024 -0.0028860931706790648 0 0.023311110910958614 -0.002879110728270619 0 0.023440675933405972 -0.0027742567311413767 0 0.023458757793890655 -0.0028586410472408773 0 0.023339651481211109 -0.0028625021207806826 0 0.023311110910958614 -0.002879110728270619 0 0.023458757793890655 -0.0028586410472408773 0 0.023339651481211109 -0.0028625021207806826 0 0.023458757793890655 -0.0028586410472408773 0 0.023544126322829963 -0.0028615024520207916 0 0.023445424364099934 -0.0028187838703839572 0 0.023339651481211109 -0.0028625021207806826 0 0.023544126322829963 -0.0028615024520207916 0 0.023619056792317968 -0.0028217449766642401 0 0.023544126322829963 -0.0028615024520207916 0 0.023730621940685589 -0.0028630765099027762 0 0.023619056792317968 -0.0028217449766642401 0 0.023445424364099934 -0.0028187838703839572 0 0.023544126322829963 -0.0028615024520207916 0 0.023779129838173201 -0.0028039664503344891 0 0.023746174617327257 -0.0028248489790611599 0 0.023877595976293246 -0.0028633973121612124 0 0.023619056792317968 -0.0028217449766642401 0 0.023730621940685589 -0.0028630765099027762 0 0.023746174617327257 -0.0028248489790611599 0 0.023730621940685589 -0.0028630765099027762 0 0.023746174617327257 -0.0028248489790611599 0 0.023877595976293246 -0.0028633973121612124 0 0.024397735746406652 -0.0035209129647537016 0 0.024232407352819937 -0.0033938005849748079 0 0.023877595976293246 -0.0028633973121612124 0 0.023845444500136537 -0.002957677112105676 0 0.02419840553514024 -0.0032905438667855825 0 0.023730621940685589 -0.0028630765099027762 0 0.023877595976293246 -0.0028633973121612124 0 0.023845444500136537 -0.002957677112105676 0 0.023544126322829963 -0.0028615024520207916 0 0.023701602884439076 -0.0029146768605640789 0 0.023564255999730024 -0.0028860931706790648 0 0.023544126322829963 -0.0028615024520207916 0 0.023730621940685589 -0.0028630765099027762 0 0.023701602884439076 -0.0029146768605640789 0 0.023730621940685589 -0.0028630765099027762 0 0.023845444500136537 -0.002957677112105676 0 0.023701602884439076 -0.0029146768605640789 0 0.023845444500136537 -0.002957677112105676 0 0.023701602884439076 -0.0029146768605640789 0 0.023794139163737283 -0.0030359310786572361 0 0.023794139163737283 -0.0030359310786572361 0 0.023669839539550357 -0.0031293573238344286 0 0.023564255999730024 -0.0028860931706790648 0 0.023794139163737283 -0.0030359310786572361 0 0.02419840553514024 -0.0032905438667855825 0 0.023669839539550357 -0.0031293573238344286 0 0.023701602884439076 -0.0029146768605640789 0 0.023794139163737283 -0.0030359310786572361 0 0.023564255999730024 -0.0028860931706790648 0 0.02419840553514024 -0.0032905438667855825 0 0.024264993500907585 -0.0033813749434488875 0 0.024521544349314407 -0.0036802701366083902 0 0.023845444500136537 -0.002957677112105676 0 0.023794139163737283 -0.0030359310786572361 0 0.02419840553514024 -0.0032905438667855825 0 0.024988349533902072 -0.0041459110611429756 0 0.02419840553514024 -0.0032905438667855825 0 0.024521544349314407 -0.0036802701366083902 0 0.024329537879690961 -0.0017353539503222654 0 0.024414311144700798 -0.0016859153543637103 0 0.024410856876194726 -0.0017077297344818389 0 0.024329537879690961 -0.0017353539503222654 0 0.024414311144700798 -0.0016859153543637103 0 0.024190308007311246 -0.0017831915117992854 0 0.02419840553514024 -0.0032905438667855825 0 0.024264993500907585 -0.0033813749434488875 0 0.023669839539550357 -0.0031293573238344286 0 0.024854610923847331 -0.002810510811813543 0 0.024781631731136393 -0.0014381806366924566 0 0.024854610923847331 -0.002810510811813543 0 0.023844991630792064 -0.0024270085815466034 0 0.024329537879690961 -0.0017353539503222654 0 0.024190308007311246 -0.0017831915117992854 0 0.024339068360696686 -0.0017324715075038703 0 0.024190308007311246 -0.0017831915117992854 0 0.024001932113820287 -0.0019519192478158981 0 0.024339068360696686 -0.0017324715075038703 0 0.024190308007311246 -0.0017831915117992854 0 0.024001932113820287 -0.0019519192478158981 0 0.023634242365583719 -0.0024739813634421072 0 0.023844991630792064 -0.0024270085815466034 0 0.023779566437346782 -0.0024893105197949929 0 0.023458757793890655 -0.0028586410472408773 0 0.023564255999730024 -0.0028860931706790648 0 0.023634242365583719 -0.0024739813634421072 0 0.023669839539550357 -0.0031293573238344286 0 0.023564255999730024 -0.0028860931706790648 0 0.023634242365583719 -0.0024739813634421072 0 0.023440675933405972 -0.0027742567311413767 0 0.023458757793890655 -0.0028586410472408773 0 0.023634242365583719 -0.0024739813634421072 0 0.023691744397828923 -0.002298688044635711 0 0.023634242365583719 -0.0024739813634421072 0 0.023887676598060924 -0.0019968710674263461 0 0.024001932113820287 -0.0019519192478158981 0 0.023634242365583719 -0.0024739813634421072 0 0.023887676598060924 -0.0019968710674263461 0 0.024001932113820287 -0.0019519192478158981 0 0.023887676598060924 -0.0019968710674263461 0 0.024167576274722172 -0.0017488268143391558 0 0.024001932113820287 -0.0019519192478158981 0 0.024167576274722172 -0.0017488268143391558 0 0.024339068360696686 -0.0017324715075038703 0 0.024167576274722172 -0.0017488268143391558 0 0.024353645588125652 -0.0015130166529866709 0 0.024500037604888555 -0.0015135714693473945 0 0.024167576274722172 -0.0017488268143391558 0 0.024353645588125652 -0.0015130166529866709 0 0.02412575370000378 -0.0016225222499232465 0 0.023887676598060924 -0.0019968710674263461 0 0.024167576274722172 -0.0017488268143391558 0 0.02412575370000378 -0.0016225222499232465 0 0.024096964072753118 -0.0014706780883428333 0 0.02412575370000378 -0.0016225222499232465 0 0.024245313309986066 -0.0013779807870772265 0 0.02412575370000378 -0.0016225222499232465 0 0.024245313309986066 -0.0013779807870772265 0 0.024406765800898199 -0.0013269747934672115 0 0.024406765800898199 -0.0013269747934672115 0 0.02472077735900614 -0.0010942145571889014 0 0.024606832759568539 -0.0013269392827378432 0 0.024353645588125652 -0.0015130166529866709 0 0.024406765800898199 -0.0013269747934672115 0 0.024606832759568539 -0.0013269392827378432 0 0.024353645588125652 -0.0015130166529866709 0 0.02412575370000378 -0.0016225222499232465 0 0.024406765800898199 -0.0013269747934672115 0 0.024406765800898199 -0.0013269747934672115 0 0.02472077735900614 -0.0010942145571889014 0 0.024708160782847328 -0.00095550771967753097 0 0.024406765800898199 -0.0013269747934672115 0 0.024333091067014066 -0.0011746263103792108 0 0.024708160782847328 -0.00095550771967753097 0 0.024245313309986066 -0.0013779807870772265 0 0.024406765800898199 -0.0013269747934672115 0 0.024333091067014066 -0.0011746263103792108 0 0.025078022173413511 -0.00089470861072396156 0 0.024880463580760074 -0.0010607408954717104 0 0.024840201989955176 -0.0012859175040278339 0 0.025078022173413511 -0.00089470861072396156 0 0.024880463580760074 -0.0010607408954717104 0 0.024973685707929842 -0.00080678920071127326 0 0.02472077735900614 -0.0010942145571889014 0 0.024880463580760074 -0.0010607408954717104 0 0.024606832759568539 -0.0013269392827378432 0 0.02472077735900614 -0.0010942145571889014 0 0.024880463580760074 -0.0010607408954717104 0 0.024973685707929842 -0.00080678920071127326 0 0.024606832759568539 -0.0013269392827378432 0 0.024840201989955176 -0.0012859175040278339 0 0.024500037604888555 -0.0015135714693473945 0 0.024880463580760074 -0.0010607408954717104 0 0.024606832759568539 -0.0013269392827378432 0 0.024840201989955176 -0.0012859175040278339 0 0.025078022173413511 -0.00089470861072396156 0 0.024840201989955176 -0.0012859175040278339 0 0.025097412941622807 -0.0012667809569065235 0 0.024840201989955176 -0.0012859175040278339 0 0.024726222044423145 -0.0014640454673849298 0 0.025097412941622807 -0.0012667809569065235 0 0.024726222044423145 -0.0014640454673849298 0 0.024500037604888555 -0.0015135714693473945 0 0.024339068360696686 -0.0017324715075038703 0 0.024353645588125652 -0.0015130166529866709 0 0.024606832759568539 -0.0013269392827378432 0 0.024500037604888555 -0.0015135714693473945 0 0.024840201989955176 -0.0012859175040278339 0 0.024726222044423145 -0.0014640454673849298 0 0.024500037604888555 -0.0015135714693473945 0 0.024167576274722172 -0.0017488268143391558 0 0.024500037604888555 -0.0015135714693473945 0 0.024339068360696686 -0.0017324715075038703 0 0.024699888078881526 -0.0015850085411637108 0 0.024781631731136393 -0.0014381806366924566 0 0.024329537879690961 -0.0017353539503222654 0 0.024339068360696686 -0.0017324715075038703 0 0.024410856876194726 -0.0017077297344818389 0 0.024726222044423145 -0.0014640454673849298 0 0.025026640387560702 -0.0014939156637021357 0 0.025133156619081595 -0.0014820458199912379 0 0.024726222044423145 -0.0014640454673849298 0 0.024339068360696686 -0.0017324715075038703 0 0.024410856876194726 -0.0017077297344818389 0 0.025151250223361017 -0.0015888684438425461 0 0.025256757947210235 -0.0016969267822807051 0 0.025133156619081595 -0.0014820458199912379 0 0.025110049171985831 -0.0015420277437271021 0 0.025026640387560702 -0.0014939156637021357 0 0.025151250223361017 -0.0015888684438425461 0 0.025026640387560702 -0.0014939156637021357 0 0.025151250223361017 -0.0015888684438425461 0 0.025133156619081595 -0.0014820458199912379 0 0.025256757947210235 -0.0016969267822807051 0 0.025265457006876147 -0.00221090592827254 0 0.025221866495069741 -0.0017158789749484081 0 0.025151250223361017 -0.0015888684438425461 0 0.025256757947210235 -0.0016969267822807051 0 0.025221866495069741 -0.0017158789749484081 0 0.025256757947210235 -0.0016969267822807051 0 0.02526510924278633 -0.0013744753727315743 0 0.025287087861930992 -0.0018565501633640848 0 0.025256757947210235 -0.0016969267822807051 0 0.02526510924278633 -0.0013744753727315743 0 0.025133156619081595 -0.0014820458199912379 0 0.024726222044423145 -0.0014640454673849298 0 0.025133156619081595 -0.0014820458199912379 0 0.025097412941622807 -0.0012667809569065235 0 0.02526510924278633 -0.0013744753727315743 0 0.025133156619081595 -0.0014820458199912379 0 0.025097412941622807 -0.0012667809569065235 0 0.025078022173413511 -0.00089470861072396156 0 0.025097412941622807 -0.0012667809569065235 0 0.025230451552564141 -0.00091911261104081618 0 0.02526510924278633 -0.0013744753727315743 0 0.025097412941622807 -0.0012667809569065235 0 0.025230451552564141 -0.00091911261104081618 0 0.02526510924278633 -0.0013744753727315743 0 0.025230451552564141 -0.00091911261104081618 0 0.025240581110427276 -0.0010829541077829932 0 0.025230451552564141 -0.00091911261104081618 0 0.025233397591773843 -0.00042347194050543229 0 0.025181877460624832 -0.00051047002290712852 0 0.025078022173413511 -0.00089470861072396156 0 0.025230451552564141 -0.00091911261104081618 0 0.025181877460624832 -0.00051047002290712852 0 0.024999558919234416 -0.00034470080915989038 0 0.025233397591773843 -0.00042347194050543229 0 0.025240581110427276 -0.0010829541077829932 0 0.025230451552564141 -0.00091911261104081618 0 0.025233397591773843 -0.00042347194050543229 0 0.025240581110427276 -0.0010829541077829932 0 0.024999558919234416 -0.00034470080915989038 0 0.025240581110427276 -0.0010829541077829932 0 0.024999528314626082 -0.0017200293212181585 0 0.025240581110427276 -0.0010829541077829932 0 0.024999528314626082 -0.0017200293212181585 0 0.025287087861930992 -0.0018565501633640848 0 0.02526510924278633 -0.0013744753727315743 0 0.025240581110427276 -0.0010829541077829932 0 0.025287087861930992 -0.0018565501633640848 0 0.025256757947210235 -0.0016969267822807051 0 0.025287087861930992 -0.0018565501633640848 0 0.025265457006876147 -0.00221090592827254 0 0.025287087861930992 -0.0018565501633640848 0 0.024999858501553947 -0.0030928874228619212 0 0.025265457006876147 -0.00221090592827254 0 0.024999528314626082 -0.0017200293212181585 0 0.025287087861930992 -0.0018565501633640848 0 0.024999858501553947 -0.0030928874228619212 0 0.024999860967455202 -0.0030950519793630617 0 0.025247083349359902 -0.0029858004065284258 0 0.024999795096721924 -0.0030962671900179933 0 0.025336797956081687 -0.0040278833255994462 0 0.024999852939843196 -0.0043924659217651433 0 0.024999795096721924 -0.0030962671900179933 0 0.025336797956081687 -0.0040278833255994462 0 0.025475814832739967 -0.0037845000572477492 0 0.025336797956081687 -0.0040278833255994462 0 0.024999852939843196 -0.0043924659217651433 0 0.025383443375745017 -0.0045530748763882769 0 0.025336797956081687 -0.0040278833255994462 0 0.025383443375745017 -0.0045530748763882769 0 0.025487317947272044 -0.0041904372214788613 0 0.025383443375745017 -0.0045530748763882769 0 0.025487317947272044 -0.0041904372214788613 0 0.025437331629449056 -0.0044991514321676956 0 0.025487317947272044 -0.0041904372214788613 0 0.025475814832739967 -0.0037845000572477492 0 0.025561146127199074 -0.0040956687860614818 0 0.025336797956081687 -0.0040278833255994462 0 0.025487317947272044 -0.0041904372214788613 0 0.025475814832739967 -0.0037845000572477492 0 0.025247083349359902 -0.0029858004065284258 0 0.025481908162470212 -0.0029210886635883879 0 0.025561146127199074 -0.0040956687860614818 0 0.025586868742756529 -0.0042480918187913922 0 0.02551406691741535 -0.0043055627551382945 0 0.025487317947272044 -0.0041904372214788613 0 0.025561146127199074 -0.0040956687860614818 0 0.02551406691741535 -0.0043055627551382945 0 0.025110049171985831 -0.0015420277437271021 0 0.025151250223361017 -0.0015888684438425461 0 0.025221866495069741 -0.0017158789749484081 0 0.024854610923847331 -0.002810510811813543 0 0.025481908162470212 -0.0029210886635883879 0 0.025709093527332 -0.0041609769822416121 0 0.025561146127199074 -0.0040956687860614818 0 0.025586868742756529 -0.0042480918187913922 0 0.025709093527332 -0.0041609769822416121 0 0.025586868742756529 -0.0042480918187913922 0 0.025561601615445621 -0.0044178115061736904 0 0.024854610923847331 -0.002810510811813543 0 0.025038248503685131 -0.0042048234362828734 0 0.025586868742756529 -0.0042480918187913922 0 0.025561601615445621 -0.0044178115061736904 0 0.02551406691741535 -0.0043055627551382945 0 0.025561601615445621 -0.0044178115061736904 0 0.02551406691741535 -0.0043055627551382945 0 0.025406539400448555 -0.0044925130791987041 0 0.02551406691741535 -0.0043055627551382945 0 0.025406539400448555 -0.0044925130791987041 0 0.025437331629449056 -0.0044991514321676956 0 0.025487317947272044 -0.0041904372214788613 0 0.02551406691741535 -0.0043055627551382945 0 0.025437331629449056 -0.0044991514321676956 0 0.025406539400448555 -0.0044925130791987041 0 0.025339721593620277 -0.0045907597818489873 0 0.025437331629449056 -0.0044991514321676956 0 0.025406539400448555 -0.0044925130791987041 0 0.025339721593620277 -0.0045907597818489873 0 0.025127941170051286 -0.0044277086973982596 0 0.025561601615445621 -0.0044178115061736904 0 0.025406539400448555 -0.0044925130791987041 0 0.025127941170051286 -0.0044277086973982596 0 0.024988349533902072 -0.0041459110611429756 0 0.024521544349314407 -0.0036802701366083902 0 0.025127941170051286 -0.0044277086973982596 0 0.025038248503685131 -0.0042048234362828734 0 0.025133004327411342 -0.0042442425222361307 0 0.024501589701005449 -0.0037210892815416107 0 0.024397735746406652 -0.0035209129647537016 0 0.025170442654047994 -0.0044757592555572821 0 0.024988349533902072 -0.0041459110611429756 0 0.025127941170051286 -0.0044277086973982596 0 0.025187974648168059 -0.0044783612193066173 0 0.025226456667728062 -0.0045062370979578065 0 0.025127941170051286 -0.0044277086973982596 0 0.025226456667728062 -0.0045062370979578065 0 0.025339721593620277 -0.0045907597818489873 0 0.025338536356703596 -0.0047394868142176345 0 0.025226456667728062 -0.0045062370979578065 0 0.025339721593620277 -0.0045907597818489873 0 0.025127941170051286 -0.0044277086973982596 0 0.025410503075916333 -0.0045183858481592214 0 0.025226456667728062 -0.0045062370979578065 0 0.025338536356703596 -0.0047394868142176345 0 0.025592151966331474 -0.0056132383858607344 0 0.025308359630210175 -0.0051221769504572077 0 0.025918050069862579 -0.0066842771233783455 0 0.024999921522728997 -0.0056895619932226657 0 0.025264883314764796 -0.0051349325621824768 0 0.025410503075916333 -0.0045183858481592214 0 0.025338536356703596 -0.0047394868142176345 0 0.025264883314764796 -0.0051349325621824768 0 0.024999852939843196 -0.0043924659217651433 0 0.024999921522728997 -0.0056895619932226657 0 0.025264883314764796 -0.0051349325621824768 0 0.024999852939843196 -0.0043924659217651433 0 0.025383443375745017 -0.0045530748763882769 0 0.025264883314764796 -0.0051349325621824768 0 0.025338536356703596 -0.0047394868142176345 0 0.025264883314764796 -0.0051349325621824768 0 0.025343055528974544 -0.0048238132219008264 0 0.025383443375745017 -0.0045530748763882769 0 0.025264883314764796 -0.0051349325621824768 0 0.025343055528974544 -0.0048238132219008264 0 0.025383443375745017 -0.0045530748763882769 0 0.025378250583360247 -0.004675980283978318 0 0.025343055528974544 -0.0048238132219008264 0 0.025383443375745017 -0.0045530748763882769 0 0.025437331629449056 -0.0044991514321676956 0 0.025378250583360247 -0.004675980283978318 0 0.025339721593620277 -0.0045907597818489873 0 0.025338536356703596 -0.0047394868142176345 0 0.025378250583360247 -0.004675980283978318 0 0.025339721593620277 -0.0045907597818489873 0 0.025437331629449056 -0.0044991514321676956 0 0.025378250583360247 -0.004675980283978318 0 0.025338536356703596 -0.0047394868142176345 0 0.025378250583360247 -0.004675980283978318 0 0.025343055528974544 -0.0048238132219008264 0 0.0039360958604104943 -0.01064172744117162 0 0.0039870978213001965 -0.0107277309671604 0 0.003791501010324598 -0.010722142109194439 0 0.0039360958604104943 -0.01064172744117162 0 0.0037600716053716341 -0.01069919639804179 0 0.0041208372901777261 -0.010418331033367409 0 0.0039360958604104943 -0.01064172744117162 0 0.0041208372901777261 -0.010418331033367409 0 0.004135204442395359 -0.010601486929420107 0 0.0039360958604104943 -0.01064172744117162 0 0.004135204442395359 -0.010601486929420107 0 0.0039870978213001965 -0.0107277309671604 0 0.0039360958604104943 -0.01064172744117162 0 0.0037600716053716341 -0.01069919639804179 0 0.003791501010324598 -0.010722142109194439 0 0.0037600716053716341 -0.01069919639804179 0 0.003791501010324598 -0.010722142109194439 0 0.0037835190836098473 -0.01081859902296336 0 0.0040527653702028691 -0.011973117797955589 0 0.0039034904728532023 -0.011516811352939835 0 0.0040126593205834843 -0.011584420974969718 0 0.0040527653702028691 -0.011973117797955589 0 0.0046384555229226146 -0.012142387729288875 0 0.0040126593205834843 -0.011584420974969718 0 0.0041999911946226393 -0.011303607513068194 0 0.0034697240619283617 -0.011765982343401071 0 0.0040527653702028691 -0.011973117797955589 0 0.0047276865106840324 -0.012524791960365097 0 0.0046384555229226146 -0.012142387729288875 0 0.0047644171788000346 -0.013170300699431642 0 0.0048816975666843383 -0.013146145912638555 0 0.0047276865106840324 -0.012524791960365097 0 0.0047588392542228606 -0.013180003121366126 0 0.0046384555229226146 -0.012142387729288875 0 0.0034697240619283617 -0.011765982343401071 0 0.0090505593720858202 -0.0090401022819043813 0 0.0047588392542228606 -0.013180003121366126 0 0.0046466528342172303 -0.012891206640679892 0 0.0046607661793271445 -0.014229261646895648 0 0.018078555216192893 -0.0039104658400608725 0 0.018141189701864326 -0.0043352209172905082 0 0.018013875775099646 -0.0040759557494052627 0 0.0047276865106840324 -0.012524791960365097 0 0.0047588392542228606 -0.013180003121366126 0 0.0046466528342172303 -0.012891206640679892 0 0.0090505593720858202 -0.0090401022819043813 0 0.011855675728985517 -0.0090501031817639896 0 0.0041208372901777261 -0.010418331033367409 0 0.0046205710457879953 -0.010324327309563138 0 0.0043619673605894615 -0.010512150321001215 0 0.0090505593720858202 -0.0090401022819043813 0 0.013115358307386272 -0.0067099029095148326 0 0.0046205710457879953 -0.010324327309563138 0 0.0045077569896478159 -0.010514702642016725 0 0.0046399749637095269 -0.010568978281932711 0 0.0046205710457879953 -0.010324327309563138 0 0.0043619673605894615 -0.010512150321001215 0 0.0045077569896478159 -0.010514702642016725 0 0.0043619673605894615 -0.010512150321001215 0 0.0045077569896478159 -0.010514702642016725 0 0.0044195567846317665 -0.01062987606097367 0 0.0045077569896478159 -0.010514702642016725 0 0.0044195567846317665 -0.01062987606097367 0 0.0046399749637095269 -0.010568978281932711 0 0.0041208372901777261 -0.010418331033367409 0 0.0043619673605894615 -0.010512150321001215 0 0.004135204442395359 -0.010601486929420107 0 0.0043619673605894615 -0.010512150321001215 0 0.0042275992405848856 -0.010700115781671347 0 0.0044195567846317665 -0.01062987606097367 0 0.0043619673605894615 -0.010512150321001215 0 0.004135204442395359 -0.010601486929420107 0 0.0042275992405848856 -0.010700115781671347 0 0.0042275992405848856 -0.010700115781671347 0 0.0043405897465573114 -0.010870497543567059 0 0.0040777675929292798 -0.010821969430141036 0 0.004135204442395359 -0.010601486929420107 0 0.0042275992405848856 -0.010700115781671347 0 0.0039870978213001965 -0.0107277309671604 0 0.0042275992405848856 -0.010700115781671347 0 0.0044195567846317665 -0.01062987606097367 0 0.0043405897465573114 -0.010870497543567059 0 0.0042275992405848856 -0.010700115781671347 0 0.0040777675929292798 -0.010821969430141036 0 0.0039870978213001965 -0.0107277309671604 0 0.0044195567846317665 -0.01062987606097367 0 0.0043405897465573114 -0.010870497543567059 0 0.0046399749637095269 -0.010568978281932711 0 0.011097468336436095 -0.0059835136224522393 0 0.013115358307386272 -0.0067099029095148326 0 0.017356108681172919 -0.0033407965872045919 0 0.017418726910781255 -0.0031534191938477024 0 0.017488264444178721 -0.0033663816272439372 0 0.017356108681172919 -0.0033407965872045919 0 0.017198502167717202 -0.0034325445923484108 0 0.017418726910781255 -0.0031534191938477024 0 0.017387481631788503 -0.0033623938292535573 0 0.017292298839272458 -0.003341286845751178 0 0.017210570509412517 -0.0034003292587338322 0 0.017356108681172919 -0.0033407965872045919 0 0.017387481631788503 -0.0033623938292535573 0 0.017488264444178721 -0.0033663816272439372 0 0.01822068728726783 -0.0022663198107161237 0 0.011097468336436095 -0.0059835136224522393 0 0.017356108681172919 -0.0033407965872045919 0 0.017387481631788503 -0.0033623938292535573 0 0.017292298839272458 -0.003341286845751178 0 0.0043405897465573114 -0.010870497543567059 0 0.0041193481585962725 -0.01097258646922104 0 0.0040777675929292798 -0.010821969430141036 0 0.011097468336436095 -0.0059835136224522393 0 0.0036619990199245104 -0.0061644273541049425 0 0.0094439919000564136 -0.0040333143943021392 0 0.007454531070121161 -0.0054208656471995036 0 0.0083026237798619063 -0.0057130169120466643 0 0.011097468336436095 -0.0059835136224522393 0 0.0091501344919102962 -0.0013337728054623936 0 0.0041193481585962725 -0.01097258646922104 0 0.0040777675929292798 -0.010821969430141036 0 0.003810669933265599 -0.010808557795799215 0 0.0017109935002940623 -0.0097246712782102299 0 0.0026936951407042354 -0.010145931828110097 0 0.0022313678328757087 -0.0093621271153922474 0 0.0036619990199245104 -0.0061644273541049425 0 0.0032471667406960398 -0.011029169693960788 0 0.0040777675929292798 -0.010821969430141036 0 0.0039870978213001965 -0.0107277309671604 0 0.003810669933265599 -0.010808557795799215 0 0.0039870978213001965 -0.0107277309671604 0 0.003791501010324598 -0.010722142109194439 0 0.003810669933265599 -0.010808557795799215 0 0.0026936951407042354 -0.010145931828110097 0 0.0034686661368737797 -0.0098620858191316527 0 0.0030328630824458191 -0.009360267261520748 0 0.0032471667406960398 -0.011029169693960788 0 0.0037036692613241799 -0.010409127678406143 0 0.0026936951407042354 -0.010145931828110097 0 0.0034686661368737797 -0.0098620858191316527 0 0.0037443574196035054 -0.010542079706272212 0 0.0034686661368737797 -0.0098620858191316527 0 0.0039989505310694369 -0.0099492903629917473 0 0.0037443574196035054 -0.010542079706272212 0 0.0039989505310694369 -0.0099492903629917473 0 0.0037443574196035054 -0.010542079706272212 0 0.0042063856183597089 -0.010496954029921868 0 0.0037443574196035054 -0.010542079706272212 0 0.0037835190836098473 -0.01081859902296336 0 0.0040395088356912348 -0.010840154066823938 0 0.0037443574196035054 -0.010542079706272212 0 0.0042063856183597089 -0.010496954029921868 0 0.0040395088356912348 -0.010840154066823938 0 0.003791501010324598 -0.010722142109194439 0 0.003810669933265599 -0.010808557795799215 0 0.0037443574196035054 -0.010542079706272212 0 0.003791501010324598 -0.010722142109194439 0 0.0037443574196035054 -0.010542079706272212 0 0.0037835190836098473 -0.01081859902296336 0 0.0048608363922748379 -0.0099884458481692851 0 0.0043875115178551626 -0.010113293269019434 0 0.0043132794178528848 -0.0094336839077427456 0 0.0048608363922748379 -0.0099884458481692851 0 0.0043875115178551626 -0.010113293269019434 0 0.0046973974801121357 -0.010331891017832939 0 -0.00053168712338897794 -0.0072556436095909662 0 0.00030790795390284382 -0.0077470324224281559 0 0.0039989505310694369 -0.0099492903629917473 0 0.0043875115178551626 -0.010113293269019434 0 0.0042063856183597089 -0.010496954029921868 0 0.0043875115178551626 -0.010113293269019434 0 0.0042063856183597089 -0.010496954029921868 0 0.0045072620399795923 -0.010689817914407436 0 0.0042063856183597089 -0.010496954029921868 0 0.0045072620399795923 -0.010689817914407436 0 0.0040395088356912348 -0.010840154066823938 0 0.0043875115178551626 -0.010113293269019434 0 0.0045072620399795923 -0.010689817914407436 0 0.0046973974801121357 -0.010331891017832939 0 0.00029388283541063805 -0.0080029745971802943 0 0.00030790795390284382 -0.0077470324224281559 0 -0.0040882469547935622 -0.0050178696957768002 0 -0.0039386867531047819 -0.0050660434149647051 0 -0.0039615131987944304 -0.0052350310057188614 0 -0.0039386867531047819 -0.0050660434149647051 0 -0.0037813523005856657 -0.0050307065723260757 0 -0.0040161438761696627 -0.0049548903359700573 0 -0.0040882469547935622 -0.0050178696957768002 0 -0.0039386867531047819 -0.0050660434149647051 0 -0.0040161438761696627 -0.0049548903359700573 0 0.0045072620399795923 -0.010689817914407436 0 0.0041539322873661863 -0.011269445432008874 0 0.0040395088356912348 -0.010840154066823938 0 0.00029388283541063805 -0.0080029745971802943 0 -5.0035101154753727e-06 -0.0076022162503469968 0 -0.0041524834749013745 -0.0048866373673589168 0 -0.0040161438761696627 -0.0049548903359700573 0 -0.0039067201622812542 -0.0049503615310647238 0 -0.0037813523005856657 -0.0050307065723260757 0 -0.0040161438761696627 -0.0049548903359700573 0 -0.0039067201622812542 -0.0049503615310647238 0 0.0037600716053716341 -0.01069919639804179 0 0.0037835190836098473 -0.01081859902296336 0 0.0039102201322160149 -0.011226514875624557 0 0.0037835190836098473 -0.01081859902296336 0 0.0040395088356912348 -0.010840154066823938 0 0.0039102201322160149 -0.011226514875624557 0 0.0041539322873661863 -0.011269445432008874 0 0.0039102201322160149 -0.011226514875624557 0 0.0039034904728532023 -0.011516811352939835 0 0.0041539322873661863 -0.011269445432008874 0 0.0040395088356912348 -0.010840154066823938 0 0.0039102201322160149 -0.011226514875624557 0 0.0041999911946226393 -0.011303607513068194 0 0.0038716859710165178 -0.011254233662096061 0 0.0040527653702028691 -0.011973117797955589 0 0.0039102201322160149 -0.011226514875624557 0 0.0039034904728532023 -0.011516811352939835 0 0.0022850460422134608 -0.01132322300730697 0 0.0053559482210381263 -0.01349963770856834 0 0.0039034904728532023 -0.011516811352939835 0 0.0039387471684328027 -0.011562285661094551 0 0.0040126593205834843 -0.011584420974969718 0 -5.0035101154753727e-06 -0.0076022162503469968 0 0.0022850460422134608 -0.01132322300730697 0 0.0041539322873661863 -0.011269445432008874 0 0.0039034904728532023 -0.011516811352939835 0 0.0039387471684328027 -0.011562285661094551 0 0.003596995676460788 -0.016945561484985709 0 0.0041073680262004864 -0.016545100465297873 0 0.0033628781128452112 -0.016548755139103727 0 0.0056603235238217855 -0.014889047590437226 0 0.005436018828257067 -0.014989986395255915 0 0.0055095210670279829 -0.014800217604487196 0 0.0022850460422134608 -0.01132322300730697 0 0.0046746267450639067 -0.016282253468034268 0 0.0056603235238217855 -0.014889047590437226 0 0.0055572704183118691 -0.015114153957528029 0 0.005436018828257067 -0.014989986395255915 0 -0.0040326521464185668 -0.0049258488810477114 0 -0.0039067201622812542 -0.0049503615310647238 0 -0.0038292451441698122 -0.0048670734693033891 0 -0.0041524834749013745 -0.0048866373673589168 0 -0.0040326521464185668 -0.0049258488810477114 0 -0.0039067201622812542 -0.0049503615310647238 0 -0.0037813523005856657 -0.0050307065723260757 0 -0.0034642177368421315 -0.0049632805804013629 0 -0.0039067201622812542 -0.0049503615310647238 0 -0.0034642177368421315 -0.0049632805804013629 0 -0.0039067201622812542 -0.0049503615310647238 0 -0.0038292451441698122 -0.0048670734693033891 0 0.003596995676460788 -0.016945561484985709 0 0.0030412663011121287 -0.016683955815629467 0 0.0033628781128452112 -0.016548755139103727 0 0.0022850460422134608 -0.01132322300730697 0 -0.00077054312383481127 -0.010773596293151173 0 -0.00081656126708150518 -0.010256307036755037 0 -0.00077054312383481127 -0.010773596293151173 0 -0.0040326521464185668 -0.0049258488810477114 0 -0.0040217638371333507 -0.00500027804770534 0 -0.0038292451441698122 -0.0048670734693033891 0 0.0030059634646644063 -0.016666563152345396 0 0.0030412663011121287 -0.016683955815629467 0 0.0030260269355332175 -0.016579609397794497 0 0.0030260269355332175 -0.016579609397794497 0 0.0033628781128452112 -0.016548755139103727 0 0.0033272363921078517 -0.016078753420990667 0 0.0030412663011121287 -0.016683955815629467 0 0.0030260269355332175 -0.016579609397794497 0 0.0033628781128452112 -0.016548755139103727 0 0.0029269561706706426 -0.017121074935451952 0 0.0030260269355332175 -0.016579609397794497 0 0.0033272363921078517 -0.016078753420990667 0 0.0046746267450639067 -0.016282253468034268 0 0.0050822903326667402 -0.015395082822867355 0 0.0055572704183118691 -0.015114153957528029 0 0.0049869935120206163 -0.015545064513495421 0 0.005436018828257067 -0.014989986395255915 0 0.0041073680262004864 -0.016545100465297873 0 0.0040969140049706507 -0.015548224213410487 0 0.0049869935120206163 -0.015545064513495421 0 0.0041073680262004864 -0.016545100465297873 0 0.0033628781128452112 -0.016548755139103727 0 0.0033272363921078517 -0.016078753420990667 0 0.0041073680262004864 -0.016545100465297873 0 0.0033272363921078517 -0.016078753420990667 0 0.0040969140049706507 -0.015548224213410487 0 0.0046148489640198374 -0.014838238556333252 0 0.0040969140049706507 -0.015548224213410487 0 0.0049869935120206163 -0.015545064513495421 0 0.0046148489640198374 -0.014838238556333252 0 0.0049869935120206163 -0.015545064513495421 0 0.0055130667372476037 -0.014904783381211687 0 0.0049869935120206163 -0.015545064513495421 0 0.0055130667372476037 -0.014904783381211687 0 0.0053952435170037793 -0.015197351039171216 0 0.0055130667372476037 -0.014904783381211687 0 0.0053952435170037793 -0.015197351039171216 0 0.0056606188396327931 -0.014938729724183288 0 0.0059560934016739762 -0.014473753819724234 0 0.0055130667372476037 -0.014904783381211687 0 0.0056606188396327931 -0.014938729724183288 0 0.0053952435170037793 -0.015197351039171216 0 0.0054929076341232062 -0.014966134487308594 0 0.0055470856243938303 -0.015046495451209847 0 0.0053952435170037793 -0.015197351039171216 0 0.0055470856243938303 -0.015046495451209847 0 0.0056606188396327931 -0.014938729724183288 0 0.0049869935120206163 -0.015545064513495421 0 0.0053952435170037793 -0.015197351039171216 0 0.005436018828257067 -0.014989986395255915 0 0.0053952435170037793 -0.015197351039171216 0 0.005436018828257067 -0.014989986395255915 0 0.0054929076341232062 -0.014966134487308594 0 0.005436018828257067 -0.014989986395255915 0 0.0054929076341232062 -0.014966134487308594 0 0.0055363020568004141 -0.01475650436947477 0 0.005436018828257067 -0.014989986395255915 0 0.0055363020568004141 -0.01475650436947477 0 0.0055095210670279829 -0.014800217604487196 0 0.0054929076341232062 -0.014966134487308594 0 0.0055363020568004141 -0.01475650436947477 0 0.0054893393440462604 -0.01465983284257461 0 0.0054929076341232062 -0.014966134487308594 0 0.0054893393440462604 -0.01465983284257461 0 0.0055470856243938303 -0.015046495451209847 0 0.0055363020568004141 -0.01475650436947477 0 0.0055986579965778887 -0.014290923110329135 0 0.0055095210670279829 -0.014800217604487196 0 0.0055363020568004141 -0.01475650436947477 0 0.0055986579965778887 -0.014290923110329135 0 0.0054893393440462604 -0.01465983284257461 0 0.0048816975666843383 -0.013146145912638555 0 0.0053559482210381263 -0.01349963770856834 0 0.0047588392542228606 -0.013180003121366126 0 0.0046607661793271445 -0.014229261646895648 0 0.0051843682893939506 -0.01418913489339356 0 0.0046607661793271445 -0.014229261646895648 0 0.0051843682893939506 -0.01418913489339356 0 0.0051924773807347094 -0.014622517473355924 0 0.0047588392542228606 -0.013180003121366126 0 0.0055986579965778887 -0.014290923110329135 0 0.0051843682893939506 -0.01418913489339356 0 0.0055986579965778887 -0.014290923110329135 0 0.0051843682893939506 -0.01418913489339356 0 0.0054893393440462604 -0.01465983284257461 0 0.0051843682893939506 -0.01418913489339356 0 0.0054893393440462604 -0.01465983284257461 0 0.0051924773807347094 -0.014622517473355924 0 0.0054893393440462604 -0.01465983284257461 0 0.005459472867282599 -0.014989897144590853 0 0.0051924773807347094 -0.014622517473355924 0 0.0054893393440462604 -0.01465983284257461 0 0.005459472867282599 -0.014989897144590853 0 0.0055470856243938303 -0.015046495451209847 0 0.0046607661793271445 -0.014229261646895648 0 0.0051924773807347094 -0.014622517473355924 0 0.0049459145737759018 -0.015348851653153471 0 0.018141189701864326 -0.0043352209172905082 0 0.018101056604720431 -0.0046860381387510124 0 0.018045981096068493 -0.0045167111540360466 0 0.011855675728985517 -0.0090501031817639896 0 0.0092615225775547171 -0.010748391543855144 0 0.005459472867282599 -0.014989897144590853 0 0.0051924773807347094 -0.014622517473355924 0 0.0049459145737759018 -0.015348851653153471 0 0.0092615225775547171 -0.010748391543855144 0 0.008956184653651186 -0.012398093484041707 0 0.0059561096020171343 -0.01505325526899743 0 0.0059888690741714606 -0.014982308713110478 0 0.005690822393260098 -0.015002166517631881 0 0.0042252908632001021 -0.015682235321612396 0 0.0092615225775547171 -0.010748391543855144 0 0.005459472867282599 -0.014989897144590853 0 0.0059561096020171343 -0.01505325526899743 0 0.005690822393260098 -0.015002166517631881 0 0.0059888690741714606 -0.014982308713110478 0 0.005690822393260098 -0.015002166517631881 0 0.0058984367125365453 -0.014801832402042749 0 0.005459472867282599 -0.014989897144590853 0 0.0055470856243938303 -0.015046495451209847 0 0.005690822393260098 -0.015002166517631881 0 0.005690822393260098 -0.015002166517631881 0 0.0056606188396327931 -0.014938729724183288 0 0.0058984367125365453 -0.014801832402042749 0 0.0055470856243938303 -0.015046495451209847 0 0.005690822393260098 -0.015002166517631881 0 0.0056606188396327931 -0.014938729724183288 0 0.0059560934016739762 -0.014473753819724234 0 0.0056606188396327931 -0.014938729724183288 0 0.0058984367125365453 -0.014801832402042749 0 0.0059560934016739762 -0.014473753819724234 0 0.0058984367125365453 -0.014801832402042749 0 0.0061709488643597443 -0.014531709974340732 0 0.0061926293669049464 -0.014744058513896936 0 0.0058984367125365453 -0.014801832402042749 0 0.0061709488643597443 -0.014531709974340732 0 0.0059888690741714606 -0.014982308713110478 0 0.0061926293669049464 -0.014744058513896936 0 0.0058984367125365453 -0.014801832402042749 0 0.0059888690741714606 -0.014982308713110478 0 0.0061926293669049464 -0.014744058513896936 0 0.0068054789611888362 -0.014669910200464919 0 0.0061926293669049464 -0.014744058513896936 0 0.0061709488643597443 -0.014531709974340732 0 0.0068054789611888362 -0.014669910200464919 0 0.014794154116855295 -0.013495997021296283 0 0.011863659926528571 -0.01491501612870139 0 0.014809798897930836 -0.015678606537051547 0 0.0083220231260983466 -0.014926742238937144 0 0.015685164131984529 -0.010472828942362435 0 0.018101056604720431 -0.0046860381387510124 0 0.018002174203246461 -0.0046568526881119367 0 0.01791796779935206 -0.0047900909732452321 0 0.0060056525974812886 -0.015083589545272613 0 0.0059888690741714606 -0.014982308713110478 0 0.0068054789611888362 -0.014669910200464919 0 0.0092615225775547171 -0.010748391543855144 0 0.015685164131984529 -0.010472828942362435 0 0.018002174203246461 -0.0046568526881119367 0 0.017932828653105731 -0.00469288536569476 0 0.01791796779935206 -0.0047900909732452321 0 0.017951506987332774 -0.0045922693510623636 0 0.018002174203246461 -0.0046568526881119367 0 0.017932828653105731 -0.00469288536569476 0 0.017951506987332774 -0.0045922693510623636 0 0.018002174203246461 -0.0046568526881119367 0 0.017991632827536103 -0.0045601421945852851 0 0.018101056604720431 -0.0046860381387510124 0 0.018002174203246461 -0.0046568526881119367 0 0.018045981096068493 -0.0045167111540360466 0 0.017932828653105731 -0.00469288536569476 0 0.01791796779935206 -0.0047900909732452321 0 0.017886246732532262 -0.0047181244188123075 0 0.017898487981093003 -0.0046353124225956242 0 0.017932828653105731 -0.00469288536569476 0 0.017886246732532262 -0.0047181244188123075 0 0.017898487981093003 -0.0046353124225956242 0 0.017886246732532262 -0.0047181244188123075 0 0.017888542924455408 -0.0046428886423059432 0 0.017951506987332774 -0.0045922693510623636 0 0.017898487981093003 -0.0046353124225956242 0 0.017932828653105731 -0.00469288536569476 0 0.021248633525451463 -0.0089662379021477924 0 0.023550697027712481 -0.0072382322767666016 0 0.02082176285795535 -0.006036021221039585 0 0.015685164131984529 -0.010472828942362435 0 0.019830154060228988 -0.0055564665909911739 0 0.016829045908731632 -0.013825842708908336 0 0.014794154116855295 -0.013495997021296283 0 0.014809798897930836 -0.015678606537051547 0 0.019246532951115353 -0.011143014911193162 0 0.015685164131984529 -0.010472828942362435 0 0.019470892319324841 -0.0076293920561751084 0 0.018015858497807659 -0.0049323284276476973 0 0.02082176285795535 -0.006036021221039585 0 0.021248633525451463 -0.0089662379021477924 0 0.019470892319324841 -0.0076293920561751084 0 0.02082176285795535 -0.006036021221039585 0 0.017772144296216402 -0.0078975096175710555 0 0.018015858497807659 -0.0049323284276476973 0 0.016604120727065737 -0.0056700226138117959 0 0.019470892319324841 -0.0076293920561751084 0 0.017772144296216402 -0.0078975096175710555 0 0.018015858497807659 -0.0049323284276476973 0 0.018015858497807659 -0.0049323284276476973 0 0.016604120727065737 -0.0056700226138117959 0 0.017264602597843137 -0.0044609603368661365 0 0.018015858497807659 -0.0049323284276476973 0 0.017888542924455408 -0.0046428886423059432 0 0.017713771445646911 -0.0043898116953077866 0 0.017999539788928268 -0.0048903027028347184 0 0.019830154060228988 -0.0055564665909911739 0 0.018015858497807659 -0.0049323284276476973 0 0.017886246732532262 -0.0047181244188123075 0 0.017888542924455408 -0.0046428886423059432 0 0.017888542924455408 -0.0046428886423059432 0 0.017794218747248743 -0.0044126495181217203 0 0.017879106479729588 -0.0044637621973803191 0 0.017888542924455408 -0.0046428886423059432 0 0.017794218747248743 -0.0044126495181217203 0 0.017713771445646911 -0.0043898116953077866 0 0.017794218747248743 -0.0044126495181217203 0 0.017713771445646911 -0.0043898116953077866 0 0.017624629505317076 -0.004129640762248297 0 0.018015858497807659 -0.0049323284276476973 0 0.017713771445646911 -0.0043898116953077866 0 0.017264602597843137 -0.0044609603368661365 0 0.017713771445646911 -0.0043898116953077866 0 0.017264602597843137 -0.0044609603368661365 0 0.017355705428628708 -0.0039681652991055234 0 0.017713771445646911 -0.0043898116953077866 0 0.017624629505317076 -0.004129640762248297 0 0.017355705428628708 -0.0039681652991055234 0 0.017624629505317076 -0.004129640762248297 0 0.017355705428628708 -0.0039681652991055234 0 0.017390282293456402 -0.0038587255963394083 0 0.017794218747248743 -0.0044126495181217203 0 0.017775128860515365 -0.0042811067873154201 0 0.017624629505317076 -0.004129640762248297 0 0.017775128860515365 -0.0042811067873154201 0 0.017624629505317076 -0.004129640762248297 0 0.017697583790891841 -0.0040713275144907499 0 0.017624629505317076 -0.004129640762248297 0 0.017697583790891841 -0.0040713275144907499 0 0.0175540966067258 -0.0039234282963889712 0 0.017697583790891841 -0.0040713275144907499 0 0.01779108226748265 -0.0040899285563508149 0 0.017714814769787448 -0.0039636274056432802 0 0.017697583790891841 -0.0040713275144907499 0 0.017822764695046556 -0.0042487247708440498 0 0.01779108226748265 -0.0040899285563508149 0 0.017775128860515365 -0.0042811067873154201 0 0.017697583790891841 -0.0040713275144907499 0 0.017822764695046556 -0.0042487247708440498 0 0.017822764695046556 -0.0042487247708440498 0 0.01790866389810248 -0.0043424889507380528 0 0.017879529340359957 -0.0042039234765749445 0 0.017822764695046556 -0.0042487247708440498 0 0.017879529340359957 -0.0042039234765749445 0 0.01779108226748265 -0.0040899285563508149 0 0.017879529340359957 -0.0042039234765749445 0 0.01779108226748265 -0.0040899285563508149 0 0.01786465059926912 -0.0040967199531114348 0 0.017879529340359957 -0.0042039234765749445 0 0.01786465059926912 -0.0040967199531114348 0 0.01795192916916287 -0.0041621801188578191 0 0.01786465059926912 -0.0040967199531114348 0 0.01795192916916287 -0.0041621801188578191 0 0.017905371519821394 -0.004031495672395133 0 0.018141189701864326 -0.0043352209172905082 0 0.01795192916916287 -0.0041621801188578191 0 0.018013875775099646 -0.0040759557494052627 0 0.018141189701864326 -0.0043352209172905082 0 0.01795192916916287 -0.0041621801188578191 0 0.017981494077718502 -0.0043428058969694197 0 0.01790866389810248 -0.0043424889507380528 0 0.017879529340359957 -0.0042039234765749445 0 0.017981494077718502 -0.0043428058969694197 0 0.017879529340359957 -0.0042039234765749445 0 0.01795192916916287 -0.0041621801188578191 0 0.017981494077718502 -0.0043428058969694197 0 0.01790866389810248 -0.0043424889507380528 0 0.017981494077718502 -0.0043428058969694197 0 0.017965703800398924 -0.0044661233328356139 0 0.017981494077718502 -0.0043428058969694197 0 0.017965703800398924 -0.0044661233328356139 0 0.018045981096068493 -0.0045167111540360466 0 0.018141189701864326 -0.0043352209172905082 0 0.017981494077718502 -0.0043428058969694197 0 0.018045981096068493 -0.0045167111540360466 0 0.018002174203246461 -0.0046568526881119367 0 0.018045981096068493 -0.0045167111540360466 0 0.017991632827536103 -0.0045601421945852851 0 0.017965703800398924 -0.0044661233328356139 0 0.018045981096068493 -0.0045167111540360466 0 0.017991632827536103 -0.0045601421945852851 0 0.017951506987332774 -0.0045922693510623636 0 0.017965703800398924 -0.0044661233328356139 0 0.017991632827536103 -0.0045601421945852851 0 0.017951506987332774 -0.0045922693510623636 0 0.017898487981093003 -0.0046353124225956242 0 0.017879106479729588 -0.0044637621973803191 0 0.017951506987332774 -0.0045922693510623636 0 0.017965703800398924 -0.0044661233328356139 0 0.017879106479729588 -0.0044637621973803191 0 0.017898487981093003 -0.0046353124225956242 0 0.017888542924455408 -0.0046428886423059432 0 0.017879106479729588 -0.0044637621973803191 0 0.017775128860515365 -0.0042811067873154201 0 0.017822764695046556 -0.0042487247708440498 0 0.017879106479729588 -0.0044637621973803191 0 0.017794218747248743 -0.0044126495181217203 0 0.017775128860515365 -0.0042811067873154201 0 0.017879106479729588 -0.0044637621973803191 0 0.017822764695046556 -0.0042487247708440498 0 0.01790866389810248 -0.0043424889507380528 0 0.017879106479729588 -0.0044637621973803191 0 0.01790866389810248 -0.0043424889507380528 0 0.017965703800398924 -0.0044661233328356139 0 0.017879106479729588 -0.0044637621973803191 0 0.018374771528075179 -0.0014721363285353914 0 0.019044493755691672 -0.00085189341571857452 0 0.017638961379202168 -0.0010235278601029979 0 0.018374771528075179 -0.0014721363285353914 0 0.01762714461188367 -0.0018509209806398864 0 0.018515317469463135 -0.0021718555522466983 0 0.018977123773756155 -0.0016777671232273198 0 0.018374771528075179 -0.0014721363285353914 0 0.018515317469463135 -0.0021718555522466983 0 0.018977123773756155 -0.0016777671232273198 0 0.018374771528075179 -0.0014721363285353914 0 0.019044493755691672 -0.00085189341571857452 0 0.020270142577856941 -0.002344808767255094 0 0.02023137036861742 -0.0021210398052339055 0 0.020243263400583519 -0.0022451414988465717 0 0.019950892620331152 -0.00095761724544644368 0 0.016670569784534416 -0.005106935215655692 0 0.020270142577856941 -0.002344808767255094 0 0.02023137036861742 -0.0021210398052339055 0 0.020330654719888212 -0.0023637786975425046 0 0.020301156292850273 -0.0020295734357669596 0 0.02023137036861742 -0.0021210398052339055 0 0.020243263400583519 -0.0022451414988465717 0 0.017888269190969853 -0.0097176954437806426 0 0.018840212957489964 -0.0043123510761966469 0 0.020248166669144377 -0.0022935147501380719 0 0.020252774487758668 -0.002336390282682386 0 0.020243263400583519 -0.0022451414988465717 0 0.014575017435193145 -0.010309004847390063 0 0.01642332427235586 -0.0028374364642323423 0 0.019044493755691672 -0.00085189341571857452 0 0.017535454743396805 -0.00085127273691425328 0 0.017638961379202168 -0.0010235278601029979 0 0.019044493755691672 -0.00085189341571857452 0 0.017406067673085276 -6.7250292560446268e-05 0 0.017535454743396805 -0.00085127273691425328 0 0.016877947394265451 -0.007753880251806732 0 0.015185476568560176 -0.006851584967973179 0 0.014750971466262299 -0.0039746268746432226 0 0.016670569784534416 -0.005106935215655692 0 0.01642332427235586 -0.0028374364642323423 0 0.01642332427235586 -0.0028374364642323423 0 0.016421324496278828 -0.0024291665926824608 0 0.016718240400057819 -0.0050353559457267712 0 0.01681257237634376 -0.0043222140068112438 0 0.016932421353650744 -0.0047102386279298525 0 0.017553159456632526 -0.00084893273971152125 0 0.017638961379202168 -0.0010235278601029979 0 0.01762714461188367 -0.0018509209806398864 0 0.01642332427235586 -0.0028374364642323423 0 0.017286574836267186 -0.0031774892886422923 0 0.018374771528075179 -0.0014721363285353914 0 0.017638961379202168 -0.0010235278601029979 0 0.01762714461188367 -0.0018509209806398864 0 0.01681257237634376 -0.0043222140068112438 0 0.016932421353650744 -0.0047102386279298525 0 0.017142976134581805 -0.0041257403958269469 0 0.016932421353650744 -0.0047102386279298525 0 0.017099842213772479 -0.0043498839365331537 0 0.017142976134581805 -0.0041257403958269469 0 0.016932421353650744 -0.0047102386279298525 0 0.016861696221072996 -0.0050402014348822884 0 0.017099842213772479 -0.0043498839365331537 0 0.016932421353650744 -0.0047102386279298525 0 0.016861696221072996 -0.0050402014348822884 0 0.016845394569707666 -0.0050817330414902363 0 0.016718240400057819 -0.0050353559457267712 0 0.016932421353650744 -0.0047102386279298525 0 0.016845394569707666 -0.0050817330414902363 0 0.016872968141186162 -0.0051045612834385622 0 0.016845394569707666 -0.0050817330414902363 0 0.016818886560970119 -0.0052317463911088239 0 0.016872968141186162 -0.0051045612834385622 0 0.016718240400057819 -0.0050353559457267712 0 0.016845394569707666 -0.0050817330414902363 0 0.016831316537759142 -0.0050275011920517905 0 0.016818886560970119 -0.0052317463911088239 0 0.016604120727065737 -0.0056700226138117959 0 0.016872968141186162 -0.0051045612834385622 0 0.016831316537759142 -0.0050275011920517905 0 0.016818886560970119 -0.0052317463911088239 0 0.016861696221072996 -0.0050402014348822884 0 0.016845394569707666 -0.0050817330414902363 0 0.016818886560970119 -0.0052317463911088239 0 0.015982953325541897 -0.0088383844004121248 0 0.017772144296216402 -0.0078975096175710555 0 0.016604120727065737 -0.0056700226138117959 0 0.01401307766445796 -0.01231896733588487 0 0.017247168102275723 -0.0039120857679401265 0 0.015982953325541897 -0.0088383844004121248 0 0.012810963175612027 -0.0093742778356670983 0 0.016604120727065737 -0.0056700226138117959 0 0.016861696221072996 -0.0050402014348822884 0 0.016818886560970119 -0.0052317463911088239 0 0.016604120727065737 -0.0056700226138117959 0 0.016861696221072996 -0.0050402014348822884 0 0.017264602597843137 -0.0044609603368661365 0 0.017099842213772479 -0.0043498839365331537 0 0.016861696221072996 -0.0050402014348822884 0 0.016604120727065737 -0.0056700226138117959 0 0.017264602597843137 -0.0044609603368661365 0 0.017264602597843137 -0.0044609603368661365 0 0.017264702642481998 -0.0040385694938751392 0 0.017099842213772479 -0.0043498839365331537 0 0.017264602597843137 -0.0044609603368661365 0 0.017264702642481998 -0.0040385694938751392 0 0.017355705428628708 -0.0039681652991055234 0 0.017264702642481998 -0.0040385694938751392 0 0.017355705428628708 -0.0039681652991055234 0 0.017431371341115671 -0.0037052439074107368 0 0.017264702642481998 -0.0040385694938751392 0 0.01731608133295081 -0.0037840193889024046 0 0.017431371341115671 -0.0037052439074107368 0 0.01731608133295081 -0.0037840193889024046 0 0.01766678539808109 -0.003221089245582101 0 0.017431371341115671 -0.0037052439074107368 0 0.017264702642481998 -0.0040385694938751392 0 0.01731608133295081 -0.0037840193889024046 0 0.017099842213772479 -0.0043498839365331537 0 0.01731608133295081 -0.0037840193889024046 0 0.017099842213772479 -0.0043498839365331537 0 0.017142976134581805 -0.0041257403958269469 0 0.01762714461188367 -0.0018509209806398864 0 0.01766678539808109 -0.003221089245582101 0 0.018515317469463135 -0.0021718555522466983 0 0.017286574836267186 -0.0031774892886422923 0 0.01753151953204312 -0.0033044612172353455 0 0.01681257237634376 -0.0043222140068112438 0 0.017142976134581805 -0.0041257403958269469 0 0.01766678539808109 -0.003221089245582101 0 0.01731608133295081 -0.0037840193889024046 0 0.017142976134581805 -0.0041257403958269469 0 0.01766678539808109 -0.003221089245582101 0 0.01766678539808109 -0.003221089245582101 0 0.018151511458967443 -0.0034857443948070827 0 0.017431371341115671 -0.0037052439074107368 0 0.01928348062066914 -0.0031230411643858578 0 0.018795778779672423 -0.0028797196326165006 0 0.018151511458967443 -0.0034857443948070827 0 0.01766678539808109 -0.003221089245582101 0 0.018795778779672423 -0.0028797196326165006 0 0.018151511458967443 -0.0034857443948070827 0 0.019328846638906112 -0.0021346945386447147 0 0.018795778779672423 -0.0028797196326165006 0 0.018515317469463135 -0.0021718555522466983 0 0.01766678539808109 -0.003221089245582101 0 0.018795778779672423 -0.0028797196326165006 0 0.018515317469463135 -0.0021718555522466983 0 0.019328846638906112 -0.0021346945386447147 0 0.018977123773756155 -0.0016777671232273198 0 0.018515317469463135 -0.0021718555522466983 0 0.018656539556425916 -0.0041635224023525855 0 0.018911273286468432 -0.0035448791342253933 0 0.018071278624384613 -0.0038277968174585857 0 0.020229104420484024 -0.0034243519867189999 0 0.018656539556425916 -0.0041635224023525855 0 0.018911273286468432 -0.0035448791342253933 0 0.01928348062066914 -0.0031230411643858578 0 0.018911273286468432 -0.0035448791342253933 0 0.018151511458967443 -0.0034857443948070827 0 0.018071278624384613 -0.0038277968174585857 0 0.018151511458967443 -0.0034857443948070827 0 0.017431371341115671 -0.0037052439074107368 0 0.018911273286468432 -0.0035448791342253933 0 0.018071278624384613 -0.0038277968174585857 0 0.018151511458967443 -0.0034857443948070827 0 0.018656539556425916 -0.0041635224023525855 0 0.018071278624384613 -0.0038277968174585857 0 0.017598872386548496 -0.004077863707609969 0 0.019131961235689048 -0.0028264101609518397 0 0.017711795816460863 -0.0027769436810577046 0 0.018275793863184921 -0.0031735565391582611 0 0.018876280254250848 -0.0034735478198304583 0 0.017702008769002728 -0.0034423023078029844 0 0.017598872386548496 -0.004077863707609969 0 0.017431371341115671 -0.0037052439074107368 0 0.01737753902467563 -0.003835461332837927 0 0.018071278624384613 -0.0038277968174585857 0 0.017598872386548496 -0.004077863707609969 0 0.017431371341115671 -0.0037052439074107368 0 0.017355705428628708 -0.0039681652991055234 0 0.01737753902467563 -0.003835461332837927 0 0.017390282293456402 -0.0038587255963394083 0 0.017355705428628708 -0.0039681652991055234 0 0.017431371341115671 -0.0037052439074107368 0 0.01737753902467563 -0.003835461332837927 0 0.01737753902467563 -0.003835461332837927 0 0.017335330672882693 -0.0038490559876756913 0 0.017390282293456402 -0.0038587255963394083 0 0.017702008769002728 -0.0034423023078029844 0 0.017353315933807918 -0.0035206385041334398 0 0.017598872386548496 -0.004077863707609969 0 0.01737753902467563 -0.003835461332837927 0 0.017335330672882693 -0.0038490559876756913 0 0.017711795816460863 -0.0027769436810577046 0 0.017272212523313884 -0.0031880181822433618 0 0.017323601204406337 -0.0031782504257807866 0 0.017323601204406337 -0.0031782504257807866 0 0.017270441808433082 -0.0032069704290619162 0 0.017313618329612226 -0.0033107324878585633 0 0.017323601204406337 -0.0031782504257807866 0 0.017270441808433082 -0.0032069704290619162 0 0.017452446266696852 -0.0031484895691591425 0 0.017272212523313884 -0.0031880181822433618 0 0.017323601204406337 -0.0031782504257807866 0 0.017313618329612226 -0.0033107324878585633 0 0.017270441808433082 -0.0032069704290619162 0 0.017442072261047659 -0.0030631068555863838 0 0.017208072203413187 -0.0031988452356724578 0 0.017270441808433082 -0.0032069704290619162 0 0.017442072261047659 -0.0030631068555863838 0 0.017452446266696852 -0.0031484895691591425 0 0.017711795816460863 -0.0027769436810577046 0 0.017452446266696852 -0.0031484895691591425 0 0.018275793863184921 -0.0031735565391582611 0 0.017711795816460863 -0.0027769436810577046 0 0.017323601204406337 -0.0031782504257807866 0 0.017452446266696852 -0.0031484895691591425 0 0.017578188265128969 -0.0031422902848779167 0 0.018612785046061085 -0.0031684427239975139 0 0.017452446266696852 -0.0031484895691591425 0 0.018275793863184921 -0.0031735565391582611 0 0.018968499577924028 -0.0039283641639256328 0 0.019131961235689048 -0.0028264101609518397 0 0.018275793863184921 -0.0031735565391582611 0 0.018968499577924028 -0.0039283641639256328 0 0.017442072261047659 -0.0030631068555863838 0 0.017452446266696852 -0.0031484895691591425 0 0.018184411479280595 -0.0024133969126131781 0 0.017442072261047659 -0.0030631068555863838 0 0.018184411479280595 -0.0024133969126131781 0 0.018654032470194697 -0.0031848883435095349 0 0.020177914877944816 -0.0031238174047007621 0 0.018612785046061085 -0.0031684427239975139 0 0.019963479991137133 -0.0023513710069402961 0 0.018184411479280595 -0.0024133969126131781 0 0.018654032470194697 -0.0031848883435095349 0 0.020432360465097166 -0.0039014933700921035 0 0.018968499577924028 -0.0039283641639256328 0 0.019749665416313511 -0.0035325541407960673 0 0.019131961235689048 -0.0028264101609518397 0 0.018968499577924028 -0.0039283641639256328 0 0.019749665416313511 -0.0035325541407960673 0 0.017616716657717909 -0.003637216891433022 0 0.01768456690362688 -0.0036527966920869995 0 0.017739971960010495 -0.0037627330651647467 0 0.017616716657717909 -0.003637216891433022 0 0.017475111479874645 -0.0034582799584466726 0 0.017544848815747728 -0.0034633600956933855 0 0.017616716657717909 -0.003637216891433022 0 0.017626032428278902 -0.0035553063286653305 0 0.017544848815747728 -0.0034633600956933855 0 0.017616716657717909 -0.003637216891433022 0 0.017626032428278902 -0.0035553063286653305 0 0.01768456690362688 -0.0036527966920869995 0 0.017626032428278902 -0.0035553063286653305 0 0.017701451963651523 -0.0035676567212547844 0 0.01768456690362688 -0.0036527966920869995 0 0.017626032428278902 -0.0035553063286653305 0 0.017701451963651523 -0.0035676567212547844 0 0.017574281499979822 -0.0034558911291223582 0 0.017701451963651523 -0.0035676567212547844 0 0.01768456690362688 -0.0036527966920869995 0 0.017721917248343808 -0.0037224255656389997 0 0.012726730723814202 -0.0064129653251797447 0 0.012890672282336856 -0.0077895398739917816 0 0.013801273542288104 -0.0064261909561696487 0 0.013115358307386272 -0.0067099029095148326 0 0.017287703386427215 -0.0047191109996708802 0 0.01768456690362688 -0.0036527966920869995 0 0.017721917248343808 -0.0037224255656389997 0 0.017739971960010495 -0.0037627330651647467 0 0.017287703386427215 -0.0047191109996708802 0 0.017696769683777664 -0.0043524292557851427 0 0.017982901563381812 -0.0037882795979325415 0 0.017906416856923953 -0.0039051842455203674 0 0.017739971960010495 -0.0037627330651647467 0 0.017287703386427215 -0.0047191109996708802 0 0.017555314930897674 -0.0043304410227809603 0 0.017928508203469733 -0.0038811801678050235 0 0.017906416856923953 -0.0039051842455203674 0 0.017964020332206045 -0.0039675010557700023 0 0.017906416856923953 -0.0039051842455203674 0 0.017802146326803017 -0.003904859058914857 0 0.017739971960010495 -0.0037627330651647467 0 0.018078555216192893 -0.0039104658400608725 0 0.017928508203469733 -0.0038811801678050235 0 0.017964020332206045 -0.0039675010557700023 0 0.0090505593720858202 -0.0090401022819043813 0 0.017287703386427215 -0.0047191109996708802 0 0.018078555216192893 -0.0039104658400608725 0 0.018013875775099646 -0.0040759557494052627 0 0.017964020332206045 -0.0039675010557700023 0 0.01795192916916287 -0.0041621801188578191 0 0.018013875775099646 -0.0040759557494052627 0 0.017905371519821394 -0.004031495672395133 0 0.018013875775099646 -0.0040759557494052627 0 0.017964020332206045 -0.0039675010557700023 0 0.017905371519821394 -0.004031495672395133 0 0.017906416856923953 -0.0039051842455203674 0 0.017905371519821394 -0.004031495672395133 0 0.017802146326803017 -0.003904859058914857 0 0.017906416856923953 -0.0039051842455203674 0 0.017964020332206045 -0.0039675010557700023 0 0.017905371519821394 -0.004031495672395133 0 0.01779108226748265 -0.0040899285563508149 0 0.01786465059926912 -0.0040967199531114348 0 0.017791275544418558 -0.0039828630941449034 0 0.01786465059926912 -0.0040967199531114348 0 0.017905371519821394 -0.004031495672395133 0 0.017791275544418558 -0.0039828630941449034 0 0.01779108226748265 -0.0040899285563508149 0 0.017791275544418558 -0.0039828630941449034 0 0.017714814769787448 -0.0039636274056432802 0 0.017791275544418558 -0.0039828630941449034 0 0.017695769032176411 -0.0038302896469710676 0 0.017714814769787448 -0.0039636274056432802 0 0.017791275544418558 -0.0039828630941449034 0 0.017802146326803017 -0.003904859058914857 0 0.017695769032176411 -0.0038302896469710676 0 0.017905371519821394 -0.004031495672395133 0 0.017791275544418558 -0.0039828630941449034 0 0.017802146326803017 -0.003904859058914857 0 0.017616716657717909 -0.003637216891433022 0 0.017695769032176411 -0.0038302896469710676 0 0.017739971960010495 -0.0037627330651647467 0 0.017802146326803017 -0.003904859058914857 0 0.017695769032176411 -0.0038302896469710676 0 0.017739971960010495 -0.0037627330651647467 0 0.017616716657717909 -0.003637216891433022 0 0.017695769032176411 -0.0038302896469710676 0 0.01761544816018654 -0.0038384518913585955 0 0.017695769032176411 -0.0038302896469710676 0 0.017714814769787448 -0.0039636274056432802 0 0.01761544816018654 -0.0038384518913585955 0 0.017697583790891841 -0.0040713275144907499 0 0.017714814769787448 -0.0039636274056432802 0 0.01761544816018654 -0.0038384518913585955 0 0.0175540966067258 -0.0039234282963889712 0 0.017390282293456402 -0.0038587255963394083 0 0.017446209471341904 -0.0036239366286192915 0 0.0175540966067258 -0.0039234282963889712 0 0.01761544816018654 -0.0038384518913585955 0 0.017446209471341904 -0.0036239366286192915 0 0.017697583790891841 -0.0040713275144907499 0 0.0175540966067258 -0.0039234282963889712 0 0.01761544816018654 -0.0038384518913585955 0 0.017624629505317076 -0.004129640762248297 0 0.0175540966067258 -0.0039234282963889712 0 0.017390282293456402 -0.0038587255963394083 0 0.017353315933807918 -0.0035206385041334398 0 0.017466258128849704 -0.0036064035710038707 0 0.017335330672882693 -0.0038490559876756913 0 0.017390282293456402 -0.0038587255963394083 0 0.017446209471341904 -0.0036239366286192915 0 0.017272212523313884 -0.0031880181822433618 0 0.017446209471341904 -0.0036239366286192915 0 0.017313618329612226 -0.0033107324878585633 0 0.017616716657717909 -0.003637216891433022 0 0.017446209471341904 -0.0036239366286192915 0 0.017475111479874645 -0.0034582799584466726 0 0.017616716657717909 -0.003637216891433022 0 0.01761544816018654 -0.0038384518913585955 0 0.017446209471341904 -0.0036239366286192915 0 0.017446209471341904 -0.0036239366286192915 0 0.017475111479874645 -0.0034582799584466726 0 0.017313618329612226 -0.0033107324878585633 0 0.017313618329612226 -0.0033107324878585633 0 0.017297205922164483 -0.0032732715268427213 0 0.017422786421395709 -0.0033418284341004624 0 0.017475111479874645 -0.0034582799584466726 0 0.017313618329612226 -0.0033107324878585633 0 0.017422786421395709 -0.0033418284341004624 0 0.017270441808433082 -0.0032069704290619162 0 0.017297205922164483 -0.0032732715268427213 0 0.017163307472754727 -0.0032306056014101679 0 0.017270441808433082 -0.0032069704290619162 0 0.017313618329612226 -0.0033107324878585633 0 0.017297205922164483 -0.0032732715268427213 0 0.017422786421395709 -0.0033418284341004624 0 0.017444564635853668 -0.0033072275653728768 0 0.017358434571638132 -0.0032459702477842306 0 0.017297205922164483 -0.0032732715268427213 0 0.017422786421395709 -0.0033418284341004624 0 0.017358434571638132 -0.0032459702477842306 0 0.017422786421395709 -0.0033418284341004624 0 0.017444564635853668 -0.0033072275653728768 0 0.017508714911124074 -0.0033716011086336079 0 0.017444564635853668 -0.0033072275653728768 0 0.017508714911124074 -0.0033716011086336079 0 0.017470631116321588 -0.0033403190490863574 0 0.017422786421395709 -0.0033418284341004624 0 0.017508714911124074 -0.0033716011086336079 0 0.017544848815747728 -0.0034633600956933855 0 0.017508714911124074 -0.0033716011086336079 0 0.017544848815747728 -0.0034633600956933855 0 0.017574281499979822 -0.0034558911291223582 0 0.017626032428278902 -0.0035553063286653305 0 0.017544848815747728 -0.0034633600956933855 0 0.017574281499979822 -0.0034558911291223582 0 0.017475111479874645 -0.0034582799584466726 0 0.017422786421395709 -0.0033418284341004624 0 0.017544848815747728 -0.0034633600956933855 0 0.017701451963651523 -0.0035676567212547844 0 0.017574281499979822 -0.0034558911291223582 0 0.017488264444178721 -0.0033663816272439372 0 0.013115358307386272 -0.0067099029095148326 0 0.01792370352032608 -0.0022594993484738586 0 0.017508714911124074 -0.0033716011086336079 0 0.017574281499979822 -0.0034558911291223582 0 0.017488264444178721 -0.0033663816272439372 0 0.017387481631788503 -0.0033623938292535573 0 0.017488264444178721 -0.0033663816272439372 0 0.017470631116321588 -0.0033403190490863574 0 0.017508714911124074 -0.0033716011086336079 0 0.017488264444178721 -0.0033663816272439372 0 0.017470631116321588 -0.0033403190490863574 0 0.017470631116321588 -0.0033403190490863574 0 0.017425001851551287 -0.0033664035524095665 0 0.017433433839581975 -0.0032087482815279312 0 0.017387481631788503 -0.0033623938292535573 0 0.017470631116321588 -0.0033403190490863574 0 0.017425001851551287 -0.0033664035524095665 0 0.01506486725476033 -0.0015877561556126691 0 0.014937415158565601 -0.0016966475487813894 0 0.011041624289806038 0.00044302065577704754 0 0.011922798525447397 -0.00094092289278075868 0 0.010829532651146069 -0.00098893365173157192 0 0.011041624289806038 0.00044302065577704754 0 0.011922798525447397 -0.00094092289278075868 0 0.012823352798333904 -0.00026942615840787028 0 0.011922798525447397 -0.00094092289278075868 0 0.012823352798333904 -0.00026942615840787028 0 0.013218826676168409 -0.0013241339529719114 0 0.017444564635853668 -0.0033072275653728768 0 0.017470631116321588 -0.0033403190490863574 0 0.017433433839581975 -0.0032087482815279312 0 0.017444564635853668 -0.0033072275653728768 0 0.017433433839581975 -0.0032087482815279312 0 0.017358434571638132 -0.0032459702477842306 0 0.017358434571638132 -0.0032459702477842306 0 0.017163307472754727 -0.0032306056014101679 0 0.017285182367917814 -0.0030623192057933485 0 0.017297205922164483 -0.0032732715268427213 0 0.017358434571638132 -0.0032459702477842306 0 0.017163307472754727 -0.0032306056014101679 0 0.017163307472754727 -0.0032306056014101679 0 0.017285182367917814 -0.0030623192057933485 0 0.016794721837906541 -0.0029231483783781348 0 0.016065931392516785 -0.0022063914714590999 0 0.016710102223300435 -0.0027843749924271357 0 0.017433433839581975 -0.0032087482815279312 0 0.017358434571638132 -0.0032459702477842306 0 0.017285182367917814 -0.0030623192057933485 0 0.012823352798333904 -0.00026942615840787028 0 0.013218826676168409 -0.0013241339529719114 0 0.014839942326241581 -0.0012488842229139252 0 0.014937415158565601 -0.0016966475487813894 0 0.016065931392516785 -0.0022063914714590999 0 0.013218826676168409 -0.0013241339529719114 0 0.014839942326241581 -0.0012488842229139252 0 0.013920013290192979 -0.0020222400761740452 0 0.013920013290192979 -0.0020222400761740452 0 0.013393795088357321 -0.0023473381184527494 0 0.013595149634616268 -0.0026635336240653424 0 0.014839942326241581 -0.0012488842229139252 0 0.013920013290192979 -0.0020222400761740452 0 0.015751460650759972 -0.0028691841121407367 0 0.013920013290192979 -0.0020222400761740452 0 0.015751460650759972 -0.0028691841121407367 0 0.015752882437485974 -0.0039720410811336718 0 0.014839942326241581 -0.0012488842229139252 0 0.015751460650759972 -0.0028691841121407367 0 0.016794721837906541 -0.0029231483783781348 0 0.015751460650759972 -0.0028691841121407367 0 0.015752882437485974 -0.0039720410811336718 0 0.016558824485841797 -0.0035470598411643651 0 0.013920013290192979 -0.0020222400761740452 0 0.013912161919163345 -0.0028839420387231501 0 0.013595149634616268 -0.0026635336240653424 0 0.013938731105667538 -0.0020698522574975429 0 0.014809111905772533 -0.0033377337769539394 0 0.013912161919163345 -0.0028839420387231501 0 0.013595149634616268 -0.0026635336240653424 0 0.013486574415332632 -0.0029884487345627235 0 0.013393795088357321 -0.0023473381184527494 0 0.013595149634616268 -0.0026635336240653424 0 0.013129011246800937 -0.0026686600274530643 0 0.013595149634616268 -0.0026635336240653424 0 0.013129011246800937 -0.0026686600274530643 0 0.013486574415332632 -0.0029884487345627235 0 0.013129011246800937 -0.0026686600274530643 0 0.012934991554616578 -0.0030997164272426967 0 0.013486574415332632 -0.0029884487345627235 0 0.013393795088357321 -0.0023473381184527494 0 0.013129011246800937 -0.0026686600274530643 0 0.012846779765111751 -0.0019808509045377374 0 0.013129011246800937 -0.0026686600274530643 0 0.012335638552876603 -0.0024783014982966384 0 0.012846779765111751 -0.0019808509045377374 0 0.012335638552876603 -0.0024783014982966384 0 0.011971834653028778 -0.0033279356686432802 0 0.012934991554616578 -0.0030997164272426967 0 0.013129011246800937 -0.0026686600274530643 0 0.012335638552876603 -0.0024783014982966384 0 0.012934991554616578 -0.0030997164272426967 0 0.012335638552876603 -0.0024783014982966384 0 0.011220770334374986 -0.0020153072010814762 0 0.011971834653028778 -0.0033279356686432802 0 0.010835345765642998 -0.0023577489816253654 0 0.0097347274690884212 -0.0023000613822895624 0 0.012335638552876603 -0.0024783014982966384 0 0.011787178505782279 -0.0017064300906890586 0 0.011220770334374986 -0.0020153072010814762 0 0.011922798525447397 -0.00094092289278075868 0 0.011787178505782279 -0.0017064300906890586 0 0.010829532651146069 -0.00098893365173157192 0 0.011787178505782279 -0.0017064300906890586 0 0.011220770334374986 -0.0020153072010814762 0 0.010829532651146069 -0.00098893365173157192 0 0.011922798525447397 -0.00094092289278075868 0 0.011787178505782279 -0.0017064300906890586 0 0.012846779765111751 -0.0019808509045377374 0 0.011922798525447397 -0.00094092289278075868 0 0.013218826676168409 -0.0013241339529719114 0 0.012846779765111751 -0.0019808509045377374 0 0.013218826676168409 -0.0013241339529719114 0 0.013920013290192979 -0.0020222400761740452 0 0.012846779765111751 -0.0019808509045377374 0 0.013920013290192979 -0.0020222400761740452 0 0.013393795088357321 -0.0023473381184527494 0 0.012846779765111751 -0.0019808509045377374 0 0.012335638552876603 -0.0024783014982966384 0 0.011787178505782279 -0.0017064300906890586 0 0.012846779765111751 -0.0019808509045377374 0 0.018851529343959832 -0.0042542302907922326 0 0.018654032470194697 -0.0031848883435095349 0 0.017447845007283452 -0.0036433333901726627 0 0.017442072261047659 -0.0030631068555863838 0 0.018654032470194697 -0.0031848883435095349 0 0.017447845007283452 -0.0036433333901726627 0 0.017447845007283452 -0.0036433333901726627 0 0.017058199496947195 -0.0032727147912710764 0 0.016970547912923774 -0.0033579271710529536 0 0.017058199496947195 -0.0032727147912710764 0 0.016794721837906541 -0.0029231483783781348 0 0.016970547912923774 -0.0033579271710529536 0 0.017442072261047659 -0.0030631068555863838 0 0.017058199496947195 -0.0032727147912710764 0 0.017208072203413187 -0.0031988452356724578 0 0.017442072261047659 -0.0030631068555863838 0 0.017447845007283452 -0.0036433333901726627 0 0.017058199496947195 -0.0032727147912710764 0 0.017163307472754727 -0.0032306056014101679 0 0.017058199496947195 -0.0032727147912710764 0 0.017208072203413187 -0.0031988452356724578 0 0.017270441808433082 -0.0032069704290619162 0 0.017163307472754727 -0.0032306056014101679 0 0.017208072203413187 -0.0031988452356724578 0 0.017163307472754727 -0.0032306056014101679 0 0.017058199496947195 -0.0032727147912710764 0 0.016794721837906541 -0.0029231483783781348 0 0.015751460650759972 -0.0028691841121407367 0 0.016794721837906541 -0.0029231483783781348 0 0.016558824485841797 -0.0035470598411643651 0 0.016794721837906541 -0.0029231483783781348 0 0.016558824485841797 -0.0035470598411643651 0 0.016970547912923774 -0.0033579271710529536 0 0.015752882437485974 -0.0039720410811336718 0 0.016558824485841797 -0.0035470598411643651 0 0.016275655626802128 -0.0038919047657995707 0 0.016668992209430793 -0.0036645500269739503 0 0.016970547912923774 -0.0033579271710529536 0 0.016950478618858116 -0.0034661254756535075 0 0.016558824485841797 -0.0035470598411643651 0 0.016668992209430793 -0.0036645500269739503 0 0.016970547912923774 -0.0033579271710529536 0 0.016558824485841797 -0.0035470598411643651 0 0.016668992209430793 -0.0036645500269739503 0 0.016450392192355261 -0.003832142203230993 0 0.018851529343959832 -0.0042542302907922326 0 0.017447845007283452 -0.0036433333901726627 0 0.017666286785255059 -0.0053599429585397236 0 0.017417557927924248 -0.0035704132758372 0 0.017190317894090385 -0.0046372643150060589 0 0.017447845007283452 -0.0036433333901726627 0 0.016970547912923774 -0.0033579271710529536 0 0.016950478618858116 -0.0034661254756535075 0 0.017190317894090385 -0.0046372643150060589 0 0.018830682725857497 -0.0039754427815210771 0 0.017666286785255059 -0.0053599429585397236 0 0.018974176028512649 -0.0056390401884787887 0 0.017838202213566235 -0.006745996046763696 0 0.016668992209430793 -0.0036645500269739503 0 0.016950478618858116 -0.0034661254756535075 0 0.016631232322110386 -0.00379765569900404 0 0.02105322986719806 -0.0044178201777704765 0 0.018830682725857497 -0.0039754427815210771 0 0.022622336295509669 -0.0031406539469792517 0 0.022745507063665557 -0.002705728007199976 0 0.02318273839557914 -0.0026411581004171358 0 0.018851529343959832 -0.0042542302907922326 0 0.017666286785255059 -0.0053599429585397236 0 0.018974176028512649 -0.0056390401884787887 0 0.022729591466143687 -0.0018939414121135754 0 0.022922150096755581 -0.0021894261129655436 0 0.023078000895348252 -0.0018652926940979828 0 0.022922150096755581 -0.0021894261129655436 0 0.022683150729228933 -0.0023451931493324199 0 0.022884062147054025 -0.0024541150303191636 0 0.022729591466143687 -0.0018939414121135754 0 0.022922150096755581 -0.0021894261129655436 0 0.022683150729228933 -0.0023451931493324199 0 0.022683150729228933 -0.0023451931493324199 0 0.022745507063665557 -0.002705728007199976 0 0.022884062147054025 -0.0024541150303191636 0 0.022745507063665557 -0.002705728007199976 0 0.022884062147054025 -0.0024541150303191636 0 0.02318273839557914 -0.0026411581004171358 0 0.022922150096755581 -0.0021894261129655436 0 0.022884062147054025 -0.0024541150303191636 0 0.02318273839557914 -0.0026411581004171358 0 0.018830682725857497 -0.0039754427815210771 0 0.017988464907113179 -0.0043407789608257176 0 0.016668992209430793 -0.0036645500269739503 0 0.016631232322110386 -0.00379765569900404 0 0.016501539504676577 -0.0038197573418569824 0 0.016542004149559596 -0.0038231745012979679 0 0.016505903388357009 -0.0038401971517080416 0 0.016330438071919754 -0.0038752809713903965 0 0.016501539504676577 -0.0038197573418569824 0 0.016505903388357009 -0.0038401971517080416 0 0.016423492228181354 -0.0038569329979184124 0 0.016505903388357009 -0.0038401971517080416 0 0.016423492228181354 -0.0038569329979184124 0 0.016330438071919754 -0.0038752809713903965 0 0.016631232322110386 -0.00379765569900404 0 0.016501539504676577 -0.0038197573418569824 0 0.016505903388357009 -0.0038401971517080416 0 0.016542004149559596 -0.0038231745012979679 0 0.016330438071919754 -0.0038752809713903965 0 0.016220022041389805 -0.0039169177518782522 0 0.018830682725857497 -0.0039754427815210771 0 0.019737173539167006 -0.0025895054400253336 0 0.016423492228181354 -0.0038569329979184124 0 0.016330438071919754 -0.0038752809713903965 0 0.016346219851987087 -0.003882501341858698 0 0.022922150096755581 -0.0021894261129655436 0 0.02318273839557914 -0.0026411581004171358 0 0.023078000895348252 -0.0018652926940979828 0 0.016330438071919754 -0.0038752809713903965 0 0.016130988518280747 -0.0038950813268136004 0 0.016045147003776024 -0.0038721321131936809 0 0.016330438071919754 -0.0038752809713903965 0 0.016045147003776024 -0.0038721321131936809 0 0.016220022041389805 -0.0039169177518782522 0 0.016130988518280747 -0.0038950813268136004 0 0.016319267957038707 -0.0039244339301391052 0 0.016302667385907861 -0.0039560217868664206 0 0.016130988518280747 -0.0038950813268136004 0 0.016346219851987087 -0.003882501341858698 0 0.016319267957038707 -0.0039244339301391052 0 0.016330438071919754 -0.0038752809713903965 0 0.016130988518280747 -0.0038950813268136004 0 0.016346219851987087 -0.003882501341858698 0 0.016501539504676577 -0.0038197573418569824 0 0.016423492228181354 -0.0038569329979184124 0 0.016346219851987087 -0.003882501341858698 0 0.016501539504676577 -0.0038197573418569824 0 0.016346219851987087 -0.003882501341858698 0 0.016450392192355261 -0.003832142203230993 0 0.016668992209430793 -0.0036645500269739503 0 0.016501539504676577 -0.0038197573418569824 0 0.016450392192355261 -0.003832142203230993 0 0.016346219851987087 -0.003882501341858698 0 0.016450392192355261 -0.003832142203230993 0 0.016319267957038707 -0.0039244339301391052 0 0.016319267957038707 -0.0039244339301391052 0 0.016275655626802128 -0.0038919047657995707 0 0.016302667385907861 -0.0039560217868664206 0 0.014809111905772533 -0.0033377337769539394 0 0.015220859403124386 -0.0034832442138053449 0 0.016558824485841797 -0.0035470598411643651 0 0.016450392192355261 -0.003832142203230993 0 0.016275655626802128 -0.0038919047657995707 0 0.016450392192355261 -0.003832142203230993 0 0.016319267957038707 -0.0039244339301391052 0 0.016275655626802128 -0.0038919047657995707 0 0.015752882437485974 -0.0039720410811336718 0 0.016275655626802128 -0.0038919047657995707 0 0.016302667385907861 -0.0039560217868664206 0 0.014135998931410029 -0.0028941103304926784 0 0.014287496127633444 -0.0032688629640659182 0 0.013803153569569552 -0.0031213371344670326 0 0.014135998931410029 -0.0028941103304926784 0 0.014287496127633444 -0.0032688629640659182 0 0.015533791037929777 -0.0039385318757415855 0 0.014287496127633444 -0.0032688629640659182 0 0.014395099900043389 -0.0042271303388990381 0 0.015533791037929777 -0.0039385318757415855 0 0.014287496127633444 -0.0032688629640659182 0 0.014395099900043389 -0.0042271303388990381 0 0.013210767947675442 -0.0036314731792984191 0 0.014287496127633444 -0.0032688629640659182 0 0.013063357276509318 -0.0030325875314804263 0 0.013210767947675442 -0.0036314731792984191 0 0.014395099900043389 -0.0042271303388990381 0 0.013212993805116808 -0.0045639861933045771 0 0.01431841732038946 -0.0052495411970953539 0 0.014395099900043389 -0.0042271303388990381 0 0.013210767947675442 -0.0036314731792984191 0 0.013212993805116808 -0.0045639861933045771 0 0.014395099900043389 -0.0042271303388990381 0 0.015279104170325649 -0.0047751302540154552 0 0.015533791037929777 -0.0039385318757415855 0 0.014395099900043389 -0.0042271303388990381 0 0.015279104170325649 -0.0047751302540154552 0 0.01431841732038946 -0.0052495411970953539 0 0.015279104170325649 -0.0047751302540154552 0 0.015860056795738355 -0.0041500808945610273 0 0.016040590219179675 -0.0049798959144885828 0 0.015279104170325649 -0.0047751302540154552 0 0.015533791037929777 -0.0039385318757415855 0 0.015860056795738355 -0.0041500808945610273 0 0.015220859403124386 -0.0034832442138053449 0 0.015558841278628588 -0.0039550789501154419 0 0.016130988518280747 -0.0038950813268136004 0 0.016302667385907861 -0.0039560217868664206 0 0.015533791037929777 -0.0039385318757415855 0 0.015533791037929777 -0.0039385318757415855 0 0.016045147003776024 -0.0038721321131936809 0 0.015860056795738355 -0.0041500808945610273 0 0.016130988518280747 -0.0038950813268136004 0 0.015533791037929777 -0.0039385318757415855 0 0.016045147003776024 -0.0038721321131936809 0 0.019737173539167006 -0.0025895054400253336 0 0.019735581901590485 -0.0032752018495982582 0 0.016220022041389805 -0.0039169177518782522 0 0.016228387487942721 -0.0038063649957183901 0 0.016238772570902098 -0.0038946499032247233 0 0.016045147003776024 -0.0038721321131936809 0 0.016220022041389805 -0.0039169177518782522 0 0.016238772570902098 -0.0038946499032247233 0 0.016045147003776024 -0.0038721321131936809 0 0.015860056795738355 -0.0041500808945610273 0 0.016238772570902098 -0.0038946499032247233 0 0.015860056795738355 -0.0041500808945610273 0 0.016238772570902098 -0.0038946499032247233 0 0.016040590219179675 -0.0049798959144885828 0 0.016441316195016188 -0.0035421002856475588 0 0.015956553677530402 -0.0054425091743686722 0 0.016228387487942721 -0.0038063649957183901 0 0.016238772570902098 -0.0038946499032247233 0 0.016567196235310763 -0.0035242901389366545 0 0.022552562554375093 -0.0012551813843646772 0 0.022877462066434998 -0.0012962761331654011 0 0.022657907520296172 -0.0011042063981868298 0 0.022552562554375093 -0.0012551813843646772 0 0.022877462066434998 -0.0012962761331654011 0 0.02274715103343081 -0.0015579098229055234 0 0.022506483046290163 -0.0015542655089067691 0 0.022552562554375093 -0.0012551813843646772 0 0.02274715103343081 -0.0015579098229055234 0 0.023078000895348252 -0.0018652926940979828 0 0.022877462066434998 -0.0012962761331654011 0 0.02274715103343081 -0.0015579098229055234 0 0.022729591466143687 -0.0018939414121135754 0 0.023078000895348252 -0.0018652926940979828 0 0.02274715103343081 -0.0015579098229055234 0 0.022506483046290163 -0.0015542655089067691 0 0.022729591466143687 -0.0018939414121135754 0 0.02274715103343081 -0.0015579098229055234 0 0.0099974720754351099 -0.0021542132018638272 0 0.010604105154410307 -0.0019629369555055781 0 0.010661758418777107 -0.0023871617101953483 0 0.010604105154410307 -0.0019629369555055781 0 0.010661758418777107 -0.0023871617101953483 0 0.011365739249004228 -0.0027798326129347146 0 0.0099974720754351099 -0.0021542132018638272 0 0.010471910635469256 -0.0025629443214588697 0 0.010661758418777107 -0.0023871617101953483 0 0.010471910635469256 -0.0025629443214588697 0 0.010661758418777107 -0.0023871617101953483 0 0.010851794465599505 -0.0026728438113054849 0 0.010471910635469256 -0.0025629443214588697 0 0.010851794465599505 -0.0026728438113054849 0 0.010854373304973427 -0.0030369495904072788 0 0.010471910635469256 -0.0025629443214588697 0 0.010000401620183157 -0.0026345480186089829 0 0.010359904511568012 -0.0029623681181025884 0 0.0099974720754351099 -0.0021542132018638272 0 0.010471910635469256 -0.0025629443214588697 0 0.010000401620183157 -0.0026345480186089829 0 0.0099974720754351099 -0.0021542132018638272 0 0.010000401620183157 -0.0026345480186089829 0 0.0096654644317511734 -0.0024111701237915454 0 0.010000401620183157 -0.0026345480186089829 0 0.0096417589782206332 -0.0027343742373897705 0 0.0096654644317511734 -0.0024111701237915454 0 0.010000401620183157 -0.0026345480186089829 0 0.0096417589782206332 -0.0027343742373897705 0 0.009935591404629315 -0.0030394929499188519 0 0.0096417589782206332 -0.0027343742373897705 0 0.0092231879937165213 -0.0025683393521143253 0 0.0094867106070226446 -0.003076158647272495 0 0.0096417589782206332 -0.0027343742373897705 0 0.0096654644317511734 -0.0024111701237915454 0 0.0092231879937165213 -0.0025683393521143253 0 0.0092231879937165213 -0.0025683393521143253 0 0.0092937995820923242 -0.0020271382612752973 0 0.0087000064818710376 -0.0022177914657600809 0 0.0096654644317511734 -0.0024111701237915454 0 0.0092231879937165213 -0.0025683393521143253 0 0.0092937995820923242 -0.0020271382612752973 0 0.0099974720754351099 -0.0021542132018638272 0 0.0096654644317511734 -0.0024111701237915454 0 0.0092937995820923242 -0.0020271382612752973 0 0.0099974720754351099 -0.0021542132018638272 0 0.0092937995820923242 -0.0020271382612752973 0 0.0093169505013330628 -0.0014444989109152063 0 0.0092937995820923242 -0.0020271382612752973 0 0.0093169505013330628 -0.0014444989109152063 0 0.0088974656778950927 -0.0016385621447182804 0 0.0093169505013330628 -0.0014444989109152063 0 0.0088974656778950927 -0.0016385621447182804 0 0.0087708019302580667 -0.0016643156090557548 0 0.011126951322708249 -0.0019413492259317911 0 0.010235387013063237 -0.0011809617719287632 0 0.01125056066047159 -0.0016736768627845491 0 0.010835345765642998 -0.0023577489816253654 0 0.012287101215928974 -0.0025054679214567893 0 0.011971834653028778 -0.0033279356686432802 0 0.013321131644065884 -0.0033764437803071321 0 0.012934991554616578 -0.0030997164272426967 0 0.0099974720754351099 -0.0021542132018638272 0 0.010604105154410307 -0.0019629369555055781 0 0.0093169505013330628 -0.0014444989109152063 0 0.010659157916667618 -0.0017731977194387768 0 0.010835345765642998 -0.0023577489816253654 0 0.012934991554616578 -0.0030997164272426967 0 0.013329841996806115 -0.0031717939177195336 0 0.013486574415332632 -0.0029884487345627235 0 0.013321131644065884 -0.0033764437803071321 0 0.012934991554616578 -0.0030997164272426967 0 0.013329841996806115 -0.0031717939177195336 0 0.013912161919163345 -0.0028839420387231501 0 0.013486574415332632 -0.0029884487345627235 0 0.013693166571432863 -0.0030660864132787454 0 0.013329841996806115 -0.0031717939177195336 0 0.013486574415332632 -0.0029884487345627235 0 0.013541833195639221 -0.0031837224834392439 0 0.013486574415332632 -0.0029884487345627235 0 0.013693166571432863 -0.0030660864132787454 0 0.013541833195639221 -0.0031837224834392439 0 0.013693166571432863 -0.0030660864132787454 0 0.013541833195639221 -0.0031837224834392439 0 0.013803153569569552 -0.0031213371344670326 0 0.013321131644065884 -0.0033764437803071321 0 0.013329841996806115 -0.0031717939177195336 0 0.013541833195639221 -0.0031837224834392439 0 0.013912161919163345 -0.0028839420387231501 0 0.014135998931410029 -0.0028941103304926784 0 0.013803153569569552 -0.0031213371344670326 0 0.013912161919163345 -0.0028839420387231501 0 0.013693166571432863 -0.0030660864132787454 0 0.013803153569569552 -0.0031213371344670326 0 0.014203212649569115 -0.0032188095722158463 0 0.013171276392738893 -0.0027229460185968137 0 0.014287496127633444 -0.0032688629640659182 0 0.012543865075253883 -0.0022594974438130463 0 0.013063357276509318 -0.0030325875314804263 0 0.012543865075253883 -0.0022594974438130463 0 0.012224061808901216 -0.0029583992936970368 0 0.013063357276509318 -0.0030325875314804263 0 0.010659157916667618 -0.0017731977194387768 0 0.012240165238906338 -0.0030013284383194122 0 0.013321131644065884 -0.0033764437803071321 0 0.013541833195639221 -0.0031837224834392439 0 0.013803153569569552 -0.0031213371344670326 0 0.010604105154410307 -0.0019629369555055781 0 0.011365739249004228 -0.0027798326129347146 0 0.012224061808901216 -0.0029583992936970368 0 0.012287101215928974 -0.0025054679214567893 0 0.013171276392738893 -0.0027229460185968137 0 0.011126951322708249 -0.0019413492259317911 0 0.01125056066047159 -0.0016736768627845491 0 0.012543865075253883 -0.0022594974438130463 0 0.011126951322708249 -0.0019413492259317911 0 0.012543865075253883 -0.0022594974438130463 0 0.012224061808901216 -0.0029583992936970368 0 0.010661758418777107 -0.0023871617101953483 0 0.010851794465599505 -0.0026728438113054849 0 0.011365739249004228 -0.0027798326129347146 0 0.011365739249004228 -0.0027798326129347146 0 0.011477405862722129 -0.003389477189623874 0 0.010854373304973427 -0.0030369495904072788 0 0.010851794465599505 -0.0026728438113054849 0 0.011365739249004228 -0.0027798326129347146 0 0.010854373304973427 -0.0030369495904072788 0 0.011365739249004228 -0.0027798326129347146 0 0.012224061808901216 -0.0029583992936970368 0 0.011477405862722129 -0.003389477189623874 0 0.012224061808901216 -0.0029583992936970368 0 0.011477405862722129 -0.003389477189623874 0 0.012245869877695751 -0.0039328456107059311 0 0.011477405862722129 -0.003389477189623874 0 0.012245869877695751 -0.0039328456107059311 0 0.011270182415257795 -0.0040915166584084058 0 0.011477405862722129 -0.003389477189623874 0 0.011270182415257795 -0.0040915166584084058 0 0.010902201520815993 -0.0035625371466957716 0 0.011477405862722129 -0.003389477189623874 0 0.010902201520815993 -0.0035625371466957716 0 0.010854373304973427 -0.0030369495904072788 0 0.012224061808901216 -0.0029583992936970368 0 0.013063357276509318 -0.0030325875314804263 0 0.013210767947675442 -0.0036314731792984191 0 0.012224061808901216 -0.0029583992936970368 0 0.013210767947675442 -0.0036314731792984191 0 0.012245869877695751 -0.0039328456107059311 0 0.013210767947675442 -0.0036314731792984191 0 0.012245869877695751 -0.0039328456107059311 0 0.013212993805116808 -0.0045639861933045771 0 0.012245869877695751 -0.0039328456107059311 0 0.013212993805116808 -0.0045639861933045771 0 0.011991237779643485 -0.0049247033663210645 0 0.012245869877695751 -0.0039328456107059311 0 0.011270182415257795 -0.0040915166584084058 0 0.011991237779643485 -0.0049247033663210645 0 0.011270182415257795 -0.0040915166584084058 0 0.011182776313931216 -0.0047983612499101855 0 0.010677818613972011 -0.0044183973415202063 0 0.011270182415257795 -0.0040915166584084058 0 0.011182776313931216 -0.0047983612499101855 0 0.011991237779643485 -0.0049247033663210645 0 0.010677818613972011 -0.0044183973415202063 0 0.010253194044101917 -0.0047182503602985161 0 0.010655874445806407 -0.0050066406086915951 0 0.011182776313931216 -0.0047983612499101855 0 0.010677818613972011 -0.0044183973415202063 0 0.010655874445806407 -0.0050066406086915951 0 0.010253194044101917 -0.0047182503602985161 0 0.0099158033275070518 -0.0045083682330014814 0 0.0098326786342187358 -0.0048434144573056021 0 0.010677818613972011 -0.0044183973415202063 0 0.010253194044101917 -0.0047182503602985161 0 0.010218075626900698 -0.0042500206563223907 0 0.010253194044101917 -0.0047182503602985161 0 0.0099158033275070518 -0.0045083682330014814 0 0.010218075626900698 -0.0042500206563223907 0 0.0099158033275070518 -0.0045083682330014814 0 0.010218075626900698 -0.0042500206563223907 0 0.0097791753373680738 -0.0041223776392572487 0 0.010218075626900698 -0.0042500206563223907 0 0.010093586488496988 -0.0038053176339500018 0 0.0097791753373680738 -0.0041223776392572487 0 0.010218075626900698 -0.0042500206563223907 0 0.010093586488496988 -0.0038053176339500018 0 0.01055702037003217 -0.0039008779425536576 0 0.011270182415257795 -0.0040915166584084058 0 0.01055702037003217 -0.0039008779425536576 0 0.010902201520815993 -0.0035625371466957716 0 0.011270182415257795 -0.0040915166584084058 0 0.010677818613972011 -0.0044183973415202063 0 0.01055702037003217 -0.0039008779425536576 0 0.010677818613972011 -0.0044183973415202063 0 0.010218075626900698 -0.0042500206563223907 0 0.01055702037003217 -0.0039008779425536576 0 0.010902201520815993 -0.0035625371466957716 0 0.010374297879108452 -0.0034003305819696196 0 0.010854373304973427 -0.0030369495904072788 0 0.01055702037003217 -0.0039008779425536576 0 0.010902201520815993 -0.0035625371466957716 0 0.010374297879108452 -0.0034003305819696196 0 0.010093586488496988 -0.0038053176339500018 0 0.01055702037003217 -0.0039008779425536576 0 0.010374297879108452 -0.0034003305819696196 0 0.010093586488496988 -0.0038053176339500018 0 0.0098713509283492318 -0.0034523041497255941 0 0.0097469585159523277 -0.0037761893838904217 0 0.010093586488496988 -0.0038053176339500018 0 0.010374297879108452 -0.0034003305819696196 0 0.0098713509283492318 -0.0034523041497255941 0 0.010374297879108452 -0.0034003305819696196 0 0.009935591404629315 -0.0030394929499188519 0 0.0098713509283492318 -0.0034523041497255941 0 0.010374297879108452 -0.0034003305819696196 0 0.009935591404629315 -0.0030394929499188519 0 0.010359904511568012 -0.0029623681181025884 0 0.010000401620183157 -0.0026345480186089829 0 0.009935591404629315 -0.0030394929499188519 0 0.010359904511568012 -0.0029623681181025884 0 0.010471910635469256 -0.0025629443214588697 0 0.010359904511568012 -0.0029623681181025884 0 0.010854373304973427 -0.0030369495904072788 0 0.010374297879108452 -0.0034003305819696196 0 0.010359904511568012 -0.0029623681181025884 0 0.010854373304973427 -0.0030369495904072788 0 0.0092231879937165213 -0.0025683393521143253 0 0.0088451768361394491 -0.0031529198960945724 0 0.0087463631425926253 -0.0026937075951367433 0 0.0094867106070226446 -0.003076158647272495 0 0.0094470136883215497 -0.0035507833593030401 0 0.0088451768361394491 -0.0031529198960945724 0 0.0092231879937165213 -0.0025683393521143253 0 0.0094867106070226446 -0.003076158647272495 0 0.0088451768361394491 -0.0031529198960945724 0 0.0096417589782206332 -0.0027343742373897705 0 0.009935591404629315 -0.0030394929499188519 0 0.0094867106070226446 -0.003076158647272495 0 0.009935591404629315 -0.0030394929499188519 0 0.0094867106070226446 -0.003076158647272495 0 0.0098713509283492318 -0.0034523041497255941 0 0.0094867106070226446 -0.003076158647272495 0 0.0098713509283492318 -0.0034523041497255941 0 0.0094470136883215497 -0.0035507833593030401 0 0.0098713509283492318 -0.0034523041497255941 0 0.0097469585159523277 -0.0037761893838904217 0 0.0094470136883215497 -0.0035507833593030401 0 0.0094470136883215497 -0.0035507833593030401 0 0.0089044730899715315 -0.0038983399037034361 0 0.0088451768361394491 -0.0031529198960945724 0 0.0094470136883215497 -0.0035507833593030401 0 0.0089044730899715315 -0.0038983399037034361 0 0.0094294245359876142 -0.0040510223504170795 0 0.0089044730899715315 -0.0038983399037034361 0 0.0094294245359876142 -0.0040510223504170795 0 0.0091046950292569383 -0.0044900180166440934 0 0.010093586488496988 -0.0038053176339500018 0 0.0097469585159523277 -0.0037761893838904217 0 0.0097791753373680738 -0.0041223776392572487 0 0.0097469585159523277 -0.0037761893838904217 0 0.0094294245359876142 -0.0040510223504170795 0 0.0097791753373680738 -0.0041223776392572487 0 0.0097469585159523277 -0.0037761893838904217 0 0.0094470136883215497 -0.0035507833593030401 0 0.0094294245359876142 -0.0040510223504170795 0 0.0094294245359876142 -0.0040510223504170795 0 0.0097791753373680738 -0.0041223776392572487 0 0.0095793489282587768 -0.0044819187456331564 0 0.0099158033275070518 -0.0045083682330014814 0 0.0097791753373680738 -0.0041223776392572487 0 0.0095793489282587768 -0.0044819187456331564 0 0.0094294245359876142 -0.0040510223504170795 0 0.0095793489282587768 -0.0044819187456331564 0 0.0091046950292569383 -0.0044900180166440934 0 0.0095793489282587768 -0.0044819187456331564 0 0.0091046950292569383 -0.0044900180166440934 0 0.0094193961361989618 -0.0048884617538592218 0 0.0099158033275070518 -0.0045083682330014814 0 0.0095793489282587768 -0.0044819187456331564 0 0.0098326786342187358 -0.0048434144573056021 0 0.0095793489282587768 -0.0044819187456331564 0 0.0098326786342187358 -0.0048434144573056021 0 0.0094193961361989618 -0.0048884617538592218 0 0.0091046950292569383 -0.0044900180166440934 0 0.0084253596042795226 -0.0046384102802178905 0 0.0089375826320257767 -0.0049766766910428455 0 0.0091046950292569383 -0.0044900180166440934 0 0.0089375826320257767 -0.0049766766910428455 0 0.0094193961361989618 -0.0048884617538592218 0 0.0089044730899715315 -0.0038983399037034361 0 0.0084253596042795226 -0.0046384102802178905 0 0.0080110534791026262 -0.0035192713429267131 0 0.0084253596042795226 -0.0046384102802178905 0 0.0072804042066782837 -0.0039653480973972149 0 0.0080110534791026262 -0.0035192713429267131 0 0.0084253596042795226 -0.0046384102802178905 0 0.0072804042066782837 -0.0039653480973972149 0 0.0078497605323037539 -0.0053931791644314794 0 0.0089044730899715315 -0.0038983399037034361 0 0.0091046950292569383 -0.0044900180166440934 0 0.0084253596042795226 -0.0046384102802178905 0 0.0071880817833977571 -0.0036527019751707731 0 0.0071383602400230265 -0.00298458628644334 0 0.0071892721054646631 -0.0029878383192275984 0 0.0081962794684775908 -0.0028508161957397776 0 0.0080110534791026262 -0.0035192713429267131 0 0.0072804042066782837 -0.0039653480973972149 0 0.0071892721054646631 -0.0029878383192275984 0 0.0080110534791026262 -0.0035192713429267131 0 0.0081962794684775908 -0.0028508161957397776 0 0.0088451768361394491 -0.0031529198960945724 0 0.0080110534791026262 -0.0035192713429267131 0 0.0081962794684775908 -0.0028508161957397776 0 0.0088451768361394491 -0.0031529198960945724 0 0.0087463631425926253 -0.0026937075951367433 0 0.0089044730899715315 -0.0038983399037034361 0 0.0088451768361394491 -0.0031529198960945724 0 0.0080110534791026262 -0.0035192713429267131 0 -0.0053606224576016543 0.0045820268684664154 0 -0.0054612547434015613 0.0046149820724164358 0 -0.0054481022637025154 0.0046388135821027604 0 -0.00056840804832302663 0.00080888701788652526 0 -0.0017291824655606286 0.0013975149119769394 0 0.0056578984050833321 -0.0044872790872793871 0 0.004830083856884917 -0.0028183338620765275 0 0.0040881508100761464 -0.0053513908011419333 0 0.0072804042066782837 -0.0039653480973972149 0 0.0056578984050833321 -0.0044872790872793871 0 0.004830083856884917 -0.0028183338620765275 0 0.0072804042066782837 -0.0039653480973972149 0 0.0064947473000866972 -0.0019689679846542048 0 0.004830083856884917 -0.0028183338620765275 0 -0.0053606224576016543 0.0045820268684664154 0 -0.0054633464910939337 0.0046514604795056405 0 -0.0054612547434015613 0.0046149820724164358 0 -0.0053606224576016543 0.0045820268684664154 0 -0.0054633464910939337 0.0046514604795056405 0 -0.0053469920645879436 0.0047157410367463992 0 -0.0053469920645879436 0.0047157410367463992 0 -0.0051272547963110366 0.004789480704287986 0 -0.0053533600301513343 0.0048337244164839985 0 -0.0054299402658573269 0.0047648363795363717 0 -0.0053469920645879436 0.0047157410367463992 0 -0.0053533600301513343 0.0048337244164839985 0 -0.0054299402658573269 0.0047648363795363717 0 -0.0053533600301513343 0.0048337244164839985 0 -0.0055278471752606556 0.0048492627640711675 0 -0.0054633464910939337 0.0046514604795056405 0 -0.0054299402658573269 0.0047648363795363717 0 -0.0053469920645879436 0.0047157410367463992 0 0.0071892721054646631 -0.0029878383192275984 0 0.0071710743141068763 -0.0018451046755176752 0 0.0067557578683414407 -0.0018993463315806845 0 -0.0053606224576016543 0.0045820268684664154 0 -0.0053469920645879436 0.0047157410367463992 0 -0.0051272547963110366 0.004789480704287986 0 -0.00056840804832302663 0.00080888701788652526 0 0.0034469587559140943 0.00081238488672932038 0 0.0071383602400230265 -0.00298458628644334 0 0.0034469587559140943 0.00081238488672932038 0 0.0064947473000866972 -0.0019689679846542048 0 0.004830083856884917 -0.0028183338620765275 0 0.0056565950849659357 -2.6509493964316505e-05 0 -0.0051272547963110366 0.004789480704287986 0 -0.0051511891548433027 0.0049103068113520634 0 -0.0053533600301513343 0.0048337244164839985 0 0.0034469587559140943 0.00081238488672932038 0 0.0067578810702094783 -0.0010484972300074647 0 0.0071710743141068763 -0.0018451046755176752 0 0.0067557578683414407 -0.0018993463315806845 0 0.0068814219022419847 -0.0013425173897355436 0 0.0067578810702094783 -0.0010484972300074647 0 0.0014637672316743699 0.00069084211768173859 0 0.0085133760507521763 -0.0031045596171287828 0 0.0081515751873915895 -0.0030558615665358521 0 0.0082951047762227347 -0.0023781191139005077 0 0.0038272916722916195 8.3938295914342422e-05 0 0.0036793034413202686 -0.00039818865902247012 0 0.0040390832151001605 -0.00043643138069048818 0 0.0034469587559140943 0.00081238488672932038 0 0.0014637672316743699 0.00069084211768173859 0 -0.0051511891548433027 0.0049103068113520634 0 -0.0053533600301513343 0.0048337244164839985 0 -0.0055931746491138792 0.0050296004037701158 0 0.00060503680870355777 0.0015638831742844069 0 -0.00060901643475920963 0.0021389391493460632 0 -0.0012445329298786214 0.0017714015863533993 0 0.0014637672316743699 0.00069084211768173859 0 -0.0043072924673746129 0.003801336610280768 0 0.0087000064818710376 -0.0022177914657600809 0 0.0080848961510108681 -0.0023297738383142434 0 0.0085997229115757617 -0.0016701991023731382 0 0.0081962794684775908 -0.0028508161957397776 0 0.0087000064818710376 -0.0022177914657600809 0 0.0087463631425926253 -0.0026937075951367433 0 0.0092231879937165213 -0.0025683393521143253 0 0.0087000064818710376 -0.0022177914657600809 0 0.0087463631425926253 -0.0026937075951367433 0 0.0081962794684775908 -0.0028508161957397776 0 0.0087000064818710376 -0.0022177914657600809 0 0.0080848961510108681 -0.0023297738383142434 0 0.0071892721054646631 -0.0029878383192275984 0 0.0080848961510108681 -0.0023297738383142434 0 0.0076524547001256393 -0.0019249823889244458 0 0.0071892721054646631 -0.0029878383192275984 0 0.0071710743141068763 -0.0018451046755176752 0 0.0076524547001256393 -0.0019249823889244458 0 0.0071892721054646631 -0.0029878383192275984 0 0.0081962794684775908 -0.0028508161957397776 0 0.0080848961510108681 -0.0023297738383142434 0 0.0068814219022419847 -0.0013425173897355436 0 0.0076524547001256393 -0.0019249823889244458 0 0.0085997229115757617 -0.0016701991023731382 0 0.0067578810702094783 -0.0010484972300074647 0 0.0090974537482815636 -0.0017753355604356292 0 0.0080848961510108681 -0.0023297738383142434 0 0.0076524547001256393 -0.0019249823889244458 0 0.0085997229115757617 -0.0016701991023731382 0 0.009228056950261819 -0.0017272075588640452 0 0.0089184438303644108 -0.0018239950642492209 0 0.0085997229115757617 -0.0016701991023731382 0 0.0071710743141068763 -0.0018451046755176752 0 0.0068814219022419847 -0.0013425173897355436 0 0.0076524547001256393 -0.0019249823889244458 0 0.009228056950261819 -0.0017272075588640452 0 0.0089184438303644108 -0.0018239950642492209 0 0.009013137441800741 -0.0019747972786175838 0 0.0089184438303644108 -0.0018239950642492209 0 0.0085997229115757617 -0.0016701991023731382 0 0.0089226749665721576 -0.0018256568723332078 0 0.0092937995820923242 -0.0020271382612752973 0 0.0087000064818710376 -0.0022177914657600809 0 0.0088974656778950927 -0.0016385621447182804 0 0.0087000064818710376 -0.0022177914657600809 0 0.0085997229115757617 -0.0016701991023731382 0 0.0088974656778950927 -0.0016385621447182804 0 0.0085997229115757617 -0.0016701991023731382 0 0.0088974656778950927 -0.0016385621447182804 0 0.0087708019302580667 -0.0016643156090557548 0 0.011890733040881583 -0.0036472496350491513 0 0.010610901874731682 -0.0029738322966443107 0 0.010081353291215291 -0.0020861547848913973 0 0.010835345765642998 -0.0023577489816253654 0 0.010652211910079165 -0.0025915322094327577 0 0.011220770334374986 -0.0020153072010814762 0 0.011971834653028778 -0.0033279356686432802 0 0.010081353291215291 -0.0020861547848913973 0 0.0085997229115757617 -0.0016701991023731382 0 0.0087708019302580667 -0.0016643156090557548 0 0.0089226749665721576 -0.0018256568723332078 0 0.0087708019302580667 -0.0016643156090557548 0 0.0092180680059343566 -0.0021131248955833888 0 0.0089226749665721576 -0.0018256568723332078 0 0.010610901874731682 -0.0029738322966443107 0 0.010081353291215291 -0.0020861547848913973 0 0.0092180680059343566 -0.0021131248955833888 0 0.0097347274690884212 -0.0023000613822895624 0 0.0092987105631132209 -0.0021397632582613015 0 0.011220770334374986 -0.0020153072010814762 0 0.010081353291215291 -0.0020861547848913973 0 0.010293725246278324 -0.0015085922740346645 0 0.010081353291215291 -0.0020861547848913973 0 0.010293725246278324 -0.0015085922740346645 0 0.0096086549590522607 -0.0016302936193877701 0 0.010293725246278324 -0.0015085922740346645 0 0.010829532651146069 -0.00098893365173157192 0 0.0096750851280996784 -0.0010196860781090604 0 0.010293725246278324 -0.0015085922740346645 0 0.0096086549590522607 -0.0016302936193877701 0 0.0096750851280996784 -0.0010196860781090604 0 0.011220770334374986 -0.0020153072010814762 0 0.010293725246278324 -0.0015085922740346645 0 0.010829532651146069 -0.00098893365173157192 0 0.009061292794267959 -0.0015604834890387911 0 0.0084752469579685505 -0.001447192281632567 0 0.0089571711024211756 -0.00098820374566954802 0 0.009061292794267959 -0.0015604834890387911 0 0.0096750851280996784 -0.0010196860781090604 0 0.0089571711024211756 -0.00098820374566954802 0 0.0096086549590522607 -0.0016302936193877701 0 0.009061292794267959 -0.0015604834890387911 0 0.0096750851280996784 -0.0010196860781090604 0 0.0096086549590522607 -0.0016302936193877701 0 0.009061292794267959 -0.0015604834890387911 0 0.0092180680059343566 -0.0021131248955833888 0 0.010081353291215291 -0.0020861547848913973 0 0.0096086549590522607 -0.0016302936193877701 0 0.0092180680059343566 -0.0021131248955833888 0 0.009061292794267959 -0.0015604834890387911 0 0.0089477966826159057 -0.0020558926195661715 0 0.0092180680059343566 -0.0021131248955833888 0 0.0089477966826159057 -0.0020558926195661715 0 0.0092180680059343566 -0.0021131248955833888 0 0.009013137441800741 -0.0019747972786175838 0 0.009228056950261819 -0.0017272075588640452 0 0.0089477966826159057 -0.0020558926195661715 0 0.009013137441800741 -0.0019747972786175838 0 0.0092180680059343566 -0.0021131248955833888 0 0.0089226749665721576 -0.0018256568723332078 0 0.009013137441800741 -0.0019747972786175838 0 0.0089184438303644108 -0.0018239950642492209 0 0.0089226749665721576 -0.0018256568723332078 0 0.009013137441800741 -0.0019747972786175838 0 0.0067578810702094783 -0.0010484972300074647 0 0.0090482048547341869 -0.0023532697186538372 0 0.0085133760507521763 -0.0031045596171287828 0 0.0089477966826159057 -0.0020558926195661715 0 0.0082951047762227347 -0.0023781191139005077 0 0.0081515751873915895 -0.0030558615665358521 0 0.0082951047762227347 -0.0023781191139005077 0 0.0075910664760167387 -0.0017361932270396222 0 0.0082951047762227347 -0.0023781191139005077 0 0.0083178400605805978 -0.0019011668497397052 0 0.0075910664760167387 -0.0017361932270396222 0 0.0089477966826159057 -0.0020558926195661715 0 0.0082951047762227347 -0.0023781191139005077 0 0.0083178400605805978 -0.0019011668497397052 0 0.0014637672316743699 0.00069084211768173859 0 0.001970086750655247 0.0011026942626686455 0 0.00060503680870355777 0.0015638831742844069 0 -0.00060901643475920963 0.0021389391493460632 0 -3.6662164903075674e-06 0.0030192703475840697 0 -0.00046781069472274774 0.0023664495237525609 0 0.001970086750655247 0.0011026942626686455 0 -0.00060901643475920963 0.0021389391493460632 0 -0.00010463802342435424 0.0029937605954070503 0 -0.0007825765120931036 0.0028042476130142489 0 -0.00016625137583082633 0.0030870260832709176 0 -0.00043795066998412427 0.0036652595147792667 0 -5.1678894663551687e-05 0.003837925660414198 0 -0.00010463802342435424 0.0029937605954070503 0 -0.00084371426260599367 0.0034315541686131437 0 -0.0007825765120931036 0.0028042476130142489 0 0.001970086750655247 0.0011026942626686455 0 -0.00053689301149006182 0.004295188707789944 0 -0.00010463802342435424 0.0029937605954070503 0 -0.00043795066998412427 0.0036652595147792667 0 -0.00084371426260599367 0.0034315541686131437 0 0.0075910664760167387 -0.0017361932270396222 0 0.0084752469579685505 -0.001447192281632567 0 0.008383662145983635 -0.00049357795965053214 0 0.001970086750655247 0.0011026942626686455 0 0.0042313998810391551 0.0023010519171119902 0 -0.00016625137583082633 0.0030870260832709176 0 0.00040044112656966379 0.0039488820035517508 0 -5.1678894663551687e-05 0.003837925660414198 0 0.009061292794267959 -0.0015604834890387911 0 0.0089477966826159057 -0.0020558926195661715 0 0.0084752469579685505 -0.001447192281632567 0 0.0089477966826159057 -0.0020558926195661715 0 0.0083178400605805978 -0.0019011668497397052 0 0.0084752469579685505 -0.001447192281632567 0 0.0083178400605805978 -0.0019011668497397052 0 0.0075910664760167387 -0.0017361932270396222 0 0.0084752469579685505 -0.001447192281632567 0 0.0084752469579685505 -0.001447192281632567 0 0.008383662145983635 -0.00049357795965053214 0 0.0089571711024211756 -0.00098820374566954802 0 0.00040044112656966379 0.0039488820035517508 0 -5.1678894663551687e-05 0.003837925660414198 0 0.00026099683079946231 0.004224529297005267 0 -0.00043795066998412427 0.0036652595147792667 0 -0.00032818107434651476 0.004168619477998064 0 -0.00072995333005659033 0.0037792272427730257 0 -0.00043795066998412427 0.0036652595147792667 0 -5.1678894663551687e-05 0.003837925660414198 0 -0.00032818107434651476 0.004168619477998064 0 -5.1678894663551687e-05 0.003837925660414198 0 -0.00032818107434651476 0.004168619477998064 0 0.00026099683079946231 0.004224529297005267 0 -0.0022561263081888705 0.0028994423282070018 0 -0.0015811444590114296 0.002187075696745964 0 -0.0015087907345148152 0.0031541949779734985 0 0.0026936951407042354 -0.010145931828110097 0 0.0022313678328757087 -0.0093621271153922474 0 0.0030328630824458191 -0.009360267261520748 0 -0.00032411888438978669 -0.00036674467269745141 0 0.00058166839680518325 -0.0037821327536014513 0 -0.0022561263081888705 0.0028994423282070018 0 -0.0033630818495650047 0.0020449223061883553 0 -0.0015811444590114296 0.002187075696745964 0 -0.00032818107434651476 0.004168619477998064 0 0.00026099683079946231 0.004224529297005267 0 0.0002273610420408352 0.0043845226780952467 0 -0.0011000057887461234 0.0035659397059176639 0 -0.00032411888438978669 -0.00036674467269745141 0 0.00026099683079946231 0.004224529297005267 0 0.0002273610420408352 0.0043845226780952467 0 0.00092542269854729549 0.0045487683446221033 0 0.00072787715323719099 0.0046184183608941019 0 0.0002273610420408352 0.0043845226780952467 0 0.00092542269854729549 0.0045487683446221033 0 0.00040044112656966379 0.0039488820035517508 0 0.00026099683079946231 0.004224529297005267 0 0.00092542269854729549 0.0045487683446221033 0 0.0036619990199245104 -0.0061644273541049425 0 -0.00032411888438978669 -0.00036674467269745141 0 0.008383662145983635 -0.00049357795965053214 0 0.009326129774674537 0.00099853814705641586 0 0.0092649873225095908 -0.00036818889600178609 0 0.009326129774674537 0.00099853814705641586 0 0.010194026513483341 -0.0002905453023882631 0 0.0092649873225095908 -0.00036818889600178609 0 0.0042313998810391551 0.0023010519171119902 0 0.0091501344919102962 -0.0013337728054623936 0 0.0036619990199245104 -0.0061644273541049425 0 0.0091501344919102962 -0.0013337728054623936 0 0.017387481631788503 -0.0033623938292535573 0 0.017425001851551287 -0.0033664035524095665 0 0.017210570509412517 -0.0034003292587338322 0 0.011041624289806038 0.00044302065577704754 0 0.009326129774674537 0.00099853814705641586 0 0.010194026513483341 -0.0002905453023882631 0 0.01506486725476033 -0.0015877561556126691 0 0.0091501344919102962 -0.0013337728054623936 0 0.011041624289806038 0.00044302065577704754 0 0.010194026513483341 -0.0002905453023882631 0 0.010829532651146069 -0.00098893365173157192 0 0.010194026513483341 -0.0002905453023882631 0 0.010829532651146069 -0.00098893365173157192 0 0.0096750851280996784 -0.0010196860781090604 0 0.010194026513483341 -0.0002905453023882631 0 0.0096750851280996784 -0.0010196860781090604 0 0.0092649873225095908 -0.00036818889600178609 0 0.0096750851280996784 -0.0010196860781090604 0 0.0089571711024211756 -0.00098820374566954802 0 0.0092649873225095908 -0.00036818889600178609 0 0.008383662145983635 -0.00049357795965053214 0 0.0089571711024211756 -0.00098820374566954802 0 0.0092649873225095908 -0.00036818889600178609 0 -0.0027730205370883956 0.0042599524970288955 0 -0.0033903456859304738 0.005110857356902236 0 -0.0033303899713190001 0.0039758254518990708 0 -0.0040632322198651981 0.0044028710146917817 0 -0.0033903456859304738 0.005110857356902236 0 -0.0033303899713190001 0.0039758254518990708 0 -0.0027730205370883956 0.0042599524970288955 0 -0.0033903456859304738 0.005110857356902236 0 -0.0022601528951851409 0.0046276119744246879 0 0.0015715303841532028 -0.0014852642455557687 0 -0.0014409822392176831 0.0042790376116669292 0 -0.0040632322198651981 0.0044028710146917817 0 -0.0045701816714197423 0.0050213134734053274 0 -0.0033903456859304738 0.005110857356902236 0 -0.0050381716968634334 0.0042396759089848648 0 -0.0040632322198651981 0.0044028710146917817 0 -0.0042747061098674837 0.0036942245326555771 0 -0.0050381716968634334 0.0042396759089848648 0 -0.0040632322198651981 0.0044028710146917817 0 -0.0045701816714197423 0.0050213134734053274 0 0.0049475674824993035 -0.0097745215974507776 0 0.0048608363922748379 -0.0099884458481692851 0 0.0043132794178528848 -0.0094336839077427456 0 -0.0037111122000299556 0.0013487350473890397 0 0.0015715303841532028 -0.0014852642455557687 0 -0.0041401778554806942 -0.00030960675870852979 0 -0.0026354671448352339 -0.0024467612408063063 0 0.00026007866131051591 -0.0022288547336330117 0 -0.0030397253298162221 -0.0055126107158324075 0 0.0015715303841532028 -0.0014852642455557687 0 0.0039989505310694369 -0.0099492903629917473 0 0.0043875115178551626 -0.010113293269019434 0 0.0043132794178528848 -0.0094336839077427456 0 0.0015715303841532028 -0.0014852642455557687 0 0.0024026438891418503 -0.003656929082175896 0 0.0039989505310694369 -0.0099492903629917473 0 0.0043132794178528848 -0.0094336839077427456 0 0.0037644783286780751 -0.0094144735285436529 0 0.0034686661368737797 -0.0098620858191316527 0 0.0039989505310694369 -0.0099492903629917473 0 0.0037644783286780751 -0.0094144735285436529 0 0.0034686661368737797 -0.0098620858191316527 0 0.0037644783286780751 -0.0094144735285436529 0 0.0030328630824458191 -0.009360267261520748 0 0.00035651283547757977 0.0022692662861153365 0 -0.0015811444590114296 0.002187075696745964 0 -0.00059919853596422667 0.0027451606873906582 0 0.0024026438891418503 -0.003656929082175896 0 0.00058166839680518325 -0.0037821327536014513 0 -0.0015811444590114296 0.002187075696745964 0 -0.0010884107180478594 0.0029593345336112308 0 -0.00059919853596422667 0.0027451606873906582 0 -0.00065599706451675139 0.0032996974658477292 0 -0.00101965135726756 0.0039151475961417773 0 0.00071349663685754531 0.0031657713632716783 0 -0.0022561263081888705 0.0028994423282070018 0 -0.0015087907345148152 0.0031541949779734985 0 -0.0010462533619481336 0.0038548018078716721 0 -0.0011000057887461234 0.0035659397059176639 0 -0.0011105277098968631 0.0037507491577443925 0 -0.0015811444590114296 0.002187075696745964 0 -0.0015087907345148152 0.0031541949779734985 0 -0.0010884107180478594 0.0029593345336112308 0 -0.0015087907345148152 0.0031541949779734985 0 -0.0010884107180478594 0.0029593345336112308 0 -0.0011070566992766109 0.0034124693364360205 0 -0.0010884107180478594 0.0029593345336112308 0 -0.00065599706451675139 0.0032996974658477292 0 -0.0011070566992766109 0.0034124693364360205 0 -0.0010884107180478594 0.0029593345336112308 0 -0.00059919853596422667 0.0027451606873906582 0 -0.00065599706451675139 0.0032996974658477292 0 -0.00059919853596422667 0.0027451606873906582 0 -0.00065599706451675139 0.0032996974658477292 0 -3.8310398823274264e-06 0.0028746270057355612 0 -0.0015266843131903193 0.0040129343005200083 0 -0.00167384524203 0.003875353421395417 0 -0.0011902333574991698 0.0036790286998083514 0 -0.00101965135726756 0.0039151475961417773 0 -0.00097082927836089356 0.0037454725948708012 0 -0.0011902333574991698 0.0036790286998083514 0 -0.0015266843131903193 0.0040129343005200083 0 -0.00101965135726756 0.0039151475961417773 0 -0.0011902333574991698 0.0036790286998083514 0 -0.00101965135726756 0.0039151475961417773 0 -0.00099224075189273831 0.0036452439814394764 0 -0.0010462533619481336 0.0038548018078716721 0 -0.00065599706451675139 0.0032996974658477292 0 -0.00101965135726756 0.0039151475961417773 0 -0.00099224075189273831 0.0036452439814394764 0 -0.00065599706451675139 0.0032996974658477292 0 -0.00099224075189273831 0.0036452439814394764 0 -0.0011070566992766109 0.0034124693364360205 0 -0.00032818107434651476 0.004168619477998064 0 -0.0010462533619481336 0.0038548018078716721 0 -0.00072995333005659033 0.0037792272427730257 0 -0.0015087907345148152 0.0031541949779734985 0 -0.0011070566992766109 0.0034124693364360205 0 -0.0010462533619481336 0.0038548018078716721 0 -0.00099224075189273831 0.0036452439814394764 0 -0.0011070566992766109 0.0034124693364360205 0 -0.0010462533619481336 0.0038548018078716721 0 -0.0010462533619481336 0.0038548018078716721 0 -0.00072995333005659033 0.0037792272427730257 0 -0.00097082927836089356 0.0037454725948708012 0 -0.00101965135726756 0.0039151475961417773 0 -0.0010462533619481336 0.0038548018078716721 0 -0.00097082927836089356 0.0037454725948708012 0 -0.0015266843131903193 0.0040129343005200083 0 -0.00101965135726756 0.0039151475961417773 0 -0.0022601528951851409 0.0046276119744246879 0 0.0023891268897991043 0.0023525525875264463 0 0.00035651283547757977 0.0022692662861153365 0 0.00071349663685754531 0.0031657713632716783 0 -0.00075293175408281982 0.0038196105026241153 0 -0.0014409822392176831 0.0042790376116669292 0 0.00035651283547757977 0.0022692662861153365 0 0.00071349663685754531 0.0031657713632716783 0 -3.8310398823274264e-06 0.0028746270057355612 0 0.00035651283547757977 0.0022692662861153365 0 -0.00059919853596422667 0.0027451606873906582 0 -3.8310398823274264e-06 0.0028746270057355612 0 -0.00065599706451675139 0.0032996974658477292 0 0.00071349663685754531 0.0031657713632716783 0 -3.8310398823274264e-06 0.0028746270057355612 0 -0.0015266843131903193 0.0040129343005200083 0 -0.0022601528951851409 0.0046276119744246879 0 -0.00167384524203 0.003875353421395417 0 -0.0022601528951851409 0.0046276119744246879 0 -0.00167384524203 0.003875353421395417 0 -0.0022367643592504996 0.0039768740699012671 0 -0.0027730205370883956 0.0042599524970288955 0 -0.0022601528951851409 0.0046276119744246879 0 -0.0022367643592504996 0.0039768740699012671 0 -0.0027730205370883956 0.0042599524970288955 0 -0.0022367643592504996 0.0039768740699012671 0 -0.002597804449740399 0.0035696927354776763 0 -0.002597804449740399 0.0035696927354776763 0 -0.001971147686038806 0.0036519458037052623 0 -0.0019524283473600127 0.0031483186645901301 0 -0.0022367643592504996 0.0039768740699012671 0 -0.002597804449740399 0.0035696927354776763 0 -0.001971147686038806 0.0036519458037052623 0 -0.001971147686038806 0.0036519458037052623 0 -0.0019524283473600127 0.0031483186645901301 0 -0.0013723451905201843 0.0034086101032842872 0 -0.00167384524203 0.003875353421395417 0 -0.001971147686038806 0.0036519458037052623 0 -0.0013723451905201843 0.0034086101032842872 0 -0.00167384524203 0.003875353421395417 0 -0.0022367643592504996 0.0039768740699012671 0 -0.001971147686038806 0.0036519458037052623 0 -0.002597804449740399 0.0035696927354776763 0 -0.0019524283473600127 0.0031483186645901301 0 -0.0025895014384791038 0.0028542806906563028 0 -0.00072995333005659033 0.0037792272427730257 0 -0.00084371426260599367 0.0034315541686131437 0 -0.00097082927836089356 0.0037454725948708012 0 -0.00043795066998412427 0.0036652595147792667 0 -0.00072995333005659033 0.0037792272427730257 0 -0.00084371426260599367 0.0034315541686131437 0 -0.00084371426260599367 0.0034315541686131437 0 -0.00097082927836089356 0.0037454725948708012 0 -0.0011902333574991698 0.0036790286998083514 0 -0.00084371426260599367 0.0034315541686131437 0 -0.0011902333574991698 0.0036790286998083514 0 -0.0013723451905201843 0.0034086101032842872 0 -0.00167384524203 0.003875353421395417 0 -0.0011902333574991698 0.0036790286998083514 0 -0.0013723451905201843 0.0034086101032842872 0 -0.0013723451905201843 0.0034086101032842872 0 -0.0010765049088774902 0.0031124442498051456 0 -0.0013451836299743977 0.0028976162362461823 0 -0.0019524283473600127 0.0031483186645901301 0 -0.0013723451905201843 0.0034086101032842872 0 -0.0013451836299743977 0.0028976162362461823 0 -0.00084371426260599367 0.0034315541686131437 0 -0.0013723451905201843 0.0034086101032842872 0 -0.0010765049088774902 0.0031124442498051456 0 -0.0010765049088774902 0.0031124442498051456 0 -0.0007825765120931036 0.0028042476130142489 0 -0.0013451836299743977 0.0028976162362461823 0 -0.00084371426260599367 0.0034315541686131437 0 -0.0010765049088774902 0.0031124442498051456 0 -0.0007825765120931036 0.0028042476130142489 0 -0.0007825765120931036 0.0028042476130142489 0 -0.0013451836299743977 0.0028976162362461823 0 -0.0011890853394397262 0.0023810786209501581 0 -0.00060901643475920963 0.0021389391493460632 0 -0.0007825765120931036 0.0028042476130142489 0 -0.0011890853394397262 0.0023810786209501581 0 -0.0013451836299743977 0.0028976162362461823 0 -0.0011890853394397262 0.0023810786209501581 0 -0.0018797346418693466 0.0025319012049644556 0 -0.0011890853394397262 0.0023810786209501581 0 -0.0018797346418693466 0.0025319012049644556 0 -0.0012445329298786214 0.0017714015863533993 0 -0.00060901643475920963 0.0021389391493460632 0 -0.0011890853394397262 0.0023810786209501581 0 -0.0012445329298786214 0.0017714015863533993 0 -0.0025895014384791038 0.0028542806906563028 0 -0.0018797346418693466 0.0025319012049644556 0 -0.0031649772942865619 0.0020175269462358787 0 -0.0018797346418693466 0.0025319012049644556 0 -0.0031649772942865619 0.0020175269462358787 0 -0.0012445329298786214 0.0017714015863533993 0 -0.0019524283473600127 0.0031483186645901301 0 -0.0025895014384791038 0.0028542806906563028 0 -0.0018797346418693466 0.0025319012049644556 0 -0.0019524283473600127 0.0031483186645901301 0 -0.0013451836299743977 0.0028976162362461823 0 -0.0018797346418693466 0.0025319012049644556 0 -0.0025895014384791038 0.0028542806906563028 0 -0.0031649772942865619 0.0020175269462358787 0 -0.003509755265197105 0.0030641318423774554 0 -0.002597804449740399 0.0035696927354776763 0 -0.0025895014384791038 0.0028542806906563028 0 -0.003509755265197105 0.0030641318423774554 0 -0.0027730205370883956 0.0042599524970288955 0 -0.002597804449740399 0.0035696927354776763 0 -0.0033303899713190001 0.0039758254518990708 0 -0.002597804449740399 0.0035696927354776763 0 -0.003509755265197105 0.0030641318423774554 0 -0.0033303899713190001 0.0039758254518990708 0 -0.0040632322198651981 0.0044028710146917817 0 -0.0033303899713190001 0.0039758254518990708 0 -0.0042747061098674837 0.0036942245326555771 0 -0.003509755265197105 0.0030641318423774554 0 -0.0033303899713190001 0.0039758254518990708 0 -0.0042747061098674837 0.0036942245326555771 0 -0.0051916508100152562 0.0024853408806768617 0 -0.0031649772942865619 0.0020175269462358787 0 -0.003509755265197105 0.0030641318423774554 0 -0.0051916508100152562 0.0024853408806768617 0 -0.003509755265197105 0.0030641318423774554 0 -0.0042747061098674837 0.0036942245326555771 0 -0.0061292565946335278 0.0035362559631934463 0 -0.0045155526002588027 0.003444620637954054 0 -0.0070913768246570752 0.004587301198507328 0 -0.0063040611567993562 0.0050217601765413164 0 -0.0069053117733028496 0.0045748614113696445 0 -0.0063040611567993562 0.0050217601765413164 0 -0.005997109393968531 0.0046289440659088108 0 -0.0069053117733028496 0.0045748614113696445 0 -0.005997109393968531 0.0046289440659088108 0 -0.0069053117733028496 0.0045748614113696445 0 -0.0067738925455371191 0.0043999591937732641 0 -0.0053533600301513343 0.0048337244164839985 0 -0.0055278471752606556 0.0048492627640711675 0 -0.0055931746491138792 0.0050296004037701158 0 -0.0055278471752606556 0.0048492627640711675 0 -0.0055931746491138792 0.0050296004037701158 0 -0.0056736977078978177 0.00474007036447584 0 -0.0045155526002588027 0.003444620637954054 0 -0.0043072924673746129 0.003801336610280768 0 -0.0063040611567993562 0.0050217601765413164 0 -0.005997109393968531 0.0046289440659088108 0 -0.0056736977078978177 0.00474007036447584 0 -0.0063040611567993562 0.0050217601765413164 0 -0.0055931746491138792 0.0050296004037701158 0 -0.0056736977078978177 0.00474007036447584 0 -0.005997109393968531 0.0046289440659088108 0 -0.0056736977078978177 0.00474007036447584 0 -0.0055796931113754914 0.0046296035561269261 0 -0.0054299402658573269 0.0047648363795363717 0 -0.0055278471752606556 0.0048492627640711675 0 -0.0056736977078978177 0.00474007036447584 0 -0.0054633464910939337 0.0046514604795056405 0 -0.0054299402658573269 0.0047648363795363717 0 -0.0056736977078978177 0.00474007036447584 0 -0.0054633464910939337 0.0046514604795056405 0 -0.0055796931113754914 0.0046296035561269261 0 -0.0054612547434015613 0.0046149820724164358 0 -0.0054633464910939337 0.0046514604795056405 0 -0.0056736977078978177 0.00474007036447584 0 -0.0055796931113754914 0.0046296035561269261 0 -0.005997109393968531 0.0046289440659088108 0 -0.0055796931113754914 0.0046296035561269261 0 -0.0056940436555320481 0.0047101064636914337 0 -0.0056940436555320481 0.0047101064636914337 0 -0.0057339887455865515 0.0046558053351347705 0 -0.0053482123970144272 0.0047592115815729419 0 -0.0055796931113754914 0.0046296035561269261 0 -0.0056940436555320481 0.0047101064636914337 0 -0.0053482123970144272 0.0047592115815729419 0 -0.0055796931113754914 0.0046296035561269261 0 -0.0054612547434015613 0.0046149820724164358 0 -0.0053482123970144272 0.0047592115815729419 0 -0.0054612547434015613 0.0046149820724164358 0 -0.0053482123970144272 0.0047592115815729419 0 -0.0054481022637025154 0.0046388135821027604 0 -0.0070780181396553109 0.0045658776219695161 0 -0.0069053117733028496 0.0045748614113696445 0 -0.0067738925455371191 0.0043999591937732641 0 -0.0059598550488227852 0.0047482612429694824 0 -0.0063544666875986694 0.0043402752405959167 0 -0.005997109393968531 0.0046289440659088108 0 -0.0056940436555320481 0.0047101064636914337 0 -0.0057945013422273555 0.004753411019073386 0 -0.0056940436555320481 0.0047101064636914337 0 -0.0057945013422273555 0.004753411019073386 0 -0.0057339887455865515 0.0046558053351347705 0 -0.0063544666875986694 0.0043402752405959167 0 -0.0065311188024073392 0.0058788315063161151 0 -0.0057945013422273555 0.004753411019073386 0 -0.0057339887455865515 0.0046558053351347705 0 -0.0060640586452335851 0.00463460055673659 0 -0.0057339887455865515 0.0046558053351347705 0 -0.0059376250525767192 0.0043897493363071914 0 -0.0060640586452335851 0.00463460055673659 0 -0.0053287344446918614 0.01050039109109261 0 -0.0050435054002867753 0.010437089133350301 0 -0.0049485771881684617 0.010023103718482205 0 -0.005555515713227671 0.0076416443298140263 0 -0.0065311188024073392 0.0058788315063161151 0 -0.0057339887455865515 0.0046558053351347705 0 -0.0059376250525767192 0.0043897493363071914 0 -0.0054754216736988453 0.0043834856719612725 0 -0.005555515713227671 0.0076416443298140263 0 -0.0056143271453171469 0.0070502485204307526 0 -0.0059376250525767192 0.0043897493363071914 0 -0.0054754216736988453 0.0043834856719612725 0 -0.0056647858730431815 0.0037932628100648758 0 -0.0053287344446918614 0.01050039109109261 0 -0.005235798785234478 0.010870165790658177 0 -0.0050435054002867753 0.010437089133350301 0 -0.0053287344446918614 0.01050039109109261 0 -0.005235798785234478 0.010870165790658177 0 -0.0055856931154231364 0.010913294266126883 0 -0.0053482123970144272 0.0047592115815729419 0 -0.0047941940534000013 0.004449477906373513 0 -0.0039366015333430837 0.0050319652753182814 0 -0.0066157520958725138 0.005697174362328453 0 -0.0017291824655606286 0.0013975149119769394 0 -0.0053482123970144272 0.0047592115815729419 0 -0.0054754216736988453 0.0043834856719612725 0 -0.0047941940534000013 0.004449477906373513 0 -0.0057339887455865515 0.0046558053351347705 0 -0.0053482123970144272 0.0047592115815729419 0 -0.0054754216736988453 0.0043834856719612725 0 -0.0054754216736988453 0.0043834856719612725 0 -0.0047941940534000013 0.004449477906373513 0 -0.0048752972042942488 0.0037769300280054408 0 -0.0054754216736988453 0.0043834856719612725 0 -0.0048752972042942488 0.0037769300280054408 0 -0.0056647858730431815 0.0037932628100648758 0 -0.0047941940534000013 0.004449477906373513 0 -0.0048752972042942488 0.0037769300280054408 0 -0.0041986367905722894 0.0039365901830327359 0 -0.0047941940534000013 0.004449477906373513 0 -0.004011848511366903 0.0046070372987502906 0 -0.0039366015333430837 0.0050319652753182814 0 -0.0047941940534000013 0.004449477906373513 0 -0.0041986367905722894 0.0039365901830327359 0 -0.004011848511366903 0.0046070372987502906 0 -0.0048752972042942488 0.0037769300280054408 0 -0.0041986367905722894 0.0039365901830327359 0 -0.0037791114946182452 0.002929981897534573 0 -0.0048752972042942488 0.0037769300280054408 0 -0.0049716827605393449 0.0028302597709801854 0 -0.0037791114946182452 0.002929981897534573 0 -0.0047317733440187726 0.008929563526776289 0 -0.0056143271453171469 0.0070502485204307526 0 -0.0048752972042942488 0.0037769300280054408 0 -0.0049716827605393449 0.0028302597709801854 0 -0.0056647858730431815 0.0037932628100648758 0 -0.0058663534704686245 0.0112535577357817 0 -0.0055856931154231364 0.010913294266126883 0 -0.005512823978436796 0.011370704657068074 0 -0.0047317733440187726 0.008929563526776289 0 -0.0056806379579915885 0.011411024970358785 0 -0.0047317733440187726 0.008929563526776289 0 -0.0033301193155802749 0.0060055926925466118 0 -0.0032136160248039834 0.0093356552145934402 0 -0.0027995347482056661 0.008947161506590369 0 -0.0025336000720012773 0.0094984251924854855 0 -0.0047317733440187726 0.008929563526776289 0 -0.0043356322110481207 0.010263750158235697 0 -0.005235798785234478 0.010870165790658177 0 -0.0053916577371981595 0.011152682300989992 0 -0.0052194274211222452 0.011156635128156874 0 -0.005235798785234478 0.010870165790658177 0 -0.0052194274211222452 0.011156635128156874 0 -0.0050615181054092647 0.011078169686751457 0 -0.005235798785234478 0.010870165790658177 0 -0.0055856931154231364 0.010913294266126883 0 -0.0053916577371981595 0.011152682300989992 0 -0.0055856931154231364 0.010913294266126883 0 -0.0053916577371981595 0.011152682300989992 0 -0.005512823978436796 0.011370704657068074 0 -0.0053916577371981595 0.011152682300989992 0 -0.005512823978436796 0.011370704657068074 0 -0.0053171160931252239 0.011364271528257046 0 -0.0053916577371981595 0.011152682300989992 0 -0.0053171160931252239 0.011364271528257046 0 -0.0052194274211222452 0.011156635128156874 0 -0.0052194274211222452 0.011156635128156874 0 -0.0051396498715824499 0.011346142775062927 0 -0.0050615181054092647 0.011078169686751457 0 -0.0053171160931252239 0.011364271528257046 0 -0.0052194274211222452 0.011156635128156874 0 -0.0051396498715824499 0.011346142775062927 0 -0.0053171160931252239 0.011364271528257046 0 -0.0052361818813116568 0.011548481844066769 0 -0.0051396498715824499 0.011346142775062927 0 -0.0053171160931252239 0.011364271528257046 0 -0.0052361818813116568 0.011548481844066769 0 -0.0053817035812537559 0.011536218017081157 0 -0.0052361818813116568 0.011548481844066769 0 -0.0052666004666355693 0.011700752429409548 0 -0.0053817035812537559 0.011536218017081157 0 -0.0052666004666355693 0.011700752429409548 0 -0.0052104176625224546 0.011824044637358698 0 -0.0052522471198274108 0.011854361550599071 0 -0.0052361818813116568 0.011548481844066769 0 -0.0052666004666355693 0.011700752429409548 0 -0.005195840838956918 0.011711016234607045 0 -0.0052666004666355693 0.011700752429409548 0 -0.0052104176625224546 0.011824044637358698 0 -0.005195840838956918 0.011711016234607045 0 -0.0052666004666355693 0.011700752429409548 0 -0.0053840721720876993 0.011681226021634423 0 -0.0052522471198274108 0.011854361550599071 0 -0.0053840721720876993 0.011681226021634423 0 -0.0055119100820426991 0.011734071253873619 0 -0.0052522471198274108 0.011854361550599071 0 -0.0052666004666355693 0.011700752429409548 0 -0.0053840721720876993 0.011681226021634423 0 -0.0053817035812537559 0.011536218017081157 0 -0.0053840721720876993 0.011681226021634423 0 -0.0053817035812537559 0.011536218017081157 0 -0.0055721772640479512 0.01153914819042127 0 -0.005512823978436796 0.011370704657068074 0 -0.0053817035812537559 0.011536218017081157 0 -0.0055721772640479512 0.01153914819042127 0 -0.005512823978436796 0.011370704657068074 0 -0.0053171160931252239 0.011364271528257046 0 -0.0053817035812537559 0.011536218017081157 0 -0.0056186648548977487 0.011356378097765751 0 -0.005512823978436796 0.011370704657068074 0 -0.0055721772640479512 0.01153914819042127 0 -0.0055721772640479512 0.01153914819042127 0 -0.0057254967362550483 0.011489988529518463 0 -0.0056851928631321876 0.011764543423930615 0 -0.0056186648548977487 0.011356378097765751 0 -0.0055721772640479512 0.01153914819042127 0 -0.0057254967362550483 0.011489988529518463 0 -0.0043839879020661455 0.012838703227212448 0 -0.0025983595168329195 0.012036154969217524 0 -0.0057254967362550483 0.011489988529518463 0 -0.0056851928631321876 0.011764543423930615 0 -0.0058306166269646046 0.011629714353935772 0 -0.0053840721720876993 0.011681226021634423 0 -0.0055721772640479512 0.01153914819042127 0 -0.0055119100820426991 0.011734071253873619 0 -0.0055721772640479512 0.01153914819042127 0 -0.0056851928631321876 0.011764543423930615 0 -0.0055119100820426991 0.011734071253873619 0 -0.0043839879020661455 0.012838703227212448 0 -0.0046396352009028799 0.012528751721969326 0 -0.0056851928631321876 0.011764543423930615 0 -0.0055119100820426991 0.011734071253873619 0 -0.0054794076057726217 0.011953031354570933 0 -0.0028361104539741679 0.013828249950889668 0 -0.002820720621366023 0.012715097837014869 0 -0.0018720990118328757 0.013212403466608864 0 -0.0028361104539741679 0.013828249950889668 0 -0.0038522699651142738 0.013141151234651557 0 -0.002820720621366023 0.012715097837014869 0 -0.002820720621366023 0.012715097837014869 0 -0.0018567267943344562 0.012250864283798199 0 -0.0027439674502487427 0.011850274348136165 0 -0.002820720621366023 0.012715097837014869 0 -0.0038398682293070145 0.012067591200145139 0 -0.0027439674502487427 0.011850274348136165 0 -0.0038522699651142738 0.013141151234651557 0 -0.002820720621366023 0.012715097837014869 0 -0.0038398682293070145 0.012067591200145139 0 -0.0038522699651142738 0.013141151234651557 0 -0.0049750565882449053 0.012160762871607212 0 -0.0038398682293070145 0.012067591200145139 0 -0.0046396352009028799 0.012528751721969326 0 -0.0049680033693875383 0.01221268120302735 0 -0.0051454080350652976 0.01196869307114461 0 -0.0052570253559692829 0.01182445825275163 0 -0.0053096244309211449 0.011834928697529206 0 -0.0049750565882449053 0.012160762871607212 0 -0.0051454080350652976 0.01196869307114461 0 -0.0052570253559692829 0.01182445825275163 0 -0.0051454080350652976 0.01196869307114461 0 -0.0052104176625224546 0.011824044637358698 0 -0.0052522471198274108 0.011854361550599071 0 -0.0051454080350652976 0.01196869307114461 0 -0.0052104176625224546 0.011824044637358698 0 -0.0053096244309211449 0.011834928697529206 0 -0.0054794076057726217 0.011953031354570933 0 -0.0049750565882449053 0.012160762871607212 0 -0.0052522471198274108 0.011854361550599071 0 -0.0055119100820426991 0.011734071253873619 0 -0.0054794076057726217 0.011953031354570933 0 -0.0052522471198274108 0.011854361550599071 0 -0.0049750565882449053 0.012160762871607212 0 -0.0051454080350652976 0.01196869307114461 0 -0.0052522471198274108 0.011854361550599071 0 0.00010826319714939142 0.012554469032395281 0 0.00091461850642081768 0.012514019317159761 0 0.0005880937534373592 0.012323517975690019 0 0.00010826319714939142 0.012554469032395281 0 0.00091461850642081768 0.012514019317159761 0 0.00025469333666711412 0.012809851150912543 0 0.00091461850642081768 0.012514019317159761 0 0.00081144292134401931 0.012290728568051971 0 0.00076994579337792864 0.012263152918708197 0 0.00091461850642081768 0.012514019317159761 0 0.00081144292134401931 0.012290728568051971 0 0.0005880937534373592 0.012323517975690019 0 0.00081144292134401931 0.012290728568051971 0 0.0005880937534373592 0.012323517975690019 0 0.00070140865127903303 0.011987873384965769 0 0.00070140865127903303 0.011987873384965769 0 0.0010077603246647687 0.012030955835933783 0 0.000958561980368292 0.01160961034840338 0 0.0005880937534373592 0.012323517975690019 0 0.00070140865127903303 0.011987873384965769 0 0.00016176575630981864 0.012069012700571582 0 0.00081144292134401931 0.012290728568051971 0 0.00070140865127903303 0.011987873384965769 0 0.0010077603246647687 0.012030955835933783 0 0.00070140865127903303 0.011987873384965769 0 0.00016176575630981864 0.012069012700571582 0 0.00041630430746693341 0.011591494428640428 0 0.00010826319714939142 0.012554469032395281 0 0.00016176575630981864 0.012069012700571582 0 -0.00085248078539925146 0.012311265122717015 0 0.00016176575630981864 0.012069012700571582 0 -0.00085248078539925146 0.012311265122717015 0 -0.00034747867888188644 0.011643629953027925 0 0.00010826319714939142 0.012554469032395281 0 0.0005880937534373592 0.012323517975690019 0 0.00016176575630981864 0.012069012700571582 0 -0.00085248078539925146 0.012311265122717015 0 -0.0018567267943344562 0.012250864283798199 0 -0.0018720990118328757 0.013212403466608864 0 -0.002820720621366023 0.012715097837014869 0 -0.0018567267943344562 0.012250864283798199 0 -0.0018720990118328757 0.013212403466608864 0 -0.00085248078539925146 0.012311265122717015 0 -0.0018720990118328757 0.013212403466608864 0 -0.00093605899565849383 0.013694167941415586 0 0.00010826319714939142 0.012554469032395281 0 -0.00085248078539925146 0.012311265122717015 0 -0.00093605899565849383 0.013694167941415586 0 6.7674251411680756e-05 0.012609624611282731 0 -0.00044912454576376276 0.013326823908866836 0 0.00010826319714939142 0.012554469032395281 0 -4.0093303988702473e-05 0.012793045554649026 0 0.00025469333666711412 0.012809851150912543 0 -4.0093303988702473e-05 0.012793045554649026 0 9.4039775322047028e-05 0.013111280880423943 0 0.00025469333666711412 0.012809851150912543 0 -4.0093303988702473e-05 0.012793045554649026 0 9.4039775322047028e-05 0.013111280880423943 0 -0.00044485028363915941 0.013169423791899915 0 -0.0028361104539741679 0.013828249950889668 0 -0.0018720990118328757 0.013212403466608864 0 -0.0018026212254183204 0.014530840226952309 0 -0.0018720990118328757 0.013212403466608864 0 -0.00093605899565849383 0.013694167941415586 0 -0.0018026212254183204 0.014530840226952309 0 -0.00044912454576376276 0.013326823908866836 0 -0.0025983595168329195 0.012036154969217524 0 -0.0027995347482056661 0.008947161506590369 0 -0.0023945885159520112 0.008572501424877409 0 -0.0022406559254431594 0.0091488177038955149 0 -0.0043356322110481207 0.010263750158235697 0 -0.0025983595168329195 0.012036154969217524 0 -0.0025983595168329195 0.012036154969217524 0 0.0011715584757532203 0.01005123883196697 0 9.4039775322047028e-05 0.013111280880423943 0 -0.00044485028363915941 0.013169423791899915 0 0.00024688546017056769 0.013629167337740231 0 -0.0023945885159520112 0.008572501424877409 0 -0.0016192745319064297 0.009074311699269734 0 -0.0022406559254431594 0.0091488177038955149 0 9.4039775322047028e-05 0.013111280880423943 0 0.00024688546017056769 0.013629167337740231 0 0.00045392703805591288 0.013201072375299817 0 0.0011715584757532203 0.01005123883196697 0 0.0013506668054352254 0.012327760101387471 0 0.0033486474089987912 0.009273538946165262 0 0.0023660867201870679 0.011163240106322733 0 0.0014997821779975497 0.009734825517756944 0 0.00091461850642081768 0.012514019317159761 0 0.00045392703805591288 0.013201072375299817 0 0.00025469333666711412 0.012809851150912543 0 0.0010762321165859747 0.012370856845883545 0 0.0013506668054352254 0.012327760101387471 0 9.4039775322047028e-05 0.013111280880423943 0 0.00045392703805591288 0.013201072375299817 0 0.00025469333666711412 0.012809851150912543 0 0.00091461850642081768 0.012514019317159761 0 0.0023660867201870679 0.011163240106322733 0 0.0010736699472727736 0.011326477789319021 0 0.00091461850642081768 0.012514019317159761 0 0.0010736699472727736 0.011326477789319021 0 0.00076994579337792864 0.012263152918708197 0 0.0014997821779975497 0.009734825517756944 0 0.00049257242259957321 0.0084243213025160298 0 -0.0004579988379000126 0.01001189511235376 0 0.0010736699472727736 0.011326477789319021 0 0.0014997821779975497 0.009734825517756944 0 -0.0004579988379000126 0.01001189511235376 0 0.0023660867201870679 0.011163240106322733 0 0.0010736699472727736 0.011326477789319021 0 0.0014997821779975497 0.009734825517756944 0 0.0014997821779975497 0.009734825517756944 0 0.00049257242259957321 0.0084243213025160298 0 0.0016637153348657628 0.0077998149365750341 0 0.00049257242259957321 0.0084243213025160298 0 0.0016637153348657628 0.0077998149365750341 0 0.00068604179174697633 0.0070348381483288881 0 0.0033486474089987912 0.009273538946165262 0 0.0014997821779975497 0.009734825517756944 0 0.0016637153348657628 0.0077998149365750341 0 0.0034490738030981661 0.0089915528474229789 0 0.0030177473640871934 0.0074939834582035715 0 0.0042431533324730946 0.006959100938793485 0 0.0034490738030981661 0.0089915528474229789 0 0.0016637153348657628 0.0077998149365750341 0 0.0030177473640871934 0.0074939834582035715 0 0.0011715584757532203 0.01005123883196697 0 0.0023221293181637883 0.0079862346609764906 0 -0.0003035407183503951 0.0042408285304478942 0 -0.0016763053472017575 0.0035972478586246688 0 -0.0011136831799356968 0.0046060700738165903 0 0.0016637153348657628 0.0077998149365750341 0 0.0030177473640871934 0.0074939834582035715 0 0.0022090431175375465 0.0063427271091179198 0 0.0030177473640871934 0.0074939834582035715 0 0.0022090431175375465 0.0063427271091179198 0 0.0042431533324730946 0.006959100938793485 0 0.0012301268074465911 0.0053435918784887253 0 -0.00075835581029907063 0.0059652976167228651 0 -0.0003035407183503951 0.0042408285304478942 0 1.509854023088788e-05 0.0049581755623131435 0 3.3791253150378083e-05 0.0055048396474904364 0 0.0012301268074465911 0.0053435918784887253 0 -9.069770774027184e-05 0.0053595168303709039 0 0.0022090431175375465 0.0063427271091179198 0 0.00068604179174697633 0.0070348381483288881 0 3.3791253150378083e-05 0.0055048396474904364 0 0.0016637153348657628 0.0077998149365750341 0 0.0022090431175375465 0.0063427271091179198 0 0.00068604179174697633 0.0070348381483288881 0 -0.0022406559254431594 0.0091488177038955149 0 -0.0025336000720012773 0.0094984251924854855 0 -0.0018631347758216101 0.0096505841656982661 0 -0.0027995347482056661 0.008947161506590369 0 -0.0022406559254431594 0.0091488177038955149 0 -0.0025336000720012773 0.0094984251924854855 0 -0.0016192745319064297 0.009074311699269734 0 -0.0022406559254431594 0.0091488177038955149 0 -0.0018631347758216101 0.0096505841656982661 0 0.0011715584757532203 0.01005123883196697 0 -0.00075835581029907063 0.0059652976167228651 0 -0.0022125713092101744 0.0031598768247427869 0 -0.0033502424965441602 0.003777628525156531 0 -0.0026314312603507267 0.0048840530446407565 0 -0.00075835581029907063 0.0059652976167228651 0 -0.0026871514965365654 0.0039358746041507856 0 -0.0041986367905722894 0.0039365901830327359 0 -0.0037791114946182452 0.002929981897534573 0 -0.0033502424965441602 0.003777628525156531 0 -0.0033301193155802749 0.0060055926925466118 0 -0.00075835581029907063 0.0059652976167228651 0 -0.0037791114946182452 0.002929981897534573 0 -0.0022125713092101744 0.0031598768247427869 0 -0.0033502424965441602 0.003777628525156531 0 -0.0041986367905722894 0.0039365901830327359 0 -0.0033502424965441602 0.003777628525156531 0 -0.004011848511366903 0.0046070372987502906 0 -0.0033502424965441602 0.003777628525156531 0 -0.004011848511366903 0.0046070372987502906 0 -0.0026314312603507267 0.0048840530446407565 0 -0.004011848511366903 0.0046070372987502906 0 -0.0026314312603507267 0.0048840530446407565 0 -0.00352926088358025 0.0059995550143563453 0 -0.0016763053472017575 0.0035972478586246688 0 -0.0026314312603507267 0.0048840530446407565 0 -0.0011136831799356968 0.0046060700738165903 0 -0.0026314312603507267 0.0048840530446407565 0 -0.0011136831799356968 0.0046060700738165903 0 -0.00085482849117293909 0.0055626926604506431 0 0.0056578984050833321 -0.0044872790872793871 0 0.0040881508100761464 -0.0053513908011419333 0 0.0067551417057229298 -0.0057484701532052769 0 -0.0026314312603507267 0.0048840530446407565 0 -0.00352926088358025 0.0059995550143563453 0 -0.00085482849117293909 0.0055626926604506431 0 -0.0017291824655606286 0.0013975149119769394 0 0.0035879579212968666 -0.00051666949964231871 0 -0.0032588048698417803 0.0054201294419538781 0 -0.0017291824655606286 0.0013975149119769394 0 0.0035879579212968666 -0.00051666949964231871 0 0.0037135342542560248 0.00081620836601090725 0 0.00024952687580273147 0.0049933608949743252 0 -0.00036565407382120363 0.0048841360899590175 0 -0.00085482849117293909 0.0055626926604506431 0 0.00024952687580273147 0.0049933608949743252 0 -0.00085482849117293909 0.0055626926604506431 0 0.00052253619245164206 0.0049237311125511453 0 0.0013098980637014437 0.001901503658510743 0 0.0037135342542560248 0.00081620836601090725 0 1.509854023088788e-05 0.0049581755623131435 0 6.7369503848623032e-05 0.005056112818744617 0 3.3791253150378083e-05 0.0055048396474904364 0 0.00024952687580273147 0.0049933608949743252 0 1.509854023088788e-05 0.0049581755623131435 0 6.7369503848623032e-05 0.005056112818744617 0 -0.0003035407183503951 0.0042408285304478942 0 1.509854023088788e-05 0.0049581755623131435 0 -0.00036565407382120363 0.0048841360899590175 0 0.00024952687580273147 0.0049933608949743252 0 1.509854023088788e-05 0.0049581755623131435 0 -0.00036565407382120363 0.0048841360899590175 0 -0.0003035407183503951 0.0042408285304478942 0 -0.00036565407382120363 0.0048841360899590175 0 -0.0011136831799356968 0.0046060700738165903 0 -0.00036565407382120363 0.0048841360899590175 0 -0.0011136831799356968 0.0046060700738165903 0 -0.00085482849117293909 0.0055626926604506431 0 0.0072804042066782837 -0.0039653480973972149 0 0.0056578984050833321 -0.0044872790872793871 0 0.0067551417057229298 -0.0057484701532052769 0 0.0072804042066782837 -0.0039653480973972149 0 0.0067551417057229298 -0.0057484701532052769 0 0.0078497605323037539 -0.0053931791644314794 0 0.0084253596042795226 -0.0046384102802178905 0 0.0078497605323037539 -0.0053931791644314794 0 0.0083589838172163297 -0.005246841391270656 0 0.0067551417057229298 -0.0057484701532052769 0 0.0078497605323037539 -0.0053931791644314794 0 0.0088759207753740764 -0.0060796355329657244 0 0.0086401019813151791 -0.0055802356227073 0 0.0083589838172163297 -0.005246841391270656 0 0.0090622769103367255 -0.0054379910734880911 0 0.0078497605323037539 -0.0053931791644314794 0 0.0086401019813151791 -0.0055802356227073 0 0.0083589838172163297 -0.005246841391270656 0 0.0078497605323037539 -0.0053931791644314794 0 0.0086401019813151791 -0.0055802356227073 0 0.0088759207753740764 -0.0060796355329657244 0 0.0084253596042795226 -0.0046384102802178905 0 0.0083589838172163297 -0.005246841391270656 0 0.0089375826320257767 -0.0049766766910428455 0 0.0083589838172163297 -0.005246841391270656 0 0.0089375826320257767 -0.0049766766910428455 0 0.0090622769103367255 -0.0054379910734880911 0 0.0089375826320257767 -0.0049766766910428455 0 0.0094193961361989618 -0.0048884617538592218 0 0.0093925247768420761 -0.0052433915301976922 0 0.0089375826320257767 -0.0049766766910428455 0 0.0093925247768420761 -0.0052433915301976922 0 0.0090622769103367255 -0.0054379910734880911 0 0.0098326786342187358 -0.0048434144573056021 0 0.0094193961361989618 -0.0048884617538592218 0 0.0097021809993474567 -0.0051399274122631003 0 0.0094193961361989618 -0.0048884617538592218 0 0.0093925247768420761 -0.0052433915301976922 0 0.0097021809993474567 -0.0051399274122631003 0 0.0093925247768420761 -0.0052433915301976922 0 0.0097021809993474567 -0.0051399274122631003 0 0.0097917865974140959 -0.0054226866432590878 0 0.0093925247768420761 -0.0052433915301976922 0 0.0097917865974140959 -0.0054226866432590878 0 0.009523703623257029 -0.0056266628484769998 0 0.0097917865974140959 -0.0054226866432590878 0 0.009523703623257029 -0.0056266628484769998 0 0.0098502738194489632 -0.0056758304348653657 0 0.0093925247768420761 -0.0052433915301976922 0 0.009523703623257029 -0.0056266628484769998 0 0.0090622769103367255 -0.0054379910734880911 0 0.0093887611563670988 -0.0058600639370173478 0 0.009523703623257029 -0.0056266628484769998 0 0.0091120124726794156 -0.0057305703295617502 0 0.0093887611563670988 -0.0058600639370173478 0 0.009523703623257029 -0.0056266628484769998 0 0.0096583932315602288 -0.0058067997988423175 0 0.009523703623257029 -0.0056266628484769998 0 0.0096583932315602288 -0.0058067997988423175 0 0.0098502738194489632 -0.0056758304348653657 0 0.0096583932315602288 -0.0058067997988423175 0 0.0098502738194489632 -0.0056758304348653657 0 0.0098689623087127396 -0.0058812494299363416 0 0.0086401019813151791 -0.0055802356227073 0 0.0090622769103367255 -0.0054379910734880911 0 0.0091120124726794156 -0.0057305703295617502 0 0.009523703623257029 -0.0056266628484769998 0 0.0090622769103367255 -0.0054379910734880911 0 0.0091120124726794156 -0.0057305703295617502 0 0.0086401019813151791 -0.0055802356227073 0 0.0091120124726794156 -0.0057305703295617502 0 0.0088759207753740764 -0.0060796355329657244 0 0.00024952687580273147 0.0049933608949743252 0 3.3300520413055765e-06 0.0047773901312114569 0 -0.00017102055957001001 0.0048735236375506618 0 -0.0002705811998722805 0.00502490908421864 0 -0.0010125971924493428 0.0044699579851562215 0 -0.0010290816253036197 0.006800292553932539 0 0.00024952687580273147 0.0049933608949743252 0 -0.00017102055957001001 0.0048735236375506618 0 6.7369503848623032e-05 0.005056112818744617 0 0.0093887611563670988 -0.0058600639370173478 0 0.0091120124726794156 -0.0057305703295617502 0 0.0088759207753740764 -0.0060796355329657244 0 -0.00017102055957001001 0.0048735236375506618 0 -0.0002705811998722805 0.00502490908421864 0 -0.0010125971924493428 0.0044699579851562215 0 0.0093887611563670988 -0.0058600639370173478 0 0.0088759207753740764 -0.0060796355329657244 0 0.0096617447794485316 -0.0059900902810234025 0 0.0088759207753740764 -0.0060796355329657244 0 0.0096617447794485316 -0.0059900902810234025 0 0.0099616391597997667 -0.0061355814570653849 0 0.0037135342542560248 0.00081620836601090725 0 0.0050505948824917822 0.0044605845857799472 0 3.3300520413055765e-06 0.0047773901312114569 0 -0.00017102055957001001 0.0048735236375506618 0 -0.0010125971924493428 0.0044699579851562215 0 0.0093887611563670988 -0.0058600639370173478 0 0.0096583932315602288 -0.0058067997988423175 0 0.0096617447794485316 -0.0059900902810234025 0 0.0096583932315602288 -0.0058067997988423175 0 0.0096617447794485316 -0.0059900902810234025 0 0.0098689623087127396 -0.0058812494299363416 0 0.0096617447794485316 -0.0059900902810234025 0 0.0098788787178180765 -0.0060079451125636084 0 0.0098689623087127396 -0.0058812494299363416 0 6.7369503848623032e-05 0.005056112818744617 0 -0.0002705811998722805 0.00502490908421864 0 3.3791253150378083e-05 0.0055048396474904364 0 -0.00017102055957001001 0.0048735236375506618 0 6.7369503848623032e-05 0.005056112818744617 0 -0.0002705811998722805 0.00502490908421864 0 0.0019389852521878102 0.014560604924459073 0 0.0028846333001110512 0.014651502616882183 0 0.0022668280331333578 0.014052215490054344 0 0.0050505948824917822 0.0044605845857799472 0 0.0076592067541499777 0.0041756490132140852 0 0.0096617447794485316 -0.0059900902810234025 0 0.0099616391597997667 -0.0061355814570653849 0 0.0098788787178180765 -0.0060079451125636084 0 0.0099616391597997667 -0.0061355814570653849 0 0.010004047831847811 -0.0060165257890152056 0 0.0098788787178180765 -0.0060079451125636084 0 0.0050505948824917822 0.0044605845857799472 0 0.0050523592552079348 0.0032210213176704179 0 0.010004047831847811 -0.0060165257890152056 0 0.0098788787178180765 -0.0060079451125636084 0 0.0098689623087127396 -0.0058812494299363416 0 0.0099746211543808253 -0.0061456329945999491 0 0.010388611869344604 -0.0055768607577393057 0 0.011326586062940873 -0.0055659788871282026 0 0.0099746211543808253 -0.0061456329945999491 0 0.010004047831847811 -0.0060165257890152056 0 0.010388611869344604 -0.0055768607577393057 0 0.010004047831847811 -0.0060165257890152056 0 0.0098689623087127396 -0.0058812494299363416 0 0.010033811350946147 -0.0057350316632415492 0 0.0098502738194489632 -0.0056758304348653657 0 0.0098689623087127396 -0.0058812494299363416 0 0.010033811350946147 -0.0057350316632415492 0 0.0098502738194489632 -0.0056758304348653657 0 0.010033811350946147 -0.0057350316632415492 0 0.010058672542657703 -0.0055255400056963789 0 0.010004047831847811 -0.0060165257890152056 0 0.010033811350946147 -0.0057350316632415492 0 0.010388611869344604 -0.0055768607577393057 0 0.010388611869344604 -0.0055768607577393057 0 0.010058672542657703 -0.0055255400056963789 0 0.010121342492488312 -0.0052008513765756841 0 0.010033811350946147 -0.0057350316632415492 0 0.010388611869344604 -0.0055768607577393057 0 0.010058672542657703 -0.0055255400056963789 0 0.0097917865974140959 -0.0054226866432590878 0 0.010058672542657703 -0.0055255400056963789 0 0.010121342492488312 -0.0052008513765756841 0 0.0097917865974140959 -0.0054226866432590878 0 0.0098502738194489632 -0.0056758304348653657 0 0.010058672542657703 -0.0055255400056963789 0 0.010388611869344604 -0.0055768607577393057 0 0.010121342492488312 -0.0052008513765756841 0 0.010655874445806407 -0.0050066406086915951 0 0.0097021809993474567 -0.0051399274122631003 0 0.0097917865974140959 -0.0054226866432590878 0 0.010121342492488312 -0.0052008513765756841 0 0.010253194044101917 -0.0047182503602985161 0 0.010121342492488312 -0.0052008513765756841 0 0.010655874445806407 -0.0050066406086915951 0 0.010253194044101917 -0.0047182503602985161 0 0.0098326786342187358 -0.0048434144573056021 0 0.010121342492488312 -0.0052008513765756841 0 0.0098326786342187358 -0.0048434144573056021 0 0.0097021809993474567 -0.0051399274122631003 0 0.010121342492488312 -0.0052008513765756841 0 0.010388611869344604 -0.0055768607577393057 0 0.010655874445806407 -0.0050066406086915951 0 0.011326586062940873 -0.0055659788871282026 0 0.011182776313931216 -0.0047983612499101855 0 0.011991237779643485 -0.0049247033663210645 0 0.011326586062940873 -0.0055659788871282026 0 0.011991237779643485 -0.0049247033663210645 0 0.011326586062940873 -0.0055659788871282026 0 0.011823512959127003 -0.0062483951210087554 0 0.011182776313931216 -0.0047983612499101855 0 0.010655874445806407 -0.0050066406086915951 0 0.011326586062940873 -0.0055659788871282026 0 0.012997390066053048 -0.0054542507684249503 0 0.011823512959127003 -0.0062483951210087554 0 0.013645167362668955 -0.0062688302538931474 0 0.011991237779643485 -0.0049247033663210645 0 0.012997390066053048 -0.0054542507684249503 0 0.011823512959127003 -0.0062483951210087554 0 0.013212993805116808 -0.0045639861933045771 0 0.011991237779643485 -0.0049247033663210645 0 0.012997390066053048 -0.0054542507684249503 0 0.0076592067541499777 0.0041756490132140852 0 0.0083313379581666531 0.0042287652208141922 0 0.0028846333001110512 0.014651502616882183 0 0.0035633383846319713 0.013818046372477966 0 0.0040546392392775037 0.01469669516764726 0 0.0099746211543808253 -0.0061456329945999491 0 0.011326586062940873 -0.0055659788871282026 0 0.011823512959127003 -0.0062483951210087554 0 0.0028846333001110512 0.014651502616882183 0 0.0027234302664956552 0.013694564249703592 0 0.0022668280331333578 0.014052215490054344 0 0.0028846333001110512 0.014651502616882183 0 0.0027234302664956552 0.013694564249703592 0 0.0035633383846319713 0.013818046372477966 0 0.0035633383846319713 0.013818046372477966 0 0.0031404422788399631 0.013286921924737167 0 0.0041392462135875219 0.012949776865197743 0 0.0027234302664956552 0.013694564249703592 0 0.0035633383846319713 0.013818046372477966 0 0.0031404422788399631 0.013286921924737167 0 0.0027234302664956552 0.013694564249703592 0 0.0024762202651392043 0.013263086154048505 0 0.0020979847779979115 0.013428070758854443 0 0.0027234302664956552 0.013694564249703592 0 0.0031404422788399631 0.013286921924737167 0 0.0024762202651392043 0.013263086154048505 0 0.0024762202651392043 0.013263086154048505 0 0.0020979847779979115 0.013428070758854443 0 0.0020694415009375688 0.012915263647218305 0 0.0020979847779979115 0.013428070758854443 0 0.0017147495108054507 0.013719566733733755 0 0.0014050893746906034 0.013014825063139532 0 -7.5628355435977961e-05 0.011293671224482523 0 0.0005211483397550581 0.011248352448313828 0 0.00049257242259957321 0.0084243213025160298 0 0.00068604179174697633 0.0070348381483288881 0 -0.0010290816253036197 0.006800292553932539 0 0.00049257242259957321 0.0084243213025160298 0 -0.0010290816253036197 0.006800292553932539 0 -0.0004579988379000126 0.01001189511235376 0 -0.0002705811998722805 0.00502490908421864 0 -0.0010290816253036197 0.006800292553932539 0 3.3791253150378083e-05 0.0055048396474904364 0 0.00068604179174697633 0.0070348381483288881 0 -0.0010290816253036197 0.006800292553932539 0 3.3791253150378083e-05 0.0055048396474904364 0 0.0050505948824917822 0.0044605845857799472 0 -7.5628355435977961e-05 0.011293671224482523 0 0.0020979847779979115 0.013428070758854443 0 0.0017147495108054507 0.013719566733733755 0 0.0022668280331333578 0.014052215490054344 0 0.0027234302664956552 0.013694564249703592 0 0.0020979847779979115 0.013428070758854443 0 0.0022668280331333578 0.014052215490054344 0 0.0019389852521878102 0.014560604924459073 0 0.0017147495108054507 0.013719566733733755 0 0.0022668280331333578 0.014052215490054344 0 0.015588796591670874 0.0062987644686059692 0 0.015483052985903009 0.0064097368928853413 0 0.015418331252071156 0.0063012326124937115 0 0.017921962780848916 0.0013956155537365364 0 0.019639112747563671 0.0018672397271738664 0 0.015588796591670874 0.0062987644686059692 0 0.015553633474228248 0.0064320131428321917 0 0.015483052985903009 0.0064097368928853413 0 0.017921962780848916 0.0013956155537365364 0 0.015792841991136272 0.0076514832138407955 0 0.019735581901590485 -0.0032752018495982582 0 0.017921962780848916 0.0013956155537365364 0 0.022877462066434998 -0.0012962761331654011 0 0.02277370343760627 -0.00080731802665278416 0 0.022657907520296172 -0.0011042063981868298 0 0.02277370343760627 -0.00080731802665278416 0 0.022657907520296172 -0.0011042063981868298 0 0.022456440952371981 -0.0010270065424991916 0 0.022552562554375093 -0.0012551813843646772 0 0.022657907520296172 -0.0011042063981868298 0 0.022456440952371981 -0.0010270065424991916 0 0.016228387487942721 -0.0038063649957183901 0 0.01601934471404514 -0.0027216643289678087 0 0.016567196235310763 -0.0035242901389366545 0 0.015956553677530402 -0.0054425091743686722 0 0.012589113626252209 0.0041025096128333143 0 0.01601934471404514 -0.0027216643289678087 0 0.016567196235310763 -0.0035242901389366545 0 0.016881765720141568 -0.0026959904774972428 0 0.015553024142315424 0.0063645077202970825 0 0.01562458004012828 0.0063816946358119546 0 0.015601982319799486 0.0064734908377384161 0 0.017921962780848916 0.0013956155537365364 0 0.012589113626252209 0.0041025096128333143 0 0.015553024142315424 0.0063645077202970825 0 0.015601982319799486 0.0064734908377384161 0 0.015553633474228248 0.0064320131428321917 0 0.0053226161984074967 0.01464514284083308 0 0.0040546392392775037 0.01469669516764726 0 0.00468278154078762 0.013733275602285841 0 0.012589113626252209 0.0041025096128333143 0 0.010185325210335001 0.011343691286076148 0 0.012589113626252209 0.0041025096128333143 0 0.0083313379581666531 0.0042287652208141922 0 0.015279104170325649 -0.0047751302540154552 0 0.016040590219179675 -0.0049798959144885828 0 0.015433120057928774 -0.0062125249056462079 0 0.015279104170325649 -0.0047751302540154552 0 0.015433120057928774 -0.0062125249056462079 0 0.01431841732038946 -0.0052495411970953539 0 0.012997390066053048 -0.0054542507684249503 0 0.01431841732038946 -0.0052495411970953539 0 0.013645167362668955 -0.0062688302538931474 0 0.015433120057928774 -0.0062125249056462079 0 0.01431841732038946 -0.0052495411970953539 0 0.013645167362668955 -0.0062688302538931474 0 0.013212993805116808 -0.0045639861933045771 0 0.012997390066053048 -0.0054542507684249503 0 0.01431841732038946 -0.0052495411970953539 0 0.0035633383846319713 0.013818046372477966 0 0.0040546392392775037 0.01469669516764726 0 0.00468278154078762 0.013733275602285841 0 0.0035633383846319713 0.013818046372477966 0 0.00468278154078762 0.013733275602285841 0 0.0041392462135875219 0.012949776865197743 0 0.010185325210335001 0.011343691286076148 0 0.010013076353371392 0.0094827437198531008 0 0.015624807198911921 0.0066641460324011565 0 0.015657112515845558 0.0065600608073837505 0 0.015631816421169707 0.0066983260385622117 0 0.015624807198911921 0.0066641460324011565 0 0.015657112515845558 0.0065600608073837505 0 0.015594593264553171 0.006576829798256815 0 0.01562458004012828 0.0063816946358119546 0 0.015657112515845558 0.0065600608073837505 0 0.015601982319799486 0.0064734908377384161 0 0.015657112515845558 0.0065600608073837505 0 0.015601982319799486 0.0064734908377384161 0 0.015594593264553171 0.006576829798256815 0 0.015601982319799486 0.0064734908377384161 0 0.015594593264553171 0.006576829798256815 0 0.015553633474228248 0.0064320131428321917 0 0.015594593264553171 0.006576829798256815 0 0.015502275542101729 0.0065416132906180591 0 0.015600974623401556 0.0067140185061557792 0 0.015624807198911921 0.0066641460324011565 0 0.015594593264553171 0.006576829798256815 0 0.015600974623401556 0.0067140185061557792 0 0.015502275542101729 0.0065416132906180591 0 0.015553633474228248 0.0064320131428321917 0 0.015483052985903009 0.0064097368928853413 0 0.015594593264553171 0.006576829798256815 0 0.015502275542101729 0.0065416132906180591 0 0.015553633474228248 0.0064320131428321917 0 0.015467163655393546 0.0069049765214049333 0 0.015401837879172481 0.0066799812613529685 0 0.015217258681605735 0.0071558578699032847 0 0.015467163655393546 0.0069049765214049333 0 0.015704287828077205 0.0071400225064338942 0 0.015217258681605735 0.0071558578699032847 0 0.015467163655393546 0.0069049765214049333 0 0.015600974623401556 0.0067140185061557792 0 0.015401837879172481 0.0066799812613529685 0 0.015502275542101729 0.0065416132906180591 0 0.015600974623401556 0.0067140185061557792 0 0.015401837879172481 0.0066799812613529685 0 0.015498269046153524 0.0066881727399394266 0 0.016142310476449959 0.0068116401692946936 0 0.015467163655393546 0.0069049765214049333 0 0.015600974623401556 0.0067140185061557792 0 0.015704287828077205 0.0071400225064338942 0 0.015600974623401556 0.0067140185061557792 0 0.015704287828077205 0.0071400225064338942 0 0.015978251702348047 0.0069126848342683069 0 0.015704287828077205 0.0071400225064338942 0 0.016010426754508367 0.0071186078366986304 0 0.015978251702348047 0.0069126848342683069 0 0.016010426754508367 0.0071186078366986304 0 0.015978251702348047 0.0069126848342683069 0 0.016295635413167291 0.0070979482800669434 0 0.015624807198911921 0.0066641460324011565 0 0.015600974623401556 0.0067140185061557792 0 0.015617775263113046 0.0067195611731163257 0 0.015624807198911921 0.0066641460324011565 0 0.015617775263113046 0.0067195611731163257 0 0.015631816421169707 0.0066983260385622117 0 0.015617775263113046 0.0067195611731163257 0 0.015631816421169707 0.0066983260385622117 0 0.015589170810621679 0.0067562095226754177 0 0.010013076353371392 0.0094827437198531008 0 0.0078056817000905178 0.010352043466263224 0 0.016142310476449959 0.0068116401692946936 0 0.013555836811261898 0.0084162832657261617 0 0.015617775263113046 0.0067195611731163257 0 0.015589170810621679 0.0067562095226754177 0 0.015590550041531511 0.0067544364780612451 0 0.013555836811261898 0.0084162832657261617 0 0.007801429097077762 0.010491665127469608 0 0.0088933662562218335 0.0093092183693855701 0 0.00846943751279324 0.0096536793454476254 0 0.009181241412658742 0.010009278829184917 0 0.0078056817000905178 0.010352043466263224 0 0.013555836811261898 0.0084162832657261617 0 0.014832116728983921 0.0082554892280501703 0 0.014911995249988328 0.0080635352164039036 0 0.014971813098414551 0.0082542484141376327 0 0.016010426754508367 0.0071186078366986304 0 0.016295635413167291 0.0070979482800669434 0 0.016042424109770904 0.0073261163698460502 0 0.014792573694006023 0.0083869688568563635 0 0.014832116728983921 0.0082554892280501703 0 0.014971813098414551 0.0082542484141376327 0 0.013555836811261898 0.0084162832657261617 0 0.015830334008491289 0.0075795601771888555 0 0.014792573694006023 0.0083869688568563635 0 0.014832116728983921 0.0082554892280501703 0 0.014728830560293766 0.0083574631770781636 0 0.014832116728983921 0.0082554892280501703 0 0.014911995249988328 0.0080635352164039036 0 0.014679240240482774 0.0081431128706312608 0 0.014911995249988328 0.0080635352164039036 0 0.014971813098414551 0.0082542484141376327 0 0.015132332088766765 0.0081203994183463423 0 0.014911995249988328 0.0080635352164039036 0 0.015132332088766765 0.0081203994183463423 0 0.015140174752458347 0.0079519609206507996 0 0.015704287828077205 0.0071400225064338942 0 0.016010426754508367 0.0071186078366986304 0 0.016042424109770904 0.0073261163698460502 0 0.015830334008491289 0.0075795601771888555 0 0.015366048758839434 0.007905274208321364 0 0.015704287828077205 0.0071400225064338942 0 0.015742391628606946 0.0076057394960210318 0 0.015445157283797292 0.0074748782429041941 0 0.015704287828077205 0.0071400225064338942 0 0.016042424109770904 0.0073261163698460502 0 0.015742391628606946 0.0076057394960210318 0 0.015366048758839434 0.007905274208321364 0 0.015359287850080536 0.0078751068546335703 0 0.015742391628606946 0.0076057394960210318 0 0.015445157283797292 0.0074748782429041941 0 0.015319658754310619 0.0078867200164456901 0 0.015132332088766765 0.0081203994183463423 0 0.015319658754310619 0.0078867200164456901 0 0.015140174752458347 0.0079519609206507996 0 0.015445157283797292 0.0074748782429041941 0 0.015319658754310619 0.0078867200164456901 0 0.015217635828636019 0.0077781557618335391 0 0.015445157283797292 0.0074748782429041941 0 0.015217635828636019 0.0077781557618335391 0 0.015217258681605735 0.0071558578699032847 0 0.015704287828077205 0.0071400225064338942 0 0.015445157283797292 0.0074748782429041941 0 0.015217258681605735 0.0071558578699032847 0 0.0017082891618768672 0.012447854344788156 0 0.0020694415009375688 0.012915263647218305 0 0.0023862357407438911 0.012425628692047356 0 0.0010736699472727736 0.011326477789319021 0 -0.0004579988379000126 0.01001189511235376 0 0.00076994579337792864 0.012263152918708197 0 0.0005211483397550581 0.011248352448313828 0 0.00071730474894974553 0.012249308452642002 0 0.0017082891618768672 0.012447854344788156 0 0.0014050893746906034 0.013014825063139532 0 0.00076994579337792864 0.012263152918708197 0 0.0020979847779979115 0.013428070758854443 0 0.0014050893746906034 0.013014825063139532 0 0.0020694415009375688 0.012915263647218305 0 0.0017082891618768672 0.012447854344788156 0 0.0014050893746906034 0.013014825063139532 0 0.0020694415009375688 0.012915263647218305 0 0.0024762202651392043 0.013263086154048505 0 0.0020694415009375688 0.012915263647218305 0 0.0028893386649316835 0.012692882125046883 0 0.0020694415009375688 0.012915263647218305 0 0.0028893386649316835 0.012692882125046883 0 0.0023862357407438911 0.012425628692047356 0 0.0031404422788399631 0.013286921924737167 0 0.0024762202651392043 0.013263086154048505 0 0.0028893386649316835 0.012692882125046883 0 0.0041392462135875219 0.012949776865197743 0 0.003690322042629055 0.011996290278399291 0 0.0028893386649316835 0.012692882125046883 0 0.0031404422788399631 0.013286921924737167 0 0.0041392462135875219 0.012949776865197743 0 0.0028893386649316835 0.012692882125046883 0 0.0078056817000905178 0.010352043466263224 0 0.0015368283809295057 0.013617537403764549 0 0.0031962496219964014 0.012416959383532664 0 0.0028893386649316835 0.012692882125046883 0 0.0028870990636343835 0.012393665174677921 0 0.0028870990636343835 0.012393665174677921 0 0.0031497705165155917 0.012282335215895248 0 0.0027160857139519644 0.012109619354553715 0 0.0031962496219964014 0.012416959383532664 0 0.0028870990636343835 0.012393665174677921 0 0.0031497705165155917 0.012282335215895248 0 0.0078056817000905178 0.010352043466263224 0 0.007801429097077762 0.010491665127469608 0 0.0028893386649316835 0.012692882125046883 0 0.0028870990636343835 0.012393665174677921 0 0.0023862357407438911 0.012425628692047356 0 0.0028870990636343835 0.012393665174677921 0 0.0023862357407438911 0.012425628692047356 0 0.0027160857139519644 0.012109619354553715 0 0.0023862357407438911 0.012425628692047356 0 0.0027160857139519644 0.012109619354553715 0 0.0022033221656785206 0.012009232166088599 0 0.0028915525641373162 0.01234784042326721 0 0.0031034772152715769 0.011667360345281298 0 0.0025627661994244693 0.011692478947697045 0 0.0028915525641373162 0.01234784042326721 0 0.0022033221656785206 0.012009232166088599 0 0.0025627661994244693 0.011692478947697045 0 0.0023775387578418954 0.011921941435921507 0 0.0024450938321861886 0.012095179269120338 0 0.007801429097077762 0.010491665127469608 0 0.0090586375625304211 0.0099785622023171594 0 0.014832116728983921 0.0082554892280501703 0 0.014728830560293766 0.0083574631770781636 0 0.014679240240482774 0.0081431128706312608 0 0.0035907856326060869 0.012649195840923999 0 0.0028915525641373162 0.01234784042326721 0 0.0031034772152715769 0.011667360345281298 0 0.007801429097077762 0.010491665127469608 0 0.0023775387578418954 0.011921941435921507 0 0.014911995249988328 0.0080635352164039036 0 0.014679240240482774 0.0081431128706312608 0 0.014768123905673093 0.0080215496302510746 0 0.0022033221656785206 0.012009232166088599 0 0.0025627661994244693 0.011692478947697045 0 0.0019220859948642355 0.011616191253796631 0 0.0031034772152715769 0.011667360345281298 0 0.0025627661994244693 0.011692478947697045 0 0.0025424561918342132 0.01119933152610564 0 0.0025627661994244693 0.011692478947697045 0 0.0019220859948642355 0.011616191253796631 0 0.0025424561918342132 0.01119933152610564 0 0.0022033221656785206 0.012009232166088599 0 0.0019220859948642355 0.011616191253796631 0 0.0014555451540073105 0.012028535150436323 0 0.0019220859948642355 0.011616191253796631 0 0.0014555451540073105 0.012028535150436323 0 0.0013258979552109374 0.011623883841713213 0 0.0017082891618768672 0.012447854344788156 0 0.0022033221656785206 0.012009232166088599 0 0.0014555451540073105 0.012028535150436323 0 0.0017082891618768672 0.012447854344788156 0 0.0023862357407438911 0.012425628692047356 0 0.0022033221656785206 0.012009232166088599 0 0.0014555451540073105 0.012028535150436323 0 0.00076994579337792864 0.012263152918708197 0 0.0010077603246647687 0.012030955835933783 0 0.00081144292134401931 0.012290728568051971 0 0.00076994579337792864 0.012263152918708197 0 0.0010077603246647687 0.012030955835933783 0 0.0017082891618768672 0.012447854344788156 0 0.0014555451540073105 0.012028535150436323 0 0.00076994579337792864 0.012263152918708197 0 0.0010077603246647687 0.012030955835933783 0 0.0013258979552109374 0.011623883841713213 0 0.000958561980368292 0.01160961034840338 0 0.0014555451540073105 0.012028535150436323 0 0.0010077603246647687 0.012030955835933783 0 0.0013258979552109374 0.011623883841713213 0 0.000958561980368292 0.01160961034840338 0 0.0013370254231588384 0.011344841014755656 0 0.00074750924629021754 0.011097762131951922 0 0.0013592937275572698 0.011488336193168329 0 0.0016785366358227896 0.011321772259996057 0 0.0013258979552109374 0.011623883841713213 0 0.000958561980368292 0.01160961034840338 0 0.0013370254231588384 0.011344841014755656 0 0.0017350655090296423 0.012166023588313412 0 0.0012620837486655029 0.011154578627843763 0 0.00074726021594861481 0.011725462607041956 0 0.0016785366358227896 0.011321772259996057 0 0.0007437733158231042 0.011442199924881821 0 0.0017350655090296423 0.012166023588313412 0 0.0012620837486655029 0.011154578627843763 0 0.001880045215956815 0.010733549111997627 0 0.0016785366358227896 0.011321772259996057 0 0.0017449012633641208 0.010726466113421434 0 0.0022305517959181568 0.010915520726403841 0 0.0024185598730796748 0.01071399333779696 0 0.0024966955956174084 0.010939508523371621 0 0.0022305517959181568 0.010915520726403841 0 0.0024185598730796748 0.01071399333779696 0 0.002334605824965595 0.010454302033829146 0 0.0024185598730796748 0.01071399333779696 0 0.0024966955956174084 0.010939508523371621 0 0.0026181835901417714 0.010535981862160912 0 0.0019220859948642355 0.011616191253796631 0 0.0014012804991413244 0.010801137342005612 0 0.0025424561918342132 0.01119933152610564 0 0.0016785366358227896 0.011321772259996057 0 0.0025319371748846776 0.011084988720824172 0 0.0022305517959181568 0.010915520726403841 0 0.0025424561918342132 0.01119933152610564 0 0.0024966955956174084 0.010939508523371621 0 0.0019220859948642355 0.011616191253796631 0 0.0013258979552109374 0.011623883841713213 0 0.0014012804991413244 0.010801137342005612 0 0.0031034772152715769 0.011667360345281298 0 0.0025424561918342132 0.01119933152610564 0 0.0027515082114664214 0.010903596217019137 0 0.0025424561918342132 0.01119933152610564 0 0.0027515082114664214 0.010903596217019137 0 0.0024966955956174084 0.010939508523371621 0 0.014679240240482774 0.0081431128706312608 0 0.014675415411212646 0.0079775167936704805 0 0.014768123905673093 0.0080215496302510746 0 0.0090586375625304211 0.0099785622023171594 0 0.0087064220980891116 0.0093884024358868706 0 0.014675415411212646 0.0079775167936704805 0 0.014768123905673093 0.0080215496302510746 0 0.014835071873130526 0.0079317396669259955 0 0.014675415411212646 0.0079775167936704805 0 0.014756892495256753 0.0078946663900055745 0 0.014835071873130526 0.0079317396669259955 0 0.0015337329397086194 0.011434836350040358 0 0.0085527820043108955 0.0093473645666003694 0 0.0087064220980891116 0.0093884024358868706 0 0.0085527820043108955 0.0093473645666003694 0 0.014675415411212646 0.0079775167936704805 0 0.014756892495256753 0.0078946663900055745 0 0.014710547501208053 0.0078868044645384588 0 0.0027515082114664214 0.010903596217019137 0 0.0024966955956174084 0.010939508523371621 0 0.0026353720051460147 0.01037381895923444 0 0.014756892495256753 0.0078946663900055745 0 0.014710547501208053 0.0078868044645384588 0 0.014767522578274076 0.0078704901988659939 0 0.014710547501208053 0.0078868044645384588 0 0.014767522578274076 0.0078704901988659939 0 0.014817740875992113 0.0078719189809939531 0 0.0085527820043108955 0.0093473645666003694 0 0.01504042904388592 0.0079724072938865999 0 0.014756892495256753 0.0078946663900055745 0 0.014798750065454827 0.0078583270207504829 0 0.014835071873130526 0.0079317396669259955 0 0.014756892495256753 0.0078946663900055745 0 0.014767522578274076 0.0078704901988659939 0 0.014798750065454827 0.0078583270207504829 0 0.014798750065454827 0.0078583270207504829 0 0.01478334230006424 0.0078745573005095746 0 0.014776810025165215 0.0079067822292869568 0 0.014798750065454827 0.0078583270207504829 0 0.01475396773307288 0.0078571365521628231 0 0.014776810025165215 0.0079067822292869568 0 0.014767522578274076 0.0078704901988659939 0 0.014798750065454827 0.0078583270207504829 0 0.01478334230006424 0.0078745573005095746 0 0.01478334230006424 0.0078745573005095746 0 0.014817740875992113 0.0078719189809939531 0 0.014776810025165215 0.0079067822292869568 0 0.014767522578274076 0.0078704901988659939 0 0.01478334230006424 0.0078745573005095746 0 0.014817740875992113 0.0078719189809939531 0 0.014633286253027657 0.0085887366679241548 0 0.014578274401438969 0.0086074052632756585 0 0.014604129440775439 0.0085339888073518756 0 0.008643137380892587 0.009632866281213355 0 0.0054704585585921778 0.009324378609910592 0 0.0025412209238111134 0.010241971244347524 0 0.002334605824965595 0.010454302033829146 0 0.0024579615511574901 0.0099328747238933649 0 0.0017449012633641208 0.010726466113421434 0 0.0054704585585921778 0.009324378609910592 0 0.0014886687587899782 0.0097503537972700761 0 0.001251227056252119 0.010420057408988161 0 0.001880045215956815 0.010733549111997627 0 0.0014886687587899782 0.0097503537972700761 0 0.001880045215956815 0.010733549111997627 0 0.0020730214631013914 0.0092862717398827736 0 0.0014886687587899782 0.0097503537972700761 0 0.0012613161637524699 0.0091376092270083649 0 0.000781041057034328 0.0097397822395195368 0 0.0014886687587899782 0.0097503537972700761 0 0.001251227056252119 0.010420057408988161 0 0.000781041057034328 0.0097397822395195368 0 0.001251227056252119 0.010420057408988161 0 0.0012620837486655029 0.011154578627843763 0 0.0006876373902733224 0.010720005127513055 0 0.001251227056252119 0.010420057408988161 0 0.0012620837486655029 0.011154578627843763 0 0.001880045215956815 0.010733549111997627 0 0.0024185598730796748 0.01071399333779696 0 0.0026181835901417714 0.010535981862160912 0 0.002334605824965595 0.010454302033829146 0 0.014525115973144183 0.0086771358913950072 0 0.014633286253027657 0.0085887366679241548 0 0.014578274401438969 0.0086074052632756585 0 0.0085527820043108955 0.0093473645666003694 0 0.008643137380892587 0.009632866281213355 0 0.0026181835901417714 0.010535981862160912 0 0.0025412209238111134 0.010241971244347524 0 0.002334605824965595 0.010454302033829146 0 0.015244973381951084 0.007820329600222338 0 0.015350894358006736 0.0077944606896864195 0 0.015300209652126608 0.0078061156601916684 0 0.015244973381951084 0.007820329600222338 0 0.015350894358006736 0.0077944606896864195 0 0.01524140501313591 0.0078565533766023661 0 0.015350894358006736 0.0077944606896864195 0 0.015319658754310619 0.0078867200164456901 0 0.01524140501313591 0.0078565533766023661 0 0.015357705327116647 0.0077588014643293519 0 0.015370098068402612 0.0075041422047046943 0 0.015350894358006736 0.0077944606896864195 0 0.015319658754310619 0.0078867200164456901 0 0.015217635828636019 0.0077781557618335391 0 0.01524140501313591 0.0078565533766023661 0 0.015140174752458347 0.0079519609206507996 0 0.015125893314375636 0.0078642705243938751 0 0.015140174752458347 0.0079519609206507996 0 0.015125893314375636 0.0078642705243938751 0 0.014994841255833847 0.0079301084013738768 0 0.015319658754310619 0.0078867200164456901 0 0.01524140501313591 0.0078565533766023661 0 0.015140174752458347 0.0079519609206507996 0 0.015244973381951084 0.007820329600222338 0 0.015125893314375636 0.0078642705243938751 0 0.015123452081037209 0.007830795629700963 0 0.015125893314375636 0.0078642705243938751 0 0.014969059612503745 0.0078737198163265822 0 0.015123452081037209 0.007830795629700963 0 0.015244973381951084 0.007820329600222338 0 0.01524140501313591 0.0078565533766023661 0 0.015125893314375636 0.0078642705243938751 0 0.015125893314375636 0.0078642705243938751 0 0.014969059612503745 0.0078737198163265822 0 0.014994841255833847 0.0079301084013738768 0 0.014911995249988328 0.0080635352164039036 0 0.015140174752458347 0.0079519609206507996 0 0.014994841255833847 0.0079301084013738768 0 0.014911995249988328 0.0080635352164039036 0 0.014768123905673093 0.0080215496302510746 0 0.014835071873130526 0.0079317396669259955 0 0.014911995249988328 0.0080635352164039036 0 0.014994841255833847 0.0079301084013738768 0 0.014835071873130526 0.0079317396669259955 0 0.014969059612503745 0.0078737198163265822 0 0.014994841255833847 0.0079301084013738768 0 0.014835071873130526 0.0079317396669259955 0 0.014798750065454827 0.0078583270207504829 0 0.014969059612503745 0.0078737198163265822 0 0.014953188837014405 0.0078453495030515619 0 0.014798750065454827 0.0078583270207504829 0 0.014969059612503745 0.0078737198163265822 0 0.014835071873130526 0.0079317396669259955 0 0.014798750065454827 0.0078583270207504829 0 0.014953188837014405 0.0078453495030515619 0 0.01475396773307288 0.0078571365521628231 0 0.014969059612503745 0.0078737198163265822 0 0.014953188837014405 0.0078453495030515619 0 0.015123452081037209 0.007830795629700963 0 0.014953188837014405 0.0078453495030515619 0 0.015091077420284555 0.0078029645808090197 0 0.015032357871354339 0.0077723941510783271 0 0.014953188837014405 0.0078453495030515619 0 0.015123452081037209 0.007830795629700963 0 0.015091077420284555 0.0078029645808090197 0 0.015091077420284555 0.0078029645808090197 0 0.015180552511512974 0.0078091457462395467 0 0.015117896821652866 0.0077793872958814431 0 0.015123452081037209 0.007830795629700963 0 0.015091077420284555 0.0078029645808090197 0 0.015180552511512974 0.0078091457462395467 0 0.015180552511512974 0.0078091457462395467 0 0.015117896821652866 0.0077793872958814431 0 0.015247794854213896 0.0078014450374307509 0 0.015180552511512974 0.0078091457462395467 0 0.015242136099162466 0.0078219285637296555 0 0.01525591435176555 0.0078230457717082865 0 0.015244973381951084 0.007820329600222338 0 0.015123452081037209 0.007830795629700963 0 0.015242136099162466 0.0078219285637296555 0 0.015123452081037209 0.007830795629700963 0 0.015180552511512974 0.0078091457462395467 0 0.015242136099162466 0.0078219285637296555 0 0.015244973381951084 0.007820329600222338 0 0.015242136099162466 0.0078219285637296555 0 0.015300209652126608 0.0078061156601916684 0 0.015006318796612865 0.0077385127732769055 0 0.015117896821652866 0.0077793872958814431 0 0.015173710523738247 0.0076877725171840784 0 0.015006318796612865 0.0077385127732769055 0 0.015117896821652866 0.0077793872958814431 0 0.015032357871354339 0.0077723941510783271 0 0.015091077420284555 0.0078029645808090197 0 0.015117896821652866 0.0077793872958814431 0 0.015032357871354339 0.0077723941510783271 0 0.015006318796612865 0.0077385127732769055 0 0.015032357871354339 0.0077723941510783271 0 0.01505481220755397 0.0078357257292309707 0 0.015032357871354339 0.0077723941510783271 0 0.015070354947807328 0.0077866719727125834 0 0.01475396773307288 0.0078571365521628231 0 0.015032357871354339 0.0077723941510783271 0 0.015070354947807328 0.0077866719727125834 0 0.01505481220755397 0.0078357257292309707 0 0.014953188837014405 0.0078453495030515619 0 0.015032357871354339 0.0077723941510783271 0 0.01475396773307288 0.0078571365521628231 0 0.014210498758260066 0.0082216976656923259 0 0.01475396773307288 0.0078571365521628231 0 0.014622413863290011 0.0082183569665548305 0 0.01457585996369491 0.0082661526562007748 0 0.014763594801559168 0.0077864059767960665 0 0.014210498758260066 0.0082216976656923259 0 0.014339698307045391 0.0086067241200791147 0 0.014622413863290011 0.0082183569665548305 0 0.014339698307045391 0.0086067241200791147 0 0.014622413863290011 0.0082183569665548305 0 0.014576549728146823 0.0086809112592594103 0 0.014339698307045391 0.0086067241200791147 0 0.014438684985443971 0.0089030690600867459 0 0.014576549728146823 0.0086809112592594103 0 0.014438684985443971 0.0089030690600867459 0 0.014229546477578594 0.0090057595876011556 0 0.014442754030243652 0.0091289855661517566 0 0.014339698307045391 0.0086067241200791147 0 0.014438684985443971 0.0089030690600867459 0 0.014229546477578594 0.0090057595876011556 0 0.014229546477578594 0.0090057595876011556 0 0.013443182464577656 0.0090218822615964461 0 0.01400313116392627 0.010330815782259781 0 0.014339698307045391 0.0086067241200791147 0 0.014229546477578594 0.0090057595876011556 0 0.013443182464577656 0.0090218822615964461 0 0.01457585996369491 0.0082661526562007748 0 0.014447449380392555 0.0076809195114323119 0 0.015070354947807328 0.0077866719727125834 0 0.015267120232096488 0.0082361336352967992 0 0.01509478063480108 0.0080261817608385418 0 0.015070354947807328 0.0077866719727125834 0 0.01505481220755397 0.0078357257292309707 0 0.01509478063480108 0.0080261817608385418 0 0.014210498758260066 0.0082216976656923259 0 0.014339698307045391 0.0086067241200791147 0 0.013443182464577656 0.0090218822615964461 0 0.01505481220755397 0.0078357257292309707 0 0.01509478063480108 0.0080261817608385418 0 0.014935944415535965 0.0081094233299548353 0 0.015006318796612865 0.0077385127732769055 0 0.01505481220755397 0.0078357257292309707 0 0.014935944415535965 0.0081094233299548353 0 0.01509478063480108 0.0080261817608385418 0 0.015015464037332728 0.0082408723880235818 0 0.014935944415535965 0.0081094233299548353 0 0.015267120232096488 0.0082361336352967992 0 0.01509478063480108 0.0080261817608385418 0 0.015015464037332728 0.0082408723880235818 0 0.015267120232096488 0.0082361336352967992 0 0.015015464037332728 0.0082408723880235818 0 0.015051914074992755 0.0085134397312675407 0 0.015015464037332728 0.0082408723880235818 0 0.015051914074992755 0.0085134397312675407 0 0.014812180766000823 0.0084037002183794934 0 0.015015464037332728 0.0082408723880235818 0 0.014935944415535965 0.0081094233299548353 0 0.014812180766000823 0.0084037002183794934 0 0.014812180766000823 0.0084037002183794934 0 0.014641088322311178 0.0084031522212166792 0 0.014652455402479373 0.0080627232495521662 0 0.014935944415535965 0.0081094233299548353 0 0.014812180766000823 0.0084037002183794934 0 0.014652455402479373 0.0080627232495521662 0 0.014917945870424292 0.007910807517434346 0 0.015006678847606494 0.0074032734653566301 0 0.015006318796612865 0.0077385127732769055 0 0.015140991590401592 0.0075902748618651887 0 0.015173710523738247 0.0076877725171840784 0 0.015006318796612865 0.0077385127732769055 0 0.014935944415535965 0.0081094233299548353 0 0.014652455402479373 0.0080627232495521662 0 0.0017870296084562688 0.0083857419616130968 0 0.0020250001959578145 0.0091482611231360582 0 0.0023165869158284216 0.0076888364819701054 0 0.014604129440775439 0.0085339888073518756 0 0.014732479950114395 0.0084956486639034528 0 0.014796171539795686 0.0084375057366879985 0 0.0054704585585921778 0.009324378609910592 0 0.0092204777902034196 0.0079892146480643276 0 0.001352018642804823 0.0078633823708666659 0 0.0017870296084562688 0.0083857419616130968 0 0.0023165869158284216 0.0076888364819701054 0 0.001352018642804823 0.0078633823708666659 0 0.0010557051341527181 0.0084670086036572837 0 0.0017870296084562688 0.0083857419616130968 0 0.0010557051341527181 0.0084670086036572837 0 0.0017870296084562688 0.0083857419616130968 0 0.0016018789444511735 0.0088506146279568841 0 0.0017870296084562688 0.0083857419616130968 0 0.0016018789444511735 0.0088506146279568841 0 0.0020250001959578145 0.0091482611231360582 0 0.0010557051341527181 0.0084670086036572837 0 0.0016018789444511735 0.0088506146279568841 0 0.0012613161637524699 0.0091376092270083649 0 0.0010557051341527181 0.0084670086036572837 0 0.0012613161637524699 0.0091376092270083649 0 0.00063773300620384779 0.0090227428719885459 0 0.0014886687587899782 0.0097503537972700761 0 0.0012613161637524699 0.0091376092270083649 0 0.0016909763923578529 0.0092365986025076084 0 0.0014886687587899782 0.0097503537972700761 0 0.0016909763923578529 0.0092365986025076084 0 0.0020730214631013914 0.0092862717398827736 0 0.0016018789444511735 0.0088506146279568841 0 0.0016909763923578529 0.0092365986025076084 0 0.0020250001959578145 0.0091482611231360582 0 0.0016018789444511735 0.0088506146279568841 0 0.0012613161637524699 0.0091376092270083649 0 0.0016909763923578529 0.0092365986025076084 0 0.014633286253027657 0.0085887366679241548 0 0.014604129440775439 0.0085339888073518756 0 0.014732479950114395 0.0084956486639034528 0 0.0020821292045937198 0.0092956566247737408 0 0.0020250001959578145 0.0091482611231360582 0 0.0023165869158284216 0.0076888364819701054 0 0.0016909763923578529 0.0092365986025076084 0 0.0020730214631013914 0.0092862717398827736 0 0.0020250001959578145 0.0091482611231360582 0 0.0054704585585921778 0.009324378609910592 0 0.0051105936243564199 0.0090677991333218515 0 0.014817740875992113 0.0078719189809939531 0 0.014903625587061995 0.0080329021669164787 0 0.014776810025165215 0.0079067822292869568 0 0.014903625587061995 0.0080329021669164787 0 0.014776810025165215 0.0079067822292869568 0 0.014777843440324878 0.0081884266545337887 0 0.01504042904388592 0.0079724072938865999 0 0.014791108042030415 0.0083227822982322938 0 0.01475396773307288 0.0078571365521628231 0 0.014776810025165215 0.0079067822292869568 0 0.014622413863290011 0.0082183569665548305 0 0.014776810025165215 0.0079067822292869568 0 0.014622413863290011 0.0082183569665548305 0 0.014777843440324878 0.0081884266545337887 0 0.014622413863290011 0.0082183569665548305 0 0.014777843440324878 0.0081884266545337887 0 0.014754602013748201 0.0084722040875685814 0 0.014732479950114395 0.0084956486639034528 0 0.01483794570781762 0.0084189352472617638 0 0.014796171539795686 0.0084375057366879985 0 0.014791108042030415 0.0083227822982322938 0 0.014835353724364333 0.0083713522261063752 0 0.014777843440324878 0.0081884266545337887 0 0.01483794570781762 0.0084189352472617638 0 0.014754602013748201 0.0084722040875685814 0 0.014903625587061995 0.0080329021669164787 0 0.014777843440324878 0.0081884266545337887 0 0.01483794570781762 0.0084189352472617638 0 0.01483794570781762 0.0084189352472617638 0 0.014827829401157965 0.0085556008014167819 0 0.014796171539795686 0.0084375057366879985 0 0.014827829401157965 0.0085556008014167819 0 0.014754602013748201 0.0084722040875685814 0 0.014773177359199405 0.0087509330325139557 0 0.01483794570781762 0.0084189352472617638 0 0.014827829401157965 0.0085556008014167819 0 0.014754602013748201 0.0084722040875685814 0 0.014622413863290011 0.0082183569665548305 0 0.014754602013748201 0.0084722040875685814 0 0.014576549728146823 0.0086809112592594103 0 0.014754602013748201 0.0084722040875685814 0 0.014576549728146823 0.0086809112592594103 0 0.014773177359199405 0.0087509330325139557 0 0.014576549728146823 0.0086809112592594103 0 0.014773177359199405 0.0087509330325139557 0 0.014612331985920435 0.0089581026258831898 0 0.014438684985443971 0.0089030690600867459 0 0.014576549728146823 0.0086809112592594103 0 0.014612331985920435 0.0089581026258831898 0 0.014827829401157965 0.0085556008014167819 0 0.014773177359199405 0.0087509330325139557 0 0.014862602598669613 0.0087001496404015832 0 0.0025374112810771917 0.0059810029353778551 0 0.0023165869158284216 0.0076888364819701054 0 0.0017259267311629605 0.0066176978672323082 0 0.0065656255043993056 0.007125699266864142 0 0.0013643483517886182 0.006994131670929213 0 0.014827829401157965 0.0085556008014167819 0 0.014862602598669613 0.0087001496404015832 0 0.014796171539795686 0.0084375057366879985 0 0.0065656255043993056 0.007125699266864142 0 0.0092204777902034196 0.0079892146480643276 0 0.001352018642804823 0.0078633823708666659 0 0.0017259267311629605 0.0066176978672323082 0 0.00093597665162873625 0.0072645577057830965 0 0.001352018642804823 0.0078633823708666659 0 0.0023165869158284216 0.0076888364819701054 0 0.0017259267311629605 0.0066176978672323082 0 0.0013643483517886182 0.006994131670929213 0 0.0011312736573027976 0.0071046767558736778 0 0.0015919425976997914 0.0067038056721396393 0 0.00087158765674579279 0.0066784300254205068 0 0.00093597665162873625 0.0072645577057830965 0 0.002266631023542564 0.0061525817951625225 0 0.0015919425976997914 0.0067038056721396393 0 0.00088629458750205388 0.0058262326701469854 0 0.0015919425976997914 0.0067038056721396393 0 0.00087158765674579279 0.0066784300254205068 0 0.00088629458750205388 0.0058262326701469854 0 -0.00062587927390951603 0.0062407605987741819 0 5.2183362837281892e-05 0.006919355443771911 0 0.00088629458750205388 0.0058262326701469854 0 -0.0012237221647268212 0.0065775823195985831 0 -0.0015673647132451738 0.0063551994030142259 0 0.00087158765674579279 0.0066784300254205068 0 5.2183362837281892e-05 0.006919355443771911 0 0.00088629458750205388 0.0058262326701469854 0 -0.00062587927390951603 0.0062407605987741819 0 5.2183362837281892e-05 0.006919355443771911 0 -0.0012490688783855322 0.0074112955332675864 0 5.2183362837281892e-05 0.006919355443771911 0 -0.00036609751904618083 0.0077791687745647131 0 -0.0012490688783855322 0.0074112955332675864 0 5.2183362837281892e-05 0.006919355443771911 0 0.00043252841779310838 0.0077292120717785641 0 -0.00036609751904618083 0.0077791687745647131 0 0.001352018642804823 0.0078633823708666659 0 0.00093597665162873625 0.0072645577057830965 0 0.00043252841779310838 0.0077292120717785641 0 0.00087158765674579279 0.0066784300254205068 0 5.2183362837281892e-05 0.006919355443771911 0 0.00093597665162873625 0.0072645577057830965 0 5.2183362837281892e-05 0.006919355443771911 0 0.00093597665162873625 0.0072645577057830965 0 0.00043252841779310838 0.0077292120717785641 0 0.0010557051341527181 0.0084670086036572837 0 0.00043252841779310838 0.0077292120717785641 0 0.00013245883136185955 0.0084559203230021654 0 0.001352018642804823 0.0078633823708666659 0 0.0010557051341527181 0.0084670086036572837 0 0.00043252841779310838 0.0077292120717785641 0 0.00013245883136185955 0.0084559203230021654 0 -0.00077014235625640385 0.0085419346101391312 0 -0.00036609751904618083 0.0077791687745647131 0 0.00043252841779310838 0.0077292120717785641 0 0.00013245883136185955 0.0084559203230021654 0 -0.00036609751904618083 0.0077791687745647131 0 -0.00077014235625640385 0.0085419346101391312 0 -0.00036609751904618083 0.0077791687745647131 0 -0.0012490688783855322 0.0074112955332675864 0 -0.00077014235625640385 0.0085419346101391312 0 -8.4889026092330478e-05 0.0092451838858865799 0 -0.001315718260153844 0.0096246712113319532 0 0.00013245883136185955 0.0084559203230021654 0 -0.00077014235625640385 0.0085419346101391312 0 -8.4889026092330478e-05 0.0092451838858865799 0 -8.4889026092330478e-05 0.0092451838858865799 0 0.00063773300620384779 0.0090227428719885459 0 0.000781041057034328 0.0097397822395195368 0 0.0010557051341527181 0.0084670086036572837 0 0.00013245883136185955 0.0084559203230021654 0 0.00063773300620384779 0.0090227428719885459 0 0.0012613161637524699 0.0091376092270083649 0 0.00063773300620384779 0.0090227428719885459 0 0.000781041057034328 0.0097397822395195368 0 0.00013245883136185955 0.0084559203230021654 0 -8.4889026092330478e-05 0.0092451838858865799 0 0.00063773300620384779 0.0090227428719885459 0 -0.0022365038873314049 0.009124803385215376 0 -0.0016889929443709957 0.0083572459219967334 0 -0.001315718260153844 0.0096246712113319532 0 -0.00077014235625640385 0.0085419346101391312 0 -0.0016889929443709957 0.0083572459219967334 0 -0.001315718260153844 0.0096246712113319532 0 -0.00077014235625640385 0.0085419346101391312 0 -0.0016889929443709957 0.0083572459219967334 0 -0.0012490688783855322 0.0074112955332675864 0 -0.0016889929443709957 0.0083572459219967334 0 -0.0023912980922530824 0.0075551002446853279 0 -0.0028056027478541795 0.0083133255894017512 0 -0.0016889929443709957 0.0083572459219967334 0 -0.0023912980922530824 0.0075551002446853279 0 -0.0012490688783855322 0.0074112955332675864 0 -0.0022365038873314049 0.009124803385215376 0 -0.0016889929443709957 0.0083572459219967334 0 -0.0028056027478541795 0.0083133255894017512 0 -0.0023912980922530824 0.0075551002446853279 0 -0.0022487176218150763 0.0067596417909236758 0 -0.002999488442371045 0.0070337372860785124 0 -0.0023912980922530824 0.0075551002446853279 0 -0.0012490688783855322 0.0074112955332675864 0 -0.0022487176218150763 0.0067596417909236758 0 -0.00062587927390951603 0.0062407605987741819 0 -0.0012490688783855322 0.0074112955332675864 0 -0.0022487176218150763 0.0067596417909236758 0 -0.0020553596921256911 0.0069060080639374135 0 -0.0022487176218150763 0.0067596417909236758 0 -0.0020244812202204758 0.0067922537140844425 0 -0.0012237221647268212 0.0065775823195985831 0 -0.0022403320521328061 0.0067615660813130137 0 -0.0022487176218150763 0.0067596417909236758 0 -0.0029647480900926123 0.0063062612669778847 0 -0.0020244812202204758 0.0067922537140844425 0 -0.0022487176218150763 0.0067596417909236758 0 -0.0029647480900926123 0.0063062612669778847 0 -0.002999488442371045 0.0070337372860785124 0 -0.0029647480900926123 0.0063062612669778847 0 -0.003785867701740284 0.0070177213688718803 0 -0.002999488442371045 0.0070337372860785124 0 -0.0016614567626221733 0.0095221226762783016 0 -0.0016366946970712631 0.0096213935001153265 0 -0.0016341925307557579 0.0096264294884164121 0 -0.0024593288126928559 0.0079918937440111599 0 -0.003022284433439445 0.0080483286287387334 0 -0.0016366946970712631 0.0096213935001153265 0 -0.0016921041357892115 0.0096713899079731627 0 -0.0015461085029159478 0.0096593200767226134 0 -0.0016921041357892115 0.0096713899079731627 0 -0.0018779883408001281 0.0095642524746775634 0 -0.0015461085029159478 0.0096593200767226134 0 -0.0016614567626221733 0.0095221226762783016 0 -0.0016921041357892115 0.0096713899079731627 0 -0.0017561586512696876 0.00984257096548442 0 -0.0016614567626221733 0.0095221226762783016 0 -0.0016366946970712631 0.0096213935001153265 0 -0.0016921041357892115 0.0096713899079731627 0 -0.0029647480900926123 0.0063062612669778847 0 -0.003785867701740284 0.0070177213688718803 0 -0.0049970205392553925 0.0065531705495256764 0 -0.003785867701740284 0.0070177213688718803 0 -0.0049970205392553925 0.0065531705495256764 0 -0.0046705507490020755 0.0077257510606256142 0 -0.003785867701740284 0.0070177213688718803 0 -0.0034216677174725854 0.0076394828418002497 0 -0.0046705507490020755 0.0077257510606256142 0 -0.003785867701740284 0.0070177213688718803 0 -0.002999488442371045 0.0070337372860785124 0 -0.0034216677174725854 0.0076394828418002497 0 -0.0023912980922530824 0.0075551002446853279 0 -0.002999488442371045 0.0070337372860785124 0 -0.0034216677174725854 0.0076394828418002497 0 -0.0031673400727303186 0.010045750589722109 0 -0.0093393114880844386 0.011384032745933437 0 -0.0047695212155392935 0.011728579352036134 0 -0.0060094362871558242 0.01074768162247043 0 -0.0072824636315903983 0.012566877733913106 0 -0.0058830782662894392 0.010334779115112819 0 -0.0050567972610906908 0.0092191168339442412 0 -0.0070560709202618635 0.0098824556873914199 0 -0.002217722234687703 0.0098273450311774403 0 -0.0018538439279370666 0.0097153868786962611 0 -0.0017561586512696876 0.00984257096548442 0 -0.0039992281613065988 0.010052833392847359 0 -0.0031673400727303186 0.010045750589722109 0 -0.002217722234687703 0.0098273450311774403 0 -0.0018779883408001281 0.0095642524746775634 0 -0.0018538439279370666 0.0097153868786962611 0 -0.0016921041357892115 0.0096713899079731627 0 -0.0018779883408001281 0.0095642524746775634 0 -0.0018538439279370666 0.0097153868786962611 0 -0.0016921041357892115 0.0096713899079731627 0 -0.0018538439279370666 0.0097153868786962611 0 -0.0017561586512696876 0.00984257096548442 0 -0.0049970205392553925 0.0065531705495256764 0 -0.0058695878261566803 0.0075562866211253089 0 -0.0046705507490020755 0.0077257510606256142 0 -0.002217722234687703 0.0098273450311774403 0 -0.0017561586512696876 0.00984257096548442 0 -0.0025676495768943543 0.010266695232951348 0 -0.0049970205392553925 0.0065531705495256764 0 -0.0071967520533398211 0.0072833735818683487 0 -0.0058695878261566803 0.0075562866211253089 0 -0.003022284433439445 0.0080483286287387334 0 -0.0065764905997894984 0.0094567226166888136 0 -0.0058830782662894392 0.010334779115112819 0 -0.0067023531025135032 0.011434262277044551 0 -0.0070560709202618635 0.0098824556873914199 0 -0.0039992281613065988 0.010052833392847359 0 -0.0065764905997894984 0.0094567226166888136 0 -0.0071967520533398211 0.0072833735818683487 0 -0.0066578073181623124 0.0078348894511465188 0 -0.0058695878261566803 0.0075562866211253089 0 -0.0074045546852858999 0.0080889554231070651 0 -0.0085722751350383302 0.0091855502717282534 0 -0.0066578073181623124 0.0078348894511465188 0 -0.0075782740000189044 0.0092666048278747873 0 -0.0073461378364676616 0.0074908898473755245 0 -0.0071967520533398211 0.0072833735818683487 0 -0.0066578073181623124 0.0078348894511465188 0 -0.0073461378364676616 0.0074908898473755245 0 -0.0066578073181623124 0.0078348894511465188 0 -0.0058183258317078919 0.0084063309084831377 0 -0.0058695878261566803 0.0075562866211253089 0 -0.0058183258317078919 0.0084063309084831377 0 -0.0046705507490020755 0.0077257510606256142 0 -0.0046239495428688215 0.0090608123987483396 0 -0.0058183258317078919 0.0084063309084831377 0 -0.0058695878261566803 0.0075562866211253089 0 -0.0046705507490020755 0.0077257510606256142 0 -0.0058183258317078919 0.0084063309084831377 0 -0.0060714973180191036 0.0095482138594993951 0 -0.0046239495428688215 0.0090608123987483396 0 -0.0060714973180191036 0.0095482138594993951 0 -0.0046239495428688215 0.0090608123987483396 0 -0.0052670254024331387 0.010572957484462228 0 -0.0058183258317078919 0.0084063309084831377 0 -0.0060714973180191036 0.0095482138594993951 0 -0.0075782740000189044 0.0092666048278747873 0 -0.0066578073181623124 0.0078348894511465188 0 -0.0058183258317078919 0.0084063309084831377 0 -0.0075782740000189044 0.0092666048278747873 0 -0.0023912980922530824 0.0075551002446853279 0 -0.0028056027478541795 0.0083133255894017512 0 -0.0034216677174725854 0.0076394828418002497 0 -0.0028056027478541795 0.0083133255894017512 0 -0.0038129185550336954 0.0083365458370733697 0 -0.0032129598302882896 0.0091214058133824265 0 -0.0028056027478541795 0.0083133255894017512 0 -0.0034216677174725854 0.0076394828418002497 0 -0.0038129185550336954 0.0083365458370733697 0 -0.0046705507490020755 0.0077257510606256142 0 -0.0038129185550336954 0.0083365458370733697 0 -0.0046239495428688215 0.0090608123987483396 0 -0.0034216677174725854 0.0076394828418002497 0 -0.0046705507490020755 0.0077257510606256142 0 -0.0038129185550336954 0.0083365458370733697 0 -0.0046239495428688215 0.0090608123987483396 0 -0.0032129598302882896 0.0091214058133824265 0 -0.0038591726203938363 0.010047368936492818 0 -0.0038129185550336954 0.0083365458370733697 0 -0.0046239495428688215 0.0090608123987483396 0 -0.0032129598302882896 0.0091214058133824265 0 -0.0022365038873314049 0.009124803385215376 0 -0.0028056027478541795 0.0083133255894017512 0 -0.0032129598302882896 0.0091214058133824265 0 -0.0022365038873314049 0.009124803385215376 0 -0.0032129598302882896 0.0091214058133824265 0 -0.0025239201639992753 0.010246028031796877 0 -0.0032129598302882896 0.0091214058133824265 0 -0.0025239201639992753 0.010246028031796877 0 -0.0038591726203938363 0.010047368936492818 0 -0.0025239201639992753 0.010246028031796877 0 -0.0038591726203938363 0.010047368936492818 0 -0.0039323161028041766 0.011228596647104943 0 -0.0038591726203938363 0.010047368936492818 0 -0.0039323161028041766 0.011228596647104943 0 -0.0052670254024331387 0.010572957484462228 0 -0.0046239495428688215 0.0090608123987483396 0 -0.0038591726203938363 0.010047368936492818 0 -0.0052670254024331387 0.010572957484462228 0 -0.0039323161028041766 0.011228596647104943 0 -0.0053964603829305593 0.012008510825850765 0 -0.0046677902136256413 0.012946138305423181 0 -0.0025239201639992753 0.010246028031796877 0 -0.0039323161028041766 0.011228596647104943 0 -0.0026006090318054197 0.011492263678566548 0 -0.0072447505570986392 0.010725294060006406 0 -0.0052670254024331387 0.010572957484462228 0 -0.0067522544596699333 0.011982980571773971 0 -0.0060714973180191036 0.0095482138594993951 0 -0.0075782740000189044 0.0092666048278747873 0 -0.0072447505570986392 0.010725294060006406 0 -0.0060714973180191036 0.0095482138594993951 0 -0.0072447505570986392 0.010725294060006406 0 -0.0052670254024331387 0.010572957484462228 0 -0.0039323161028041766 0.011228596647104943 0 -0.0052670254024331387 0.010572957484462228 0 -0.0053964603829305593 0.012008510825850765 0 -0.0052670254024331387 0.010572957484462228 0 -0.0053964603829305593 0.012008510825850765 0 -0.0067522544596699333 0.011982980571773971 0 -0.0053964603829305593 0.012008510825850765 0 -0.0067522544596699333 0.011982980571773971 0 -0.0065796481879425361 0.013384733597037474 0 -0.0067522544596699333 0.011982980571773971 0 -0.0076442150060222229 0.013073563627959807 0 -0.0065796481879425361 0.013384733597037474 0 -0.0067522544596699333 0.011982980571773971 0 -0.0076442150060222229 0.013073563627959807 0 -0.0086075850140352773 0.012124909186851034 0 -0.0072447505570986392 0.010725294060006406 0 -0.0067522544596699333 0.011982980571773971 0 -0.0086075850140352773 0.012124909186851034 0 -0.0076442150060222229 0.013073563627959807 0 -0.0074960896061444775 0.0143339926486022 0 -0.0065796481879425361 0.013384733597037474 0 -0.0076442150060222229 0.013073563627959807 0 -0.0074960896061444775 0.0143339926486022 0 -0.0089468812790197989 0.013520158002451182 0 -0.0070696820851928717 0.01324643721282907 0 -0.0069917788904422101 0.013465061785383538 0 -0.0053964603829305593 0.012008510825850765 0 -0.0065796481879425361 0.013384733597037474 0 -0.0046677902136256413 0.012946138305423181 0 -0.0070696820851928717 0.01324643721282907 0 -0.0041951929981926209 0.011950002042111023 0 -0.0072752846554578554 0.014041621463986681 0 -0.0065796481879425361 0.013384733597037474 0 -0.0046677902136256413 0.012946138305423181 0 -0.0052141084555684869 0.011283366446292355 0 -0.0047093184661981371 0.011642894279443258 0 -0.004012060759884575 0.01110411102052725 0 -0.0049750565882449053 0.012160762871607212 0 -0.0047093184661981371 0.011642894279443258 0 -0.0038398682293070145 0.012067591200145139 0 -0.0047093184661981371 0.011642894279443258 0 -0.004012060759884575 0.01110411102052725 0 -0.0038398682293070145 0.012067591200145139 0 -0.0049750565882449053 0.012160762871607212 0 -0.0047093184661981371 0.011642894279443258 0 -0.0052570253559692829 0.01182445825275163 0 -0.0052141084555684869 0.011283366446292355 0 -0.0047093184661981371 0.011642894279443258 0 -0.0052570253559692829 0.01182445825275163 0 -0.0026006090318054197 0.011492263678566548 0 -0.004012060759884575 0.01110411102052725 0 -0.0027439674502487427 0.011850274348136165 0 -0.0039323161028041766 0.011228596647104943 0 -0.0026006090318054197 0.011492263678566548 0 -0.0046677902136256413 0.012946138305423181 0 -0.0028661829551672471 0.011598146212346363 0 -0.0041951929981926209 0.011950002042111023 0 -0.004012060759884575 0.01110411102052725 0 -0.0038398682293070145 0.012067591200145139 0 -0.0027439674502487427 0.011850274348136165 0 -0.0018567267943344562 0.012250864283798199 0 -0.0027439674502487427 0.011850274348136165 0 -0.0014170648498829578 0.011533093343662175 0 -0.0026006090318054197 0.011492263678566548 0 -0.0027439674502487427 0.011850274348136165 0 -0.0014170648498829578 0.011533093343662175 0 -0.0026006090318054197 0.011492263678566548 0 -0.0014170648498829578 0.011533093343662175 0 -0.001239797533256192 0.010744500489089502 0 -0.0014170648498829578 0.011533093343662175 0 -0.00034747867888188644 0.011643629953027925 0 -0.00017579643781202991 0.010836507796855931 0 -0.0014170648498829578 0.011533093343662175 0 -0.00017579643781202991 0.010836507796855931 0 -0.001239797533256192 0.010744500489089502 0 -0.00085248078539925146 0.012311265122717015 0 -0.0014170648498829578 0.011533093343662175 0 -0.00034747867888188644 0.011643629953027925 0 -0.00085248078539925146 0.012311265122717015 0 -0.0018567267943344562 0.012250864283798199 0 -0.0014170648498829578 0.011533093343662175 0 -0.00034747867888188644 0.011643629953027925 0 0.00041630430746693341 0.011591494428640428 0 -0.00017579643781202991 0.010836507796855931 0 0.00016176575630981864 0.012069012700571582 0 -0.00034747867888188644 0.011643629953027925 0 0.00041630430746693341 0.011591494428640428 0 0.000958561980368292 0.01160961034840338 0 0.00041630430746693341 0.011591494428640428 0 0.00074750924629021754 0.011097762131951922 0 0.00070140865127903303 0.011987873384965769 0 0.000958561980368292 0.01160961034840338 0 0.00041630430746693341 0.011591494428640428 0 0.0007437733158231042 0.011442199924881821 0 -0.00022649118047092759 0.011055910385159974 0 0.0012620837486655029 0.011154578627843763 0 0.00074726021594861481 0.011725462607041956 0 0.0006876373902733224 0.010720005127513055 0 0.00041630430746693341 0.011591494428640428 0 0.00074750924629021754 0.011097762131951922 0 -0.00017579643781202991 0.010836507796855931 0 0.00074726021594861481 0.011725462607041956 0 -0.00026502358687484985 0.01125657262421898 0 0.0006876373902733224 0.010720005127513055 0 -0.00026502358687484985 0.01125657262421898 0 0.0006876373902733224 0.010720005127513055 0 -0.00025486724143719406 0.010225587068694248 0 -0.00026502358687484985 0.01125657262421898 0 -0.00025486724143719406 0.010225587068694248 0 -0.001239797533256192 0.010744500489089502 0 0.0006876373902733224 0.010720005127513055 0 0.000781041057034328 0.0097397822395195368 0 -0.00025486724143719406 0.010225587068694248 0 0.001251227056252119 0.010420057408988161 0 0.0006876373902733224 0.010720005127513055 0 0.000781041057034328 0.0097397822395195368 0 -8.4889026092330478e-05 0.0092451838858865799 0 0.000781041057034328 0.0097397822395195368 0 -0.00025486724143719406 0.010225587068694248 0 -8.4889026092330478e-05 0.0092451838858865799 0 -0.00025486724143719406 0.010225587068694248 0 -0.001315718260153844 0.0096246712113319532 0 -0.00025486724143719406 0.010225587068694248 0 -0.001315718260153844 0.0096246712113319532 0 -0.001239797533256192 0.010744500489089502 0 -0.0025239201639992753 0.010246028031796877 0 -0.001315718260153844 0.0096246712113319532 0 -0.001239797533256192 0.010744500489089502 0 -0.0022365038873314049 0.009124803385215376 0 -0.0025239201639992753 0.010246028031796877 0 -0.001315718260153844 0.0096246712113319532 0 -0.0025239201639992753 0.010246028031796877 0 -0.0026006090318054197 0.011492263678566548 0 -0.001239797533256192 0.010744500489089502 0 -0.00022649118047092759 0.011055910385159974 0 -0.0011102799203599029 0.010759185482157395 0 0.025598346241871683 0.0040223254537977869 0 0.025506529286822364 0.0040606990188545144 0 0.025690534557036071 0.0037880595684533923 0 0.026204053534867187 0.0052763477260734755 0 0.025380040704303226 0.0051692414911281986 0 0.025168585732971798 0.0045380694377655977 0 0.025767985164912445 0.0050144127708257212 0 0.025203434348611851 0.0044097284498522326 0 0.025598346241871683 0.0040223254537977869 0 0.025506529286822364 0.0040606990188545144 0 0.025168585732971798 0.0045380694377655977 0 0.025380040704303226 0.0051692414911281986 0 0.024999966318614519 0.0051559424880649428 0 0.025168585732971798 0.0045380694377655977 0 0.025380040704303226 0.0051692414911281986 0 0.024999966318614519 0.0051559424880649428 0 0.025534679086201342 0.0057189141104266048 0 0.026006308279507916 0.0053191557241642432 0 0.025380040704303226 0.0051692414911281986 0 0.025534679086201342 0.0057189141104266048 0 0.025767985164912445 0.0050144127708257212 0 0.025586682537736088 0.0051760181594006178 0 0.025534679086201342 0.0057189141104266048 0 0.025967060733188364 0.006324690620954347 0 0.024999981084902069 0.0065316612772937611 0 0.024999966318614519 0.0051559424880649428 0 0.025534679086201342 0.0057189141104266048 0 0.024999981084902069 0.0065316612772937611 0 0.026006308279507916 0.0053191557241642432 0 0.02677331847067704 0.0059356650193613664 0 0.025967060733188364 0.006324690620954347 0 0.026006308279507916 0.0053191557241642432 0 0.025534679086201342 0.0057189141104266048 0 0.025967060733188364 0.006324690620954347 0 0.025767985164912445 0.0050144127708257212 0 0.026067324271119914 0.0055560166223161487 0 0.025780178595973421 0.0053774146557447351 0 0.025450260473385247 0.005168373342369542 0 0.025388742623387948 0.0053368172312203794 0 0.025321266254411667 0.0052503199395944481 0 0.025450260473385247 0.005168373342369542 0 0.025388742623387948 0.0053368172312203794 0 0.025321266254411667 0.0052503199395944481 0 0.025450260473385247 0.005168373342369542 0 0.025126104550559292 0.0049764368293782153 0 0.025321266254411667 0.0052503199395944481 0 0.02500640215371484 0.0052898584444445338 0 0.025126104550559292 0.0049764368293782153 0 0.025321266254411667 0.0052503199395944481 0 0.025388742623387948 0.0053368172312203794 0 0.024987737130248371 0.0052684774048151221 0 0.026067324271119914 0.0055560166223161487 0 0.026802141475888348 0.0057913186049218324 0 0.025371722286344867 0.0052503707333549253 0 0.024604293297874429 0.0041907057387134171 0 0.025844466679876235 0.0036826324513843942 0 0.025759201521904633 0.0037859826508560637 0 0.025946791351829371 0.0037689521802190891 0 0.025711139368421419 0.0045848135820427023 0 0.024604293297874429 0.0041907057387134171 0 0.025844466679876235 0.0036826324513843942 0 0.025902333601500741 0.0036550982088132396 0 0.025946791351829371 0.0037689521802190891 0 0.023515813242104455 0.0029069927271994861 0 0.023322459528229974 0.0027942940183889038 0 0.023385430849515592 0.0026144058431102684 0 0.025322585062316237 0.003375883727422689 0 0.024604293297874429 0.0041907057387134171 0 0.025854516991501635 0.0035042627785546038 0 0.025844466679876235 0.0036826324513843942 0 0.025799384643302198 0.0035128414156068472 0 0.025844466679876235 0.0036826324513843942 0 0.025760883562152496 0.0036708555737603797 0 0.025799384643302198 0.0035128414156068472 0 0.025854516991501635 0.0035042627785546038 0 0.025844466679876235 0.0036826324513843942 0 0.026038899197850525 0.0036002505699466339 0 0.025854516991501635 0.0035042627785546038 0 0.026038899197850525 0.0036002505699466339 0 0.025824272790998179 0.0032618649940729123 0 0.025718189103636109 0.0034089348372190998 0 0.025322585062316237 0.003375883727422689 0 0.025598346241871683 0.0040223254537977869 0 0.025759201521904633 0.0037859826508560637 0 0.025690534557036071 0.0037880595684533923 0 0.025767985164912445 0.0050144127708257212 0 0.025711139368421419 0.0045848135820427023 0 0.025844466679876235 0.0036826324513843942 0 0.025759201521904633 0.0037859826508560637 0 0.025760883562152496 0.0036708555737603797 0 0.025759201521904633 0.0037859826508560637 0 0.025760883562152496 0.0036708555737603797 0 0.025690534557036071 0.0037880595684533923 0 0.02576090726645593 0.0036030921496913908 0 0.025805262728032838 0.0034813263118158764 0 0.025690534557036071 0.0037880595684533923 0 0.025760883562152496 0.0036708555737603797 0 0.02576090726645593 0.0036030921496913908 0 0.025690534557036071 0.0037880595684533923 0 0.02576090726645593 0.0036030921496913908 0 0.025799384643302198 0.0035128414156068472 0 0.025834300307406573 0.0032842320441754873 0 0.025760883562152496 0.0036708555737603797 0 0.02576090726645593 0.0036030921496913908 0 0.025799384643302198 0.0035128414156068472 0 0.02576090726645593 0.0036030921496913908 0 0.025805262728032838 0.0034813263118158764 0 0.025834300307406573 0.0032842320441754873 0 0.025824272790998179 0.0032618649940729123 0 0.025784739718785154 0.0029445527452101215 0 0.025958184938029448 0.0032045939556192824 0 0.025322585062316237 0.003375883727422689 0 0.025654273851978156 0.0034460547517352956 0 0.025832919544121286 0.0033854469506296881 0 0.025824272790998179 0.0032618649940729123 0 0.025958184938029448 0.0032045939556192824 0 0.025824272790998179 0.0032618649940729123 0 0.025799384643302198 0.0035128414156068472 0 0.025834300307406573 0.0032842320441754873 0 0.025854516991501635 0.0035042627785546038 0 0.025824272790998179 0.0032618649940729123 0 0.025799384643302198 0.0035128414156068472 0 0.025824272790998179 0.0032618649940729123 0 0.025834300307406573 0.0032842320441754873 0 0.025784739718785154 0.0029445527452101215 0 0.025411118207952006 0.0022880199100296012 0 0.025752673911267218 0.0026498215379824989 0 0.02478936401527122 0.0012281702904884742 0 0.025384390986026302 0.001379876332879624 0 0.025723366612319019 0.0026408717499849161 0 0.025784739718785154 0.0029445527452101215 0 0.025909409254827907 0.0033443474913907216 0 0.025723366612319019 0.0026408717499849161 0 0.025834300307406573 0.0032842320441754873 0 0.025784739718785154 0.0029445527452101215 0 0.025909409254827907 0.0033443474913907216 0 0.025805262728032838 0.0034813263118158764 0 0.025909409254827907 0.0033443474913907216 0 0.02579435241666779 0.0033364503118540165 0 0.025909409254827907 0.0033443474913907216 0 0.02579435241666779 0.0033364503118540165 0 0.025878763425844799 0.0028948607949642138 0 0.025805262728032838 0.0034813263118158764 0 0.025834300307406573 0.0032842320441754873 0 0.025909409254827907 0.0033443474913907216 0 0.02579435241666779 0.0033364503118540165 0 0.025614550258987099 0.0037050710775247742 0 0.02543666714073102 0.0032567839724931061 0 0.025805262728032838 0.0034813263118158764 0 0.02579435241666779 0.0033364503118540165 0 0.025614550258987099 0.0037050710775247742 0 0.025805262728032838 0.0034813263118158764 0 0.025614550258987099 0.0037050710775247742 0 0.025690534557036071 0.0037880595684533923 0 0.025614550258987099 0.0037050710775247742 0 0.025506529286822364 0.0040606990188545144 0 0.025690534557036071 0.0037880595684533923 0 0.025168585732971798 0.0045380694377655977 0 0.025359052174726667 0.004018365865948682 0 0.024999952146616544 0.0037806714099783835 0 0.024999966318614519 0.0051559424880649428 0 0.025168585732971798 0.0045380694377655977 0 0.024999952146616544 0.0037806714099783835 0 0.025506529286822364 0.0040606990188545144 0 0.025168585732971798 0.0045380694377655977 0 0.025359052174726667 0.004018365865948682 0 0.025614550258987099 0.0037050710775247742 0 0.025506529286822364 0.0040606990188545144 0 0.025359052174726667 0.004018365865948682 0 0.025614550258987099 0.0037050710775247742 0 0.025359052174726667 0.004018365865948682 0 0.02543666714073102 0.0032567839724931061 0 0.02543666714073102 0.0032567839724931061 0 0.024999952146616544 0.0037806714099783835 0 0.024999703624078419 0.0024054062307864248 0 0.025359052174726667 0.004018365865948682 0 0.02543666714073102 0.0032567839724931061 0 0.024999952146616544 0.0037806714099783835 0 0.02543666714073102 0.0032567839724931061 0 0.024999703624078419 0.0024054062307864248 0 0.025878763425844799 0.0028948607949642138 0 0.02579435241666779 0.0033364503118540165 0 0.02543666714073102 0.0032567839724931061 0 0.025878763425844799 0.0028948607949642138 0 0.024916712917500618 0.00079485839523691737 0 0.025068957453349403 0.00096135863041048775 0 0.024983539905645714 0.00059593232952251894 0 0.025068957453349403 0.00096135863041048775 0 0.025122940441083635 0.00049603786283078475 0 0.024983539905645714 0.00059593232952251894 0 0.024916712917500618 0.00079485839523691737 0 0.025068957453349403 0.00096135863041048775 0 0.025135987251720646 0.0017570276616358364 0 0.025336300959513825 0.0018632131132650758 0 0.025106091231285321 0.0017078487991292318 0 0.024999703624078419 0.0024054062307864248 0 0.025878763425844799 0.0028948607949642138 0 0.025135987251720646 0.0017570276616358364 0 0.024999703624078419 0.0024054062307864248 0 0.025135987251720646 0.0017570276616358364 0 0.024999544068573867 0.0010295590839497306 0 0.025068957453349403 0.00096135863041048775 0 0.025135987251720646 0.0017570276616358364 0 0.025132182198765611 0.00094427853579811183 0 0.025135987251720646 0.0017570276616358364 0 0.024999544068573867 0.0010295590839497306 0 0.025132182198765611 0.00094427853579811183 0 0.024999544068573867 0.0010295590839497306 0 0.025132182198765611 0.00094427853579811183 0 0.0251628634262933 0.00031263454460616003 0 0.025068957453349403 0.00096135863041048775 0 0.025132182198765611 0.00094427853579811183 0 0.025122940441083635 0.00049603786283078475 0 0.025122940441083635 0.00049603786283078475 0 0.0251628634262933 0.00031263454460616003 0 0.025183370322724784 -3.7775158476104029e-05 0 0.025132182198765611 0.00094427853579811183 0 0.025122940441083635 0.00049603786283078475 0 0.0251628634262933 0.00031263454460616003 0 0.025233397591773843 -0.00042347194050543229 0 0.0251628634262933 0.00031263454460616003 0 0.025183370322724784 -3.7775158476104029e-05 0 0.024999558919234416 -0.00034470080915989038 0 0.025233397591773843 -0.00042347194050543229 0 0.0251628634262933 0.00031263454460616003 0 0.024999558919234416 -0.00034470080915989038 0 0.024999544068573867 0.0010295590839497306 0 0.0251628634262933 0.00031263454460616003 0 0.025078022173413511 -0.00089470861072396156 0 0.025181877460624832 -0.00051047002290712852 0 0.025166050921751955 -0.00038856332347055961 0 0.025181877460624832 -0.00051047002290712852 0 0.025129700275510036 9.4059141873470208e-06 0 0.025166050921751955 -0.00038856332347055961 0 0.025181877460624832 -0.00051047002290712852 0 0.025183370322724784 -3.7775158476104029e-05 0 0.025129700275510036 9.4059141873470208e-06 0 0.025233397591773843 -0.00042347194050543229 0 0.025181877460624832 -0.00051047002290712852 0 0.025183370322724784 -3.7775158476104029e-05 0 0.025122940441083635 0.00049603786283078475 0 0.025183370322724784 -3.7775158476104029e-05 0 0.025129700275510036 9.4059141873470208e-06 0 0.025122940441083635 0.00049603786283078475 0 0.025129700275510036 9.4059141873470208e-06 0 0.024983539905645714 0.00059593232952251894 0 0.025129700275510036 9.4059141873470208e-06 0 0.025114067209891084 0.00026436462068825953 0 0.025166050921751955 -0.00038856332347055961 0 0.025114067209891084 0.00026436462068825953 0 0.024947863198421506 0.00074661121365172522 0 0.025350811547532642 0.00056648942783922075 0 0.025129700275510036 9.4059141873470208e-06 0 0.025114067209891084 0.00026436462068825953 0 0.024983539905645714 0.00059593232952251894 0 0.025114067209891084 0.00026436462068825953 0 0.024983539905645714 0.00059593232952251894 0 0.024947863198421506 0.00074661121365172522 0 0.025411118207952006 0.0022880199100296012 0 0.025336300959513825 0.0018632131132650758 0 0.024916712917500618 0.00079485839523691737 0 0.024983539905645714 0.00059593232952251894 0 0.024947863198421506 0.00074661121365172522 0 0.02478936401527122 0.0012281702904884742 0 0.024916712917500618 0.00079485839523691737 0 0.024947863198421506 0.00074661121365172522 0 0.024947863198421506 0.00074661121365172522 0 0.025350811547532642 0.00056648942783922075 0 0.025384390986026302 0.001379876332879624 0 0.02478936401527122 0.0012281702904884742 0 0.024947863198421506 0.00074661121365172522 0 0.025384390986026302 0.001379876332879624 0 0.025350811547532642 0.00056648942783922075 0 0.026137149186603103 0.0016064051857250926 0 0.025384390986026302 0.001379876332879624 0 0.025350811547532642 0.00056648942783922075 0 0.025870410645992697 0.00041994213338144177 0 0.026137149186603103 0.0016064051857250926 0 0.024892247417717759 -0.00082284492212088267 0 0.024763609052530781 -0.00082507972957839557 0 0.024814546139353914 -0.00083154971642464975 0 0.025335513427209046 -0.00010267544524496651 0 0.025532126888477318 0.00021249826197108104 0 0.025870410645992697 0.00041994213338144177 0 0.025313150313578357 -3.6017789611575856e-05 0 0.025126179734075632 -0.00058176394181782274 0 0.025335513427209046 -0.00010267544524496651 0 0.025191690178958677 -0.00047168367338629814 0 0.024892247417717759 -0.00082284492212088267 0 0.025126179734075632 -0.00058176394181782274 0 0.024747727084132143 -0.0008191621053114474 0 0.025350811547532642 0.00056648942783922075 0 0.025870410645992697 0.00041994213338144177 0 0.025313150313578357 -3.6017789611575856e-05 0 0.025114067209891084 0.00026436462068825953 0 0.025350811547532642 0.00056648942783922075 0 0.025313150313578357 -3.6017789611575856e-05 0 0.025114067209891084 0.00026436462068825953 0 0.025313150313578357 -3.6017789611575856e-05 0 0.025166050921751955 -0.00038856332347055961 0 0.025313150313578357 -3.6017789611575856e-05 0 0.025166050921751955 -0.00038856332347055961 0 0.025126179734075632 -0.00058176394181782274 0 0.025166050921751955 -0.00038856332347055961 0 0.025126179734075632 -0.00058176394181782274 0 0.024973685707929842 -0.00080678920071127326 0 0.025126179734075632 -0.00058176394181782274 0 0.024973685707929842 -0.00080678920071127326 0 0.024708160782847328 -0.00095550771967753097 0 0.02472077735900614 -0.0010942145571889014 0 0.024973685707929842 -0.00080678920071127326 0 0.024708160782847328 -0.00095550771967753097 0 0.025078022173413511 -0.00089470861072396156 0 0.025166050921751955 -0.00038856332347055961 0 0.024973685707929842 -0.00080678920071127326 0 0.024333091067014066 -0.0011746263103792108 0 0.024708160782847328 -0.00095550771967753097 0 0.024455420451616167 -0.0010481990523152525 0 0.025126179734075632 -0.00058176394181782274 0 0.024708160782847328 -0.00095550771967753097 0 0.024704260581654813 -0.00083659221744104167 0 0.024704260581654813 -0.00083659221744104167 0 0.024455420451616167 -0.0010481990523152525 0 0.024606064068608838 -0.00088245096813980705 0 0.024708160782847328 -0.00095550771967753097 0 0.024704260581654813 -0.00083659221744104167 0 0.024455420451616167 -0.0010481990523152525 0 0.024606064068608838 -0.00088245096813980705 0 0.024747727084132143 -0.0008191621053114474 0 0.024629316498908604 -0.00077329187098153685 0 0.024606064068608838 -0.00088245096813980705 0 0.024629316498908604 -0.00077329187098153685 0 0.024690452316586155 -0.00089203140907685437 0 0.024704260581654813 -0.00083659221744104167 0 0.024606064068608838 -0.00088245096813980705 0 0.024747727084132143 -0.0008191621053114474 0 0.025126179734075632 -0.00058176394181782274 0 0.024704260581654813 -0.00083659221744104167 0 0.024747727084132143 -0.0008191621053114474 0 0.024892247417717759 -0.00082284492212088267 0 0.024747727084132143 -0.0008191621053114474 0 0.024763609052530781 -0.00082507972957839557 0 0.024747727084132143 -0.0008191621053114474 0 0.024763609052530781 -0.00082507972957839557 0 0.024629316498908604 -0.00077329187098153685 0 0.024629316498908604 -0.00077329187098153685 0 0.024671435708919637 -0.00081179112917842855 0 0.024606012211253515 -0.00059229597990129938 0 0.024763609052530781 -0.00082507972957839557 0 0.024629316498908604 -0.00077329187098153685 0 0.024671435708919637 -0.00081179112917842855 0 0.023386739974074353 -1.6858963662305844e-05 0 0.023851930359131645 0.0006037401136113448 0 0.024247888701711 0.00016843560589279653 0 0.023851930359131645 0.0006037401136113448 0 0.023355147033966645 0.0010006752246425584 0 0.024186410546009979 0.0013442783207598002 0 0.023386739974074353 -1.6858963662305844e-05 0 0.023851930359131645 0.0006037401136113448 0 0.023355147033966645 0.0010006752246425584 0 0.023386739974074353 -1.6858963662305844e-05 0 0.023355147033966645 0.0010006752246425584 0 0.022407540403201292 0.00050629855450424696 0 0.023355147033966645 0.0010006752246425584 0 0.022407540403201292 0.00050629855450424696 0 0.022570861758688169 0.0014397504107158863 0 0.024049854422984986 -0.00039814080339470992 0 0.023579444815872513 -0.00028823452408515207 0 0.024763609052530781 -0.00082507972957839557 0 0.024671435708919637 -0.00081179112917842855 0 0.024773385026263261 -0.00084727858595182864 0 0.024763609052530781 -0.00082507972957839557 0 0.024773385026263261 -0.00084727858595182864 0 0.024814546139353914 -0.00083154971642464975 0 0.026137149186603103 0.0016064051857250926 0 0.025384390986026302 0.001379876332879624 0 0.025723366612319019 0.0026408717499849161 0 0.024814546139353914 -0.00083154971642464975 0 0.024788582443223989 -0.00081616037825618442 0 0.024789471929588289 -0.00081715538656267788 0 0.026137149186603103 0.0016064051857250926 0 0.025723366612319019 0.0026408717499849161 0 0.025859674098193147 0.0028156127278492218 0 0.025532126888477318 0.00021249826197108104 0 0.02438354225667896 0.0018203920284018662 0 0.025832919544121286 0.0033854469506296881 0 0.026222517410910091 0.0032299630256578749 0 0.025958184938029448 0.0032045939556192824 0 0.026398927822400563 0.0031663823783112275 0 0.02438354225667896 0.0018203920284018662 0 0.025784739718785154 0.0029445527452101215 0 0.025723366612319019 0.0026408717499849161 0 0.025859674098193147 0.0028156127278492218 0 0.026240004338369059 0.0031898067087785496 0 0.026222517410910091 0.0032299630256578749 0 0.025958184938029448 0.0032045939556192824 0 0.023058095430902519 0.0029900718808357619 0 0.02309694870831025 0.0029718473329365491 0 0.02304728974981847 0.0027592581387936126 0 0.024271168241207463 0.0014513314281022346 0 0.024488035096077616 0.0015402658045839328 0 0.024212884310546925 0.0016691248499203961 0 0.02438354225667896 0.0018203920284018662 0 0.023933625312249747 0.002167399535546081 0 0.023623658853102539 0.0016289492726995561 0 0.023933625312249747 0.002167399535546081 0 0.02438354225667896 0.0018203920284018662 0 0.023623658853102539 0.0016289492726995561 0 0.025784739718785154 0.0029445527452101215 0 0.026240004338369059 0.0031898067087785496 0 0.025958184938029448 0.0032045939556192824 0 0.023579444815872513 -0.00028823452408515207 0 0.023623658853102539 0.0016289492726995561 0 0.024773385026263261 -0.00084727858595182864 0 0.024814546139353914 -0.00083154971642464975 0 0.024789471929588289 -0.00081715538656267788 0 0.022407540403201292 0.00050629855450424696 0 0.021478291838562185 0.00096566369412300285 0 0.022570861758688169 0.0014397504107158863 0 0.023058095430902519 0.0029900718808357619 0 0.022848293818522481 0.0027372237463108196 0 0.022578245858526507 0.0027931828101079087 0 0.023623658853102539 0.0016289492726995561 0 0.022380781601901028 0.0020859078982636324 0 0.022848293818522481 0.0027372237463108196 0 0.023174928248087173 0.0025599405016017455 0 0.022632376142289565 0.0025790062406772173 0 0.023058095430902519 0.0029900718808357619 0 0.022848293818522481 0.0027372237463108196 0 0.02304728974981847 0.0027592581387936126 0 0.023515813242104455 0.0029069927271994861 0 0.023108612867643874 0.0031041996799106397 0 0.023322459528229974 0.0027942940183889038 0 0.023108612867643874 0.0031041996799106397 0 0.023322459528229974 0.0027942940183889038 0 0.023211297210058563 0.0025910629783529862 0 0.023933625312249747 0.002167399535546081 0 0.023057255507208954 0.0029904217377472661 0 0.02309694870831025 0.0029718473329365491 0 0.02304728974981847 0.0027592581387936126 0 0.023211297210058563 0.0025910629783529862 0 0.025322585062316237 0.003375883727422689 0 0.023933625312249747 0.002167399535546081 0 0.02304728974981847 0.0027592581387936126 0 0.023211297210058563 0.0025910629783529862 0 0.023174928248087173 0.0025599405016017455 0 0.022848293818522481 0.0027372237463108196 0 0.02304728974981847 0.0027592581387936126 0 0.023174928248087173 0.0025599405016017455 0 0.023322459528229974 0.0027942940183889038 0 0.023211297210058563 0.0025910629783529862 0 0.023253835786067673 0.0025649292371543219 0 0.023322459528229974 0.0027942940183889038 0 0.023385430849515592 0.0026144058431102684 0 0.023281365039095048 0.0026047606969079144 0 0.022732313235068122 0.0028617739429022322 0 0.022306280826630265 0.0035112934691069867 0 0.019776824636454821 0.0033098189695591087 0 0.020271745195239683 0.0038224132178541468 0 0.020023169182932444 0.0045042499645536575 0 0.022928448843094133 0.0038391963766292573 0 0.023064873149999852 0.0038560623317108124 0 0.023212492858528767 0.0046291652169874603 0 0.02500640215371484 0.0052898584444445338 0 0.024821290289182747 0.00487833911492511 0 0.025126104550559292 0.0049764368293782153 0 0.022306280826630265 0.0035112934691069867 0 0.022660843000344173 0.0047883671123031936 0 0.024604293297874429 0.0041907057387134171 0 0.022660843000344173 0.0047883671123031936 0 0.024604293297874429 0.0041907057387134171 0 0.022306280826630265 0.0035112934691069867 0 0.023211297210058563 0.0025910629783529862 0 0.023253835786067673 0.0025649292371543219 0 0.023174928248087173 0.0025599405016017455 0 0.022306280826630265 0.0035112934691069867 0 0.021321397049286261 0.0032587045845268244 0 0.019776824636454821 0.0033098189695591087 0 0.019923713604299446 0.0033285606168342182 0 0.020271745195239683 0.0038224132178541468 0 0.021321397049286261 0.0032587045845268244 0 0.021887375650793083 0.0029025931257825499 0 0.019986169407273435 0.0033595687232715271 0 0.02074363199520771 0.0034143714989789361 0 0.021151424910510957 0.0032413118381148498 0 0.019923713604299446 0.0033285606168342182 0 0.020271745195239683 0.0038224132178541468 0 0.02074363199520771 0.0034143714989789361 0 0.021321397049286261 0.0032587045845268244 0 0.020213441021376975 0.0033554583853159362 0 0.02074363199520771 0.0034143714989789361 0 0.021082271786711113 0.0037524751367542125 0 0.021151424910510957 0.0032413118381148498 0 0.020271745195239683 0.0038224132178541468 0 0.02074363199520771 0.0034143714989789361 0 0.020727254493155847 0.0039726618329037396 0 0.02074363199520771 0.0034143714989789361 0 0.020727254493155847 0.0039726618329037396 0 0.021082271786711113 0.0037524751367542125 0 0.021151424910510957 0.0032413118381148498 0 0.021589342569548916 0.0039085920793830485 0 0.022448492655236019 0.0030701903159681253 0 0.021082271786711113 0.0037524751367542125 0 0.021589342569548916 0.0039085920793830485 0 0.021066511652333867 0.0043775040609282077 0 0.021082271786711113 0.0037524751367542125 0 0.021151424910510957 0.0032413118381148498 0 0.021589342569548916 0.0039085920793830485 0 0.021589342569548916 0.0039085920793830485 0 0.022448492655236019 0.0030701903159681253 0 0.022314255367846456 0.0042241449804623016 0 0.022448492655236019 0.0030701903159681253 0 0.022894026707013772 0.0040696722597072729 0 0.022314255367846456 0.0042241449804623016 0 0.023355147033966645 0.0010006752246425584 0 0.023724815631203787 0.0019617484845585085 0 0.022570861758688169 0.0014397504107158863 0 0.023355147033966645 0.0010006752246425584 0 0.023724815631203787 0.0019617484845585085 0 0.024186410546009979 0.0013442783207598002 0 0.022607566909203805 0.0025887520516227605 0 0.022380781601901028 0.0020859078982636324 0 0.022632376142289565 0.0025790062406772173 0 0.022128246506656873 0.0026036850045557656 0 0.022578245858526507 0.0027931828101079087 0 0.021887375650793083 0.0029025931257825499 0 0.022607566909203805 0.0025887520516227605 0 0.022848293818522481 0.0027372237463108196 0 0.022632376142289565 0.0025790062406772173 0 0.022578245858526507 0.0027931828101079087 0 0.024339483487910124 0.0021587563958339012 0 0.025813369333312176 0.0021640059969591776 0 0.023768100122408802 0.0023765767349382115 0 0.024867797962037353 0.0029521909636830439 0 0.025932238996210537 0.002176293625810254 0 0.024805665557140762 0.0019759237290448298 0 0.025305482669225384 0.0013897773529477444 0 0.025932238996210537 0.002176293625810254 0 0.024805665557140762 0.0019759237290448298 0 0.025305482669225384 0.0013897773529477444 0 0.024775168701979204 0.0013266583318292994 0 0.023724815631203787 0.0019617484845585085 0 0.024805665557140762 0.0019759237290448298 0 0.024186410546009979 0.0013442783207598002 0 0.022607566909203805 0.0025887520516227605 0 0.024339483487910124 0.0021587563958339012 0 0.024805665557140762 0.0019759237290448298 0 0.024775168701979204 0.0013266583318292994 0 0.024186410546009979 0.0013442783207598002 0 0.02158805094915147 0.0024932830319667897 0 0.023768100122408802 0.0023765767349382115 0 0.023647818066267073 0.0033535879150261624 0 0.022448492655236019 0.0030701903159681253 0 0.023405830469757062 0.0036890734327522843 0 0.022894026707013772 0.0040696722597072729 0 0.022448492655236019 0.0030701903159681253 0 0.023405830469757062 0.0036890734327522843 0 0.023647818066267073 0.0033535879150261624 0 0.022607566909203805 0.0025887520516227605 0 0.023346083907536581 0.0033124419225385071 0 0.023405830469757062 0.0036890734327522843 0 0.024249654471063409 0.0036562067913869056 0 0.023647818066267073 0.0033535879150261624 0 0.023405830469757062 0.0036890734327522843 0 0.024249654471063409 0.0036562067913869056 0 0.024579672271295469 0.00483785509084833 0 0.023768100122408802 0.0023765767349382115 0 0.023647818066267073 0.0033535879150261624 0 0.024135729675580867 0.0030915133802826324 0 0.023768100122408802 0.0023765767349382115 0 0.024135729675580867 0.0030915133802826324 0 0.024867797962037353 0.0029521909636830439 0 0.024249654471063409 0.0036562067913869056 0 0.023647818066267073 0.0033535879150261624 0 0.024135729675580867 0.0030915133802826324 0 0.024249654471063409 0.0036562067913869056 0 0.024135729675580867 0.0030915133802826324 0 0.024867797962037353 0.0029521909636830439 0 0.024249654471063409 0.0036562067913869056 0 0.024867797962037353 0.0029521909636830439 0 0.024884043566630681 0.004162415734344168 0 0.024867797962037353 0.0029521909636830439 0 0.025932238996210537 0.002176293625810254 0 0.026116743241749184 0.0043010551074642109 0 0.024867797962037353 0.0029521909636830439 0 0.026116743241749184 0.0043010551074642109 0 0.024884043566630681 0.004162415734344168 0 0.026841973952220981 0.0020595850064452827 0 0.025932238996210537 0.002176293625810254 0 0.026116743241749184 0.0043010551074642109 0 0.020161211041546889 0.0038554608502789169 0 0.020808372888151069 0.0057830477790825324 0 0.01505172069090973 0.0071294993891601929 0 0.01505946735813813 0.0070601565085887247 0 0.01502905807450943 0.0071970812086000835 0 0.015770333032861801 0.0066546959971742802 0 0.020161211041546889 0.0038554608502789169 0 0.014958998671133206 0.006950859638398383 0 0.015076686765556466 0.0066356637122930691 0 0.015068162240397295 0.006965127655832579 0 0.01505172069090973 0.0071294993891601929 0 0.014958998671133206 0.006950859638398383 0 0.015068162240397295 0.006965127655832579 0 0.020161211041546889 0.0038554608502789169 0 0.025162626182473474 -0.00050380742149588149 0 0.026841973952220981 0.0020595850064452827 0 0.025932238996210537 0.002176293625810254 0 0.025870507362344752 0.00057194458931668552 0 0.025305482669225384 0.0013897773529477444 0 0.025932238996210537 0.002176293625810254 0 0.025870507362344752 0.00057194458931668552 0 0.020161211041546889 0.0038554608502789169 0 0.019060356402369943 0.0029018951316741324 0 0.023415295547733098 -0.00051474658010847933 0 0.023330541300935394 -0.00091964619546720079 0 0.023528768384591531 -0.00094417383586483056 0 0.023528768384591531 -0.00094417383586483056 0 0.023464511063581179 -0.0010727974745691027 0 0.02346280759761914 -0.0011038794675326503 0 0.023330541300935394 -0.00091964619546720079 0 0.023528768384591531 -0.00094417383586483056 0 0.023464511063581179 -0.0010727974745691027 0 0.023330541300935394 -0.00091964619546720079 0 0.023464511063581179 -0.0010727974745691027 0 0.023452425863486653 -0.0011906932115985792 0 0.023330541300935394 -0.00091964619546720079 0 0.023454517845587997 -0.0012521846988029046 0 0.023452425863486653 -0.0011906932115985792 0 0.025162626182473474 -0.00050380742149588149 0 0.024225806207869457 -0.00084603093263872677 0 0.025870507362344752 0.00057194458931668552 0 0.024840960745140417 9.2208991078510636e-05 0 0.02507621379694604 -0.00057917095808190748 0 0.024840960745140417 9.2208991078510636e-05 0 0.024606012211253515 -0.00059229597990129938 0 0.02507621379694604 -0.00057917095808190748 0 0.025870507362344752 0.00057194458931668552 0 0.024840960745140417 9.2208991078510636e-05 0 0.025046913197966411 0.00083970516673418413 0 0.024840960745140417 9.2208991078510636e-05 0 0.025046913197966411 0.00083970516673418413 0 0.024484753243062252 0.00074225400014136264 0 0.025305482669225384 0.0013897773529477444 0 0.024775168701979204 0.0013266583318292994 0 0.025046913197966411 0.00083970516673418413 0 0.024775168701979204 0.0013266583318292994 0 0.025046913197966411 0.00083970516673418413 0 0.024484753243062252 0.00074225400014136264 0 0.025305482669225384 0.0013897773529477444 0 0.025870507362344752 0.00057194458931668552 0 0.025046913197966411 0.00083970516673418413 0 0.023851930359131645 0.0006037401136113448 0 0.024186410546009979 0.0013442783207598002 0 0.024484753243062252 0.00074225400014136264 0 0.024775168701979204 0.0013266583318292994 0 0.024186410546009979 0.0013442783207598002 0 0.024484753243062252 0.00074225400014136264 0 0.024840960745140417 9.2208991078510636e-05 0 0.024484753243062252 0.00074225400014136264 0 0.024247888701711 0.00016843560589279653 0 0.023851930359131645 0.0006037401136113448 0 0.024484753243062252 0.00074225400014136264 0 0.024247888701711 0.00016843560589279653 0 0.023386739974074353 -1.6858963662305844e-05 0 0.024247888701711 0.00016843560589279653 0 0.024606012211253515 -0.00059229597990129938 0 0.024049854422984986 -0.00039814080339470992 0 0.024564877799751021 -0.00059852032445808188 0 0.024840960745140417 9.2208991078510636e-05 0 0.024247888701711 0.00016843560589279653 0 0.024606012211253515 -0.00059229597990129938 0 0.024606012211253515 -0.00059229597990129938 0 0.02507621379694604 -0.00057917095808190748 0 0.024690452316586155 -0.00089203140907685437 0 0.024629316498908604 -0.00077329187098153685 0 0.024606012211253515 -0.00059229597990129938 0 0.024690452316586155 -0.00089203140907685437 0 0.024225806207869457 -0.00084603093263872677 0 0.024295432257077459 -0.0011193739710232511 0 0.023454517845587997 -0.0012521846988029046 0 0.02359642611583538 -0.0013279144493034355 0 0.023495271829544664 -0.0012751327111557246 0 0.023454517845587997 -0.0012521846988029046 0 0.02359642611583538 -0.0013279144493034355 0 0.023847426576155989 -0.0014002167277034124 0 0.02359642611583538 -0.0013279144493034355 0 0.023847426576155989 -0.0014002167277034124 0 0.02368739425501977 -0.0012574998637077191 0 0.024455420451616167 -0.0010481990523152525 0 0.023847426576155989 -0.0014002167277034124 0 0.024004019494274925 -0.001193627371170717 0 0.024455420451616167 -0.0010481990523152525 0 0.024606064068608838 -0.00088245096813980705 0 0.024690452316586155 -0.00089203140907685437 0 0.02443989627029014 -0.0010313653319063431 0 0.024295432257077459 -0.0011193739710232511 0 0.024455420451616167 -0.0010481990523152525 0 0.024004019494274925 -0.001193627371170717 0 0.024111997479728715 -0.0011052429365295516 0 0.024004019494274925 -0.001193627371170717 0 0.02368739425501977 -0.0012574998637077191 0 0.024111997479728715 -0.0011052429365295516 0 0.023847426576155989 -0.0014002167277034124 0 0.024004019494274925 -0.001193627371170717 0 0.02368739425501977 -0.0012574998637077191 0 0.02368739425501977 -0.0012574998637077191 0 0.024111997479728715 -0.0011052429365295516 0 0.023504818843830908 -0.0011519352403710436 0 0.023616038198322302 -0.00084441191757749921 0 0.024111997479728715 -0.0011052429365295516 0 0.023504818843830908 -0.0011519352403710436 0 0.024333091067014066 -0.0011746263103792108 0 0.024455420451616167 -0.0010481990523152525 0 0.024111997479728715 -0.0011052429365295516 0 0.023293519229206562 -0.0010113501662354749 0 0.023504818843830908 -0.0011519352403710436 0 0.023298365593796957 -0.0013262438697175299 0 0.022916259082218549 -0.0010129908484789933 0 0.023293519229206562 -0.0010113501662354749 0 0.023298365593796957 -0.0013262438697175299 0 0.023616038198322302 -0.00084441191757749921 0 0.023293519229206562 -0.0010113501662354749 0 0.023504818843830908 -0.0011519352403710436 0 0.02368739425501977 -0.0012574998637077191 0 0.023504818843830908 -0.0011519352403710436 0 0.023298365593796957 -0.0013262438697175299 0 0.02368739425501977 -0.0012574998637077191 0 0.023298365593796957 -0.0013262438697175299 0 0.023470227928156812 -0.0012977908542246993 0 0.023418579832153157 -0.0012349058016480911 0 0.023470227928156812 -0.0012977908542246993 0 0.023447261429396595 -0.0011995822066075256 0 0.023298365593796957 -0.0013262438697175299 0 0.023418579832153157 -0.0012349058016480911 0 0.023470227928156812 -0.0012977908542246993 0 0.02359642611583538 -0.0013279144493034355 0 0.02368739425501977 -0.0012574998637077191 0 0.023470227928156812 -0.0012977908542246993 0 0.02359642611583538 -0.0013279144493034355 0 0.023470227928156812 -0.0012977908542246993 0 0.023495271829544664 -0.0012751327111557246 0 0.023454517845587997 -0.0012521846988029046 0 0.023495271829544664 -0.0012751327111557246 0 0.023452425863486653 -0.0011906932115985792 0 0.023470227928156812 -0.0012977908542246993 0 0.023452425863486653 -0.0011906932115985792 0 0.023447261429396595 -0.0011995822066075256 0 0.023470227928156812 -0.0012977908542246993 0 0.023495271829544664 -0.0012751327111557246 0 0.023452425863486653 -0.0011906932115985792 0 0.023418579832153157 -0.0012349058016480911 0 0.023447261429396595 -0.0011995822066075256 0 0.02346280759761914 -0.0011038794675326503 0 0.023464511063581179 -0.0010727974745691027 0 0.023447261429396595 -0.0011995822066075256 0 0.02346280759761914 -0.0011038794675326503 0 0.023464511063581179 -0.0010727974745691027 0 0.023452425863486653 -0.0011906932115985792 0 0.023447261429396595 -0.0011995822066075256 0 0.024389278186962855 -0.0017272275154104942 0 0.019969508451627198 0.0020190040312812311 0 0.023528768384591531 -0.00094417383586483056 0 0.02346280759761914 -0.0011038794675326503 0 0.023443113519862866 -0.0011026783756139117 0 0.023418579832153157 -0.0012349058016480911 0 0.02346280759761914 -0.0011038794675326503 0 0.023467054574618139 -0.0011725542182549657 0 0.015186721194822169 0.0064373659068096478 0 0.015298878350733729 0.0065499909723549269 0 0.015214127808187417 0.0066065372199110364 0 0.015186721194822169 0.0064373659068096478 0 0.015289511722008981 0.0064016212742661009 0 0.015298878350733729 0.0065499909723549269 0 0.019969508451627198 0.0020190040312812311 0 0.016394866862289924 0.0050240289259415663 0 0.01963107150565728 0.0018719195111909436 0 0.019561440022459492 0.001912342889558312 0 0.019612207253015015 0.0019056561392994927 0 0.023298365593796957 -0.0013262438697175299 0 0.023418579832153157 -0.0012349058016480911 0 0.02345170698111804 -0.0012400474618223583 0 0.023418579832153157 -0.0012349058016480911 0 0.023467054574618139 -0.0011725542182549657 0 0.02345170698111804 -0.0012400474618223583 0 0.019969508451627198 0.0020190040312812311 0 0.021595198181269683 0.00012617149106524092 0 0.023298365593796957 -0.0013262438697175299 0 0.02345170698111804 -0.0012400474618223583 0 0.023471112784054962 -0.0013239712013069537 0 0.023736460647032567 -0.0016047131175852575 0 0.021895695730422562 -0.00034581861951787359 0 0.023298365593796957 -0.0013262438697175299 0 0.022465083408762746 -0.001457602599025032 0 0.022701819900651021 -0.0012226081843775083 0 0.019561440022459492 0.001912342889558312 0 0.019612207253015015 0.0019056561392994927 0 0.019599423283185841 0.0019395051945319997 0 0.021595198181269683 0.00012617149106524092 0 0.021895695730422562 -0.00034581861951787359 0 0.022404623591037606 -0.0012810704562140863 0 0.022402073542684017 -0.0012674426667221303 0 0.022299004410413537 -0.0010948248154762175 0 0.021895695730422562 -0.00034581861951787359 0 0.022220765653067485 -0.001088324102575548 0 0.022465083408762746 -0.001457602599025032 0 0.022402073542684017 -0.0012674426667221303 0 0.022701819900651021 -0.0012226081843775083 0 0.022441296585900859 -0.0011186378062947944 0 0.022402073542684017 -0.0012674426667221303 0 0.022701819900651021 -0.0012226081843775083 0 0.022441296585900859 -0.0011186378062947944 0 0.022402073542684017 -0.0012674426667221303 0 0.022276661485013626 -0.001149700867963624 0 0.022916259082218549 -0.0010129908484789933 0 0.023298365593796957 -0.0013262438697175299 0 0.022701819900651021 -0.0012226081843775083 0 0.022916259082218549 -0.0010129908484789933 0 0.022441296585900859 -0.0011186378062947944 0 0.022701819900651021 -0.0012226081843775083 0 0.022456440952371981 -0.0010270065424991916 0 0.022356621382705378 -0.0011294652524513618 0 0.022299004410413537 -0.0010948248154762175 0 0.023326048768005817 -0.0016393718523200203 0 0.019639112747563671 0.0018672397271738664 0 0.022552562554375093 -0.0012551813843646772 0 0.022456440952371981 -0.0010270065424991916 0 0.022356621382705378 -0.0011294652524513618 0 0.022315877577642779 -0.001243309748542515 0 0.022356621382705378 -0.0011294652524513618 0 0.022276661485013626 -0.001149700867963624 0 0.022402073542684017 -0.0012674426667221303 0 0.022276661485013626 -0.001149700867963624 0 0.022299004410413537 -0.0010948248154762175 0 0.022356621382705378 -0.0011294652524513618 0 0.022276661485013626 -0.001149700867963624 0 0.022299004410413537 -0.0010948248154762175 0 0.021895695730422562 -0.00034581861951787359 0 0.019639112747563671 0.0018672397271738664 0 0.019561440022459492 0.001912342889558312 0 0.019599423283185841 0.0019395051945319997 0 0.019507845238810707 0.0019474298979091163 0 0.016394866862289924 0.0050240289259415663 0 0.019639112747563671 0.0018672397271738664 0 0.02277370343760627 -0.00080731802665278416 0 0.022456440952371981 -0.0010270065424991916 0 0.022146644610550874 -0.00078268414430195002 0 0.015483052985903009 0.0064097368928853413 0 0.015418331252071156 0.0063012326124937115 0 0.015396165204305153 0.0064798210788133467 0 0.015502275542101729 0.0065416132906180591 0 0.015483052985903009 0.0064097368928853413 0 0.015396165204305153 0.0064798210788133467 0 0.015289511722008981 0.0064016212742661009 0 0.015418331252071156 0.0063012326124937115 0 0.015396165204305153 0.0064798210788133467 0 0.015289511722008981 0.0064016212742661009 0 0.015396165204305153 0.0064798210788133467 0 0.015298878350733729 0.0065499909723549269 0 0.015396165204305153 0.0064798210788133467 0 0.015298878350733729 0.0065499909723549269 0 0.015401837879172481 0.0066799812613529685 0 0.015502275542101729 0.0065416132906180591 0 0.015396165204305153 0.0064798210788133467 0 0.015401837879172481 0.0066799812613529685 0 0.015389373637971318 0.0067155187823060257 0 0.015364054058775901 0.0070410569719384459 0 0.015401837879172481 0.0066799812613529685 0 0.015494684918642032 0.0069053481774300294 0 0.015334167196521564 0.0069005714089383982 0 0.015300026145988285 0.0067197498645604472 0 0.015218540735437713 0.0068069006252796521 0 0.015334167196521564 0.0069005714089383982 0 0.015401837879172481 0.0066799812613529685 0 0.015300026145988285 0.0067197498645604472 0 0.015334167196521564 0.0069005714089383982 0 0.015298878350733729 0.0065499909723549269 0 0.015401837879172481 0.0066799812613529685 0 0.015300026145988285 0.0067197498645604472 0 0.015300026145988285 0.0067197498645604472 0 0.015214127808187417 0.0066065372199110364 0 0.015218540735437713 0.0068069006252796521 0 0.015298878350733729 0.0065499909723549269 0 0.015300026145988285 0.0067197498645604472 0 0.015214127808187417 0.0066065372199110364 0 0.015076686765556466 0.0066356637122930691 0 0.015186721194822169 0.0064373659068096478 0 0.015214127808187417 0.0066065372199110364 0 0.019060356402369943 0.0029018951316741324 0 0.019969508451627198 0.0020190040312812311 0 0.015076686765556466 0.0066356637122930691 0 0.015214127808187417 0.0066065372199110364 0 0.015218540735437713 0.0068069006252796521 0 0.015076686765556466 0.0066356637122930691 0 0.015218540735437713 0.0068069006252796521 0 0.015140004283038584 0.0069397695067207176 0 0.015218540735437713 0.0068069006252796521 0 0.015226070679920089 0.0070594792232032098 0 0.015140004283038584 0.0069397695067207176 0 0.015226070679920089 0.0070594792232032098 0 0.015140004283038584 0.0069397695067207176 0 0.015122304994913864 0.0071151514917601093 0 0.015218540735437713 0.0068069006252796521 0 0.015226070679920089 0.0070594792232032098 0 0.015334167196521564 0.0069005714089383982 0 0.015076686765556466 0.0066356637122930691 0 0.015140004283038584 0.0069397695067207176 0 0.015068162240397295 0.006965127655832579 0 0.015140004283038584 0.0069397695067207176 0 0.015068162240397295 0.006965127655832579 0 0.015122304994913864 0.0071151514917601093 0 0.01505172069090973 0.0071294993891601929 0 0.015122304994913864 0.0071151514917601093 0 0.015112089486673275 0.0072640569940283914 0 0.01505172069090973 0.0071294993891601929 0 0.015068162240397295 0.006965127655832579 0 0.015122304994913864 0.0071151514917601093 0 0.015226070679920089 0.0070594792232032098 0 0.015122304994913864 0.0071151514917601093 0 0.015192398765418662 0.0072589001259183205 0 0.015122304994913864 0.0071151514917601093 0 0.015192398765418662 0.0072589001259183205 0 0.015112089486673275 0.0072640569940283914 0 0.015348324442120913 0.0071407728878890315 0 0.015370791782142202 0.0073067154402125219 0 0.01526312414730868 0.0073760054316192002 0 0.015226070679920089 0.0070594792232032098 0 0.015192398765418662 0.0072589001259183205 0 0.015348324442120913 0.0071407728878890315 0 0.015192398765418662 0.0072589001259183205 0 0.015348324442120913 0.0071407728878890315 0 0.01526312414730868 0.0073760054316192002 0 0.015348324442120913 0.0071407728878890315 0 0.015370791782142202 0.0073067154402125219 0 0.015533071553381982 0.0072509148397154194 0 0.015348324442120913 0.0071407728878890315 0 0.015533071553381982 0.0072509148397154194 0 0.015494684918642032 0.0069053481774300294 0 0.015348324442120913 0.0071407728878890315 0 0.015494684918642032 0.0069053481774300294 0 0.015334167196521564 0.0069005714089383982 0 0.015370098068402612 0.0075041422047046943 0 0.015364054058775901 0.0070410569719384459 0 0.015226070679920089 0.0070594792232032098 0 0.015348324442120913 0.0071407728878890315 0 0.015334167196521564 0.0069005714089383982 0 0.015307881433650512 0.0077522675942575722 0 0.015369536722680828 0.0079232969128424091 0 0.015293908935514798 0.0078311131677857981 0 0.015307881433650512 0.0077522675942575722 0 0.015260695889595258 0.0075277436301385437 0 0.015163137086684779 0.0074582926511837623 0 0.015257487259555868 0.0077443110325626273 0 0.015450846167529118 0.007681019495855498 0 0.015300209652126608 0.0078061156601916684 0 0.015307881433650512 0.0077522675942575722 0 0.015293908935514798 0.0078311131677857981 0 0.015350894358006736 0.0077944606896864195 0 0.015300209652126608 0.0078061156601916684 0 0.015307881433650512 0.0077522675942575722 0 0.015350894358006736 0.0077944606896864195 0 0.015307881433650512 0.0077522675942575722 0 0.015336786196727882 0.0075154844091712006 0 0.015307881433650512 0.0077522675942575722 0 0.015336786196727882 0.0075154844091712006 0 0.015260695889595258 0.0075277436301385437 0 0.015350894358006736 0.0077944606896864195 0 0.015533071553381982 0.0072509148397154194 0 0.015336786196727882 0.0075154844091712006 0 0.015370791782142202 0.0073067154402125219 0 0.015533071553381982 0.0072509148397154194 0 0.015336786196727882 0.0075154844091712006 0 0.015370791782142202 0.0073067154402125219 0 0.015336786196727882 0.0075154844091712006 0 0.01526312414730868 0.0073760054316192002 0 0.01526312414730868 0.0073760054316192002 0 0.015260695889595258 0.0075277436301385437 0 0.015163137086684779 0.0074582926511837623 0 0.015192398765418662 0.0072589001259183205 0 0.01526312414730868 0.0073760054316192002 0 0.015163137086684779 0.0074582926511837623 0 0.015336786196727882 0.0075154844091712006 0 0.01526312414730868 0.0073760054316192002 0 0.015260695889595258 0.0075277436301385437 0 0.015192398765418662 0.0072589001259183205 0 0.015112089486673275 0.0072640569940283914 0 0.015163137086684779 0.0074582926511837623 0 0.015112089486673275 0.0072640569940283914 0 0.015070893992139574 0.0073235198220555379 0 0.015059106489316297 0.0072470284704493878 0 0.01505172069090973 0.0071294993891601929 0 0.015112089486673275 0.0072640569940283914 0 0.015059106489316297 0.0072470284704493878 0 0.015369536722680828 0.0079232969128424091 0 0.015453994167234716 0.0078830191544427188 0 0.015559378012186488 0.0079888460598460508 0 0.015450846167529118 0.007681019495855498 0 0.014617115707918403 0.0077487183783758679 0 0.015112089486673275 0.0072640569940283914 0 0.015163137086684779 0.0074582926511837623 0 0.015070893992139574 0.0073235198220555379 0 0.015369536722680828 0.0079232969128424091 0 0.015453994167234716 0.0078830191544427188 0 0.015331774698490667 0.0078364747482408403 0 0.015453994167234716 0.0078830191544427188 0 0.015585934267178834 0.0078375728954577818 0 0.015559378012186488 0.0079888460598460508 0 0.015453994167234716 0.0078830191544427188 0 0.0154476517816877 0.0078109335338700089 0 0.015585934267178834 0.0078375728954577818 0 0.0154476517816877 0.0078109335338700089 0 0.015521383357771305 0.0077533325738122242 0 0.015585934267178834 0.0078375728954577818 0 0.015453994167234716 0.0078830191544427188 0 0.0154476517816877 0.0078109335338700089 0 0.015331774698490667 0.0078364747482408403 0 0.0154476517816877 0.0078109335338700089 0 0.015331774698490667 0.0078364747482408403 0 0.015339417514686204 0.0077803632451814049 0 0.015331774698490667 0.0078364747482408403 0 0.015247794854213896 0.0078014450374307509 0 0.015339417514686204 0.0077803632451814049 0 0.015331774698490667 0.0078364747482408403 0 0.015293908935514798 0.0078311131677857981 0 0.01525591435176555 0.0078230457717082865 0 0.015369536722680828 0.0079232969128424091 0 0.015331774698490667 0.0078364747482408403 0 0.015293908935514798 0.0078311131677857981 0 0.015242136099162466 0.0078219285637296555 0 0.015300209652126608 0.0078061156601916684 0 0.015293908935514798 0.0078311131677857981 0 0.015242136099162466 0.0078219285637296555 0 0.015293908935514798 0.0078311131677857981 0 0.01525591435176555 0.0078230457717082865 0 0.015180552511512974 0.0078091457462395467 0 0.01525591435176555 0.0078230457717082865 0 0.015247794854213896 0.0078014450374307509 0 0.015331774698490667 0.0078364747482408403 0 0.01525591435176555 0.0078230457717082865 0 0.015247794854213896 0.0078014450374307509 0 0.015117896821652866 0.0077793872958814431 0 0.015247794854213896 0.0078014450374307509 0 0.015245591544978713 0.0077435226529770466 0 0.015247794854213896 0.0078014450374307509 0 0.015245591544978713 0.0077435226529770466 0 0.015339417514686204 0.0077803632451814049 0 0.015339417514686204 0.0077803632451814049 0 0.01532744971646849 0.0077094112470002599 0 0.015432300707690165 0.0077297754666305375 0 0.015245591544978713 0.0077435226529770466 0 0.015339417514686204 0.0077803632451814049 0 0.01532744971646849 0.0077094112470002599 0 0.015245591544978713 0.0077435226529770466 0 0.01532744971646849 0.0077094112470002599 0 0.01527433076922952 0.0076483756437072279 0 0.015117896821652866 0.0077793872958814431 0 0.015245591544978713 0.0077435226529770466 0 0.015173710523738247 0.0076877725171840784 0 0.015245591544978713 0.0077435226529770466 0 0.015173710523738247 0.0076877725171840784 0 0.01527433076922952 0.0076483756437072279 0 0.015140991590401592 0.0075902748618651887 0 0.015173710523738247 0.0076877725171840784 0 0.015227130186697403 0.0075882207101316164 0 0.015173710523738247 0.0076877725171840784 0 0.015227130186697403 0.0075882207101316164 0 0.01527433076922952 0.0076483756437072279 0 0.01532744971646849 0.0077094112470002599 0 0.01527433076922952 0.0076483756437072279 0 0.015367345444072771 0.007597399932249338 0 0.01527433076922952 0.0076483756437072279 0 0.015285667067045995 0.0075520993739255802 0 0.015367345444072771 0.007597399932249338 0 0.015227130186697403 0.0075882207101316164 0 0.01527433076922952 0.0076483756437072279 0 0.015285667067045995 0.0075520993739255802 0 0.015166648501195135 0.011918395243002774 0 0.013459970986144945 0.010768550252293804 0 0.013966173248088184 0.013520787885009882 0 0.015078562510471833 0.009659708314633874 0 0.015895703728374479 0.010131926790952237 0 0.015166648501195135 0.011918395243002774 0 0.016895450105730517 0.013064783593697522 0 0.015375150690728499 0.013581025777294822 0 0.015078562510471833 0.009659708314633874 0 0.015136126183869491 0.010465980774012775 0 0.015227130186697403 0.0075882207101316164 0 0.015285667067045995 0.0075520993739255802 0 0.015213864545712295 0.0075181515073270587 0 0.014641088322311178 0.0084031522212166792 0 0.014652455402479373 0.0080627232495521662 0 0.014415899857166454 0.0084852267309769962 0 0.015140991590401592 0.0075902748618651887 0 0.015227130186697403 0.0075882207101316164 0 0.015213864545712295 0.0075181515073270587 0 0.015006678847606494 0.0074032734653566301 0 0.015136126183869491 0.010465980774012775 0 0.01860957830704962 0.01368300762771292 0 0.018549707301884516 0.013301512159362251 0 0.01839646393726431 0.013636245762666326 0 0.01860957830704962 0.01368300762771292 0 0.01839646393726431 0.013636245762666326 0 0.018446454015267344 0.013896953681340654 0 0.01860957830704962 0.01368300762771292 0 0.018804766875604235 0.013504020954532304 0 0.018856801824144051 0.013822771924244803 0 0.015895703728374479 0.010131926790952237 0 0.01651326363658014 0.013666488927152253 0 0.015472439107646074 0.0077170714545303637 0 0.015509987038482755 0.0077019466792763499 0 0.015432300707690165 0.0077297754666305375 0 0.01860957830704962 0.01368300762771292 0 0.018804766875604235 0.013504020954532304 0 0.018549707301884516 0.013301512159362251 0 0.015895703728374479 0.010131926790952237 0 0.015222714365931761 0.0066445308418256284 0 0.015895703728374479 0.010131926790952237 0 0.017364936740157509 0.010662271966594323 0 0.015509987038482755 0.0077019466792763499 0 0.015521383357771305 0.0077533325738122242 0 0.015644684666665333 0.0077198528402532343 0 0.015509987038482755 0.0077019466792763499 0 0.015432300707690165 0.0077297754666305375 0 0.015521383357771305 0.0077533325738122242 0 0.01532744971646849 0.0077094112470002599 0 0.015367345444072771 0.007597399932249338 0 0.015432300707690165 0.0077297754666305375 0 0.0154476517816877 0.0078109335338700089 0 0.015339417514686204 0.0077803632451814049 0 0.015432300707690165 0.0077297754666305375 0 0.0154476517816877 0.0078109335338700089 0 0.015432300707690165 0.0077297754666305375 0 0.015521383357771305 0.0077533325738122242 0 0.015521383357771305 0.0077533325738122242 0 0.015644684666665333 0.0077198528402532343 0 0.015585934267178834 0.0078375728954577818 0 0.015644684666665333 0.0077198528402532343 0 0.015713398427472276 0.0078157124734408601 0 0.015585934267178834 0.0078375728954577818 0 0.015644684666665333 0.0077198528402532343 0 0.015804230308698271 0.0077783740763339698 0 0.015713398427472276 0.0078157124734408601 0 0.01648424953381052 0.010254694111658044 0 0.019108778090580633 0.010126422591737997 0 0.01796464959492719 0.013143171318325826 0 0.018257545456285853 0.013034657703232883 0 0.0183081431271685 0.01336140940989968 0 0.01796464959492719 0.013143171318325826 0 0.018257545456285853 0.013034657703232883 0 0.01789041732727072 0.012735216579264953 0 0.017364936740157509 0.010662271966594323 0 0.01648424953381052 0.010254694111658044 0 0.018549707301884516 0.013301512159362251 0 0.018257545456285853 0.013034657703232883 0 0.0183081431271685 0.01336140940989968 0 0.018549707301884516 0.013301512159362251 0 0.0183081431271685 0.01336140940989968 0 0.01839646393726431 0.013636245762666326 0 0.0183081431271685 0.01336140940989968 0 0.0180745844600275 0.013498414484184974 0 0.01839646393726431 0.013636245762666326 0 0.01796464959492719 0.013143171318325826 0 0.0183081431271685 0.01336140940989968 0 0.0180745844600275 0.013498414484184974 0 0.018231262151738616 0.013836004012717671 0 0.018215620595557834 0.013506433280534276 0 0.0180745844600275 0.013498414484184974 0 0.01839646393726431 0.013636245762666326 0 0.018233571904871144 0.01381458783388502 0 0.018215620595557834 0.013506433280534276 0 0.018244319666872396 0.013820077769264987 0 0.018395253256446541 0.013749787020041359 0 0.018303386480049633 0.013819479934320924 0 0.018233571904871144 0.01381458783388502 0 0.01839646393726431 0.013636245762666326 0 0.01833992580318957 0.013821670818953384 0 0.018233571904871144 0.01381458783388502 0 0.018289621535075171 0.013861003824337083 0 0.018479059746834899 0.013988305501142455 0 0.018499370350000474 0.013898478944995078 0 0.018292796530307544 0.013860606280303632 0 0.0182882654293419 0.0137930927716694 0 0.018289621535075171 0.013861003824337083 0 0.018499370350000474 0.013898478944995078 0 0.018422770696123671 0.013797343428643969 0 0.018289621535075171 0.013861003824337083 0 0.018303386480049633 0.013819479934320924 0 0.018262085262565807 0.013830744507165264 0 0.018395253256446541 0.013749787020041359 0 0.018303386480049633 0.013819479934320924 0 0.01830865499409071 0.013710777780233645 0 0.018289621535075171 0.013861003824337083 0 0.018303386480049633 0.013819479934320924 0 0.01830865499409071 0.013710777780233645 0 0.018461347493159547 0.013503908834228808 0 0.018395253256446541 0.013749787020041359 0 0.01830865499409071 0.013710777780233645 0 0.018289621535075171 0.013861003824337083 0 0.01830865499409071 0.013710777780233645 0 0.018108144433666869 0.013667980505316889 0 0.01830865499409071 0.013710777780233645 0 0.01825739157648306 0.013508170449523601 0 0.018108144433666869 0.013667980505316889 0 0.01825739157648306 0.013508170449523601 0 0.018174592962999267 0.013275840806171713 0 0.017960409009261311 0.013425295597255161 0 0.018461347493159547 0.013503908834228808 0 0.01830865499409071 0.013710777780233645 0 0.01825739157648306 0.013508170449523601 0 0.018461347493159547 0.013503908834228808 0 0.01825739157648306 0.013508170449523601 0 0.018450781566479901 0.013213989278787898 0 0.018231262151738616 0.013836004012717671 0 0.019108778090580633 0.010126422591737997 0 0.018450781566479901 0.013213989278787898 0 0.018174592962999267 0.013275840806171713 0 0.018176419782112554 0.012985164834438881 0 0.01825739157648306 0.013508170449523601 0 0.018450781566479901 0.013213989278787898 0 0.018174592962999267 0.013275840806171713 0 0.019108778090580633 0.010126422591737997 0 0.021285429537127688 0.0090067065029513661 0 0.022757264865176697 0.0064041634260340163 0 0.022586155958236567 0.0064949431701505425 0 0.023330848203063932 0.0066985780036305561 0 0.022757264865176697 0.0064041634260340163 0 0.023078784137062866 0.0061621220008112165 0 0.023330848203063932 0.0066985780036305561 0 0.022402961759168005 0.0080500419247512382 0 0.021285429537127688 0.0090067065029513661 0 0.022757264865176697 0.0064041634260340163 0 0.02258995312159549 0.0065003554604525938 0 0.0225209607242721 0.0060687965007242958 0 0.022757264865176697 0.0064041634260340163 0 0.0225209607242721 0.0060687965007242958 0 0.022795676447186008 0.0061128858471481981 0 0.023078784137062866 0.0061621220008112165 0 0.022822886281247089 0.0058152631047309585 0 0.023267852188346243 0.0054669910746750639 0 0.023078784137062866 0.0061621220008112165 0 0.022795676447186008 0.0061128858471481981 0 0.022822886281247089 0.0058152631047309585 0 0.022757264865176697 0.0064041634260340163 0 0.023078784137062866 0.0061621220008112165 0 0.022795676447186008 0.0061128858471481981 0 0.0225209607242721 0.0060687965007242958 0 0.022822886281247089 0.0058152631047309585 0 0.022363819985320447 0.0054025982181042627 0 0.0225209607242721 0.0060687965007242958 0 0.022795676447186008 0.0061128858471481981 0 0.022822886281247089 0.0058152631047309585 0 0.020349953736180974 0.0068661831492739462 0 0.018522527093430604 0.0069586834010501959 0 0.023078784137062866 0.0061621220008112165 0 0.023420301840994504 0.0064929841079254509 0 0.023267852188346243 0.0054669910746750639 0 0.020707755508503956 0.0063807836356082094 0 0.020555407846885507 0.0067750226944013345 0 0.020791696370953568 0.0067691623364907437 0 0.020349953736180974 0.0068661831492739462 0 0.023312044195013325 0.0060478626265629909 0 0.019108778090580633 0.010126422591737997 0 0.020349953736180974 0.0068661831492739462 0 0.015804230308698271 0.0077783740763339698 0 0.01582932268137005 0.0078518544115601732 0 0.015713398427472276 0.0078157124734408601 0 0.023500679009676159 0.0071620732481686026 0 0.02339906655661942 0.0065092518328079933 0 0.023330848203063932 0.0066985780036305561 0 0.023500679009676159 0.0071620732481686026 0 0.022586155958236567 0.0064949431701505425 0 0.023330848203063932 0.0066985780036305561 0 0.020349953736180974 0.0068661831492739462 0 0.021218566767710993 0.0063352743341845621 0 0.023078784137062866 0.0061621220008112165 0 0.023420301840994504 0.0064929841079254509 0 0.023330848203063932 0.0066985780036305561 0 0.01582932268137005 0.0078518544115601732 0 0.015713398427472276 0.0078157124734408601 0 0.015704099426664283 0.0078992813759355528 0 0.015713398427472276 0.0078157124734408601 0 0.015585934267178834 0.0078375728954577818 0 0.015704099426664283 0.0078992813759355528 0 0.015585934267178834 0.0078375728954577818 0 0.015704099426664283 0.0078992813759355528 0 0.015559378012186488 0.0079888460598460508 0 0.01582932268137005 0.0078518544115601732 0 0.015704099426664283 0.0078992813759355528 0 0.015771226184737697 0.0079977093260603059 0 0.015704099426664283 0.0078992813759355528 0 0.015771226184737697 0.0079977093260603059 0 0.015559378012186488 0.0079888460598460508 0 0.018522527093430604 0.0069586834010501959 0 0.014617115707918403 0.0077487183783758679 0 0.015037712663434684 0.0072819722357160286 0 0.015070893992139574 0.0073235198220555379 0 0.015059106489316297 0.0072470284704493878 0 0.01505172069090973 0.0071294993891601929 0 0.015059106489316297 0.0072470284704493878 0 0.01502905807450943 0.0071970812086000835 0 0.015037712663434684 0.0072819722357160286 0 0.015059106489316297 0.0072470284704493878 0 0.01502905807450943 0.0071970812086000835 0 0.025240617285826394 0.0065037448134054173 0 0.026116743241749184 0.0043010551074642109 0 0.024579672271295469 0.00483785509084833 0 0.018522527093430604 0.0069586834010501959 0 0.020808372888151069 0.0057830477790825324 0 0.026116743241749184 0.0043010551074642109 0 0.024884043566630681 0.004162415734344168 0 0.024579672271295469 0.00483785509084833 0 0.023405830469757062 0.0036890734327522843 0 0.024579672271295469 0.00483785509084833 0 0.023876740532362804 0.0065123256173250064 0 0.024249654471063409 0.0036562067913869056 0 0.024884043566630681 0.004162415734344168 0 0.024579672271295469 0.00483785509084833 0 0.023557120578416524 0.0037591616859992097 0 0.023312044195013325 0.0060478626265629909 0 0.023405830469757062 0.0036890734327522843 0 0.022989790761613029 0.0045790598492877329 0 0.023722121702685173 0.0054040755868473784 0 0.023405830469757062 0.0036890734327522843 0 0.022894026707013772 0.0040696722597072729 0 0.022989790761613029 0.0045790598492877329 0 0.022894026707013772 0.0040696722597072729 0 0.022989790761613029 0.0045790598492877329 0 0.022314255367846456 0.0042241449804623016 0 0.022989790761613029 0.0045790598492877329 0 0.023722121702685173 0.0054040755868473784 0 0.022363819985320447 0.0054025982181042627 0 0.023312044195013325 0.0060478626265629909 0 0.02250853791228485 0.0053025708292876251 0 0.022822886281247089 0.0058152631047309585 0 0.023267852188346243 0.0054669910746750639 0 0.022363819985320447 0.0054025982181042627 0 0.025240617285826394 0.0065037448134054173 0 0.024579672271295469 0.00483785509084833 0 0.023876740532362804 0.0065123256173250064 0 0.018522527093430604 0.0069586834010501959 0 0.023312044195013325 0.0060478626265629909 0 0.021664420056507837 0.0048839669228519251 0 0.021066511652333867 0.0043775040609282077 0 0.020985040866305316 0.0054225911320013509 0 0.021664420056507837 0.0048839669228519251 0 0.020985040866305316 0.0054225911320013509 0 0.021848062962948892 0.006018167664659747 0 0.021664420056507837 0.0048839669228519251 0 0.022363819985320447 0.0054025982181042627 0 0.021848062962948892 0.006018167664659747 0 0.022989790761613029 0.0045790598492877329 0 0.022363819985320447 0.0054025982181042627 0 0.022314255367846456 0.0042241449804623016 0 0.021664420056507837 0.0048839669228519251 0 0.022363819985320447 0.0054025982181042627 0 0.022314255367846456 0.0042241449804623016 0 0.021589342569548916 0.0039085920793830485 0 0.021664420056507837 0.0048839669228519251 0 0.022314255367846456 0.0042241449804623016 0 0.021589342569548916 0.0039085920793830485 0 0.021664420056507837 0.0048839669228519251 0 0.021066511652333867 0.0043775040609282077 0 0.020727254493155847 0.0039726618329037396 0 0.021082271786711113 0.0037524751367542125 0 0.021066511652333867 0.0043775040609282077 0 0.020727254493155847 0.0039726618329037396 0 0.021066511652333867 0.0043775040609282077 0 0.020535373260216472 0.0044855166595288345 0 0.021066511652333867 0.0043775040609282077 0 0.020535373260216472 0.0044855166595288345 0 0.020985040866305316 0.0054225911320013509 0 0.020271745195239683 0.0038224132178541468 0 0.020727254493155847 0.0039726618329037396 0 0.020535373260216472 0.0044855166595288345 0 0.023175098507717134 0.0071397758103548129 0 0.026802141475888348 0.0057913186049218324 0 0.024821290289182747 0.00487833911492511 0 0.024770512384921842 0.004774772945076302 0 0.025126104550559292 0.0049764368293782153 0 0.028237858896189686 0.0070955358038050712 0 0.027486200779897267 0.0073545359555120616 0 0.027494234993259713 0.0065208216987721257 0 0.020271745195239683 0.0038224132178541468 0 0.020535373260216472 0.0044855166595288345 0 0.020023169182932444 0.0045042499645536575 0 0.020535373260216472 0.0044855166595288345 0 0.020023169182932444 0.0045042499645536575 0 0.020144811279766278 0.0048277062637346229 0 0.022660843000344173 0.0047883671123031936 0 0.023175098507717134 0.0071397758103548129 0 0.028237858896189686 0.0070955358038050712 0 0.02841196419540222 0.0082787398928790296 0 0.027849921264744493 0.0078918986264065495 0 0.023175098507717134 0.0071397758103548129 0 0.025496054854593463 0.0085631817257608503 0 0.028237858896189686 0.0070955358038050712 0 0.027849921264744493 0.0078918986264065495 0 0.027486200779897267 0.0073545359555120616 0 0.023175098507717134 0.0071397758103548129 0 0.020850498802399867 0.0068806337135118778 0 0.021215711764597713 0.008484190581509031 0 0.021579902620277421 0.0087592151079830313 0 0.021383545865938408 0.0089755166607807003 0 0.023175098507717134 0.0071397758103548129 0 0.021316433738845748 0.0091384242564917003 0 0.020535373260216472 0.0044855166595288345 0 0.020144811279766278 0.0048277062637346229 0 0.020985040866305316 0.0054225911320013509 0 0.021383545865938408 0.0089755166607807003 0 0.021533055460645743 0.0091316824785771418 0 0.021596760154944779 0.0094208624596867577 0 0.021419323458559725 0.0090893042484260483 0 0.021511164619136245 0.0089483900043518753 0 0.021596760154944779 0.0094208624596867577 0 0.021395680950620468 0.0084230484429426346 0 0.021419323458559725 0.0090893042484260483 0 0.021511164619136245 0.0089483900043518753 0 0.021579902620277421 0.0087592151079830313 0 0.021383545865938408 0.0089755166607807003 0 0.021602834504180733 0.0089829981724218449 0 0.021383545865938408 0.0089755166607807003 0 0.021533055460645743 0.0091316824785771418 0 0.021602834504180733 0.0089829981724218449 0 0.02841196419540222 0.0082787398928790296 0 0.027849921264744493 0.0078918986264065495 0 0.027818957371384356 0.0086479724410985139 0 0.028273447036789745 0.0089649996572786772 0 0.027818957371384356 0.0086479724410985139 0 0.027973328640376185 0.0093313890382000254 0 0.02841196419540222 0.0082787398928790296 0 0.028273447036789745 0.0089649996572786772 0 0.027818957371384356 0.0086479724410985139 0 0.027818957371384356 0.0086479724410985139 0 0.027973328640376185 0.0093313890382000254 0 0.027510255507761483 0.0091789420365147346 0 0.02841196419540222 0.0082787398928790296 0 0.028273447036789745 0.0089649996572786772 0 0.028610869284188347 0.0095140950669432081 0 0.021316433738845748 0.0091384242564917003 0 0.021599564297399697 0.0093248748751782514 0 0.025496054854593463 0.0085631817257608503 0 0.022517900622244832 0.011053591202886411 0 0.021419323458559725 0.0090893042484260483 0 0.021596760154944779 0.0094208624596867577 0 0.021478039666411573 0.0096969323140649009 0 0.021533055460645743 0.0091316824785771418 0 0.021596760154944779 0.0094208624596867577 0 0.021605686505541708 0.0093873032851284673 0 0.021533055460645743 0.0091316824785771418 0 0.021605686505541708 0.0093873032851284673 0 0.021660492099465301 0.0092580144347927749 0 0.021781068847416644 0.0092568244555629384 0 0.021909146222895717 0.0090290806084113214 0 0.021948379706377159 0.0093928342508488097 0 0.021605686505541708 0.0093873032851284673 0 0.021728832829242661 0.0093782334315583183 0 0.021690935396935021 0.0095330017163358233 0 0.021596760154944779 0.0094208624596867577 0 0.021605686505541708 0.0093873032851284673 0 0.021730845932970512 0.0095708691049740634 0 0.02069737352325848 0.010004316389546644 0 0.019813266029486874 0.011782918523168472 0 0.021728832829242661 0.0093782334315583183 0 0.021781068847416644 0.0092568244555629384 0 0.021948379706377159 0.0093928342508488097 0 0.021728832829242661 0.0093782334315583183 0 0.021948379706377159 0.0093928342508488097 0 0.021690935396935021 0.0095330017163358233 0 0.019711487557360796 0.011347250429839814 0 0.019813266029486874 0.011782918523168472 0 0.021605686505541708 0.0093873032851284673 0 0.021728832829242661 0.0093782334315583183 0 0.021660492099465301 0.0092580144347927749 0 0.021728832829242661 0.0093782334315583183 0 0.021781068847416644 0.0092568244555629384 0 0.021660492099465301 0.0092580144347927749 0 0.021781068847416644 0.0092568244555629384 0 0.021660492099465301 0.0092580144347927749 0 0.021684602011704312 0.0091254250638184882 0 0.021533055460645743 0.0091316824785771418 0 0.021660492099465301 0.0092580144347927749 0 0.021684602011704312 0.0091254250638184882 0 0.021684602011704312 0.0091254250638184882 0 0.021602834504180733 0.0089829981724218449 0 0.021909146222895717 0.0090290806084113214 0 0.021579902620277421 0.0087592151079830313 0 0.021602834504180733 0.0089829981724218449 0 0.021909146222895717 0.0090290806084113214 0 0.020850498802399867 0.0068806337135118778 0 0.02205145162029842 0.0075200824225686094 0 0.021533055460645743 0.0091316824785771418 0 0.021684602011704312 0.0091254250638184882 0 0.021602834504180733 0.0089829981724218449 0 0.021781068847416644 0.0092568244555629384 0 0.021684602011704312 0.0091254250638184882 0 0.021909146222895717 0.0090290806084113214 0 0.02258995312159549 0.0065003554604525938 0 0.0225209607242721 0.0060687965007242958 0 0.021848062962948892 0.006018167664659747 0 0.021285429537127688 0.0090067065029513661 0 0.02205145162029842 0.0075200824225686094 0 0.0225209607242721 0.0060687965007242958 0 0.022363819985320447 0.0054025982181042627 0 0.021848062962948892 0.006018167664659747 0 0.021285429537127688 0.0090067065029513661 0 0.019711487557360796 0.011347250429839814 0 0.022204694084595026 0.0092508895993198212 0 0.021909146222895717 0.0090290806084113214 0 0.021948379706377159 0.0093928342508488097 0 0.018174592962999267 0.013275840806171713 0 0.018176419782112554 0.012985164834438881 0 0.01799447393071495 0.013086704318269391 0 0.018174592962999267 0.013275840806171713 0 0.01799447393071495 0.013086704318269391 0 0.017960409009261311 0.013425295597255161 0 0.019813266029486874 0.011782918523168472 0 0.018183699062627567 0.013896924012867956 0 0.018618152723373891 0.013966760867100692 0 0.018605197536752514 0.013973837101480964 0 0.018569729555216286 0.013987121934469002 0 0.01799447393071495 0.013086704318269391 0 0.017819903549709071 0.013179096936491998 0 0.017960409009261311 0.013425295597255161 0 0.018618152723373891 0.013966760867100692 0 0.018605197536752514 0.013973837101480964 0 0.018629819407165044 0.013961326830765137 0 0.018605197536752514 0.013973837101480964 0 0.018569729555216286 0.013987121934469002 0 0.018577973630957558 0.013972608455455138 0 0.018605197536752514 0.013973837101480964 0 0.018577973630957558 0.013972608455455138 0 0.018613411584591705 0.01396955727354653 0 0.01825739157648306 0.013508170449523601 0 0.017960409009261311 0.013425295597255161 0 0.018108144433666869 0.013667980505316889 0 0.018183699062627567 0.013896924012867956 0 0.0182882654293419 0.0137930927716694 0 0.018569729555216286 0.013987121934469002 0 0.018479059746834899 0.013988305501142455 0 0.018577973630957558 0.013972608455455138 0 0.018479059746834899 0.013988305501142455 0 0.018544016907497112 0.01395108207457982 0 0.018577973630957558 0.013972608455455138 0 0.018577973630957558 0.013972608455455138 0 0.018607666784959447 0.013943229666982639 0 0.018613411584591705 0.01396955727354653 0 0.018544016907497112 0.01395108207457982 0 0.018577973630957558 0.013972608455455138 0 0.018607666784959447 0.013943229666982639 0 0.019233184403929564 0.01422593243640153 0 0.019077163684522575 0.013856943618516483 0 0.018499370350000474 0.013898478944995078 0 0.018544016907497112 0.01395108207457982 0 0.018607666784959447 0.013943229666982639 0 0.018499370350000474 0.013898478944995078 0 0.01992457791940027 0.01361907982110261 0 0.018178966650535283 0.014019591894715249 0 0.019275526551520161 0.01442305959169422 0 0.019233184403929564 0.01422593243640153 0 0.018499370350000474 0.013898478944995078 0 0.01992457791940027 0.01361907982110261 0 0.019769258104033165 0.014052597702249649 0 0.01928976411424627 0.014455710170524227 0 0.019233184403929564 0.01422593243640153 0 0.019439461212923448 0.014239639245782712 0 0.019233184403929564 0.01422593243640153 0 0.019077163684522575 0.013856943618516483 0 0.019439461212923448 0.014239639245782712 0 0.018479059746834899 0.013988305501142455 0 0.018544016907497112 0.01395108207457982 0 0.018499370350000474 0.013898478944995078 0 0.024438126621381763 0.013584334312401835 0 0.025145864492757956 0.013960224229559594 0 0.022106263663684751 0.014888963618009225 0 0.022162364694361055 0.014995216105853091 0 0.022106474657394692 0.015066695811711349 0 0.026803927548348573 0.012220878068534795 0 0.026515568449897428 0.012344590837440194 0 0.026766967521178634 0.012598576883087062 0 0.022106263663684751 0.014888963618009225 0 0.022178067215188751 0.014914536148925833 0 0.022211804716831998 0.014859454958945868 0 0.022106263663684751 0.014888963618009225 0 0.022178067215188751 0.014914536148925833 0 0.022162364694361055 0.014995216105853091 0 0.020157847582837785 0.014996236026145228 0 0.021400497332374115 0.015191614226761779 0 0.019077163684522575 0.013856943618516483 0 0.019439461212923448 0.014239639245782712 0 0.019786444266012022 0.014231156585225046 0 0.021432710747702474 0.016197285893360322 0 0.02199844751033633 0.016531547097910881 0 0.021709375121592992 0.016067312312426345 0 0.022178067215188751 0.014914536148925833 0 0.022162364694361055 0.014995216105853091 0 0.02222918385706666 0.014899803630640479 0 0.019439461212923448 0.014239639245782712 0 0.01955403638131269 0.014363274630345113 0 0.019786444266012022 0.014231156585225046 0 0.01928976411424627 0.014455710170524227 0 0.019439461212923448 0.014239639245782712 0 0.01955403638131269 0.014363274630345113 0 0.022178067215188751 0.014914536148925833 0 0.02222918385706666 0.014899803630640479 0 0.022211804716831998 0.014859454958945868 0 0.01955403638131269 0.014363274630345113 0 0.019786444266012022 0.014231156585225046 0 0.019699975578947843 0.014526736868842101 0 0.021400497332374115 0.015191614226761779 0 0.021547465261673133 0.015218734928528214 0 0.022256794433260577 0.014889691822406138 0 0.022211804716831998 0.014859454958945868 0 0.022226014667093143 0.014584541227226194 0 0.01992457791940027 0.01361907982110261 0 0.020475710124264083 0.013416199788517836 0 0.022393874936627974 0.012854934054384887 0 0.022034292135797374 0.012615765027691996 0 0.022318293727023864 0.012400120656751083 0 0.021400497332374115 0.015191614226761779 0 0.022175017878614978 0.013453793408636967 0 0.019786444266012022 0.014231156585225046 0 0.019699975578947843 0.014526736868842101 0 0.01990718392578561 0.014816225340814155 0 0.01928976411424627 0.014455710170524227 0 0.01955403638131269 0.014363274630345113 0 0.019699975578947843 0.014526736868842101 0 0.01928976411424627 0.014455710170524227 0 0.019699975578947843 0.014526736868842101 0 0.01990718392578561 0.014816225340814155 0 0.01992457791940027 0.01361907982110261 0 0.022175017878614978 0.013453793408636967 0 0.024438126621381763 0.013584334312401835 0 0.024445564669644898 0.012910343890239701 0 0.026835198513996794 0.011841291351402768 0 0.026536448087755023 0.011639832876969885 0 0.026469136257083883 0.012033099080077913 0 0.022106263663684751 0.014888963618009225 0 0.022226014667093143 0.014584541227226194 0 0.02213629101627013 0.014521481353301427 0 0.022175017878614978 0.013453793408636967 0 0.024445564669644898 0.012910343890239701 0 0.026803927548348573 0.012220878068534795 0 0.026835198513996794 0.011841291351402768 0 0.026469136257083883 0.012033099080077913 0 0.022106263663684751 0.014888963618009225 0 0.022211804716831998 0.014859454958945868 0 0.022226014667093143 0.014584541227226194 0 0.024200089661715524 0.01321701861901498 0 0.023767535620546402 0.012946543828368202 0 0.023928783466935666 0.011465782973359959 0 0.027744883021450173 0.0096521798311953247 0 0.028190568030087973 0.0096932352314960443 0 0.027521887327174342 0.010045027914122845 0 0.025743473482960001 0.011619077018866638 0 0.025745785661766902 0.011630376533751308 0 0.025878207817169121 0.011565320553890956 0 0.024445564669644898 0.012910343890239701 0 0.02700687787735636 0.010852490006544134 0 0.025751441149432102 0.011500518120686126 0 0.025743473482960001 0.011619077018866638 0 0.025878207817169121 0.011565320553890956 0 0.024445564669644898 0.012910343890239701 0 0.02527735517073669 0.011199119670805308 0 0.026084778756192799 0.010747072625490949 0 0.02700687787735636 0.010852490006544134 0 0.022175017878614978 0.013453793408636967 0 0.02527735517073669 0.011199119670805308 0 0.020475710124264083 0.013416199788517836 0 0.022517900622244832 0.011053591202886411 0 0.022034292135797374 0.012615765027691996 0 0.021967790944613756 0.012113721988372968 0 0.022318293727023864 0.012400120656751083 0 0.018605197536752514 0.013973837101480964 0 0.018613411584591705 0.01396955727354653 0 0.018629819407165044 0.013961326830765137 0 0.021967790944613756 0.012113721988372968 0 0.022318293727023864 0.012400120656751083 0 0.022235784203689251 0.011930111553436273 0 0.028273447036789745 0.0089649996572786772 0 0.028610869284188347 0.0095140950669432081 0 0.02812134939001331 0.0097708238186030305 0 0.021967790944613756 0.012113721988372968 0 0.022235784203689251 0.011930111553436273 0 0.021962598025897714 0.012073821848664928 0 0.022517900622244832 0.011053591202886411 0 0.026084778756192799 0.010747072625490949 0 0.019813266029486874 0.011782918523168472 0 0.022517900622244832 0.011053591202886411 0 0.021596760154944779 0.0094208624596867577 0 0.021730845932970512 0.0095708691049740634 0 0.021478039666411573 0.0096969323140649009 0 0.028273447036789745 0.0089649996572786772 0 0.028190568030087973 0.0096932352314960443 0 0.027973328640376185 0.0093313890382000254 0 0.028365527895150438 0.0086240730005545576 0 0.026084778756192799 0.010747072625490949 0 0.027744883021450173 0.0096521798311953247 0 0.028023482888056953 0.0095839017735952423 0 0.027973328640376185 0.0093313890382000254 0 0.028023482888056953 0.0095839017735952423 0 0.028190568030087973 0.0096932352314960443 0 0.027973328640376185 0.0093313890382000254 0 0.027744883021450173 0.0096521798311953247 0 0.028023482888056953 0.0095839017735952423 0 0.028190568030087973 0.0096932352314960443 0 0.02527735517073669 0.011199119670805308 0 0.026084778756192799 0.010747072625490949 0 0.027744883021450173 0.0096521798311953247 0 0.027973328640376185 0.0093313890382000254 0 0.027510255507761483 0.0091789420365147346 0 0.027510255507761483 0.0091789420365147346 0 0.027400905937620762 0.0095356427373184463 0 0.026861231279675411 0.0091231403804824512 0 0.027400905937620762 0.0095356427373184463 0 0.026861231279675411 0.0091231403804824512 0 0.027165199386985653 0.0098273139428205012 0 0.027744883021450173 0.0096521798311953247 0 0.027510255507761483 0.0091789420365147346 0 0.027400905937620762 0.0095356427373184463 0 0.026861231279675411 0.0091231403804824512 0 0.026551646692201916 0.0096395052285412827 0 0.027165199386985653 0.0098273139428205012 0 0.026861231279675411 0.0091231403804824512 0 0.026551646692201916 0.0096395052285412827 0 0.02610217602556331 0.0090861694201311311 0 0.026749060348251419 0.010050329271557931 0 0.027537148927300734 0.010061054351856173 0 0.026588138806931547 0.010557040220663831 0 0.026749060348251419 0.010050329271557931 0 0.026588138806931547 0.010557040220663831 0 0.025856947742923256 0.010064672961716457 0 0.026551646692201916 0.0096395052285412827 0 0.026749060348251419 0.010050329271557931 0 0.027165199386985653 0.0098273139428205012 0 0.02700687787735636 0.010852490006544134 0 0.026340836808424171 0.011193048444297518 0 0.026749060348251419 0.010050329271557931 0 0.027537148927300734 0.010061054351856173 0 0.027165199386985653 0.0098273139428205012 0 0.027744883021450173 0.0096521798311953247 0 0.027400905937620762 0.0095356427373184463 0 0.027521887327174342 0.010045027914122845 0 0.027400905937620762 0.0095356427373184463 0 0.027521887327174342 0.010045027914122845 0 0.027165199386985653 0.0098273139428205012 0 0.02700687787735636 0.010852490006544134 0 0.027077631194943285 0.010182023880578706 0 0.026536448087755023 0.011639832876969885 0 0.026469136257083883 0.012033099080077913 0 0.026076324478901691 0.011848745061477818 0 0.026469136257083883 0.012033099080077913 0 0.026076324478901691 0.011848745061477818 0 0.026200586275391576 0.012272247645292358 0 0.026076324478901691 0.011848745061477818 0 0.026200586275391576 0.012272247645292358 0 0.025859476640482066 0.012257372516015733 0 0.026200586275391576 0.012272247645292358 0 0.026515568449897428 0.012344590837440194 0 0.02631101472279939 0.012603138257819715 0 0.026469136257083883 0.012033099080077913 0 0.026200586275391576 0.012272247645292358 0 0.026515568449897428 0.012344590837440194 0 0.026803927548348573 0.012220878068534795 0 0.026469136257083883 0.012033099080077913 0 0.026515568449897428 0.012344590837440194 0 0.024999824825666248 0.012032994744670936 0 0.025459392101884006 0.012228922540113728 0 0.025000137729968584 0.012861255500118353 0 0.025454343020581784 0.012159610869452874 0 0.025546885300682019 0.011611075486535116 0 0.024999824825666248 0.012032994744670936 0 0.025459392101884006 0.012228922540113728 0 0.02555369341522136 0.01182065283254545 0 0.025000170084003411 0.012032337106560721 0 0.025546885300682019 0.011611075486535116 0 0.026200586275391576 0.012272247645292358 0 0.025859476640482066 0.012257372516015733 0 0.02582815916734868 0.012663673085714696 0 0.025459392101884006 0.012228922540113728 0 0.025859476640482066 0.012257372516015733 0 0.02582815916734868 0.012663673085714696 0 0.025459392101884006 0.012228922540113728 0 0.025859476640482066 0.012257372516015733 0 0.025534415320944626 0.012048147463628089 0 0.026076324478901691 0.011848745061477818 0 0.025859476640482066 0.012257372516015733 0 0.025534415320944626 0.012048147463628089 0 0.026340836808424171 0.011193048444297518 0 0.025546885300682019 0.011611075486535116 0 0.026588138806931547 0.010557040220663831 0 0.025622989877637239 0.011060422822531151 0 0.025856947742923256 0.010064672961716457 0 0.025546885300682019 0.011611075486535116 0 0.025900951724474579 0.010248020175426861 0 0.025649372045584286 0.011696857653393414 0 0.024999995466244044 0.01065719263154283 0 0.025916730429077273 0.010524452770024603 0 0.024999998264684086 0.012032429857346779 0 0.025649372045584286 0.011696857653393414 0 0.024999995466244044 0.01065719263154283 0 0.024999995466244044 0.01065719263154283 0 0.025916730429077273 0.010524452770024603 0 0.025529348578421547 0.0099125693653763017 0 0.026551646692201916 0.0096395052285412827 0 0.026749060348251419 0.010050329271557931 0 0.025856947742923256 0.010064672961716457 0 0.025900951724474579 0.010248020175426861 0 0.026130008443972789 0.0092116356356905914 0 0.025916730429077273 0.010524452770024603 0 0.025529348578421547 0.0099125693653763017 0 0.02616491003032724 0.009337492247201663 0 0.026551646692201916 0.0096395052285412827 0 0.025856947742923256 0.010064672961716457 0 0.02610217602556331 0.0090861694201311311 0 0.024999995466244044 0.01065719263154283 0 0.025529348578421547 0.0099125693653763017 0 0.02499996637202867 0.0092819259382099315 0 0.025529348578421547 0.0099125693653763017 0 0.02499996637202867 0.0092819259382099315 0 0.02616491003032724 0.009337492247201663 0 0.02499996637202867 0.0092819259382099315 0 0.025625030553467185 0.0085392600438229972 0 0.02616491003032724 0.009337492247201663 0 0.025625030553467185 0.0085392600438229972 0 0.024999966123237054 0.0079066541550735052 0 0.025805445056087388 0.0073927390570084697 0 0.02499996637202867 0.0092819259382099315 0 0.025625030553467185 0.0085392600438229972 0 0.024999966123237054 0.0079066541550735052 0 0.025625030553467185 0.0085392600438229972 0 0.026354432271336804 0.0081308281168789211 0 0.025805445056087388 0.0073927390570084697 0 0.025625030553467185 0.0085392600438229972 0 0.026354432271336804 0.0081308281168789211 0 0.02616491003032724 0.009337492247201663 0 0.026343727125296989 0.0082060867888937451 0 0.026130008443972789 0.0092116356356905914 0 0.026861231279675411 0.0091231403804824512 0 0.026354432271336804 0.0081308281168789211 0 0.02610217602556331 0.0090861694201311311 0 0.026861231279675411 0.0091231403804824512 0 0.026354432271336804 0.0081308281168789211 0 0.027175636395117879 0.0086381800988559205 0 0.027818957371384356 0.0086479724410985139 0 0.027175636395117879 0.0086381800988559205 0 0.027339804034289379 0.0081198607484873897 0 0.027510255507761483 0.0091789420365147346 0 0.026861231279675411 0.0091231403804824512 0 0.027175636395117879 0.0086381800988559205 0 0.027818957371384356 0.0086479724410985139 0 0.027510255507761483 0.0091789420365147346 0 0.027175636395117879 0.0086381800988559205 0 0.027849921264744493 0.0078918986264065495 0 0.027818957371384356 0.0086479724410985139 0 0.027339804034289379 0.0081198607484873897 0 0.027849921264744493 0.0078918986264065495 0 0.027339804034289379 0.0081198607484873897 0 0.027486200779897267 0.0073545359555120616 0 0.026354432271336804 0.0081308281168789211 0 0.027175636395117879 0.0086381800988559205 0 0.027339804034289379 0.0081198607484873897 0 0.026354432271336804 0.0081308281168789211 0 0.027339804034289379 0.0081198607484873897 0 0.02695322024897669 0.0076661027751115446 0 0.026354432271336804 0.0081308281168789211 0 0.02695322024897669 0.0076661027751115446 0 0.026621224059130522 0.0070505684248661589 0 0.02695322024897669 0.0076661027751115446 0 0.027486200779897267 0.0073545359555120616 0 0.026621224059130522 0.0070505684248661589 0 0.027339804034289379 0.0081198607484873897 0 0.02695322024897669 0.0076661027751115446 0 0.027486200779897267 0.0073545359555120616 0 0.027486200779897267 0.0073545359555120616 0 0.027494234993259713 0.0065208216987721257 0 0.026621224059130522 0.0070505684248661589 0 0.02677331847067704 0.0059356650193613664 0 0.027494234993259713 0.0065208216987721257 0 0.026621224059130522 0.0070505684248661589 0 0.02677331847067704 0.0059356650193613664 0 0.026621224059130522 0.0070505684248661589 0 0.025967060733188364 0.006324690620954347 0 0.026621224059130522 0.0070505684248661589 0 0.025967060733188364 0.006324690620954347 0 0.025805445056087388 0.0073927390570084697 0 0.025967060733188364 0.006324690620954347 0 0.024999981084902069 0.0065316612772937611 0 0.025805445056087388 0.0073927390570084697 0 0.024999966123237054 0.0079066541550735052 0 0.024999981084902069 0.0065316612772937611 0 0.025805445056087388 0.0073927390570084697 0 0.026354432271336804 0.0081308281168789211 0 0.026621224059130522 0.0070505684248661589 0 0.025805445056087388 0.0073927390570084697 0 0.026086023487145706 0.017257246099410494 0 0.025755282284508303 0.017992457078622424 0 0.025667666748944357 0.016996218305869032 0 0.026478170650990691 0.017517107603585165 0 0.025742677740468609 0.01804041847116903 0 0.026560032932205681 0.018386883993382744 0 0.026246558748808782 0.017373411948156024 0 0.025770358597556161 0.018007955004132565 0 0.0265044961795519 0.017442593894614354 0 0.026086023487145706 0.017257246099410494 0 0.025755282284508303 0.017992457078622424 0 0.024999981754460478 0.0173505123753907 0 0.025755282284508303 0.017992457078622424 0 0.025667666748944357 0.016996218305869032 0 0.024999981754460478 0.0173505123753907 0 0.025755282284508303 0.017992457078622424 0 0.024999999416366513 0.018550051059977316 0 0.025742677740468609 0.01804041847116903 0 0.025000000421710893 0.018550164127000182 0 0.02595576492624526 0.018762370101877018 0 0.025770358597556161 0.018007955004132565 0 0.02500017282338066 0.018549939995656649 0 0.025742677740468609 0.01804041847116903 0 0.026560032932205681 0.018386883993382744 0 0.02595576492624526 0.018762370101877018 0 0.025862972752458011 0.017721357098501828 0 0.026039988961176298 0.017425217128268982 0 0.02588481431487541 0.01713614288492013 0 0.025716267143028087 0.017446144838631012 0 0.025862972752458011 0.017721357098501828 0 0.025864251506698462 0.018132520426365952 0 0.025716267143028087 0.017446144838631012 0 0.025862972752458011 0.017721357098501828 0 0.025881333877983297 0.017135813732313612 0 0.026012141761721463 0.018734469230492993 0 0.025307791436313037 0.019069951293934038 0 0.026467747051887688 0.020728817570165783 0 0.02575165097027856 0.017502124161320548 0 0.025069623548415684 0.02276614503337248 0 0.025139457823219673 0.017071316400472023 0 0.026012141761721463 0.018734469230492993 0 0.025307791436313037 0.019069951293934038 0 0.02586710276380157 0.01764444298481653 0 0.025888870442414922 0.017137968841043121 0 0.025862972752458011 0.017721357098501828 0 0.026250312458052878 0.017516321699258968 0 0.025864251506698462 0.018132520426365952 0 0.026250312458052878 0.017516321699258968 0 0.026848871997727515 0.017646684381058545 0 0.025864251506698462 0.018132520426365952 0 0.025862972752458011 0.017721357098501828 0 0.026039988961176298 0.017425217128268982 0 0.026250312458052878 0.017516321699258968 0 0.026039988961176298 0.017425217128268982 0 0.026250312458052878 0.017516321699258968 0 0.02619152579814343 0.017161693020075437 0 0.02627043902565698 0.016872002721321652 0 0.02588481431487541 0.01713614288492013 0 0.025891742887670859 0.016570659391953724 0 0.026250312458052878 0.017516321699258968 0 0.02619152579814343 0.017161693020075437 0 0.026646910829885545 0.017094467827438429 0 0.02619152579814343 0.017161693020075437 0 0.02627043902565698 0.016872002721321652 0 0.026646910829885545 0.017094467827438429 0 0.026039988961176298 0.017425217128268982 0 0.02619152579814343 0.017161693020075437 0 0.02588481431487541 0.01713614288492013 0 0.02619152579814343 0.017161693020075437 0 0.02627043902565698 0.016872002721321652 0 0.02588481431487541 0.01713614288492013 0 0.02627043902565698 0.016872002721321652 0 0.026624528479798869 0.016573838615179255 0 0.026646910829885545 0.017094467827438429 0 0.025881333877983297 0.017135813732313612 0 0.025575790804850895 0.016799714464104665 0 0.025899032184042069 0.016570644173792129 0 0.025888870442414922 0.017137968841043121 0 0.026114500610075524 0.01664766892832029 0 0.025139457823219673 0.017071316400472023 0 0.026012141761721463 0.018734469230492993 0 0.025565706382987125 0.016767946600919802 0 0.026246558748808782 0.017373411948156024 0 0.025923001910539298 0.018649777108840773 0 0.025716267143028087 0.017446144838631012 0 0.025881333877983297 0.017135813732313612 0 0.025575790804850895 0.016799714464104665 0 0.02575165097027856 0.017502124161320548 0 0.026163993251578706 0.017097250856978146 0 0.026246558748808782 0.017373411948156024 0 0.026163993251578706 0.017097250856978146 0 0.026457798182089171 0.017326249802531158 0 0.026627794957885469 0.017205253266211595 0 0.026374386558090032 0.01635358117345339 0 0.026163993251578706 0.017097250856978146 0 0.026502474757485982 0.016399465933118092 0 0.026614358121585486 0.017153986296179802 0 0.026989564358163846 0.016887814095771139 0 0.026414714181880662 0.016275954275444773 0 0.026163993251578706 0.017097250856978146 0 0.026114500610075524 0.01664766892832029 0 0.02627043902565698 0.016872002721321652 0 0.02627634404821394 0.016283929813176029 0 0.026624528479798869 0.016573838615179255 0 0.025790435485818768 0.016641545200261624 0 0.02627634404821394 0.016283929813176029 0 0.02623575648736505 0.015835563209177322 0 0.02627043902565698 0.016872002721321652 0 0.025891742887670859 0.016570659391953724 0 0.02627634404821394 0.016283929813176029 0 0.026114500610075524 0.01664766892832029 0 0.026185089598610396 0.01640258392534889 0 0.02627634404821394 0.016283929813176029 0 0.026655376279081999 0.016000745897074273 0 0.026624528479798869 0.016573838615179255 0 0.025790435485818768 0.016641545200261624 0 0.02623575648736505 0.015835563209177322 0 0.025809546261553917 0.015485218597868337 0 0.02623575648736505 0.015835563209177322 0 0.025809546261553917 0.015485218597868337 0 0.026731387118096306 0.015325522650968391 0 0.026497643276676582 0.01561713097409852 0 0.026528414682213459 0.015345387746116256 0 0.02627634404821394 0.016283929813176029 0 0.02623575648736505 0.015835563209177322 0 0.026655376279081999 0.016000745897074273 0 0.02623575648736505 0.015835563209177322 0 0.026731387118096306 0.015325522650968391 0 0.026655376279081999 0.016000745897074273 0 0.026989564358163846 0.016887814095771139 0 0.027030018713771024 0.015852393572230287 0 0.026414714181880662 0.016275954275444773 0 0.027030018713771024 0.015852393572230287 0 0.026078730847431123 0.015997693229095153 0 0.026414714181880662 0.016275954275444773 0 0.026114500610075524 0.01664766892832029 0 0.026497643276676582 0.01561713097409852 0 0.026589524846224077 0.015486025145033878 0 0.025843637301395914 0.01573431332034405 0 0.026106447530378919 0.01509138194947526 0 0.026497643276676582 0.01561713097409852 0 0.026001198373156311 0.015875154416959074 0 0.026078730847431123 0.015997693229095153 0 0.026182479539202115 0.016310690283627395 0 0.02589486903728299 0.016458800809636395 0 0.026182479539202115 0.016310690283627395 0 0.026139320915681795 0.016470573283680848 0 0.02589486903728299 0.016458800809636395 0 0.026078730847431123 0.015997693229095153 0 0.026182479539202115 0.016310690283627395 0 0.026414714181880662 0.016275954275444773 0 0.026182479539202115 0.016310690283627395 0 0.026374386558090032 0.01635358117345339 0 0.026139320915681795 0.016470573283680848 0 0.026182479539202115 0.016310690283627395 0 0.026414714181880662 0.016275954275444773 0 0.026374386558090032 0.01635358117345339 0 0.0265044961795519 0.017442593894614354 0 0.026374386558090032 0.01635358117345339 0 0.026148160682881692 0.016821962024490406 0 0.026627794957885469 0.017205253266211595 0 0.026414714181880662 0.016275954275444773 0 0.026374386558090032 0.01635358117345339 0 0.026374386558090032 0.01635358117345339 0 0.026139320915681795 0.016470573283680848 0 0.026148160682881692 0.016821962024490406 0 0.026246558748808782 0.017373411948156024 0 0.026420149845473806 0.016438527079356665 0 0.026139320915681795 0.016470573283680848 0 0.02589486903728299 0.016458800809636395 0 0.026148160682881692 0.016821962024490406 0 0.02589486903728299 0.016458800809636395 0 0.026148160682881692 0.016821962024490406 0 0.025667666748944357 0.016996218305869032 0 0.026086023487145706 0.017257246099410494 0 0.026148160682881692 0.016821962024490406 0 0.025667666748944357 0.016996218305869032 0 0.0265044961795519 0.017442593894614354 0 0.026086023487145706 0.017257246099410494 0 0.026148160682881692 0.016821962024490406 0 0.02589486903728299 0.016458800809636395 0 0.025667666748944357 0.016996218305869032 0 0.025000008710598785 0.016151058038864945 0 0.024999981754460478 0.0173505123753907 0 0.025667666748944357 0.016996218305869032 0 0.025000008710598785 0.016151058038864945 0 0.025843637301395914 0.01573431332034405 0 0.024999959404067372 0.016150587659985529 0 0.025593586680376913 0.015179018355506304 0 0.026078730847431123 0.015997693229095153 0 0.02589486903728299 0.016458800809636395 0 0.025000008710598785 0.016151058038864945 0 0.026001198373156311 0.015875154416959074 0 0.025000086669335959 0.016150933300068632 0 0.024999892960260835 0.01505459016530165 0 0.025593586680376913 0.015179018355506304 0 0.025767704380430426 0.014501230239476323 0 0.024999959404067372 0.016150587659985529 0 0.024999892960260835 0.01505459016530165 0 0.025593586680376913 0.015179018355506304 0 0.025843637301395914 0.01573431332034405 0 0.025593586680376913 0.015179018355506304 0 0.026106447530378919 0.01509138194947526 0 0.025593586680376913 0.015179018355506304 0 0.026106447530378919 0.01509138194947526 0 0.025767704380430426 0.014501230239476323 0 0.024999892960260835 0.01505459016530165 0 0.025767704380430426 0.014501230239476323 0 0.024999900274631174 0.013958226981833443 0 0.024999900274631174 0.013958226981833443 0 0.025610397246797565 0.013753861761810995 0 0.024999964203885672 0.012862392431170102 0 0.025767704380430426 0.014501230239476323 0 0.024999900274631174 0.013958226981833443 0 0.025610397246797565 0.013753861761810995 0 0.025610397246797565 0.013753861761810995 0 0.025873417882080495 0.013255350069018195 0 0.026174791981855426 0.013909501660131132 0 0.025767704380430426 0.014501230239476323 0 0.025610397246797565 0.013753861761810995 0 0.026174791981855426 0.013909501660131132 0 0.025733661029879396 0.012964818211948087 0 0.02500019105585435 0.012861823226079157 0 0.025459392101884006 0.012228922540113728 0 0.02582815916734868 0.012663673085714696 0 0.025000137729968584 0.012861255500118353 0 0.025610397246797565 0.013753861761810995 0 0.025873417882080495 0.013255350069018195 0 0.024999964203885672 0.012862392431170102 0 0.026805455147432669 0.012945766085143258 0 0.025145864492757956 0.013960224229559594 0 0.026544847849464776 0.013460931564082403 0 0.02715445287278451 0.013533400290201395 0 0.027091076198264182 0.013561895857289345 0 0.026544847849464776 0.013460931564082403 0 0.026909077695295491 0.013769351694716023 0 0.027091076198264182 0.013561895857289345 0 0.026515568449897428 0.012344590837440194 0 0.02631101472279939 0.012603138257819715 0 0.026766967521178634 0.012598576883087062 0 0.025733661029879396 0.012964818211948087 0 0.026805455147432669 0.012945766085143258 0 0.025873417882080495 0.013255350069018195 0 0.026544847849464776 0.013460931564082403 0 0.026174791981855426 0.013909501660131132 0 0.026200586275391576 0.012272247645292358 0 0.02582815916734868 0.012663673085714696 0 0.02631101472279939 0.012603138257819715 0 0.026174791981855426 0.013909501660131132 0 0.026646841557959263 0.013991056808433364 0 0.0264695439341462 0.014573250373805934 0 0.026544847849464776 0.013460931564082403 0 0.026174791981855426 0.013909501660131132 0 0.026646841557959263 0.013991056808433364 0 0.026544847849464776 0.013460931564082403 0 0.026646841557959263 0.013991056808433364 0 0.026909077695295491 0.013769351694716023 0 0.026646841557959263 0.013991056808433364 0 0.026909077695295491 0.013769351694716023 0 0.026899961148132697 0.013990979459640115 0 0.026646841557959263 0.013991056808433364 0 0.026899961148132697 0.013990979459640115 0 0.026954104770002093 0.014317827824985998 0 0.026646841557959263 0.013991056808433364 0 0.0264695439341462 0.014573250373805934 0 0.026954104770002093 0.014317827824985998 0 0.0264695439341462 0.014573250373805934 0 0.026915732186260723 0.014822653408204926 0 0.026954104770002093 0.014317827824985998 0 0.025767704380430426 0.014501230239476323 0 0.026174791981855426 0.013909501660131132 0 0.0264695439341462 0.014573250373805934 0 0.026106447530378919 0.01509138194947526 0 0.025767704380430426 0.014501230239476323 0 0.0264695439341462 0.014573250373805934 0 0.026589524846224077 0.015486025145033878 0 0.026106447530378919 0.01509138194947526 0 0.0264695439341462 0.014573250373805934 0 0.026497643276676582 0.01561713097409852 0 0.026459840047181098 0.014563191555354679 0 0.026310715280281508 0.015358263585779072 0 0.0264695439341462 0.014573250373805934 0 0.026731387118096306 0.015325522650968391 0 0.0264695439341462 0.014573250373805934 0 0.026731387118096306 0.015325522650968391 0 0.026915732186260723 0.014822653408204926 0 0.026915732186260723 0.014822653408204926 0 0.027325071056836271 0.014546967829580678 0 0.027469110050198947 0.015500845487378689 0 0.026731387118096306 0.015325522650968391 0 0.026915732186260723 0.014822653408204926 0 0.027469110050198947 0.015500845487378689 0 0.024648739051813646 0.014765746126512908 0 0.024657921301250645 0.014438668276085443 0 0.021831401842788822 0.014834467564931002 0 0.022186257501855104 0.014810630882385899 0 0.022031658575521949 0.014019260454507109 0 0.021831401842788822 0.014834467564931002 0 0.021515310873838098 0.014518886277749084 0 0.022031658575521949 0.014019260454507109 0 0.021831401842788822 0.014834467564931002 0 0.022186257501855104 0.014810630882385899 0 0.022123878179498339 0.014998668536234657 0 0.026915732186260723 0.014822653408204926 0 0.027325071056836271 0.014546967829580678 0 0.026954104770002093 0.014317827824985998 0 0.027325071056836271 0.014546967829580678 0 0.027136044312547406 0.013877356458056572 0 0.027157568322198702 0.013725918226638073 0 0.026899961148132697 0.013990979459640115 0 0.026954104770002093 0.014317827824985998 0 0.027136044312547406 0.013877356458056572 0 0.024648739051813646 0.014765746126512908 0 0.025730576491858722 0.014117009839801241 0 0.027325071056836271 0.014546967829580678 0 0.026954104770002093 0.014317827824985998 0 0.027136044312547406 0.013877356458056572 0 0.022186257501855104 0.014810630882385899 0 0.022123878179498339 0.014998668536234657 0 0.022209202287754342 0.015089093984636164 0 0.026909077695295491 0.013769351694716023 0 0.027136044312547406 0.013877356458056572 0 0.02714583241897987 0.013738604083132797 0 0.026909077695295491 0.013769351694716023 0 0.026899961148132697 0.013990979459640115 0 0.027136044312547406 0.013877356458056572 0 0.02601516538200933 0.013911281533415846 0 0.025730576491858722 0.014117009839801241 0 0.022123878179498339 0.014998668536234657 0 0.022209202287754342 0.015089093984636164 0 0.022152185339877194 0.015080338045074571 0 0.02182391690173377 0.014795682076191644 0 0.022098367012411586 0.015534832714363048 0 0.021831401842788822 0.014834467564931002 0 0.022123878179498339 0.014998668536234657 0 0.02212991573379243 0.015111156435846113 0 0.021831401842788822 0.014834467564931002 0 0.021895101267327032 0.015751423806125948 0 0.021653858740261218 0.015419268068753246 0 0.021895101267327032 0.015751423806125948 0 0.021500691962780521 0.015777142971748516 0 0.021653858740261218 0.015419268068753246 0 0.022123878179498339 0.014998668536234657 0 0.02212991573379243 0.015111156435846113 0 0.022152185339877194 0.015080338045074571 0 0.02212991573379243 0.015111156435846113 0 0.022150072152514737 0.015064616123635284 0 0.022152185339877194 0.015080338045074571 0 0.02199844751033633 0.016531547097910881 0 0.021895101267327032 0.015751423806125948 0 0.021709375121592992 0.016067312312426345 0 0.022162364694361055 0.014995216105853091 0 0.02222918385706666 0.014899803630640479 0 0.02212991573379243 0.015111156435846113 0 0.021400497332374115 0.015191614226761779 0 0.022098367012411586 0.015534832714363048 0 0.021895101267327032 0.015751423806125948 0 0.021709375121592992 0.016067312312426345 0 0.021500691962780521 0.015777142971748516 0 0.022162364694361055 0.014995216105853091 0 0.02212991573379243 0.015111156435846113 0 0.022150072152514737 0.015064616123635284 0 0.022162364694361055 0.014995216105853091 0 0.022150072152514737 0.015064616123635284 0 0.022106474657394692 0.015066695811711349 0 0.022549166453489384 0.014388343939745668 0 0.025145864492757956 0.013960224229559594 0 0.026176844406697111 0.013901611396871133 0 0.025730576491858722 0.014117009839801241 0 0.02715445287278451 0.013533400290201395 0 0.027091076198264182 0.013561895857289345 0 0.027123326224993152 0.013718588262712677 0 0.026909077695295491 0.013769351694716023 0 0.027091076198264182 0.013561895857289345 0 0.02714583241897987 0.013738604083132797 0 0.022188009190897168 0.01508478527942363 0 0.022209202287754342 0.015089093984636164 0 0.022152185339877194 0.015080338045074571 0 0.022150072152514737 0.015064616123635284 0 0.022188009190897168 0.01508478527942363 0 0.022152185339877194 0.015080338045074571 0 0.025145864492757956 0.013960224229559594 0 0.025730576491858722 0.014117009839801241 0 0.019077163684522575 0.013856943618516483 0 0.018499370350000474 0.013898478944995078 0 0.018510005355369615 0.013675047530852791 0 0.01975719812690235 0.015009020111926213 0 0.021225464558611691 0.015848113737225354 0 0.020791512929496412 0.015853730140724415 0 0.021129410048630629 0.01595837958933298 0 0.021222416863258584 0.015695063878466853 0 0.018499370350000474 0.013898478944995078 0 0.018510005355369615 0.013675047530852791 0 0.018422770696123671 0.013797343428643969 0 0.020157847582837785 0.014996236026145228 0 0.01975719812690235 0.015009020111926213 0 0.021432710747702474 0.016197285893360322 0 0.020789929781857612 0.015843970065370659 0 0.021129410048630629 0.01595837958933298 0 0.021432710747702474 0.016197285893360322 0 0.021129410048630629 0.01595837958933298 0 0.021500691962780521 0.015777142971748516 0 0.021432710747702474 0.016197285893360322 0 0.021709375121592992 0.016067312312426345 0 0.021500691962780521 0.015777142971748516 0 0.021129410048630629 0.01595837958933298 0 0.021500691962780521 0.015777142971748516 0 0.021222416863258584 0.015695063878466853 0 0.021222416863258584 0.015695063878466853 0 0.021369942071644776 0.015393788347070628 0 0.021001676094095065 0.015509020486082973 0 0.021500691962780521 0.015777142971748516 0 0.021222416863258584 0.015695063878466853 0 0.021369942071644776 0.015393788347070628 0 0.021500691962780521 0.015777142971748516 0 0.021653858740261218 0.015419268068753246 0 0.021369942071644776 0.015393788347070628 0 0.021653858740261218 0.015419268068753246 0 0.021549715481213136 0.015150181637562292 0 0.021369942071644776 0.015393788347070628 0 0.021549715481213136 0.015150181637562292 0 0.021369942071644776 0.015393788347070628 0 0.021351010714009421 0.01494455225518526 0 0.021369942071644776 0.015393788347070628 0 0.021114071354092677 0.015201807618371609 0 0.021001676094095065 0.015509020486082973 0 0.021369942071644776 0.015393788347070628 0 0.021114071354092677 0.015201807618371609 0 0.021351010714009421 0.01494455225518526 0 0.021114071354092677 0.015201807618371609 0 0.021001676094095065 0.015509020486082973 0 0.020811514470938465 0.015283693429705869 0 0.020791512929496412 0.015853730140724415 0 0.021222416863258584 0.015695063878466853 0 0.021001676094095065 0.015509020486082973 0 0.021001676094095065 0.015509020486082973 0 0.020672849060960754 0.015522257158974307 0 0.020811514470938465 0.015283693429705869 0 0.020791512929496412 0.015853730140724415 0 0.021001676094095065 0.015509020486082973 0 0.020672849060960754 0.015522257158974307 0 0.020672849060960754 0.015522257158974307 0 0.020811514470938465 0.015283693429705869 0 0.02051678308694671 0.015331941799798212 0 0.020811514470938465 0.015283693429705869 0 0.020565682762388841 0.015072737937360969 0 0.02051678308694671 0.015331941799798212 0 0.020565682762388841 0.015072737937360969 0 0.020911355768960384 0.014973628281826981 0 0.020620195365687103 0.014722133634591933 0 0.020811514470938465 0.015283693429705869 0 0.020565682762388841 0.015072737937360969 0 0.020911355768960384 0.014973628281826981 0 0.021114071354092677 0.015201807618371609 0 0.020811514470938465 0.015283693429705869 0 0.020911355768960384 0.014973628281826981 0 0.020911355768960384 0.014973628281826981 0 0.021063263714997057 0.014615372998086584 0 0.021351010714009421 0.01494455225518526 0 0.020911355768960384 0.014973628281826981 0 0.021063263714997057 0.014615372998086584 0 0.020620195365687103 0.014722133634591933 0 0.021831401842788822 0.014834467564931002 0 0.021653858740261218 0.015419268068753246 0 0.021549715481213136 0.015150181637562292 0 0.021831401842788822 0.014834467564931002 0 0.021549715481213136 0.015150181637562292 0 0.021351010714009421 0.01494455225518526 0 0.021114071354092677 0.015201807618371609 0 0.020911355768960384 0.014973628281826981 0 0.021351010714009421 0.01494455225518526 0 0.021063263714997057 0.014615372998086584 0 0.021351010714009421 0.01494455225518526 0 0.021515310873838098 0.014518886277749084 0 0.021831401842788822 0.014834467564931002 0 0.021351010714009421 0.01494455225518526 0 0.021515310873838098 0.014518886277749084 0 0.021515310873838098 0.014518886277749084 0 0.021261375072502548 0.01422358600546619 0 0.022031658575521949 0.014019260454507109 0 0.021063263714997057 0.014615372998086584 0 0.021515310873838098 0.014518886277749084 0 0.021261375072502548 0.01422358600546619 0 0.021063263714997057 0.014615372998086584 0 0.020620195365687103 0.014722133634591933 0 0.020694422383702657 0.014253878496990105 0 0.021063263714997057 0.014615372998086584 0 0.021261375072502548 0.01422358600546619 0 0.020694422383702657 0.014253878496990105 0 0.021261375072502548 0.01422358600546619 0 0.020694422383702657 0.014253878496990105 0 0.020944872312758562 0.01352931083670725 0 0.024545022606059022 0.021380134552024501 0 0.023296565475943467 0.018107756556369699 0 0.02604989588884038 0.018645367259695737 0 0.024545022606059022 0.021380134552024501 0 0.023296565475943467 0.018107756556369699 0 0.021980603653490381 0.020491043090293752 0 0.024545022606059022 0.021380134552024501 0 0.027919956638996657 0.019707348917069403 0 0.02604989588884038 0.018645367259695737 0 0.022604173692344538 0.017532243636098201 0 0.025158409360169682 0.016298523992327143 0 0.020944872312758562 0.01352931083670725 0 0.022031658575521949 0.014019260454507109 0 0.021809930412686532 0.013168735996618925 0 0.021261375072502548 0.01422358600546619 0 0.020944872312758562 0.01352931083670725 0 0.022031658575521949 0.014019260454507109 0 0.027469110050198947 0.015500845487378689 0 0.027029111793626326 0.015886438991291774 0 0.027202761634400063 0.016419000848817113 0 0.024657921301250645 0.014438668276085443 0 0.025158409360169682 0.016298523992327143 0 0.026731387118096306 0.015325522650968391 0 0.027469110050198947 0.015500845487378689 0 0.027029111793626326 0.015886438991291774 0 0.027029111793626326 0.015886438991291774 0 0.026655376279081999 0.016000745897074273 0 0.026916837327918719 0.016309169982293165 0 0.026731387118096306 0.015325522650968391 0 0.027029111793626326 0.015886438991291774 0 0.026655376279081999 0.016000745897074273 0 0.026655376279081999 0.016000745897074273 0 0.026916837327918719 0.016309169982293165 0 0.026624528479798869 0.016573838615179255 0 0.027029111793626326 0.015886438991291774 0 0.026916837327918719 0.016309169982293165 0 0.027202761634400063 0.016419000848817113 0 0.026916837327918719 0.016309169982293165 0 0.027202761634400063 0.016419000848817113 0 0.026980596316461811 0.016768593101732031 0 0.026916837327918719 0.016309169982293165 0 0.026624528479798869 0.016573838615179255 0 0.026980596316461811 0.016768593101732031 0 0.027469110050198947 0.015500845487378689 0 0.027202761634400063 0.016419000848817113 0 0.027549473315584959 0.016646608746524062 0 0.027202761634400063 0.016419000848817113 0 0.027191534001133586 0.016721781741738294 0 0.026980596316461811 0.016768593101732031 0 0.027202761634400063 0.016419000848817113 0 0.027191534001133586 0.016721781741738294 0 0.027363537603275714 0.016742320785990271 0 0.027191534001133586 0.016721781741738294 0 0.027363537603275714 0.016742320785990271 0 0.027291033974738661 0.016876891811451133 0 0.027363537603275714 0.016742320785990271 0 0.027458626718625839 0.016705631818173625 0 0.027291033974738661 0.016876891811451133 0 0.027202761634400063 0.016419000848817113 0 0.027363537603275714 0.016742320785990271 0 0.027549473315584959 0.016646608746524062 0 0.026012364929134883 0.01611313868725783 0 0.025158409360169682 0.016298523992327143 0 0.027458626718625839 0.016705631818173625 0 0.027249490708532192 0.01707922031511034 0 0.027226977743212727 0.017335516109029288 0 0.025158409360169682 0.016298523992327143 0 0.027576912424830475 0.01820123512543384 0 0.027458626718625839 0.016705631818173625 0 0.027249490708532192 0.01707922031511034 0 0.027291033974738661 0.016876891811451133 0 0.027249490708532192 0.01707922031511034 0 0.027291033974738661 0.016876891811451133 0 0.027182112863948112 0.016935054333587825 0 0.027191534001133586 0.016721781741738294 0 0.027182112863948112 0.016935054333587825 0 0.026980596316461811 0.016768593101732031 0 0.027191534001133586 0.016721781741738294 0 0.027291033974738661 0.016876891811451133 0 0.027182112863948112 0.016935054333587825 0 0.027182112863948112 0.016935054333587825 0 0.027137201240128472 0.017159844567852568 0 0.026980596316461811 0.016768593101732031 0 0.027249490708532192 0.01707922031511034 0 0.027182112863948112 0.016935054333587825 0 0.027137201240128472 0.017159844567852568 0 0.027249490708532192 0.01707922031511034 0 0.027137201240128472 0.017159844567852568 0 0.027226977743212727 0.017335516109029288 0 0.027137201240128472 0.017159844567852568 0 0.027205813090821672 0.017028328678167632 0 0.027226977743212727 0.017335516109029288 0 0.027137201240128472 0.017159844567852568 0 0.026980596316461811 0.016768593101732031 0 0.026646910829885545 0.017094467827438429 0 0.026624528479798869 0.016573838615179255 0 0.026980596316461811 0.016768593101732031 0 0.026646910829885545 0.017094467827438429 0 0.027137201240128472 0.017159844567852568 0 0.026646910829885545 0.017094467827438429 0 0.026848871997727515 0.017646684381058545 0 0.026250312458052878 0.017516321699258968 0 0.026646910829885545 0.017094467827438429 0 0.026848871997727515 0.017646684381058545 0 0.027137201240128472 0.017159844567852568 0 0.026848871997727515 0.017646684381058545 0 0.027205813090821672 0.017028328678167632 0 0.024671745239418296 0.023372975533964155 0 0.023817908223927403 0.023167325701823824 0 0.02241202212017818 0.029008445239238539 0 0.020525993686124431 0.029256592822685598 0 0.020907210226670785 0.027672581389839534 0 0.020525993686124431 0.029256592822685598 0 0.018848343095576328 0.029687558961871162 0 0.019251001647966212 0.028127218856341271 0 0.023817908223927403 0.023167325701823824 0 0.021045980313257318 0.023899877313123593 0 0.027205813090821672 0.017028328678167632 0 0.023296565475943467 0.018107756556369699 0 0.02604989588884038 0.018645367259695737 0 0.027919956638996657 0.019707348917069403 0 0.02604989588884038 0.018645367259695737 0 0.027226977743212727 0.017335516109029288 0 0.027205813090821672 0.017028328678167632 0 0.02604989588884038 0.018645367259695737 0 0.027226977743212727 0.017335516109029288 0 0.018848343095576328 0.029687558961871162 0 0.016967538490600034 0.028110200512127845 0 0.019251001647966212 0.028127218856341271 0 0.018848343095576328 0.029687558961871162 0 0.016967538490600034 0.028110200512127845 0 0.016833444437695029 0.030314561681435724 0 0.021045980313257318 0.023899877313123593 0 0.018302705539866102 0.025036863850731315 0 0.016967538490600034 0.028110200512127845 0 0.015136494742840656 0.027986094749716008 0 0.01543363256481306 0.02914058279872201 0 0.016967538490600034 0.028110200512127845 0 0.015136494742840656 0.027986094749716008 0 0.015662535370046263 0.027289717403506088 0 0.01422441008872515 0.027983919311219168 0 0.013771748895610525 0.027373801060223135 0 0.014420254598936089 0.027529572197694467 0 0.015136494742840656 0.027986094749716008 0 0.01422441008872515 0.027983919311219168 0 0.014420254598936089 0.027529572197694467 0 0.015136494742840656 0.027986094749716008 0 0.01422441008872515 0.027983919311219168 0 0.014555182653216663 0.028598279856665521 0 0.015136494742840656 0.027986094749716008 0 0.014555182653216663 0.028598279856665521 0 0.01543363256481306 0.02914058279872201 0 0.01422441008872515 0.027983919311219168 0 0.014005433016570559 0.02855483488421388 0 0.013464772997107747 0.027876711344844398 0 0.01422441008872515 0.027983919311219168 0 0.014555182653216663 0.028598279856665521 0 0.014005433016570559 0.02855483488421388 0 0.014555182653216663 0.028598279856665521 0 0.014005433016570559 0.02855483488421388 0 0.01433686279561954 0.02916842607962521 0 0.011596358148728161 0.02481642391851633 0 0.01204087391722429 0.025699275918885153 0 0.012180103924213582 0.026167820962481221 0 0.014667409507707176 0.029886605011155247 0 0.014638834625425813 0.031081863899651178 0 0.013525876354110638 0.029232630866196558 0 0.01433686279561954 0.02916842607962521 0 0.014667409507707176 0.029886605011155247 0 0.013525876354110638 0.029232630866196558 0 0.014005433016570559 0.02855483488421388 0 0.01433686279561954 0.02916842607962521 0 0.013525876354110638 0.029232630866196558 0 0.01433686279561954 0.02916842607962521 0 0.014667409507707176 0.029886605011155247 0 0.01543363256481306 0.02914058279872201 0 0.014555182653216663 0.028598279856665521 0 0.01433686279561954 0.02916842607962521 0 0.01543363256481306 0.02914058279872201 0 0.014667409507707176 0.029886605011155247 0 0.01543363256481306 0.02914058279872201 0 0.016833444437695029 0.030314561681435724 0 0.016967538490600034 0.028110200512127845 0 0.01543363256481306 0.02914058279872201 0 0.016833444437695029 0.030314561681435724 0 0.015586806132423161 0.020993752381611837 0 0.018716503340322935 0.021929575699662245 0 0.019400117427202549 0.019551561316618216 0 0.014667409507707176 0.029886605011155247 0 0.014638834625425813 0.031081863899651178 0 0.016833444437695029 0.030314561681435724 0 0.014155334263646312 0.025155046254861091 0 0.018302705539866102 0.025036863850731315 0 0.014155334263646312 0.025155046254861091 0 0.012858034654666827 0.02819522988503366 0 0.011596358148728161 0.02481642391851633 0 0.012280865996614935 0.024918668582667364 0 0.01204087391722429 0.025699275918885153 0 0.011596358148728161 0.02481642391851633 0 0.012434115671881978 0.024454062131757097 0 0.012280865996614935 0.024918668582667364 0 0.014155334263646312 0.025155046254861091 0 0.011880712751086622 0.0247965378806583 0 0.012176567063384922 0.024530185420467782 0 0.012035624387056075 0.02418791693008188 0 0.01235053266731909 0.024054194319484298 0 0.012176567063384922 0.024530185420467782 0 0.01235053266731909 0.024054194319484298 0 0.012434115671881978 0.024454062131757097 0 0.014155334263646312 0.025155046254861091 0 0.014407807965820557 0.023383608840160611 0 0.015586806132423161 0.020993752381611837 0 0.016631957748487341 0.022823966911124267 0 0.018716503340322935 0.021929575699662245 0 0.016631957748487341 0.022823966911124267 0 0.018716503340322935 0.021929575699662245 0 0.017665181889849439 0.024659359683378079 0 0.018716503340322935 0.021929575699662245 0 0.02109129944481836 0.023038917437548396 0 0.017665181889849439 0.024659359683378079 0 0.018716503340322935 0.021929575699662245 0 0.021980603653490381 0.020491043090293752 0 0.02109129944481836 0.023038917437548396 0 0.018716503340322935 0.021929575699662245 0 0.019400117427202549 0.019551561316618216 0 0.021980603653490381 0.020491043090293752 0 0.023296565475943467 0.018107756556369699 0 0.019400117427202549 0.019551561316618216 0 0.021980603653490381 0.020491043090293752 0 0.020694422383702657 0.014253878496990105 0 0.020944872312758562 0.01352931083670725 0 0.020006302838319816 0.013891840387208159 0 0.022604173692344538 0.017532243636098201 0 0.020860310465227239 0.018202390497470133 0 0.024545022606059022 0.021380134552024501 0 0.021980603653490381 0.020491043090293752 0 0.02109129944481836 0.023038917437548396 0 0.020694422383702657 0.014253878496990105 0 0.020006302838319816 0.013891840387208159 0 0.020230709387221432 0.014475134430390261 0 0.020006302838319816 0.013891840387208159 0 0.020230709387221432 0.014475134430390261 0 0.019729277616104272 0.014498210946417648 0 0.020620195365687103 0.014722133634591933 0 0.020694422383702657 0.014253878496990105 0 0.020230709387221432 0.014475134430390261 0 0.020860310465227239 0.018202390497470133 0 0.017154382828498113 0.020978879421823558 0 0.020006302838319816 0.013891840387208159 0 0.019729277616104272 0.014498210946417648 0 0.019006656296382953 0.014307667632109248 0 0.019729277616104272 0.014498210946417648 0 0.019302314622917371 0.014607875548033722 0 0.019006656296382953 0.014307667632109248 0 0.019531495273008893 0.014794401748578953 0 0.019288620617560152 0.015015146514979391 0 0.019302314622917371 0.014607875548033722 0 0.019729277616104272 0.014498210946417648 0 0.019531495273008893 0.014794401748578953 0 0.019302314622917371 0.014607875548033722 0 0.019729277616104272 0.014498210946417648 0 0.019801532175668927 0.015053733153313565 0 0.020216671437792089 0.014911914212959216 0 0.019729277616104272 0.014498210946417648 0 0.019531495273008893 0.014794401748578953 0 0.019801532175668927 0.015053733153313565 0 0.019531495273008893 0.014794401748578953 0 0.019801532175668927 0.015053733153313565 0 0.019288620617560152 0.015015146514979391 0 0.020620195365687103 0.014722133634591933 0 0.020230709387221432 0.014475134430390261 0 0.020216671437792089 0.014911914212959216 0 0.020230709387221432 0.014475134430390261 0 0.019729277616104272 0.014498210946417648 0 0.020216671437792089 0.014911914212959216 0 0.019801532175668927 0.015053733153313565 0 0.020094011621044936 0.015158434532423938 0 0.020216671437792089 0.014911914212959216 0 0.020094011621044936 0.015158434532423938 0 0.020216671437792089 0.014911914212959216 0 0.020289290600719462 0.015202521073390115 0 0.020565682762388841 0.015072737937360969 0 0.020620195365687103 0.014722133634591933 0 0.020216671437792089 0.014911914212959216 0 0.020565682762388841 0.015072737937360969 0 0.020216671437792089 0.014911914212959216 0 0.020289290600719462 0.015202521073390115 0 0.020289290600719462 0.015202521073390115 0 0.02051678308694671 0.015331941799798212 0 0.020065643940838856 0.015469290422096963 0 0.01975719812690235 0.015009020111926213 0 0.019657406012959323 0.015158326766165141 0 0.019415048179603475 0.014920630631176683 0 0.019090804303708169 0.014722127184376575 0 0.019016157451005971 0.01476238445675772 0 0.020791512929496412 0.015853730140724415 0 0.020672849060960754 0.015522257158974307 0 0.020065643940838856 0.015469290422096963 0 0.01975719812690235 0.015009020111926213 0 0.018457036488076103 0.014170826435850542 0 0.020672849060960754 0.015522257158974307 0 0.02051678308694671 0.015331941799798212 0 0.020065643940838856 0.015469290422096963 0 0.020565682762388841 0.015072737937360969 0 0.020289290600719462 0.015202521073390115 0 0.02051678308694671 0.015331941799798212 0 0.020094011621044936 0.015158434532423938 0 0.020289290600719462 0.015202521073390115 0 0.020065643940838856 0.015469290422096963 0 0.019801532175668927 0.015053733153313565 0 0.020094011621044936 0.015158434532423938 0 0.020065643940838856 0.015469290422096963 0 0.018247601072814628 0.013806475602513182 0 0.018235198667940621 0.013879660686193245 0 0.018230331578927655 0.014038696797070141 0 0.019016157451005971 0.01476238445675772 0 0.018697583751291547 0.014625695270898104 0 0.018813609799019686 0.014564195053432691 0 0.019801532175668927 0.015053733153313565 0 0.020065643940838856 0.015469290422096963 0 0.019288620617560152 0.015015146514979391 0 0.018457036488076103 0.014170826435850542 0 0.018528773854566267 0.014356970855030756 0 0.019657406012959323 0.015158326766165141 0 0.019037839175879548 0.014764924083266654 0 0.019090804303708169 0.014722127184376575 0 0.019016157451005971 0.01476238445675772 0 0.018813609799019686 0.014564195053432691 0 0.018247601072814628 0.013806475602513182 0 0.018262085262565807 0.013830744507165264 0 0.018235198667940621 0.013879660686193245 0 0.018303386480049633 0.013819479934320924 0 0.018262085262565807 0.013830744507165264 0 0.018233571904871144 0.01381458783388502 0 0.018247601072814628 0.013806475602513182 0 0.018262085262565807 0.013830744507165264 0 0.018332581109358287 0.013797348445417105 0 0.018510005355369615 0.013675047530852791 0 0.018247601072814628 0.013806475602513182 0 0.018332581109358287 0.013797348445417105 0 0.018289621535075171 0.013861003824337083 0 0.018262085262565807 0.013830744507165264 0 0.018332581109358287 0.013797348445417105 0 0.018289621535075171 0.013861003824337083 0 0.018422770696123671 0.013797343428643969 0 0.018332581109358287 0.013797348445417105 0 0.018510005355369615 0.013675047530852791 0 0.018422770696123671 0.013797343428643969 0 0.018332581109358287 0.013797348445417105 0 0.01839646393726431 0.013636245762666326 0 0.01833992580318957 0.013821670818953384 0 0.018446454015267344 0.013896953681340654 0 0.01833992580318957 0.013821670818953384 0 0.018291033718916695 0.013927194362133978 0 0.018446454015267344 0.013896953681340654 0 0.01833992580318957 0.013821670818953384 0 0.018233571904871144 0.01381458783388502 0 0.018291033718916695 0.013927194362133978 0 0.018262085262565807 0.013830744507165264 0 0.018233571904871144 0.01381458783388502 0 0.018235198667940621 0.013879660686193245 0 0.018233571904871144 0.01381458783388502 0 0.018235198667940621 0.013879660686193245 0 0.018291033718916695 0.013927194362133978 0 0.018235198667940621 0.013879660686193245 0 0.018230331578927655 0.014038696797070141 0 0.018291033718916695 0.013927194362133978 0 0.018230331578927655 0.014038696797070141 0 0.018291033718916695 0.013927194362133978 0 0.018382627995213074 0.01407037701096602 0 0.018291033718916695 0.013927194362133978 0 0.018382627995213074 0.01407037701096602 0 0.018446454015267344 0.013896953681340654 0 0.018528773854566267 0.014356970855030756 0 0.018476189511663296 0.014371554864408964 0 0.018230331578927655 0.014038696797070141 0 0.018382627995213074 0.01407037701096602 0 0.018478220450068052 0.014379944370781779 0 0.018697583751291547 0.014625695270898104 0 0.018451349996722224 0.014458360785702735 0 0.018478220450068052 0.014379944370781779 0 0.018697583751291547 0.014625695270898104 0 0.018451349996722224 0.014458360785702735 0 0.018637034283033121 0.014435068069743895 0 0.018697583751291547 0.014625695270898104 0 0.018813609799019686 0.014564195053432691 0 0.018637034283033121 0.014435068069743895 0 0.019037839175879548 0.014764924083266654 0 0.018673762628894659 0.014482130974717806 0 0.019288620617560152 0.015015146514979391 0 0.019302314622917371 0.014607875548033722 0 0.018637034283033121 0.014435068069743895 0 0.019302314622917371 0.014607875548033722 0 0.019006656296382953 0.014307667632109248 0 0.018637034283033121 0.014435068069743895 0 0.014407807965820557 0.023383608840160611 0 0.017154382828498113 0.020978879421823558 0 0.018451349996722224 0.014458360785702735 0 0.019006656296382953 0.014307667632109248 0 0.018637034283033121 0.014435068069743895 0 0.012035624387056075 0.02418791693008188 0 0.011904583246678976 0.023851003649056124 0 0.01235053266731909 0.024054194319484298 0 0.015183781216846678 0.018917138600207356 0 0.017154382828498113 0.020978879421823558 0 0.012358808530468009 0.023611439368545151 0 0.011904583246678976 0.023851003649056124 0 0.01235053266731909 0.024054194319484298 0 0.012358808530468009 0.023611439368545151 0 0.01272730625989623 0.023892926556907963 0 0.012954977259358087 0.023704979228290925 0 0.012358808530468009 0.023611439368545151 0 0.01235053266731909 0.024054194319484298 0 0.01272730625989623 0.023892926556907963 0 0.01235053266731909 0.024054194319484298 0 0.01272730625989623 0.023892926556907963 0 0.012826114078927284 0.024177460512841895 0 0.01272730625989623 0.023892926556907963 0 0.013084855775405774 0.023893097718502482 0 0.012826114078927284 0.024177460512841895 0 0.01272730625989623 0.023892926556907963 0 0.013084855775405774 0.023893097718502482 0 0.012954977259358087 0.023704979228290925 0 0.013084855775405774 0.023893097718502482 0 0.012954977259358087 0.023704979228290925 0 0.013213800242284125 0.023698765397826817 0 0.012842762051367827 0.023383780042997345 0 0.013420505739877998 0.023321447546017525 0 0.013213800242284125 0.023698765397826817 0 0.012954977259358087 0.023704979228290925 0 0.012842762051367827 0.023383780042997345 0 0.013213800242284125 0.023698765397826817 0 0.012842762051367827 0.023383780042997345 0 0.013387986343218571 0.023087093507361937 0 0.013420505739877998 0.023321447546017525 0 0.012358808530468009 0.023611439368545151 0 0.012954977259358087 0.023704979228290925 0 0.012842762051367827 0.023383780042997345 0 0.018451349996722224 0.014458360785702735 0 0.018604937634676685 0.014302782359011425 0 0.018478220450068052 0.014379944370781779 0 0.015183781216846678 0.018917138600207356 0 0.015847792616464653 0.018924929744157572 0 0.018604937634676685 0.014302782359011425 0 0.018478220450068052 0.014379944370781779 0 0.018542642157682615 0.014108308540266887 0 0.018382627995213074 0.01407037701096602 0 0.018478220450068052 0.014379944370781779 0 0.018542642157682615 0.014108308540266887 0 0.018382627995213074 0.01407037701096602 0 0.018542642157682615 0.014108308540266887 0 0.018446454015267344 0.013896953681340654 0 0.018711321610718312 0.014093566342041073 0 0.018856801824144051 0.013822771924244803 0 0.018900724434841629 0.01415706058868567 0 0.015847792616464653 0.018924929744157572 0 0.015344698247695509 0.017485462169412755 0 0.018604937634676685 0.014302782359011425 0 0.018711321610718312 0.014093566342041073 0 0.018900724434841629 0.01415706058868567 0 0.018604937634676685 0.014302782359011425 0 0.018542642157682615 0.014108308540266887 0 0.018711321610718312 0.014093566342041073 0 0.018542642157682615 0.014108308540266887 0 0.018711321610718312 0.014093566342041073 0 0.01863407304820747 0.013922179282225805 0 0.018711321610718312 0.014093566342041073 0 0.01863407304820747 0.013922179282225805 0 0.018856801824144051 0.013822771924244803 0 0.01860957830704962 0.01368300762771292 0 0.01863407304820747 0.013922179282225805 0 0.018856801824144051 0.013822771924244803 0 0.018542642157682615 0.014108308540266887 0 0.01863407304820747 0.013922179282225805 0 0.018446454015267344 0.013896953681340654 0 0.01860957830704962 0.01368300762771292 0 0.01863407304820747 0.013922179282225805 0 0.018446454015267344 0.013896953681340654 0 0.01398829407074036 0.013373462709066891 0 0.012395230085512425 0.016464967162140326 0 0.015981335858481945 0.014701839057815915 0 0.016895450105730517 0.013064783593697522 0 0.015375150690728499 0.013581025777294822 0 0.015474469614823004 0.015835171448462325 0 0.015136126183869491 0.010465980774012775 0 0.01336147633661075 0.019302506920125358 0 0.015136126183869491 0.010465980774012775 0 0.014045451554127173 0.014068465627936386 0 0.01651326363658014 0.013666488927152253 0 0.015344698247695509 0.017485462169412755 0 0.015375150690728499 0.013581025777294822 0 0.013966173248088184 0.013520787885009882 0 0.015474469614823004 0.015835171448462325 0 0.015166648501195135 0.011918395243002774 0 0.015375150690728499 0.013581025777294822 0 0.013966173248088184 0.013520787885009882 0 0.013966173248088184 0.013520787885009882 0 0.015474469614823004 0.015835171448462325 0 0.014491249591852391 0.016315597271439729 0 0.015344698247695509 0.017485462169412755 0 0.01378315191571422 0.022592552855260416 0 0.013150801993784414 0.024013555815348114 0 0.013229975664299828 0.023871247337400793 0 0.013138552066770483 0.023895556327629717 0 0.014623601637162465 0.019100672892848787 0 0.013743581692765157 0.019530114425588115 0 0.013926634986795796 0.020464274771200931 0 0.01336147633661075 0.019302506920125358 0 0.01378315191571422 0.022592552855260416 0 0.01336147633661075 0.019302506920125358 0 0.015344698247695509 0.017485462169412755 0 0.013150801993784414 0.024013555815348114 0 0.013007427805286211 0.023973867352031841 0 0.013138552066770483 0.023895556327629717 0 0.01336147633661075 0.019302506920125358 0 0.014045451554127173 0.014068465627936386 0 0.013150801993784414 0.024013555815348114 0 0.013007427805286211 0.023973867352031841 0 0.012809156594898721 0.024101200149993771 0 0.013007427805286211 0.023973867352031841 0 0.012986478842308946 0.023910684835485384 0 0.012867487094227241 0.023988676392016656 0 0.013007427805286211 0.023973867352031841 0 0.012986478842308946 0.023910684835485384 0 0.013071204536849795 0.023880459323035962 0 0.013312226398336032 0.02428856261944325 0 0.013089080549779216 0.024233582231093297 0 0.012986478842308946 0.023910684835485384 0 0.012867487094227241 0.023988676392016656 0 0.012920215058326089 0.023908775862217627 0 0.012976485939567845 0.023810779301762633 0 0.01318304146782929 0.023738826359935013 0 0.012787281795092028 0.023825335304680537 0 0.012986024522076679 0.023858267556404647 0 0.012920215058326089 0.023908775862217627 0 0.012922861972186072 0.023857579557988506 0 0.012986024522076679 0.023858267556404647 0 0.012986478842308946 0.023910684835485384 0 0.012920215058326089 0.023908775862217627 0 0.012986024522076679 0.023858267556404647 0 0.01301663667482016 0.023873399390280402 0 0.012986478842308946 0.023910684835485384 0 0.01301663667482016 0.023873399390280402 0 0.012986478842308946 0.023910684835485384 0 0.013071204536849795 0.023880459323035962 0 0.01301663667482016 0.023873399390280402 0 0.013056024299865755 0.023856149967178011 0 0.013034706886311741 0.023848018263539897 0 0.012986024522076679 0.023858267556404647 0 0.01301663667482016 0.023873399390280402 0 0.013034706886311741 0.023848018263539897 0 0.013007427805286211 0.023973867352031841 0 0.013071204536849795 0.023880459323035962 0 0.013138552066770483 0.023895556327629717 0 0.01313795138518702 0.023856818754216007 0 0.013071204536849795 0.023880459323035962 0 0.013138552066770483 0.023895556327629717 0 0.01313795138518702 0.023856818754216007 0 0.013120232675989701 0.023841689956549488 0 0.013071204536849795 0.023880459323035962 0 0.01313795138518702 0.023856818754216007 0 0.013120232675989701 0.023841689956549488 0 0.013153096254228058 0.023823427902416022 0 0.013120232675989701 0.023841689956549488 0 0.013071204536849795 0.023880459323035962 0 0.013092459334558664 0.02384062641733093 0 0.01301663667482016 0.023873399390280402 0 0.013071204536849795 0.023880459323035962 0 0.013056024299865755 0.023856149967178011 0 0.013071204536849795 0.023880459323035962 0 0.013056024299865755 0.023856149967178011 0 0.013092459334558664 0.02384062641733093 0 0.013056024299865755 0.023856149967178011 0 0.013066134844641976 0.023837060923470443 0 0.013092459334558664 0.02384062641733093 0 0.013066134844641976 0.023837060923470443 0 0.013092459334558664 0.02384062641733093 0 0.013096099584035114 0.023819285408373827 0 0.013092459334558664 0.02384062641733093 0 0.013096099584035114 0.023819285408373827 0 0.01313679349058049 0.023808752502421222 0 0.013066134844641976 0.023837060923470443 0 0.013096099584035114 0.023819285408373827 0 0.013048846415700522 0.023820242503967814 0 0.013120232675989701 0.023841689956549488 0 0.01313679349058049 0.023808752502421222 0 0.013153096254228058 0.023823427902416022 0 0.013120232675989701 0.023841689956549488 0 0.013092459334558664 0.02384062641733093 0 0.01313679349058049 0.023808752502421222 0 0.01313679349058049 0.023808752502421222 0 0.013123789949380588 0.023789835457785794 0 0.013185953293291419 0.02377550269513775 0 0.01313679349058049 0.023808752502421222 0 0.013174406174397718 0.023793273652148977 0 0.013185953293291419 0.02377550269513775 0 0.013096099584035114 0.023819285408373827 0 0.01313679349058049 0.023808752502421222 0 0.013123789949380588 0.023789835457785794 0 0.013096099584035114 0.023819285408373827 0 0.013123789949380588 0.023789835457785794 0 0.013048846415700522 0.023820242503967814 0 0.013123789949380588 0.023789835457785794 0 0.012976485939567845 0.023810779301762633 0 0.013048846415700522 0.023820242503967814 0 0.012986024522076679 0.023858267556404647 0 0.012976485939567845 0.023810779301762633 0 0.013048846415700522 0.023820242503967814 0 0.012986024522076679 0.023858267556404647 0 0.012976485939567845 0.023810779301762633 0 0.012922861972186072 0.023857579557988506 0 0.012986024522076679 0.023858267556404647 0 0.013034706886311741 0.023848018263539897 0 0.013048846415700522 0.023820242503967814 0 0.013066134844641976 0.023837060923470443 0 0.013034706886311741 0.023848018263539897 0 0.013048846415700522 0.023820242503967814 0 0.013056024299865755 0.023856149967178011 0 0.013066134844641976 0.023837060923470443 0 0.013034706886311741 0.023848018263539897 0 0.013229975664299828 0.023871247337400793 0 0.013192163301712441 0.023828930366882491 0 0.013201538514599279 0.023784036066795945 0 0.013192163301712441 0.023828930366882491 0 0.013167128349694166 0.023843933408047607 0 0.013182297401395409 0.023803667470004702 0 0.013192163301712441 0.023828930366882491 0 0.013191515069824791 0.023859097505187079 0 0.013167128349694166 0.023843933408047607 0 0.013229975664299828 0.023871247337400793 0 0.013192163301712441 0.023828930366882491 0 0.013191515069824791 0.023859097505187079 0 0.013229975664299828 0.023871247337400793 0 0.013191515069824791 0.023859097505187079 0 0.013138552066770483 0.023895556327629717 0 0.01313795138518702 0.023856818754216007 0 0.013138552066770483 0.023895556327629717 0 0.013167128349694166 0.023843933408047607 0 0.013191515069824791 0.023859097505187079 0 0.013138552066770483 0.023895556327629717 0 0.013167128349694166 0.023843933408047607 0 0.013167128349694166 0.023843933408047607 0 0.013153096254228058 0.023823427902416022 0 0.013182297401395409 0.023803667470004702 0 0.01313795138518702 0.023856818754216007 0 0.013167128349694166 0.023843933408047607 0 0.013153096254228058 0.023823427902416022 0 0.01313679349058049 0.023808752502421222 0 0.013153096254228058 0.023823427902416022 0 0.013174406174397718 0.023793273652148977 0 0.013153096254228058 0.023823427902416022 0 0.013174406174397718 0.023793273652148977 0 0.013182297401395409 0.023803667470004702 0 0.013174406174397718 0.023793273652148977 0 0.013202675424441189 0.023768697879159712 0 0.013182297401395409 0.023803667470004702 0 0.013174406174397718 0.023793273652148977 0 0.013202675424441189 0.023768697879159712 0 0.013185953293291419 0.02377550269513775 0 0.013202675424441189 0.023768697879159712 0 0.013182297401395409 0.023803667470004702 0 0.013201538514599279 0.023784036066795945 0 0.013192163301712441 0.023828930366882491 0 0.013182297401395409 0.023803667470004702 0 0.013201538514599279 0.023784036066795945 0 0.013229975664299828 0.023871247337400793 0 0.013201538514599279 0.023784036066795945 0 0.013213800242284125 0.023698765397826817 0 0.013202675424441189 0.023768697879159712 0 0.013201538514599279 0.023784036066795945 0 0.013213800242284125 0.023698765397826817 0 0.01378315191571422 0.022592552855260416 0 0.013113148734090297 0.023918110965744345 0 0.013219364163290262 0.023813961211393005 0 0.01318304146782929 0.023738826359935013 0 0.013261924779950252 0.024083548978248857 0 0.013312226398336032 0.02428856261944325 0 0.013092860537621905 0.024656103193643961 0 0.013202675424441189 0.023768697879159712 0 0.013213800242284125 0.023698765397826817 0 0.013219364163290262 0.023813961211393005 0 0.013084855775405774 0.023893097718502482 0 0.013213800242284125 0.023698765397826817 0 0.013219364163290262 0.023813961211393005 0 0.013219364163290262 0.023813961211393005 0 0.013185953293291419 0.02377550269513775 0 0.01318304146782929 0.023738826359935013 0 0.013202675424441189 0.023768697879159712 0 0.013219364163290262 0.023813961211393005 0 0.013185953293291419 0.02377550269513775 0 0.013084855775405774 0.023893097718502482 0 0.013219364163290262 0.023813961211393005 0 0.013261924779950252 0.024083548978248857 0 0.013395788333324415 0.024841516428737279 0 0.013561346638231216 0.025051690980871504 0 0.012965676441307816 0.025198904320658858 0 0.013395788333324415 0.024841516428737279 0 0.013561346638231216 0.025051690980871504 0 0.013805306967636674 0.024491446920146424 0 0.013123789949380588 0.023789835457785794 0 0.012976485939567845 0.023810779301762633 0 0.01318304146782929 0.023738826359935013 0 0.013123789949380588 0.023789835457785794 0 0.013185953293291419 0.02377550269513775 0 0.01318304146782929 0.023738826359935013 0 0.012885065295314998 0.024885494299677294 0 0.012692184218407737 0.025433121339217227 0 0.012202074528883599 0.024688250224691718 0 0.012064706799483939 0.025240591290804283 0 0.01230922974048013 0.02500048210578909 0 0.013561346638231216 0.025051690980871504 0 0.013307184831914634 0.02563282307126016 0 0.012965676441307816 0.025198904320658858 0 0.012064706799483939 0.025240591290804283 0 0.012489342454642414 0.02522093582169032 0 0.01230922974048013 0.02500048210578909 0 0.012064706799483939 0.025240591290804283 0 0.012301236816890004 0.025735668868961611 0 0.012489342454642414 0.02522093582169032 0 0.013307184831914634 0.02563282307126016 0 0.012965676441307816 0.025198904320658858 0 0.012820336658169959 0.025804809928966138 0 0.013261924779950252 0.024083548978248857 0 0.012826114078927284 0.024177460512841895 0 0.012954995653631772 0.024690083925344997 0 0.013092860537621905 0.024656103193643961 0 0.012705641929938201 0.025138041283139317 0 0.013084855775405774 0.023893097718502482 0 0.013261924779950252 0.024083548978248857 0 0.012826114078927284 0.024177460512841895 0 0.01235053266731909 0.024054194319484298 0 0.012826114078927284 0.024177460512841895 0 0.012434115671881978 0.024454062131757097 0 0.012826114078927284 0.024177460512841895 0 0.012434115671881978 0.024454062131757097 0 0.012954995653631772 0.024690083925344997 0 0.012280865996614935 0.024918668582667364 0 0.012954995653631772 0.024690083925344997 0 0.01204087391722429 0.025699275918885153 0 0.012541472110200324 0.025559345233862857 0 0.01204087391722429 0.025699275918885153 0 0.012450740626354675 0.025847654753255792 0 0.012705641929938201 0.025138041283139317 0 0.012078893820341894 0.025671849218017739 0 0.012434115671881978 0.024454062131757097 0 0.012280865996614935 0.024918668582667364 0 0.012954995653631772 0.024690083925344997 0 0.012965676441307816 0.025198904320658858 0 0.012820336658169959 0.025804809928966138 0 0.012541472110200324 0.025559345233862857 0 0.012820336658169959 0.025804809928966138 0 0.012541472110200324 0.025559345233862857 0 0.012450740626354675 0.025847654753255792 0 0.012662273741308561 0.026075032610702136 0 0.012579864505098938 0.026341141555230763 0 0.012993571715443988 0.026289082007217478 0 0.012820336658169959 0.025804809928966138 0 0.012662273741308561 0.026075032610702136 0 0.012993571715443988 0.026289082007217478 0 0.012820336658169959 0.025804809928966138 0 0.012662273741308561 0.026075032610702136 0 0.012450740626354675 0.025847654753255792 0 0.012662273741308561 0.026075032610702136 0 0.012450740626354675 0.025847654753255792 0 0.012435366453516937 0.026078140818289321 0 0.012662273741308561 0.026075032610702136 0 0.012435366453516937 0.026078140818289321 0 0.012579864505098938 0.026341141555230763 0 0.01204087391722429 0.025699275918885153 0 0.01228493303184385 0.025976044022014866 0 0.012180103924213582 0.026167820962481221 0 0.01204087391722429 0.025699275918885153 0 0.01228493303184385 0.025976044022014866 0 0.012450740626354675 0.025847654753255792 0 0.01228493303184385 0.025976044022014866 0 0.012450740626354675 0.025847654753255792 0 0.012435366453516937 0.026078140818289321 0 0.012435366453516937 0.026078140818289321 0 0.012180103924213582 0.026167820962481221 0 0.012579864505098938 0.026341141555230763 0 0.01228493303184385 0.025976044022014866 0 0.012435366453516937 0.026078140818289321 0 0.012180103924213582 0.026167820962481221 0 0.013525876354110638 0.029232630866196558 0 0.013464772997107747 0.027876711344844398 0 0.012641625990798348 0.026817749241435894 0 0.012180103924213582 0.026167820962481221 0 0.012579864505098938 0.026341141555230763 0 0.012641625990798348 0.026817749241435894 0 0.012858034654666827 0.02819522988503366 0 0.012594707282430855 0.026707919437379723 0 0.014005433016570559 0.02855483488421388 0 0.013525876354110638 0.029232630866196558 0 0.013464772997107747 0.027876711344844398 0 0.013464772997107747 0.027876711344844398 0 0.012641625990798348 0.026817749241435894 0 0.013314679558812515 0.027206795486014467 0 0.01422441008872515 0.027983919311219168 0 0.013464772997107747 0.027876711344844398 0 0.013771748895610525 0.027373801060223135 0 0.013464772997107747 0.027876711344844398 0 0.013771748895610525 0.027373801060223135 0 0.013314679558812515 0.027206795486014467 0 0.012579864505098938 0.026341141555230763 0 0.01265325835773394 0.02650668439348304 0 0.012641625990798348 0.026817749241435894 0 0.01265325835773394 0.02650668439348304 0 0.012993571715443988 0.026289082007217478 0 0.012447761041866711 0.026526341516012384 0 0.012579864505098938 0.026341141555230763 0 0.01265325835773394 0.02650668439348304 0 0.012993571715443988 0.026289082007217478 0 0.012530682627984719 0.026057639304078086 0 0.012460524417815763 0.026440802712431214 0 0.012034150746456329 0.025884008851587478 0 0.012224312333451975 0.026211013114348727 0 0.012447761041866711 0.026526341516012384 0 0.012301236816890004 0.025735668868961611 0 0.012034150746456329 0.025884008851587478 0 0.012224312333451975 0.026211013114348727 0 0.012301236816890004 0.025735668868961611 0 0.012224312333451975 0.026211013114348727 0 0.012391739036396102 0.026131771667129721 0 0.012064706799483939 0.025240591290804283 0 0.012301236816890004 0.025735668868961611 0 0.012034150746456329 0.025884008851587478 0 0.013307184831914634 0.02563282307126016 0 0.012820336658169959 0.025804809928966138 0 0.012993571715443988 0.026289082007217478 0 0.012692184218407737 0.025433121339217227 0 0.012530682627984719 0.026057639304078086 0 0.012281283827006242 0.025899691771374262 0 0.012439213009714145 0.025699750400670858 0 0.01218285832013999 0.026217204171229823 0 0.012299219213504966 0.026280847470961415 0 0.0124829789666797 0.026077455489356072 0 0.01218285832013999 0.026217204171229823 0 0.0124829789666797 0.026077455489356072 0 0.012442341444221612 0.025688361035477832 0 0.012339711962685329 0.025631550906166447 0 0.012379341077359178 0.025672049664823827 0 0.012384753011135631 0.025667271294787377 0 0.01218285832013999 0.026217204171229823 0 0.012224312333451975 0.026211013114348727 0 0.012391739036396102 0.026131771667129721 0 0.012281283827006242 0.025899691771374262 0 0.01237265226771099 0.025793250289398908 0 0.012339711962685329 0.025631550906166447 0 0.012419772691793157 0.025570369703612268 0 0.012360102645981327 0.025474376468028415 0 0.01218285832013999 0.026217204171229823 0 0.012299219213504966 0.026280847470961415 0 0.012224312333451975 0.026211013114348727 0 0.012299219213504966 0.026280847470961415 0 0.012224312333451975 0.026211013114348727 0 0.012447761041866711 0.026526341516012384 0 0.012447761041866711 0.026526341516012384 0 0.012888374353609308 0.026288640343992146 0 0.0124829789666797 0.026077455489356072 0 0.012299219213504966 0.026280847470961415 0 0.012447761041866711 0.026526341516012384 0 0.0124829789666797 0.026077455489356072 0 0.01265325835773394 0.02650668439348304 0 0.012447761041866711 0.026526341516012384 0 0.012641625990798348 0.026817749241435894 0 0.012447761041866711 0.026526341516012384 0 0.012641625990798348 0.026817749241435894 0 0.012888374353609308 0.026288640343992146 0 0.013771748895610525 0.027373801060223135 0 0.013379993670607429 0.026800241316412978 0 0.014128401120145745 0.026937705520423311 0 0.013771748895610525 0.027373801060223135 0 0.013314679558812515 0.027206795486014467 0 0.013379993670607429 0.026800241316412978 0 0.012641625990798348 0.026817749241435894 0 0.013314679558812515 0.027206795486014467 0 0.013379993670607429 0.026800241316412978 0 0.012641625990798348 0.026817749241435894 0 0.013379993670607429 0.026800241316412978 0 0.012888374353609308 0.026288640343992146 0 0.013379993670607429 0.026800241316412978 0 0.013849314663372386 0.026310094431574824 0 0.014128401120145745 0.026937705520423311 0 0.013379993670607429 0.026800241316412978 0 0.012888374353609308 0.026288640343992146 0 0.013849314663372386 0.026310094431574824 0 0.012888374353609308 0.026288640343992146 0 0.013433849446474787 0.02585307376598794 0 0.013849314663372386 0.026310094431574824 0 0.012888374353609308 0.026288640343992146 0 0.012920928350534138 0.025703735855235398 0 0.013433849446474787 0.02585307376598794 0 0.013433849446474787 0.02585307376598794 0 0.01391882946546007 0.025708573576904464 0 0.013849314663372386 0.026310094431574824 0 0.012920928350534138 0.025703735855235398 0 0.013433849446474787 0.02585307376598794 0 0.013597051174539887 0.025414265820936102 0 0.013433849446474787 0.02585307376598794 0 0.013597051174539887 0.025414265820936102 0 0.01391882946546007 0.025708573576904464 0 0.012920928350534138 0.025703735855235398 0 0.0124829789666797 0.026077455489356072 0 0.012442341444221612 0.025688361035477832 0 0.012888374353609308 0.026288640343992146 0 0.012920928350534138 0.025703735855235398 0 0.0124829789666797 0.026077455489356072 0 0.012920928350534138 0.025703735855235398 0 0.012442341444221612 0.025688361035477832 0 0.012470372191631772 0.025588642370574274 0 0.012892797038231636 0.025682137737980268 0 0.012606894967945644 0.025149888017997776 0 0.012442341444221612 0.025688361035477832 0 0.012470372191631772 0.025588642370574274 0 0.012418357478622487 0.025651873539430617 0 0.013373835682840406 0.024975049133723021 0 0.013333101834376793 0.024353375127635295 0 0.014149358563352999 0.025103713892545169 0 0.012920928350534138 0.025703735855235398 0 0.013373835682840406 0.024975049133723021 0 0.012661790423410126 0.024585149661705958 0 0.013597051174539887 0.025414265820936102 0 0.013373835682840406 0.024975049133723021 0 0.014149358563352999 0.025103713892545169 0 0.012920928350534138 0.025703735855235398 0 0.013597051174539887 0.025414265820936102 0 0.013373835682840406 0.024975049133723021 0 0.013373835682840406 0.024975049133723021 0 0.013333101834376793 0.024353375127635295 0 0.012661790423410126 0.024585149661705958 0 0.014016382742915444 0.024677968089579071 0 0.014550224938264897 0.025253789278810335 0 0.014648029470614284 0.024916779244767224 0 0.014681912478134334 0.024740545442670341 0 0.014818166047457506 0.024930936543285542 0 0.012661790423410126 0.024585149661705958 0 0.012515684268322867 0.023948885474865806 0 0.012806773152384094 0.024176350582729871 0 0.013333101834376793 0.024353375127635295 0 0.012661790423410126 0.024585149661705958 0 0.012806773152384094 0.024176350582729871 0 0.012606894967945644 0.025149888017997776 0 0.012386025958868315 0.024725938484545067 0 0.012470372191631772 0.025588642370574274 0 0.012403847480171386 0.025663383267499954 0 0.012386485072424753 0.025693489132918537 0 0.012470372191631772 0.025588642370574274 0 0.012403847480171386 0.025663383267499954 0 0.012418357478622487 0.025651873539430617 0 0.012403847480171386 0.025663383267499954 0 0.012418357478622487 0.025651873539430617 0 0.012379341077359178 0.025672049664823827 0 0.012339711962685329 0.025631550906166447 0 0.012442341444221612 0.025688361035477832 0 0.012379341077359178 0.025672049664823827 0 0.012442341444221612 0.025688361035477832 0 0.012418357478622487 0.025651873539430617 0 0.012379341077359178 0.025672049664823827 0 0.012379341077359178 0.025672049664823827 0 0.012384965026358059 0.025703068049068696 0 0.012384753011135631 0.025667271294787377 0 0.012403847480171386 0.025663383267499954 0 0.012384965026358059 0.025703068049068696 0 0.012403698938413203 0.025706368047480731 0 0.012403847480171386 0.025663383267499954 0 0.012379341077359178 0.025672049664823827 0 0.012384965026358059 0.025703068049068696 0 0.012403847480171386 0.025663383267499954 0 0.012403698938413203 0.025706368047480731 0 0.012408550187742947 0.02570529231753009 0 0.012384965026358059 0.025703068049068696 0 0.012403698938413203 0.025706368047480731 0 0.012391422762102144 0.025737510833585615 0 0.013124108723930399 0.025426344669655904 0 0.015007155339379326 0.024999594341369599 0 0.011738564803311714 0.02500014171184706 0 0.012403698938413203 0.025706368047480731 0 0.012427663890005086 0.025737935269275744 0 0.012391422762102144 0.025737510833585615 0 0.012403698938413203 0.025706368047480731 0 0.012427663890005086 0.025737935269275744 0 0.012408550187742947 0.02570529231753009 0 0.012427663890005086 0.025737935269275744 0 0.012408550187742947 0.02570529231753009 0 0.012417044434657652 0.025741748806200074 0 0.012403847480171386 0.025663383267499954 0 0.012408550187742947 0.02570529231753009 0 0.012386485072424753 0.025693489132918537 0 0.012408550187742947 0.02570529231753009 0 0.012386485072424753 0.025693489132918537 0 0.012417044434657652 0.025741748806200074 0 0.012386485072424753 0.025693489132918537 0 0.012417044434657652 0.025741748806200074 0 0.012403984087290867 0.02581004543156069 0 0.012515684268322867 0.023948885474865806 0 0.012362920280459114 0.023564416951507964 0 0.012522332450338944 0.023530578630115317 0 0.012386025958868315 0.024725938484545067 0 0.0128007591814752 0.025121101451942286 0 0.012427663890005086 0.025737935269275744 0 0.012510827570049066 0.025805901709717579 0 0.012369750121415404 0.025769674428489597 0 0.0128007591814752 0.025121101451942286 0 0.012491809922127445 0.025805415869010879 0 0.012417044434657652 0.025741748806200074 0 0.012403984087290867 0.02581004543156069 0 0.012510827570049066 0.025805901709717579 0 0.012427663890005086 0.025737935269275744 0 0.012417044434657652 0.025741748806200074 0 0.012510827570049066 0.025805901709717579 0 0.012510827570049066 0.025805901709717579 0 0.013002540372583242 0.02556986274117206 0 0.01239452266202349 0.025513687483502679 0 0.013002540372583242 0.02556986274117206 0 0.013124108723930399 0.025426344669655904 0 0.01239452266202349 0.025513687483502679 0 0.013068468110966991 0.025826485545728604 0 0.012510827570049066 0.025805901709717579 0 0.013002540372583242 0.02556986274117206 0 0.013445740263499281 0.024995104944741494 0 0.013259846781049691 0.025830792585068822 0 0.0128007591814752 0.025121101451942286 0 0.013076886225900572 0.025754188021393492 0 0.013002540372583242 0.02556986274117206 0 0.013140819583363925 0.025715039218117654 0 0.013124108723930399 0.025426344669655904 0 0.013856628143220055 0.026453427364800806 0 0.013913614989133098 0.025934557111894248 0 0.013124108723930399 0.025426344669655904 0 0.013049644520210671 0.025720447925166801 0 0.013002540372583242 0.02556986274117206 0 0.013140819583363925 0.025715039218117654 0 0.0128007591814752 0.025121101451942286 0 0.013445740263499281 0.024995104944741494 0 0.013913614989133098 0.025934557111894248 0 0.013124108723930399 0.025426344669655904 0 0.014089626046869266 0.025625064704223481 0 0.013124108723930399 0.025426344669655904 0 0.015007155339379326 0.024999594341369599 0 0.014089626046869266 0.025625064704223481 0 0.015007155339379326 0.024999594341369599 0 0.014688779393090276 0.025472773369245052 0 0.015884216306242253 0.025455711241028842 0 0.015007155339379326 0.024999594341369599 0 0.014089626046869266 0.025625064704223481 0 0.014688779393090276 0.025472773369245052 0 0.014089626046869266 0.025625064704223481 0 0.014688779393090276 0.025472773369245052 0 0.014404740163613648 0.02602232333966387 0 0.014688779393090276 0.025472773369245052 0 0.014404740163613648 0.02602232333966387 0 0.015058693048453918 0.02623611601844664 0 0.013445740263499281 0.024995104944741494 0 0.015312386297845176 0.025603617536107209 0 0.013856628143220055 0.026453427364800806 0 0.014404740163613648 0.02602232333966387 0 0.015058693048453918 0.02623611601844664 0 0.014292727915409413 0.024413460861251565 0 0.014605071398236068 0.024361876871704227 0 0.014470725154684188 0.024480298494044615 0 0.013913614989133098 0.025934557111894248 0 0.014089626046869266 0.025625064704223481 0 0.014404740163613648 0.02602232333966387 0 0.013856628143220055 0.026453427364800806 0 0.013913614989133098 0.025934557111894248 0 0.014404740163613648 0.02602232333966387 0 0.014688779393090276 0.025472773369245052 0 0.01511489328285137 0.026314856164406063 0 0.015884216306242253 0.025455711241028842 0 0.014809922594134181 0.025711639055519691 0 0.015312386297845176 0.025603617536107209 0 0.014605071398236068 0.024361876871704227 0 0.014582804481066218 0.024555494160307133 0 0.014727157719054621 0.024591440837219977 0 0.015312386297845176 0.025603617536107209 0 0.015805347879843935 0.025333056065147404 0 0.014605071398236068 0.024361876871704227 0 0.014582804481066218 0.024555494160307133 0 0.014470725154684188 0.024480298494044615 0 0.014292727915409413 0.024413460861251565 0 0.014470725154684188 0.024480298494044615 0 0.014472159080205474 0.024648888693222275 0 0.013445740263499281 0.024995104944741494 0 0.013583239234693619 0.024083368868204249 0 0.012515684268322867 0.023948885474865806 0 0.012522332450338944 0.023530578630115317 0 0.012804546413277874 0.023858749515749057 0 0.014582804481066218 0.024555494160307133 0 0.014470725154684188 0.024480298494044615 0 0.014472159080205474 0.024648888693222275 0 0.013333101834376793 0.024353375127635295 0 0.012804546413277874 0.023858749515749057 0 0.012806773152384094 0.024176350582729871 0 0.012515684268322867 0.023948885474865806 0 0.012804546413277874 0.023858749515749057 0 0.012806773152384094 0.024176350582729871 0 0.014016382742915444 0.024677968089579071 0 0.013583239234693619 0.024083368868204249 0 0.014648029470614284 0.024916779244767224 0 0.014472159080205474 0.024648888693222275 0 0.014681912478134334 0.024740545442670341 0 0.014727157719054621 0.024591440837219977 0 0.014681912478134334 0.024740545442670341 0 0.014859736793614809 0.024816430361469469 0 0.014582804481066218 0.024555494160307133 0 0.014727157719054621 0.024591440837219977 0 0.014681912478134334 0.024740545442670341 0 0.014582804481066218 0.024555494160307133 0 0.014472159080205474 0.024648888693222275 0 0.014681912478134334 0.024740545442670341 0 0.015805347879843935 0.025333056065147404 0 0.015777841906319208 0.025279468545343416 0 0.016809695529185747 0.026053303499312848 0 0.017091914541302506 0.026251013945591255 0 0.017013880053510483 0.026425972070920588 0 0.016809695529185747 0.026053303499312848 0 0.017091914541302506 0.026251013945591255 0 0.017201128566408628 0.026126213907627135 0 0.014727157719054621 0.024591440837219977 0 0.014859736793614809 0.024816430361469469 0 0.014883448583002843 0.024834444228330518 0 0.014681912478134334 0.024740545442670341 0 0.014859736793614809 0.024816430361469469 0 0.014818166047457506 0.024930936543285542 0 0.015666125941148794 0.025190180409872257 0 0.015777841906319208 0.025279468545343416 0 0.017184371024928282 0.026382988841054542 0 0.017091914541302506 0.026251013945591255 0 0.017317392424700449 0.026339102408047779 0 0.017184371024928282 0.026382988841054542 0 0.017091914541302506 0.026251013945591255 0 0.017013880053510483 0.026425972070920588 0 0.017091914541302506 0.026251013945591255 0 0.017317392424700449 0.026339102408047779 0 0.017201128566408628 0.026126213907627135 0 0.017692473952889871 0.02629706845362989 0 0.017201128566408628 0.026126213907627135 0 0.017689819065641422 0.026057568989803569 0 0.017692473952889871 0.02629706845362989 0 0.017317392424700449 0.026339102408047779 0 0.017608978833675553 0.02651932320199937 0 0.017184371024928282 0.026382988841054542 0 0.017317392424700449 0.026339102408047779 0 0.01735681478858141 0.026504100358771238 0 0.017692473952889871 0.02629706845362989 0 0.017317392424700449 0.026339102408047779 0 0.017201128566408628 0.026126213907627135 0 0.017201128566408628 0.026126213907627135 0 0.016816220057162025 0.025811072004058383 0 0.017689819065641422 0.026057568989803569 0 0.016809695529185747 0.026053303499312848 0 0.017201128566408628 0.026126213907627135 0 0.016816220057162025 0.025811072004058383 0 0.015007155339379326 0.024999594341369599 0 0.015884216306242253 0.025455711241028842 0 0.017465450915703794 0.024999900165339897 0 0.016816220057162025 0.025811072004058383 0 0.015884216306242253 0.025455711241028842 0 0.017465450915703794 0.024999900165339897 0 0.016700009661352704 0.025896577734759046 0 0.016809695529185747 0.026053303499312848 0 0.016816220057162025 0.025811072004058383 0 0.01511489328285137 0.026314856164406063 0 0.016816220057162025 0.025811072004058383 0 0.015884216306242253 0.025455711241028842 0 0.015312386297845176 0.025603617536107209 0 0.017005603786690051 0.025954827470609787 0 0.016816220057162025 0.025811072004058383 0 0.017832207665727632 0.025761835452583561 0 0.017689819065641422 0.026057568989803569 0 0.017465450915703794 0.024999900165339897 0 0.017832207665727632 0.025761835452583561 0 0.018903636342822546 0.025776158784064012 0 0.016816220057162025 0.025811072004058383 0 0.017465450915703794 0.024999900165339897 0 0.017832207665727632 0.025761835452583561 0 0.017832207665727632 0.025761835452583561 0 0.018236370281013849 0.026057014106003144 0 0.018903636342822546 0.025776158784064012 0 0.017832207665727632 0.025761835452583561 0 0.018236370281013849 0.026057014106003144 0 0.017689819065641422 0.026057568989803569 0 0.017692473952889871 0.02629706845362989 0 0.017689819065641422 0.026057568989803569 0 0.018252714654173059 0.02620866804072491 0 0.018236370281013849 0.026057014106003144 0 0.017689819065641422 0.026057568989803569 0 0.018252714654173059 0.02620866804072491 0 0.018236370281013849 0.026057014106003144 0 0.018252714654173059 0.02620866804072491 0 0.018807733893900985 0.026027968952403554 0 0.018236370281013849 0.026057014106003144 0 0.018807733893900985 0.026027968952403554 0 0.019504538219920788 0.025305505351201261 0 0.018688959502027241 0.026485481279601986 0 0.018359880152237548 0.026867913314729135 0 0.018040418018336345 0.026541914598922536 0 0.018252714654173059 0.02620866804072491 0 0.018688959502027241 0.026485481279601986 0 0.018040418018336345 0.026541914598922536 0 0.018252714654173059 0.02620866804072491 0 0.018807733893900985 0.026027968952403554 0 0.018688959502027241 0.026485481279601986 0 0.018359880152237548 0.026867913314729135 0 0.01845067106771979 0.027437557759713269 0 0.019030808283806482 0.027038371985928226 0 0.018688959502027241 0.026485481279601986 0 0.018359880152237548 0.026867913314729135 0 0.019030808283806482 0.027038371985928226 0 0.018359880152237548 0.026867913314729135 0 0.018040418018336345 0.026541914598922536 0 0.017660299733954232 0.026873616521242753 0 0.018359880152237548 0.026867913314729135 0 0.017660299733954232 0.026873616521242753 0 0.01845067106771979 0.027437557759713269 0 0.017152933641213806 0.026237685730824946 0 0.018072199687151118 0.027014017581286919 0 0.018040418018336345 0.026541914598922536 0 0.017608978833675553 0.02651932320199937 0 0.017660299733954232 0.026873616521242753 0 0.017692473952889871 0.02629706845362989 0 0.018252714654173059 0.02620866804072491 0 0.018040418018336345 0.026541914598922536 0 0.017692473952889871 0.02629706845362989 0 0.018040418018336345 0.026541914598922536 0 0.017608978833675553 0.02651932320199937 0 0.015372199605049638 0.024514072906220936 0 0.016477053278068112 0.025507241485813247 0 0.015907227272517203 0.02561724198669529 0 0.015777841906319208 0.025279468545343416 0 0.017152933641213806 0.026237685730824946 0 0.01735681478858141 0.026504100358771238 0 0.017013880053510483 0.026425972070920588 0 0.017660299733954232 0.026873616521242753 0 0.017608978833675553 0.02651932320199937 0 0.01735681478858141 0.026504100358771238 0 0.017660299733954232 0.026873616521242753 0 0.017317392424700449 0.026339102408047779 0 0.017608978833675553 0.02651932320199937 0 0.01735681478858141 0.026504100358771238 0 0.014648029470614284 0.024916779244767224 0 0.014818166047457506 0.024930936543285542 0 0.014876227115349064 0.025342219707892962 0 0.015777841906319208 0.025279468545343416 0 0.015464898843641401 0.025300660441088245 0 0.014883960004215427 0.024828541025688388 0 0.014939808540633735 0.025081070384108936 0 0.015219526257591395 0.025258387049469599 0 0.014818166047457506 0.024930936543285542 0 0.014939808540633735 0.025081070384108936 0 0.014876227115349064 0.025342219707892962 0 0.014818166047457506 0.024930936543285542 0 0.014883960004215427 0.024828541025688388 0 0.014939808540633735 0.025081070384108936 0 0.014859736793614809 0.024816430361469469 0 0.014818166047457506 0.024930936543285542 0 0.014883960004215427 0.024828541025688388 0 0.017184371024928282 0.026382988841054542 0 0.01735681478858141 0.026504100358771238 0 0.017013880053510483 0.026425972070920588 0 0.014876227115349064 0.025342219707892962 0 0.015219526257591395 0.025258387049469599 0 0.01539256185619357 0.026167211743559685 0 0.014939808540633735 0.025081070384108936 0 0.014876227115349064 0.025342219707892962 0 0.015219526257591395 0.025258387049469599 0 0.013597051174539887 0.025414265820936102 0 0.014149358563352999 0.025103713892545169 0 0.01391882946546007 0.025708573576904464 0 0.016477053278068112 0.025507241485813247 0 0.015907227272517203 0.02561724198669529 0 0.016445811158695287 0.026839678397953676 0 0.015219526257591395 0.025258387049469599 0 0.01539256185619357 0.026167211743559685 0 0.015853047307711452 0.026158432300728431 0 0.015464898843641401 0.025300660441088245 0 0.016191695537027297 0.026585648456272048 0 0.01539256185619357 0.026167211743559685 0 0.015853047307711452 0.026158432300728431 0 0.015269707994059538 0.026664083956884028 0 0.01539256185619357 0.026167211743559685 0 0.014918647501310655 0.026360638532090697 0 0.015269707994059538 0.026664083956884028 0 0.014149358563352999 0.025103713892545169 0 0.01539256185619357 0.026167211743559685 0 0.014490877006277729 0.026026711166107799 0 0.014149358563352999 0.025103713892545169 0 0.01391882946546007 0.025708573576904464 0 0.014490877006277729 0.026026711166107799 0 0.014550224938264897 0.025253789278810335 0 0.015323854526610751 0.026133971869806608 0 0.01539256185619357 0.026167211743559685 0 0.014490877006277729 0.026026711166107799 0 0.014918647501310655 0.026360638532090697 0 0.014490877006277729 0.026026711166107799 0 0.014918647501310655 0.026360638532090697 0 0.014629122155891874 0.026641279737059983 0 0.014490877006277729 0.026026711166107799 0 0.013849314663372386 0.026310094431574824 0 0.014629122155891874 0.026641279737059983 0 0.01391882946546007 0.025708573576904464 0 0.014490877006277729 0.026026711166107799 0 0.013849314663372386 0.026310094431574824 0 0.013849314663372386 0.026310094431574824 0 0.014629122155891874 0.026641279737059983 0 0.014128401120145745 0.026937705520423311 0 0.014629122155891874 0.026641279737059983 0 0.01493778667442947 0.02726468356218759 0 0.014128401120145745 0.026937705520423311 0 0.014918647501310655 0.026360638532090697 0 0.014629122155891874 0.026641279737059983 0 0.015269707994059538 0.026664083956884028 0 0.014629122155891874 0.026641279737059983 0 0.01493778667442947 0.02726468356218759 0 0.015269707994059538 0.026664083956884028 0 0.015136494742840656 0.027986094749716008 0 0.01493778667442947 0.02726468356218759 0 0.014420254598936089 0.027529572197694467 0 0.01493778667442947 0.02726468356218759 0 0.014128401120145745 0.026937705520423311 0 0.014420254598936089 0.027529572197694467 0 0.013771748895610525 0.027373801060223135 0 0.014128401120145745 0.026937705520423311 0 0.014420254598936089 0.027529572197694467 0 0.016967538490600034 0.028110200512127845 0 0.015853047307711452 0.026158432300728431 0 0.015662535370046263 0.027289717403506088 0 0.015853047307711452 0.026158432300728431 0 0.015269707994059538 0.026664083956884028 0 0.015662535370046263 0.027289717403506088 0 0.015136494742840656 0.027986094749716008 0 0.01493778667442947 0.02726468356218759 0 0.015662535370046263 0.027289717403506088 0 0.01493778667442947 0.02726468356218759 0 0.015269707994059538 0.026664083956884028 0 0.015662535370046263 0.027289717403506088 0 0.016902079440074463 0.027994612829082149 0 0.016191695537027297 0.026585648456272048 0 0.016967538490600034 0.028110200512127845 0 0.016445811158695287 0.026839678397953676 0 0.017335162099029404 0.027331172861743431 0 0.016967538490600034 0.028110200512127845 0 0.017335162099029404 0.027331172861743431 0 0.019251001647966212 0.028127218856341271 0 0.017335162099029404 0.027331172861743431 0 0.01771496920323189 0.026574883403724547 0 0.019251001647966212 0.028127218856341271 0 0.018072199687151118 0.027014017581286919 0 0.019198908477385725 0.028069887286036776 0 0.01845067106771979 0.027437557759713269 0 0.019251001647966212 0.028127218856341271 0 0.019030808283806482 0.027038371985928226 0 0.016477053278068112 0.025507241485813247 0 0.016445811158695287 0.026839678397953676 0 0.01771496920323189 0.026574883403724547 0 0.016445811158695287 0.026839678397953676 0 0.017335162099029404 0.027331172861743431 0 0.01771496920323189 0.026574883403724547 0 0.019854949655076105 0.027074745393199689 0 0.019251001647966212 0.028127218856341271 0 0.020907210226670785 0.027672581389839534 0 0.019854949655076105 0.027074745393199689 0 0.020907210226670785 0.027672581389839534 0 0.020576098301475835 0.026496422118377879 0 0.019854949655076105 0.027074745393199689 0 0.019251001647966212 0.028127218856341271 0 0.019030808283806482 0.027038371985928226 0 0.020525993686124431 0.029256592822685598 0 0.019251001647966212 0.028127218856341271 0 0.020907210226670785 0.027672581389839534 0 0.02241202212017818 0.029008445239238539 0 0.023019022232983855 0.02754979075664795 0 0.020907210226670785 0.027672581389839534 0 0.023019022232983855 0.02754979075664795 0 0.023202841584013735 0.026302258982229373 0 0.021594983400639346 0.026199741234098118 0 0.023019022232983855 0.02754979075664795 0 0.020907210226670785 0.027672581389839534 0 0.021594983400639346 0.026199741234098118 0 0.020907210226670785 0.027672581389839534 0 0.020576098301475835 0.026496422118377879 0 0.021594983400639346 0.026199741234098118 0 0.020576098301475835 0.026496422118377879 0 0.021594983400639346 0.026199741234098118 0 0.020662121121057277 0.025893570281100484 0 0.021594983400639346 0.026199741234098118 0 0.022935723264331614 0.023206000581365838 0 0.023480842140673287 0.02502767940940186 0 0.023202841584013735 0.026302258982229373 0 0.021594983400639346 0.026199741234098118 0 0.023480842140673287 0.02502767940940186 0 0.021612817936737 0.02610213737657539 0 0.022331705909799705 0.024440528503008489 0 0.021594983400639346 0.026199741234098118 0 0.021579554104717045 0.025846864655778266 0 0.020662121121057277 0.025893570281100484 0 0.020576098301475835 0.026496422118377879 0 0.020662121121057277 0.025893570281100484 0 0.019616836814937373 0.026259602389764089 0 0.019854949655076105 0.027074745393199689 0 0.020576098301475835 0.026496422118377879 0 0.019616836814937373 0.026259602389764089 0 0.019854949655076105 0.027074745393199689 0 0.019030808283806482 0.027038371985928226 0 0.019616836814937373 0.026259602389764089 0 0.018688959502027241 0.026485481279601986 0 0.019030808283806482 0.027038371985928226 0 0.019616836814937373 0.026259602389764089 0 0.018807733893900985 0.026027968952403554 0 0.018688959502027241 0.026485481279601986 0 0.019616836814937373 0.026259602389764089 0 0.018807733893900985 0.026027968952403554 0 0.019616836814937373 0.026259602389764089 0 0.019504538219920788 0.025305505351201261 0 0.017465450915703794 0.024999900165339897 0 0.018903636342822546 0.025776158784064012 0 0.020712961094993598 0.024998817899747026 0 0.020662121121057277 0.025893570281100484 0 0.019616836814937373 0.026259602389764089 0 0.019504538219920788 0.025305505351201261 0 0.020662121121057277 0.025893570281100484 0 0.019504538219920788 0.025305505351201261 0 0.020835098826397225 0.025128955219060063 0 0.019342609145877706 0.026719011347935809 0 0.020233568324523905 0.026099930608647501 0 0.020744926383488294 0.027103140929656988 0 0.019512978203629246 0.026009555582907812 0 0.020569931631853937 0.026320675690708912 0 0.018236370281013849 0.026057014106003144 0 0.019342609145877706 0.026719011347935809 0 0.018903636342822546 0.025776158784064012 0 0.019342609145877706 0.026719011347935809 0 0.018903636342822546 0.025776158784064012 0 0.020233568324523905 0.026099930608647501 0 0.018358389592578676 0.02604284845972335 0 0.019512978203629246 0.026009555582907812 0 0.018903636342822546 0.025776158784064012 0 0.020233568324523905 0.026099930608647501 0 0.020712961094993598 0.024998817899747026 0 0.020712961094993598 0.024998817899747026 0 0.02162434315205064 0.026069359823055704 0 0.023417375781702738 0.025042783302238737 0 0.020233568324523905 0.026099930608647501 0 0.020712961094993598 0.024998817899747026 0 0.02162434315205064 0.026069359823055704 0 0.02162434315205064 0.026069359823055704 0 0.020744926383488294 0.027103140929656988 0 0.02235377351192467 0.027327976913959481 0 0.020233568324523905 0.026099930608647501 0 0.02162434315205064 0.026069359823055704 0 0.020744926383488294 0.027103140929656988 0 0.021579554104717045 0.025846864655778266 0 0.020662121121057277 0.025893570281100484 0 0.020835098826397225 0.025128955219060063 0 0.022331705909799705 0.024440528503008489 0 0.023256969963808924 0.024436538741687674 0 0.020569931631853937 0.026320675690708912 0 0.023256969963808924 0.024436538741687674 0 0.021579554104717045 0.025846864655778266 0 0.020835098826397225 0.025128955219060063 0 0.021880127599456563 0.025166437510453093 0 0.022935723264331614 0.023206000581365838 0 0.024450507248431459 0.021535112903119304 0 0.024808039741268658 0.022499900391113169 0 0.024450507248431459 0.021535112903119304 0 0.025256599102181428 0.022201557339713292 0 0.024808039741268658 0.022499900391113169 0 0.020712961094993598 0.024998817899747026 0 0.023417375781702738 0.025042783302238737 0 0.025000625210342579 0.024998244505484331 0 0.023256969963808924 0.024436538741687674 0 0.02513092680650723 0.022751616960266025 0 0.024754260138192263 0.023251529726662577 0 0.024496853710671326 0.023761583636702027 0 0.024984164836559481 0.022731485218084796 0 0.02513092680650723 0.022751616960266025 0 0.024836542968213457 0.022715439915273156 0 0.025256599102181428 0.022201557339713292 0 0.024984164836559481 0.022731485218084796 0 0.025305996535611986 0.02211845680791515 0 0.025256599102181428 0.022201557339713292 0 0.025305996535611986 0.02211845680791515 0 0.024808039741268658 0.022499900391113169 0 0.024754260138192263 0.023251529726662577 0 0.024496853710671326 0.023761583636702027 0 0.024841440319828319 0.023946988866785621 0 0.023256969963808924 0.024436538741687674 0 0.02376242132241552 0.025196066955650742 0 0.02162434315205064 0.026069359823055704 0 0.02235377351192467 0.027327976913959481 0 0.022881531930145121 0.026317655324724496 0 0.025180065921128907 0.023355493365887846 0 0.024754260138192263 0.023251529726662577 0 0.024841440319828319 0.023946988866785621 0 0.02376242132241552 0.025196066955650742 0 0.023597588774730595 0.02498968323027808 0 0.02162434315205064 0.026069359823055704 0 0.022881531930145121 0.026317655324724496 0 0.023417375781702738 0.025042783302238737 0 0.024496853710671326 0.023761583636702027 0 0.024841440319828319 0.023946988866785621 0 0.023417375781702738 0.025042783302238737 0 0.024496853710671326 0.023761583636702027 0 0.023417375781702738 0.025042783302238737 0 0.024590614056477555 0.023976490181996612 0 0.025000625210342579 0.024998244505484331 0 0.024590614056477555 0.023976490181996612 0 0.024997781682864928 0.02284938856166659 0 0.023417375781702738 0.025042783302238737 0 0.025000625210342579 0.024998244505484331 0 0.024590614056477555 0.023976490181996612 0 0.024496853710671326 0.023761583636702027 0 0.024590614056477555 0.023976490181996612 0 0.024984164836559481 0.022731485218084796 0 0.024590614056477555 0.023976490181996612 0 0.024997781682864928 0.02284938856166659 0 0.024984164836559481 0.022731485218084796 0 0.024997781682864928 0.02284938856166659 0 0.024984164836559481 0.022731485218084796 0 0.025132784807894968 0.021651143147689903 0 0.024997781682864928 0.02284938856166659 0 0.025132784807894968 0.021651143147689903 0 0.024999465603791141 0.019898801877967293 0 0.025132784807894968 0.021651143147689903 0 0.025255970941985641 0.020971747266921258 0 0.024999465603791141 0.019898801877967293 0 0.025255970941985641 0.020971747266921258 0 0.025492995312409256 0.021570301909124411 0 0.025364500928868657 0.02073268144677827 0 0.025132784807894968 0.021651143147689903 0 0.025255970941985641 0.020971747266921258 0 0.02526601994717164 0.021797356134637007 0 0.025255970941985641 0.020971747266921258 0 0.02526601994717164 0.021797356134637007 0 0.025492995312409256 0.021570301909124411 0 0.024984164836559481 0.022731485218084796 0 0.025132784807894968 0.021651143147689903 0 0.02526601994717164 0.021797356134637007 0 0.02526601994717164 0.021797356134637007 0 0.025305996535611986 0.02211845680791515 0 0.025492995312409256 0.021570301909124411 0 0.024984164836559481 0.022731485218084796 0 0.02526601994717164 0.021797356134637007 0 0.025305996535611986 0.02211845680791515 0 0.024754238835841387 0.022250562694228954 0 0.025090269059710648 0.02440000826308376 0 0.022935723264331614 0.023206000581365838 0 0.024808039741268658 0.022499900391113169 0 0.023480842140673287 0.02502767940940186 0 0.025305996535611986 0.02211845680791515 0 0.024808039741268658 0.022499900391113169 0 0.025506489982199208 0.021638633373508891 0 0.024808039741268658 0.022499900391113169 0 0.023480842140673287 0.02502767940940186 0 0.024601342584213492 0.026233556948573714 0 0.023202841584013735 0.026302258982229373 0 0.023480842140673287 0.02502767940940186 0 0.024601342584213492 0.026233556948573714 0 0.025305996535611986 0.02211845680791515 0 0.025506489982199208 0.021638633373508891 0 0.025492995312409256 0.021570301909124411 0 0.025492995312409256 0.021570301909124411 0 0.025775600494468243 0.020086496277627233 0 0.025364500928868657 0.02073268144677827 0 0.025506489982199208 0.021638633373508891 0 0.025492995312409256 0.021570301909124411 0 0.0255303940521171 0.02168352087526141 0 0.025506489982199208 0.021638633373508891 0 0.0255303940521171 0.02168352087526141 0 0.025510405031284995 0.021696857326840364 0 0.025090269059710648 0.02440000826308376 0 0.025069623548415684 0.02276614503337248 0 0.025442730470295386 0.021664011250087614 0 0.025936837377739233 0.020543062912958109 0 0.023019022232983855 0.02754979075664795 0 0.023202841584013735 0.026302258982229373 0 0.024601342584213492 0.026233556948573714 0 0.023019022232983855 0.02754979075664795 0 0.024601342584213492 0.026233556948573714 0 0.024733307548841184 0.028436611419958679 0 0.02241202212017818 0.029008445239238539 0 0.023019022232983855 0.02754979075664795 0 0.024733307548841184 0.028436611419958679 0 0.024671745239418296 0.023372975533964155 0 0.025069623548415684 0.02276614503337248 0 0.025923001910539298 0.018649777108840773 0 0.025936837377739233 0.020543062912958109 0 0.025307791436313037 0.019069951293934038 0 0.025485439592983737 0.021092546928807028 0 0.026467747051887688 0.020728817570165783 0 0.025936837377739233 0.020543062912958109 0 0.025069623548415684 0.02276614503337248 0 0.026560032932205681 0.018386883993382744 0 0.026642494064294232 0.019266524361252785 0 0.02595576492624526 0.018762370101877018 0 0.025936837377739233 0.020543062912958109 0 0.025559105313347919 0.019875105715106842 0 0.026642494064294232 0.019266524361252785 0 0.02595576492624526 0.018762370101877018 0 0.025827128483569425 0.019574568070031721 0 0.025000000421710893 0.018550164127000182 0 0.02499997586258372 0.019896413673202322 0 0.025827128483569425 0.019574568070031721 0 0.025000000421710893 0.018550164127000182 0 0.02595576492624526 0.018762370101877018 0 0.025827128483569425 0.019574568070031721 0 0.025255970941985641 0.020971747266921258 0 0.024999465603791141 0.019898801877967293 0 0.025151503910219863 0.020327461970289715 0 0.02499996430599627 0.019896639249458718 0 0.025559105313347919 0.019875105715106842 0 0.025775600494468243 0.020086496277627233 0 0.025151503910219863 0.020327461970289715 0 0.025364500928868657 0.02073268144677827 0 0.025255970941985641 0.020971747266921258 0 0.025151503910219863 0.020327461970289715 0 0.025364500928868657 0.02073268144677827 0 -0.0022776372543396694 0.012245419652546979 0 -0.0024088318510939555 0.01248901271463714 0 -0.0021667611235076981 0.012634286930251605 0 -0.0022776372543396694 0.012245419652546979 0 -0.0019975868404230172 0.012093442986033013 0 -0.0021667611235076981 0.012634286930251605 0 -0.0019975868404230172 0.012093442986033013 0 -0.0021667611235076981 0.012634286930251605 0 -0.0017613572584708774 0.012511501463386161 0 -0.0019975868404230172 0.012093442986033013 0 -0.0017741272249583164 0.011613052361770508 0 -0.0023222509851116373 0.011907936359137188 0 -0.0022776372543396694 0.012245419652546979 0 -0.0024467025337178558 0.012225502005799818 0 -0.0023222509851116373 0.011907936359137188 0 -0.0022776372543396694 0.012245419652546979 0 -0.0019975868404230172 0.012093442986033013 0 -0.0023222509851116373 0.011907936359137188 0 -0.0026333242541922283 0.012166868705526487 0 -0.0023222509851116373 0.011907936359137188 0 -0.0027226119269173864 0.01202981385101245 0 -0.0024467025337178558 0.012225502005799818 0 -0.0026333242541922283 0.012166868705526487 0 -0.0023222509851116373 0.011907936359137188 0 -0.0026333242541922283 0.012166868705526487 0 -0.0026999048537381123 0.012290367670284998 0 -0.0027226119269173864 0.01202981385101245 0 -0.0026999048537381123 0.012290367670284998 0 -0.0027226119269173864 0.01202981385101245 0 -0.0028541782810814209 0.012364176174577491 0 -0.0026333242541922283 0.012166868705526487 0 -0.0026999048537381123 0.012290367670284998 0 -0.0025779302913929037 0.012346368118331036 0 -0.0019170165643787489 0.01275727561138576 0 0.00013207396666428014 0.016358211480668149 0 -0.0026999048537381123 0.012290367670284998 0 -0.0025779302913929037 0.012346368118331036 0 -0.0026738642939093922 0.012487770512444598 0 0.00013207396666428014 0.016358211480668149 0 0.0020332379299686748 0.015132173591225154 0 -0.0026999048537381123 0.012290367670284998 0 -0.0026738642939093922 0.012487770512444598 0 -0.0028541782810814209 0.012364176174577491 0 -0.0025779302913929037 0.012346368118331036 0 -0.0024088318510939555 0.01248901271463714 0 -0.0024861539427647795 0.012732827750708973 0 -0.0022776372543396694 0.012245419652546979 0 -0.0024467025337178558 0.012225502005799818 0 -0.0024088318510939555 0.01248901271463714 0 -0.0024467025337178558 0.012225502005799818 0 -0.0025779302913929037 0.012346368118331036 0 -0.0024088318510939555 0.01248901271463714 0 -0.0024467025337178558 0.012225502005799818 0 -0.0026333242541922283 0.012166868705526487 0 -0.0025779302913929037 0.012346368118331036 0 0.0013791793974726675 0.020364640019679921 0 0.0012765937728431659 0.02029537016889138 0 -3.2275488889033157e-05 0.020676851422389418 0 -0.0024088318510939555 0.01248901271463714 0 -0.0024861539427647795 0.012732827750708973 0 -0.0021667611235076981 0.012634286930251605 0 0.0016853794551691705 0.021749841524157158 0 0.0020427629718812183 0.021664151435729813 0 0.0015996111667813697 0.021691697588411031 0 0.00021015771655389333 0.020554696798716361 0 0.0024009082550546057 0.023617620801065935 0 0.00021015771655389333 0.020554696798716361 0 0.0013756290717880789 0.020762896100991957 0 -0.0025779302913929037 0.012346368118331036 0 -0.0024861539427647795 0.012732827750708973 0 -0.0027361404112966332 0.012556562038873623 0 0.0020427629718812183 0.021664151435729813 0 0.0015996111667813697 0.021691697588411031 0 0.0029394391848134578 0.021290408521418586 0 0.0024009082550546057 0.023617620801065935 0 0.0045080416249527926 0.025479555486039501 0 0.00013207396666428014 0.016358211480668149 0 0.0041020354298952309 0.020322562284126204 0 0.00021015771655389333 0.020554696798716361 0 0.00013207396666428014 0.016358211480668149 0 0.001689898557376686 0.021746467395623376 0 0.0020427629718812183 0.021664151435729813 0 0.0025395956318554945 0.022291670795012396 0 0.0020427629718812183 0.021664151435729813 0 0.0025395956318554945 0.022291670795012396 0 0.0027121582012819764 0.021479324464070068 0 0.0025395956318554945 0.022291670795012396 0 0.0027121582012819764 0.021479324464070068 0 0.0032123532807506777 0.021656042433407623 0 0.0020427629718812183 0.021664151435729813 0 0.0027121582012819764 0.021479324464070068 0 0.0029394391848134578 0.021290408521418586 0 0.0027121582012819764 0.021479324464070068 0 0.0029410834252731853 0.021284467882833374 0 0.0032123532807506777 0.021656042433407623 0 0.0048811279088921298 0.030189979577284046 0 0.0058612384067596229 0.029919811919148321 0 0.0055056797532687159 0.02938631424035882 0 0.0045351637255294647 0.024173467160699388 0 0.0045080416249527926 0.025479555486039501 0 0.0048811279088921298 0.030189979577284046 0 0.00406507444595074 0.029678882035653512 0 0.0048831941866483881 0.029203736174107701 0 0.0048811279088921298 0.030189979577284046 0 0.0048831941866483881 0.029203736174107701 0 0.0055056797532687159 0.02938631424035882 0 0.0024009082550546057 0.023617620801065935 0 0.0030143790889693984 0.027886594325668281 0 0.00406507444595074 0.029678882035653512 0 0.003917792170825083 0.029564558491843921 0 0.0048831941866483881 0.029203736174107701 0 0.0011419095748335759 0.024774089596691608 0 0.0013945981640076791 0.024976583443391563 0 0.0013672994293449658 0.024701783603907814 0 0.0024009082550546057 0.023617620801065935 0 -0.00024016166319290426 0.019158112567303581 0 0.00021015771655389333 0.020554696798716361 0 -0.00024016166319290426 0.019158112567303581 0 -0.00024016166319290426 0.019158112567303581 0 -0.00090034403818078489 0.015722288896397502 0 -0.00024016166319290426 0.019158112567303581 0 0.0009014646062616284 0.022125195302730438 0 0.0013672994293449658 0.024701783603907814 0 0.0015537805986613029 0.024876406426431689 0 0.0016076722577408676 0.02464518459378728 0 0.0001324609218704819 0.019239852620915824 0 8.7925985917564233e-05 0.01929796585365148 0 8.5705846418154255e-05 0.019308376470091402 0 0.0013945981640076791 0.024976583443391563 0 0.0015537805986613029 0.024876406426431689 0 0.00164617551334659 0.02517004843385803 0 0.0013945981640076791 0.024976583443391563 0 0.0013672994293449658 0.024701783603907814 0 0.0015537805986613029 0.024876406426431689 0 0.00406507444595074 0.029678882035653512 0 0.003917792170825083 0.029564558491843921 0 0.0032325727232884217 0.029209862637130917 0 0.0015537805986613029 0.024876406426431689 0 0.0017505375396306344 0.024890355819180143 0 0.00164617551334659 0.02517004843385803 0 0.0017505375396306344 0.024890355819180143 0 0.0018531446600041804 0.025127508778143348 0 0.00164617551334659 0.02517004843385803 0 0.0017505375396306344 0.024890355819180143 0 0.0020228186508946841 0.02490863623332484 0 0.0018531446600041804 0.025127508778143348 0 0.0017505375396306344 0.024890355819180143 0 0.0020228186508946841 0.02490863623332484 0 0.001849351443691369 0.024583962724553168 0 0.0020228186508946841 0.02490863623332484 0 0.0020876427708633868 0.024521583812490113 0 0.001849351443691369 0.024583962724553168 0 0.0015537805986613029 0.024876406426431689 0 0.0017505375396306344 0.024890355819180143 0 0.0016076722577408676 0.02464518459378728 0 0.0017505375396306344 0.024890355819180143 0 0.0016076722577408676 0.02464518459378728 0 0.001849351443691369 0.024583962724553168 0 -0.0014569325216898868 0.025560872958904735 0 -0.0013495527324418855 0.025606147345973787 0 -0.0013214455828816105 0.025900053804018455 0 -0.0009985320731516127 0.025383480012600528 0 -0.0011520058981991665 0.025902019396901198 0 -7.7022219447552898e-05 0.025568302847371757 0 -0.00037208092739736317 0.025148427176693772 0 -0.00097505022349988677 0.025853752274609326 0 -7.7022219447552898e-05 0.025568302847371757 0 -0.000652705300739701 0.026315061684764083 0 -0.00034328527047742738 0.026772255412461109 0 0.0011226587609868294 0.025380675150165823 0 0.00024233927787155568 0.024238429380899727 0 -7.7022219447552898e-05 0.025568302847371757 0 -0.00097505022349988677 0.025853752274609326 0 -0.000652705300739701 0.026315061684764083 0 -0.0011520058981991665 0.025902019396901198 0 -0.0016328605434920169 0.026611979021044837 0 -0.00097505022349988677 0.025853752274609326 0 -0.0010354270745425961 0.026596051030053906 0 -0.0016460507300381465 0.026666238143555298 0 -0.00097505022349988677 0.025853752274609326 0 -0.000652705300739701 0.026315061684764083 0 -0.0010354270745425961 0.026596051030053906 0 -0.0010354270745425961 0.026596051030053906 0 -0.0012149163826757139 0.0272874349643581 0 -0.0016460507300381465 0.026666238143555298 0 -0.0010354270745425961 0.026596051030053906 0 -0.00070039095670135275 0.026875816675229709 0 -0.0012149163826757139 0.0272874349643581 0 -0.000652705300739701 0.026315061684764083 0 -0.0010354270745425961 0.026596051030053906 0 -0.00070039095670135275 0.026875816675229709 0 -0.00049666590405886995 0.019573626648198169 0 -0.00047538570307406104 0.0194905479822448 0 -0.00012792088662820348 0.019429999739573177 0 -0.00070039095670135275 0.026875816675229709 0 -0.00035329101789458852 0.026966289707180142 0 -0.00029738008626852615 0.026744322267325794 0 -0.00086185506908591073 0.025738974450976386 0 0.00024233927787155568 0.024238429380899727 0 -0.00088057970223200598 0.018887384846426894 0 0.00024233927787155568 0.024238429380899727 0 -0.000652705300739701 0.026315061684764083 0 -0.00070039095670135275 0.026875816675229709 0 -0.00034328527047742738 0.026772255412461109 0 -0.00061474122509147901 0.012220364264224562 0 -0.00048060839967434304 0.011669022346321329 0 -0.0010722484471936402 0.01186812885889107 0 -0.00088057970223200598 0.018887384846426894 0 -0.0015594790216027664 0.013968350346837733 0 -0.00070039095670135275 0.026875816675229709 0 -0.00035329101789458852 0.026966289707180142 0 -0.0012149163826757139 0.0272874349643581 0 -0.0030826689662574549 0.018193498548786498 0 -0.0029234501049047561 0.017425661686712789 0 -0.0022352413687953257 0.017924914528218559 0 -0.00088057970223200598 0.018887384846426894 0 -0.0019095783432260482 0.022897026630971953 0 -0.0029234501049047561 0.017425661686712789 0 -0.0022352413687953257 0.017924914528218559 0 -0.0020620205356029421 0.017158456975843905 0 8.5705846418154255e-05 0.019308376470091402 0 -0.00012792088662820348 0.019429999739573177 0 -0.00011719110756134897 0.019386028763061891 0 8.7925985917564233e-05 0.01929796585365148 0 8.5705846418154255e-05 0.019308376470091402 0 -0.00011719110756134897 0.019386028763061891 0 -0.0019975868404230172 0.012093442986033013 0 -0.0017613572584708774 0.012511501463386161 0 -0.0012500678251495027 0.012377113593507086 0 -0.00090034403818078489 0.015722288896397502 0 -0.00051429791428700877 0.015677100663384347 0 0.0009014646062616284 0.022125195302730438 0 0.0010330430146107282 0.02182252896717345 0 -0.00088057970223200598 0.018887384846426894 0 -0.00051429791428700877 0.015677100663384347 0 0.00024233927787155568 0.024238429380899727 0 0.0010330430146107282 0.02182252896717345 0 -0.00047538570307406104 0.0194905479822448 0 -0.00012792088662820348 0.019429999739573177 0 -0.00011719110756134897 0.019386028763061891 0 -0.0012500678251495027 0.012377113593507086 0 -0.0010722484471936402 0.01186812885889107 0 -0.0017741272249583164 0.011613052361770508 0 -0.00061474122509147901 0.012220364264224562 0 -0.0012500678251495027 0.012377113593507086 0 -0.0010722484471936402 0.01186812885889107 0 -0.0019975868404230172 0.012093442986033013 0 -0.0012500678251495027 0.012377113593507086 0 -0.0017741272249583164 0.011613052361770508 0 -0.0017741272249583164 0.011613052361770508 0 -0.0012670247215968088 0.011454263981021213 0 -0.0013114356058942706 0.010984151999492724 0 -0.0010722484471936402 0.01186812885889107 0 -0.0012670247215968088 0.011454263981021213 0 -0.00078936296629544399 0.011236776177709707 0 -0.0012670247215968088 0.011454263981021213 0 -0.0013114356058942706 0.010984151999492724 0 -0.00078936296629544399 0.011236776177709707 0 -0.0010722484471936402 0.01186812885889107 0 -0.0017741272249583164 0.011613052361770508 0 -0.0012670247215968088 0.011454263981021213 0 -0.0013114356058942706 0.010984151999492724 0 -0.00078936296629544399 0.011236776177709707 0 -0.00079295679242322333 0.010776927225446846 0 -0.0013114356058942706 0.010984151999492724 0 -0.00079295679242322333 0.010776927225446846 0 -0.0013679203778642639 0.010370105626170155 0 -0.0017741272249583164 0.011613052361770508 0 -0.0013114356058942706 0.010984151999492724 0 -0.0018517967244726721 0.010438020081764704 0 -0.0013114356058942706 0.010984151999492724 0 -0.0018517967244726721 0.010438020081764704 0 -0.0013679203778642639 0.010370105626170155 0 -0.0029234501049047561 0.017425661686712789 0 -0.002755517447079435 0.016641635414739616 0 -0.0020620205356029421 0.017158456975843905 0 -0.0055985036970096509 0.015734575987904887 0 -0.0041572040965730337 0.016068465490515826 0 -0.004428572743408272 0.016583219345650317 0 -0.0025677583074197627 0.013953976858446123 0 -0.0034582619722939171 0.016721331199659687 0 -0.00048060839967434304 0.011669022346321329 0 -0.00078936296629544399 0.011236776177709707 0 -0.00036418580408820379 0.011109263658101906 0 -0.00048060839967434304 0.011669022346321329 0 -0.0010722484471936402 0.01186812885889107 0 -0.00078936296629544399 0.011236776177709707 0 -0.0015594790216027664 0.013968350346837733 0 -0.0025677583074197627 0.013953976858446123 0 -0.00078936296629544399 0.011236776177709707 0 -0.00044092050777392775 0.011051052642662162 0 -0.00036418580408820379 0.011109263658101906 0 -0.00078936296629544399 0.011236776177709707 0 -0.00079295679242322333 0.010776927225446846 0 -0.00064178959407877405 0.010971961600527604 0 -0.00079295679242322333 0.010776927225446846 0 -0.00035869786968380696 0.010524531584085199 0 -0.00087954422380576744 0.010387267054782583 0 -0.00079295679242322333 0.010776927225446846 0 -0.00052256416143573175 0.010832367912419934 0 -0.00043050587686785743 0.010626156637659494 0 -0.0001327674130122526 0.010411237775087904 0 -0.002870665929370853 0.011815464882953255 0 -0.00078936296629544399 0.011236776177709707 0 -0.00064178959407877405 0.010971961600527604 0 -0.00044092050777392775 0.011051052642662162 0 -0.00052256416143573175 0.010832367912419934 0 -0.00064178959407877405 0.010971961600527604 0 -0.00044092050777392775 0.011051052642662162 0 -0.00079295679242322333 0.010776927225446846 0 -0.00052256416143573175 0.010832367912419934 0 -0.00064178959407877405 0.010971961600527604 0 -0.0044501604790886766 0.013587879006320932 0 -0.0061359602215111239 0.015646296408755773 0 -0.0055985036970096509 0.015734575987904887 0 -0.005385614600579334 0.014818787551509978 0 -0.0041572040965730337 0.016068465490515826 0 -0.0073692204655637925 0.015998088241358868 0 -0.0076015169534667101 0.016133706298486334 0 -0.0077516185563744041 0.016021076414463237 0 -0.0025677583074197627 0.013953976858446123 0 -0.0044501604790886766 0.013587879006320932 0 -0.00052256416143573175 0.010832367912419934 0 -0.00044092050777392775 0.011051052642662162 0 -0.00030987299655041591 0.010745704894651875 0 -0.00044092050777392775 0.011051052642662162 0 -0.00037397513789647784 0.011102802413242461 0 -0.00030987299655041591 0.010745704894651875 0 -0.0023880040792847788 0.013754510343033622 0 -0.0025677583074197627 0.013953976858446123 0 -0.00052256416143573175 0.010832367912419934 0 -0.00030987299655041591 0.010745704894651875 0 -0.00043050587686785743 0.010626156637659494 0 -0.0044933998173649096 0.012662529783302318 0 -0.0045417475210222068 0.012855629285203049 0 -0.0043807939089999144 0.0127690752681082 0 -0.0044501604790886766 0.013587879006320932 0 -0.002870665929370853 0.011815464882953255 0 -0.0044501604790886766 0.013587879006320932 0 -0.005455132607061583 0.013689553900790536 0 -0.0054579851670720266 0.0116473610958392 0 -0.0050796508483590547 0.011025747945906723 0 -0.006609066665379062 0.011839563610453095 0 -0.005455132607061583 0.013689553900790536 0 -0.0077315341135358699 0.014191499615544273 0 -0.007402867478889302 0.016125404410657029 0 -0.0077071902989656049 0.016278157514135409 0 -0.0076015169534667101 0.016133706298486334 0 -0.0056961989735252773 0.012036063243260483 0 -0.0054579851670720266 0.0116473610958392 0 -0.006609066665379062 0.011839563610453095 0 -0.0056961989735252773 0.012036063243260483 0 -0.0054579851670720266 0.0116473610958392 0 -0.0049416588615020934 0.011825348268625661 0 -0.0073692204655637925 0.015998088241358868 0 -0.007402867478889302 0.016125404410657029 0 -0.0076015169534667101 0.016133706298486334 0 -0.0050796508483590547 0.011025747945906723 0 -0.0047954909486713397 0.011342633783646786 0 -0.0050729455812827872 0.011478559616930903 0 -0.0054579851670720266 0.0116473610958392 0 -0.0050796508483590547 0.011025747945906723 0 -0.0050729455812827872 0.011478559616930903 0 -0.005455132607061583 0.013689553900790536 0 -0.002870665929370853 0.011815464882953255 0 -0.0050796508483590547 0.011025747945906723 0 -0.0045503627182314739 0.010746805517892062 0 -0.0047954909486713397 0.011342633783646786 0 -0.0047954909486713397 0.011342633783646786 0 -0.0049416588615020934 0.011825348268625661 0 -0.0041583848920376714 0.011921294019617654 0 -0.0047954909486713397 0.011342633783646786 0 -0.0050729455812827872 0.011478559616930903 0 -0.0049416588615020934 0.011825348268625661 0 -0.0054579851670720266 0.0116473610958392 0 -0.0050729455812827872 0.011478559616930903 0 -0.0049416588615020934 0.011825348268625661 0 -0.002870665929370853 0.011815464882953255 0 -0.0016044471954776993 0.010568046017647137 0 -0.0045503627182314739 0.010746805517892062 0 -0.0041583848920376714 0.011921294019617654 0 -0.00295992005604287 0.012274633084346516 0 -0.00035869786968380696 0.010524531584085199 0 -0.00087954422380576744 0.010387267054782583 0 -0.0010021375223842268 0.0098862000180915295 0 -0.0045503627182314739 0.010746805517892062 0 -0.0047954909486713397 0.011342633783646786 0 -0.0041583848920376714 0.011921294019617654 0 -0.0010998637170233085 0.0095707177511594708 0 -0.001211930012039394 0.0096266080806031908 0 -0.0015461085029159478 0.0096593200767226134 0 -0.0041583848920376714 0.011921294019617654 0 -0.0036859008791462725 0.013278452967005422 0 -0.00295992005604287 0.012274633084346516 0 -0.0031884517864913578 0.010999520538721882 0 -0.0016044471954776993 0.010568046017647137 0 -0.001211930012039394 0.0096266080806031908 0 -0.0011712260488445977 0.0096438379311051901 0 -0.0013210599296120315 0.0098543219678955702 0 -0.0010998637170233085 0.0095707177511594708 0 -0.001211930012039394 0.0096266080806031908 0 -0.0011677906904526355 0.009646728661973079 0 -0.0028980352484970183 0.010994428951849582 0 -0.0031884517864913578 0.010999520538721882 0 -0.0047695212155392935 0.011728579352036134 0 -0.0044685010980167437 0.011314934746312235 0 -0.0060094362871558242 0.01074768162247043 0 -0.0031884517864913578 0.010999520538721882 0 -0.0055396320317942843 0.011760936212415913 0 -0.0031673400727303186 0.010045750589722109 0 -0.0031884517864913578 0.010999520538721882 0 -0.0041583848920376714 0.011921294019617654 0 -0.0036859008791462725 0.013278452967005422 0 -0.0051167174616510843 0.012760366935672908 0 -0.0049416588615020934 0.011825348268625661 0 -0.0041583848920376714 0.011921294019617654 0 -0.0051167174616510843 0.012760366935672908 0 -0.0056961989735252773 0.012036063243260483 0 -0.0049416588615020934 0.011825348268625661 0 -0.0051167174616510843 0.012760366935672908 0 -0.0055396320317942843 0.011760936212415913 0 -0.0080336583802576231 0.012313996610722779 0 -0.0056961989735252773 0.012036063243260483 0 -0.0051167174616510843 0.012760366935672908 0 -0.0065650183146744034 0.012237882974509765 0 -0.0018517967244726721 0.010438020081764704 0 -0.0016064893104931676 0.010022032223885938 0 -0.0013679203778642639 0.010370105626170155 0 -0.0018517967244726721 0.010438020081764704 0 -0.0016064893104931676 0.010022032223885938 0 -0.001973498437511535 0.0099010439448432089 0 -0.0016064893104931676 0.010022032223885938 0 -0.0013679203778642639 0.010370105626170155 0 -0.0012192843388338505 0.0099062032027752087 0 -0.00079295679242322333 0.010776927225446846 0 -0.00087954422380576744 0.010387267054782583 0 -0.0013679203778642639 0.010370105626170155 0 -0.001199945005080757 0.010097148491742217 0 -0.0016044471954776993 0.010568046017647137 0 -0.00087954422380576744 0.010387267054782583 0 -0.0013679203778642639 0.010370105626170155 0 -0.0010021375223842268 0.0098862000180915295 0 -0.0016064893104931676 0.010022032223885938 0 -0.001515552429465408 0.0098179485590091237 0 -0.0012192843388338505 0.0099062032027752087 0 -0.001515552429465408 0.0098179485590091237 0 -0.0015461085029159478 0.0096593200767226134 0 -0.0017023365326271748 0.0097480486833077303 0 -0.0031673400727303186 0.010045750589722109 0 -0.00091751100303869698 0.0094419049122005539 0 -0.001515552429465408 0.0098179485590091237 0 -0.0014261877572300118 0.0097452896866497413 0 -0.0015461085029159478 0.0096593200767226134 0 -0.001211930012039394 0.0096266080806031908 0 -0.0013210599296120315 0.0098543219678955702 0 -0.0014261877572300118 0.0097452896866497413 0 -0.001515552429465408 0.0098179485590091237 0 -0.0012192843388338505 0.0099062032027752087 0 -0.0014261877572300118 0.0097452896866497413 0 -0.0016044471954776993 0.010568046017647137 0 -0.0016346286512845584 0.010101068807992256 0 -0.001211930012039394 0.0096266080806031908 0 -0.0014261877572300118 0.0097452896866497413 0 -0.0015461085029159478 0.0096593200767226134 0 -0.0016366946970712631 0.0096213935001153265 0 -0.0015461085029159478 0.0096593200767226134 0 -0.0016341925307557579 0.0096264294884164121 0 -0.0015461085029159478 0.0096593200767226134 0 -0.0016341925307557579 0.0096264294884164121 0 -0.0017023365326271748 0.0097480486833077303 0 -0.0016614567626221733 0.0095221226762783016 0 -0.0016341925307557579 0.0096264294884164121 0 -0.0017023365326271748 0.0097480486833077303 0 -0.0016614567626221733 0.0095221226762783016 0 -0.0017023365326271748 0.0097480486833077303 0 -0.001973498437511535 0.0099010439448432089 0 -0.0016064893104931676 0.010022032223885938 0 -0.001515552429465408 0.0098179485590091237 0 -0.0017023365326271748 0.0097480486833077303 0 -0.0016064893104931676 0.010022032223885938 0 -0.0017023365326271748 0.0097480486833077303 0 -0.001973498437511535 0.0099010439448432089 0 -0.0024593288126928559 0.0079918937440111599 0 -0.0023066808182138757 0.0082614441973938718 0 -0.0016614567626221733 0.0095221226762783016 0 -0.001973498437511535 0.0099010439448432089 0 -0.002543364355560033 0.0097152218841746636 0 -0.0020553596921256911 0.0069060080639374135 0 -0.0020244812202204758 0.0067922537140844425 0 -0.0021142823180191742 0.0071764313564433206 0 -0.0024396676196544423 0.010149646967761392 0 -0.0028504356074434381 0.010569611920939907 0 -0.0029181074667708005 0.009776865274560096 0 -0.002543364355560033 0.0097152218841746636 0 -0.0024396676196544423 0.010149646967761392 0 -0.0029181074667708005 0.009776865274560096 0 -0.002543364355560033 0.0097152218841746636 0 -0.0029181074667708005 0.009776865274560096 0 -0.003070275588200457 0.0096402149121293523 0 -0.0023066808182138757 0.0082614441973938718 0 -0.0026729402083685728 0.0086983004009074261 0 -0.0018517967244726721 0.010438020081764704 0 -0.001973498437511535 0.0099010439448432089 0 -0.0024396676196544423 0.010149646967761392 0 -0.001973498437511535 0.0099010439448432089 0 -0.002543364355560033 0.0097152218841746636 0 -0.0024396676196544423 0.010149646967761392 0 -0.0017741272249583164 0.011613052361770508 0 -0.0018517967244726721 0.010438020081764704 0 -0.0023700511230013736 0.010832476384106801 0 -0.0018517967244726721 0.010438020081764704 0 -0.0024396676196544423 0.010149646967761392 0 -0.0023700511230013736 0.010832476384106801 0 -0.0024396676196544423 0.010149646967761392 0 -0.0023700511230013736 0.010832476384106801 0 -0.0028504356074434381 0.010569611920939907 0 -0.0023700511230013736 0.010832476384106801 0 -0.0028504356074434381 0.010569611920939907 0 -0.0028584099158283967 0.011530390019032579 0 -0.0017741272249583164 0.011613052361770508 0 -0.0023700511230013736 0.010832476384106801 0 -0.0028584099158283967 0.011530390019032579 0 -0.001702653015785927 0.011636742157327472 0 -0.002774342444733444 0.011676471706331282 0 -0.0030433311540663264 0.0094792470700725256 0 -0.0030739452245440008 0.0093034918133256435 0 -0.003112125103242601 0.0093268713565282622 0 -0.002517118672306307 0.01206070364837911 0 -0.0033206102451322811 0.0097965503748562947 0 -0.002774342444733444 0.011676471706331282 0 -0.002517118672306307 0.01206070364837911 0 -0.0028504356074434381 0.010569611920939907 0 -0.0028584099158283967 0.011530390019032579 0 -0.0035382286080011959 0.010742086783301637 0 -0.0028584099158283967 0.011530390019032579 0 -0.0039995268035326785 0.011550271843734319 0 -0.0035382286080011959 0.010742086783301637 0 -0.0033206102451322811 0.0097965503748562947 0 -0.0029728117885275259 0.0098333409647361324 0 -0.0028504356074434381 0.010569611920939907 0 -0.0035382286080011959 0.010742086783301637 0 -0.0029181074667708005 0.009776865274560096 0 -0.0030687369200267868 0.0092353697962127956 0 -0.003070275588200457 0.0096402149121293523 0 -0.0031354926609901837 0.0089357578775845978 0 -0.0030739452245440008 0.0093034918133256435 0 -0.0030687369200267868 0.0092353697962127956 0 -0.003112125103242601 0.0093268713565282622 0 -0.0030739452245440008 0.0093034918133256435 0 -0.0030687369200267868 0.0092353697962127956 0 -0.003070275588200457 0.0096402149121293523 0 -0.0027702372200717616 0.0078362230306932845 0 -0.0021431484047353022 0.0077343406121965419 0 -0.0031354926609901837 0.0089357578775845978 0 -0.0027702372200717616 0.0078362230306932845 0 -0.0021431484047353022 0.0077343406121965419 0 -0.0023451211520830449 0.0073286794088066537 0 -0.0026729402083685728 0.0086983004009074261 0 -0.0031558687259666432 0.0089544613206288624 0 -0.0030739452245440008 0.0093034918133256435 0 -0.0029181074667708005 0.009776865274560096 0 -0.003070275588200457 0.0096402149121293523 0 -0.0020244812202204758 0.0067922537140844425 0 -0.0021431484047353022 0.0077343406121965419 0 -0.0021142823180191742 0.0071764313564433206 0 -0.0021431484047353022 0.0077343406121965419 0 -0.0021142823180191742 0.0071764313564433206 0 -0.0023451211520830449 0.0073286794088066537 0 -0.0020553596921256911 0.0069060080639374135 0 -0.0021142823180191742 0.0071764313564433206 0 -0.0023451211520830449 0.0073286794088066537 0 -0.0020553596921256911 0.0069060080639374135 0 -0.0023451211520830449 0.0073286794088066537 0 -0.0027913695029382819 0.0071831538948212911 0 -0.0027702372200717616 0.0078362230306932845 0 -0.0023451211520830449 0.0073286794088066537 0 -0.0027913695029382819 0.0071831538948212911 0 -0.0015673647132451738 0.0063551994030142259 0 0.0021678737090703557 0.0081923170843148409 0 -0.0027702372200717616 0.0078362230306932845 0 -0.0027913695029382819 0.0071831538948212911 0 -0.0033918452956458157 0.0081006931647771441 0 -0.0027913695029382819 0.0071831538948212911 0 -0.0033918452956458157 0.0081006931647771441 0 -0.0039967025162716691 0.0076676346336371146 0 -0.0027702372200717616 0.0078362230306932845 0 -0.0033918452956458157 0.0081006931647771441 0 -0.0031354926609901837 0.0089357578775845978 0 -0.0033918452956458157 0.0081006931647771441 0 -0.0031354926609901837 0.0089357578775845978 0 -0.0035404241745009197 0.0087230358540385453 0 -0.0033918452956458157 0.0081006931647771441 0 -0.0040637892672962346 0.008488634473484238 0 -0.0039967025162716691 0.0076676346336371146 0 0.0048535237655059427 0.010201084170173586 0 0.0049262741101943957 0.00941562365211558 0 0.0045212285071255034 0.0095479707073916741 0 0.0038983776808529185 0.01110082215041823 0 0.0021678737090703557 0.0081923170843148409 0 -0.0033918452956458157 0.0081006931647771441 0 -0.0040637892672962346 0.008488634473484238 0 -0.0035404241745009197 0.0087230358540385453 0 0.0038983776808529185 0.01110082215041823 0 0.0094457617965404313 0.010287348550316577 0 0.002266631023542564 0.0061525817951625225 0 0.00088629458750205388 0.0058262326701469854 0 0.0023288442426622358 0.0054247923673141508 0 0.0021678737090703557 0.0081923170843148409 0 0.0094457617965404313 0.010287348550316577 0 0.0074705488735455471 0.0084255634239771664 0 0.0076499775043284528 0.0085547140431916063 0 0.0077949707503507859 0.0083341954569658202 0 0.0074236502317971834 0.0089169069212603445 0 0.0076499775043284528 0.0085547140431916063 0 0.0079112584982148695 0.0085408080389293983 0 0.0065656255043993056 0.007125699266864142 0 0.0021678737090703557 0.0081923170843148409 0 0.0074236502317971834 0.0089169069212603445 0 0.0074705488735455471 0.0084255634239771664 0 0.0076499775043284528 0.0085547140431916063 0 0.011537806032435519 0.010310932848292603 0 0.011665277244034971 0.010541931175734766 0 0.01218438175203565 0.010121638421080095 0 0.014773177359199405 0.0087509330325139557 0 0.014952578933613361 0.0091299722614559507 0 0.014612331985920435 0.0089581026258831898 0 0.014773177359199405 0.0087509330325139557 0 0.014862602598669613 0.0087001496404015832 0 0.014791384619286455 0.0087863529566365225 0 0.0065656255043993056 0.007125699266864142 0 0.012712485395456359 0.0091677300670803697 0 0.014885346462429892 0.0090277577384906982 0 0.012712485395456359 0.0091677300670803697 0 0.012712485395456359 0.0091677300670803697 0 0.012643083311244882 0.01068303243237935 0 0.0094457617965404313 0.010287348550316577 0 0.012712485395456359 0.0091677300670803697 0 0.0076499775043284528 0.0085547140431916063 0 0.0077949707503507859 0.0083341954569658202 0 0.0079112584982148695 0.0085408080389293983 0 0.014952578933613361 0.0091299722614559507 0 0.014612331985920435 0.0089581026258831898 0 0.014627724990369014 0.009211883848718766 0 0.014952578933613361 0.0091299722614559507 0 0.014627724990369014 0.009211883848718766 0 0.014683839425616237 0.0093619659050325019 0 0.014438684985443971 0.0089030690600867459 0 0.014612331985920435 0.0089581026258831898 0 0.014442754030243652 0.0091289855661517566 0 0.014612331985920435 0.0089581026258831898 0 0.014627724990369014 0.009211883848718766 0 0.014442754030243652 0.0091289855661517566 0 0.014627724990369014 0.009211883848718766 0 0.014472919060154708 0.0092981318859304222 0 0.014442754030243652 0.0091289855661517566 0 0.014472919060154708 0.0092981318859304222 0 0.014612186921534811 0.0093809690953537625 0 0.014388716000878347 0.0095991901223758287 0 0.014612186921534811 0.0093809690953537625 0 0.014674642838135668 0.0093616035450363299 0 0.014388716000878347 0.0095991901223758287 0 0.012643083311244882 0.01068303243237935 0 0.012952488462767387 0.012094271018359344 0 0.010365145744705567 0.013297052518077375 0 0.010257792153690196 0.013744286545609909 0 0.0097512843454419448 0.013826536070850385 0 0.014627724990369014 0.009211883848718766 0 0.014472919060154708 0.0092981318859304222 0 0.014612186921534811 0.0093809690953537625 0 0.014627724990369014 0.009211883848718766 0 0.014612186921534811 0.0093809690953537625 0 0.014683839425616237 0.0093619659050325019 0 0.013507592132080712 0.010327182235351012 0 0.012643083311244882 0.01068303243237935 0 0.010365145744705567 0.013297052518077375 0 0.010257792153690196 0.013744286545609909 0 0.01048954202068504 0.013631088120150318 0 0.0094457617965404313 0.010287348550316577 0 0.012643083311244882 0.01068303243237935 0 0.010963690437472898 0.01309064570409667 0 0.010365145744705567 0.013297052518077375 0 0.01075922255529577 0.013518511242000653 0 0.011238955074651965 0.013623103386245394 0 0.010963690437472898 0.01309064570409667 0 0.01075922255529577 0.013518511242000653 0 0.010365145744705567 0.013297052518077375 0 0.01048954202068504 0.013631088120150318 0 0.01075922255529577 0.013518511242000653 0 0.01048954202068504 0.013631088120150318 0 0.01075922255529577 0.013518511242000653 0 0.010577076603075854 0.013967593317046301 0 0.011238955074651965 0.013623103386245394 0 0.01075922255529577 0.013518511242000653 0 0.010898829060109501 0.01405237115429607 0 0.01075922255529577 0.013518511242000653 0 0.010898829060109501 0.01405237115429607 0 0.010577076603075854 0.013967593317046301 0 0.010898829060109501 0.01405237115429607 0 0.010577076603075854 0.013967593317046301 0 0.010705735679768182 0.014332256058037934 0 0.010577076603075854 0.013967593317046301 0 0.010705735679768182 0.014332256058037934 0 0.010423458346448311 0.014406651769403948 0 0.010898829060109501 0.01405237115429607 0 0.010705735679768182 0.014332256058037934 0 0.010895625515321255 0.014473995970330888 0 0.010898829060109501 0.01405237115429607 0 0.010895625515321255 0.014473995970330888 0 0.011184348865155121 0.014356752757353012 0 0.010257792153690196 0.013744286545609909 0 0.010192188138909191 0.014080524361792893 0 0.0097512843454419448 0.013826536070850385 0 0.010257792153690196 0.013744286545609909 0 0.010577076603075854 0.013967593317046301 0 0.010192188138909191 0.014080524361792893 0 0.010257792153690196 0.013744286545609909 0 0.01048954202068504 0.013631088120150318 0 0.010577076603075854 0.013967593317046301 0 0.010577076603075854 0.013967593317046301 0 0.010192188138909191 0.014080524361792893 0 0.010423458346448311 0.014406651769403948 0 0.010192188138909191 0.014080524361792893 0 0.010423458346448311 0.014406651769403948 0 0.0099241259277378386 0.01446567004552188 0 0.010192188138909191 0.014080524361792893 0 0.0099241259277378386 0.01446567004552188 0 0.0097512843454419448 0.013826536070850385 0 0.012936183195662627 0.018866231764245608 0 0.012984935929485604 0.02515267045988849 0 0.010423458346448311 0.014406651769403948 0 0.0099241259277378386 0.01446567004552188 0 0.010678256320479862 0.015001342352323263 0 0.012936183195662627 0.018866231764245608 0 0.011918783973922055 0.019022767750536799 0 0.012111375726498785 0.021997517885291456 0 0.013451128465262642 0.022945742661107299 0 0.012618431492633886 0.023692976249562372 0 0.010899773251278062 0.014785039986991978 0 0.011184348865155121 0.014356752757353012 0 0.011098670715490267 0.015081494733353617 0 0.010895625515321255 0.014473995970330888 0 0.010899773251278062 0.014785039986991978 0 0.011184348865155121 0.014356752757353012 0 0.010895625515321255 0.014473995970330888 0 0.010694887077863795 0.014710396823035668 0 0.010899773251278062 0.014785039986991978 0 0.010705735679768182 0.014332256058037934 0 0.010423458346448311 0.014406651769403948 0 0.010694887077863795 0.014710396823035668 0 0.010423458346448311 0.014406651769403948 0 0.010694887077863795 0.014710396823035668 0 0.010678256320479862 0.015001342352323263 0 0.010705735679768182 0.014332256058037934 0 0.010895625515321255 0.014473995970330888 0 0.010694887077863795 0.014710396823035668 0 0.010694887077863795 0.014710396823035668 0 0.010665230816123937 0.014996498523516028 0 0.010899773251278062 0.014785039986991978 0 0.011621464403286128 0.015490859223155178 0 0.011918783973922055 0.019022767750536799 0 0.010665230816123937 0.014996498523516028 0 0.010899773251278062 0.014785039986991978 0 0.010875570684315352 0.015089550161939748 0 0.010899773251278062 0.014785039986991978 0 0.011098670715490267 0.015081494733353617 0 0.010875570684315352 0.015089550161939748 0 0.0034262926317758695 0.011969037748895187 0 0.0033763319290616147 0.012056654961712876 0 0.0032555539147106172 0.011884291932133239 0 0.0034262926317758695 0.011969037748895187 0 0.0032555539147106172 0.011884291932133239 0 0.0035266073658056993 0.011887381592823395 0 0.0034262926317758695 0.011969037748895187 0 0.0034894791638539935 0.012057690480631201 0 0.0035266073658056993 0.011887381592823395 0 0.0073507682949186985 0.013330379534693437 0 0.0072929266912336796 0.01423846614517736 0 0.0034262926317758695 0.011969037748895187 0 0.0034894791638539935 0.012057690480631201 0 0.0033763319290616147 0.012056654961712876 0 -0.003112125103242601 0.0093268713565282622 0 -0.003538272011794004 0.009255169285846564 0 -0.0032439151077711449 0.0095727164869946098 0 -0.00058191257330500186 0.0099722240190810128 0 0.00053711249296809274 0.012477515639188433 0 -0.0030433311540663264 0.0094792470700725256 0 -0.003112125103242601 0.0093268713565282622 0 -0.0032439151077711449 0.0095727164869946098 0 -0.003112125103242601 0.0093268713565282622 0 -0.0031354926609901837 0.0089357578775845978 0 -0.003538272011794004 0.009255169285846564 0 -0.0030687369200267868 0.0092353697962127956 0 -0.003112125103242601 0.0093268713565282622 0 -0.0031354926609901837 0.0089357578775845978 0 -0.0031354926609901837 0.0089357578775845978 0 -0.0035404241745009197 0.0087230358540385453 0 -0.003538272011794004 0.009255169285846564 0 -0.0040637892672962346 0.008488634473484238 0 -0.0035404241745009197 0.0087230358540385453 0 -0.003538272011794004 0.009255169285846564 0 0.003476873499201334 0.012189955826098928 0 0.0034894791638539935 0.012057690480631201 0 0.0033763319290616147 0.012056654961712876 0 0.0038983776808529185 0.01110082215041823 0 0.0073507682949186985 0.013330379534693437 0 0.0038983776808529185 0.01110082215041823 0 -0.00058191257330500186 0.0099722240190810128 0 0.011238955074651965 0.013623103386245394 0 0.010898829060109501 0.01405237115429607 0 0.011184348865155121 0.014356752757353012 0 0.012867487094227241 0.023988676392016656 0 0.012734445268983496 0.024010395628927643 0 0.012809156594898721 0.024101200149993771 0 0.014045451554127173 0.014068465627936386 0 0.013779104105393604 0.015230723792377835 0 0.012734445268983496 0.024010395628927643 0 0.012809156594898721 0.024101200149993771 0 0.012675200099954752 0.023976752356703965 0 0.013007427805286211 0.023973867352031841 0 0.012867487094227241 0.023988676392016656 0 0.012809156594898721 0.024101200149993771 0 0.012867487094227241 0.023988676392016656 0 0.012777289098276919 0.023992341663704283 0 0.012734445268983496 0.024010395628927643 0 0.012867487094227241 0.023988676392016656 0 0.012777289098276919 0.023992341663704283 0 0.012839884924031179 0.023952819905044009 0 0.012777289098276919 0.023992341663704283 0 0.012700416207225899 0.024004520982242154 0 0.012696247355306967 0.023998381458827562 0 0.012700416207225899 0.024004520982242154 0 0.012662862728445056 0.02402207540540206 0 0.012696247355306967 0.023998381458827562 0 0.012777289098276919 0.023992341663704283 0 0.012700416207225899 0.024004520982242154 0 0.012734445268983496 0.024010395628927643 0 0.014641088322311178 0.0084031522212166792 0 0.014415899857166454 0.0084852267309769962 0 0.014676086491887451 0.0086424833001988582 0 0.014812180766000823 0.0084037002183794934 0 0.014641088322311178 0.0084031522212166792 0 0.014676086491887451 0.0086424833001988582 0 0.015051914074992755 0.0085134397312675407 0 0.013793454849608587 0.0092060708223809708 0 0.014730393338275118 0.0097945530816190632 0 0.015267120232096488 0.0082361336352967992 0 0.015051914074992755 0.0085134397312675407 0 0.014730393338275118 0.0097945530816190632 0 0.015499841531366512 0.0072460972896319156 0 0.014045451554127173 0.014068465627936386 0 0.014447449380392555 0.0076809195114323119 0 0.013779104105393604 0.015230723792377835 0 0.013443182464577656 0.0090218822615964461 0 0.012285639807182436 0.011286624885488839 0 0.013387696311075857 0.010984387263310445 0 0.015051914074992755 0.0085134397312675407 0 0.014812180766000823 0.0084037002183794934 0 0.014676086491887451 0.0086424833001988582 0 0.012694204643114056 0.023933533618993124 0 0.012921826972990748 0.024139201082419747 0 0.012744926386845521 0.024135591954723215 0 0.012734445268983496 0.024010395628927643 0 0.012675200099954752 0.023976752356703965 0 0.012684688382012659 0.023965064900582832 0 0.013779104105393604 0.015230723792377835 0 0.013249256731137138 0.016813919935987815 0 0.012684688382012659 0.023965064900582832 0 0.012684457138737478 0.024006194715531202 0 0.012698035443859272 0.024051514967517566 0 0.012700416207225899 0.024004520982242154 0 0.012734445268983496 0.024010395628927643 0 0.012684688382012659 0.023965064900582832 0 0.012694204643114056 0.023933533618993124 0 0.012684688382012659 0.023965064900582832 0 0.012698035443859272 0.024051514967517566 0 0.012700416207225899 0.024004520982242154 0 0.012684688382012659 0.023965064900582832 0 0.012684457138737478 0.024006194715531202 0 0.012700416207225899 0.024004520982242154 0 0.012684457138737478 0.024006194715531202 0 0.012662862728445056 0.02402207540540206 0 0.012684457138737478 0.024006194715531202 0 0.012698035443859272 0.024051514967517566 0 0.012662862728445056 0.02402207540540206 0 0.012694204643114056 0.023933533618993124 0 0.012698035443859272 0.024051514967517566 0 0.012744926386845521 0.024135591954723215 0 0.012285639807182436 0.011286624885488839 0 0.013387696311075857 0.010984387263310445 0 0.014024743458242389 0.012547343327081621 0 0.013779104105393604 0.015230723792377835 0 0.013659036256174496 0.018713531284408367 0 0.014096639839001723 0.011432498287285656 0 0.013387696311075857 0.010984387263310445 0 0.014024743458242389 0.012547343327081621 0 0.014096639839001723 0.011432498287285656 0 0.013387696311075857 0.010984387263310445 0 0.01400313116392627 0.010330815782259781 0 0.013443182464577656 0.0090218822615964461 0 0.013387696311075857 0.010984387263310445 0 0.01400313116392627 0.010330815782259781 0 0.014229546477578594 0.0090057595876011556 0 0.01400313116392627 0.010330815782259781 0 0.015165282992056288 0.011288039815289875 0 0.01434862024638423 0.0090741698873233727 0 0.014463913075185839 0.010373948443995636 0 0.014229546477578594 0.0090057595876011556 0 0.014442754030243652 0.0091289855661517566 0 0.014340155531401904 0.0093751881093738915 0 0.014472919060154708 0.0092981318859304222 0 0.014442754030243652 0.0091289855661517566 0 0.014340155531401904 0.0093751881093738915 0 0.014472919060154708 0.0092981318859304222 0 0.014340155531401904 0.0093751881093738915 0 0.014388716000878347 0.0095991901223758287 0 0.015165282992056288 0.011288039815289875 0 0.015495580643637364 0.012384472350537955 0 0.014024743458242389 0.012547343327081621 0 0.014096639839001723 0.011432498287285656 0 0.01400313116392627 0.010330815782259781 0 0.015165282992056288 0.011288039815289875 0 0.014096639839001723 0.011432498287285656 0 0.015165282992056288 0.011288039815289875 0 0.014024743458242389 0.012547343327081621 0 0.014463913075185839 0.010373948443995636 0 0.012952488462767387 0.012094271018359344 0 0.01314732495286833 0.02439525145728573 0 0.012928621866294728 0.02450000914197583 0 0.012921826972990748 0.024139201082419747 0 0.012936183195662627 0.018866231764245608 0 0.013659036256174496 0.018713531284408367 0 0.015904601021970985 0.013914762845704733 0 0.015495580643637364 0.012384472350537955 0 0.014024743458242389 0.012547343327081621 0 0.012936183195662627 0.018866231764245608 0 0.012952488462767387 0.012094271018359344 0 0.01314732495286833 0.02439525145728573 0 0.012928621866294728 0.02450000914197583 0 0.01299873931942095 0.02469242838601686 0 0.01314732495286833 0.02439525145728573 0 0.01299873931942095 0.02469242838601686 0 0.013129608611584751 0.024782374238059689 0 0.012928621866294728 0.02450000914197583 0 0.012739337947181338 0.024627196984082961 0 0.012859957996598368 0.024796535485819334 0 0.012928621866294728 0.02450000914197583 0 0.012791684978594169 0.024346411802230905 0 0.012739337947181338 0.024627196984082961 0 0.012928621866294728 0.02450000914197583 0 0.012791684978594169 0.024346411802230905 0 0.012921826972990748 0.024139201082419747 0 0.012791684978594169 0.024346411802230905 0 0.012921826972990748 0.024139201082419747 0 0.012744926386845521 0.024135591954723215 0 0.012698035443859272 0.024051514967517566 0 0.012744926386845521 0.024135591954723215 0 0.012661944662274972 0.024113277565319249 0 0.012744926386845521 0.024135591954723215 0 0.012661944662274972 0.024113277565319249 0 0.012693222156210795 0.024251620527756895 0 0.012698035443859272 0.024051514967517566 0 0.012662862728445056 0.02402207540540206 0 0.012661944662274972 0.024113277565319249 0 0.012662862728445056 0.02402207540540206 0 0.012661944662274972 0.024113277565319249 0 0.012620065466915666 0.024011008584607418 0 0.012693222156210795 0.024251620527756895 0 0.012655616930024228 0.024422213036489081 0 0.012583679109047233 0.024257884769190909 0 0.012661944662274972 0.024113277565319249 0 0.012693222156210795 0.024251620527756895 0 0.012583679109047233 0.024257884769190909 0 0.012791684978594169 0.024346411802230905 0 0.012744926386845521 0.024135591954723215 0 0.012693222156210795 0.024251620527756895 0 0.012791684978594169 0.024346411802230905 0 0.012739337947181338 0.024627196984082961 0 0.012655616930024228 0.024422213036489081 0 0.012791684978594169 0.024346411802230905 0 0.012693222156210795 0.024251620527756895 0 0.012655616930024228 0.024422213036489081 0 0.012739337947181338 0.024627196984082961 0 0.012655616930024228 0.024422213036489081 0 0.012547344712291977 0.024577985079262968 0 0.012655616930024228 0.024422213036489081 0 0.012528772088729713 0.024416822802197174 0 0.012547344712291977 0.024577985079262968 0 0.012655616930024228 0.024422213036489081 0 0.012528772088729713 0.024416822802197174 0 0.012583679109047233 0.024257884769190909 0 0.012885065295314998 0.024885494299677294 0 0.013089080549779216 0.024233582231093297 0 0.012528772088729713 0.024416822802197174 0 0.012455506838029349 0.024315860356898745 0 0.012583679109047233 0.024257884769190909 0 0.012202074528883599 0.024688250224691718 0 0.012396490244563985 0.024468842433503276 0 0.012418130677819406 0.024156287821309071 0 0.012528772088729713 0.024416822802197174 0 0.012547344712291977 0.024577985079262968 0 0.012396490244563985 0.024468842433503276 0 0.012528772088729713 0.024416822802197174 0 0.012396490244563985 0.024468842433503276 0 0.012455506838029349 0.024315860356898745 0 0.012547344712291977 0.024577985079262968 0 0.012396490244563985 0.024468842433503276 0 0.012397095852825328 0.024682385321756335 0 0.012202074528883599 0.024688250224691718 0 0.012396490244563985 0.024468842433503276 0 0.012397095852825328 0.024682385321756335 0 0.012976485939567845 0.023810779301762633 0 0.012865378488213956 0.023831985402563025 0 0.012787281795092028 0.023825335304680537 0 0.012976485939567845 0.023810779301762633 0 0.012865378488213956 0.023831985402563025 0 0.012922861972186072 0.023857579557988506 0 0.012865378488213956 0.023831985402563025 0 0.012787281795092028 0.023825335304680537 0 0.012812385398560418 0.023874933593147546 0 0.012396490244563985 0.024468842433503276 0 0.012455506838029349 0.024315860356898745 0 0.012418130677819406 0.024156287821309071 0 0.012455506838029349 0.024315860356898745 0 0.012583679109047233 0.024257884769190909 0 0.01251122716358527 0.024224888282081157 0 0.012583679109047233 0.024257884769190909 0 0.012571983999219894 0.024153438849079341 0 0.01251122716358527 0.024224888282081157 0 0.012661944662274972 0.024113277565319249 0 0.012583679109047233 0.024257884769190909 0 0.012571983999219894 0.024153438849079341 0 0.012455506838029349 0.024315860356898745 0 0.01251122716358527 0.024224888282081157 0 0.012418130677819406 0.024156287821309071 0 0.012571983999219894 0.024153438849079341 0 0.01251122716358527 0.024224888282081157 0 0.012418130677819406 0.024156287821309071 0 0.012571983999219894 0.024153438849079341 0 0.012418130677819406 0.024156287821309071 0 0.012620065466915666 0.024011008584607418 0 0.01278276075713379 0.023790930420633301 0 0.012754755586082241 0.02388466816642594 0 0.012620065466915666 0.024011008584607418 0 0.013089080549779216 0.024233582231093297 0 0.013084344635760328 0.024199025373182925 0 0.013089080549779216 0.024233582231093297 0 0.012875746314283745 0.024220587785396326 0 0.012754755586082241 0.02388466816642594 0 0.012620065466915666 0.024011008584607418 0 0.012713542434518636 0.023969157543940481 0 0.012754755586082241 0.02388466816642594 0 0.012713542434518636 0.023969157543940481 0 0.012780629740125031 0.023957101280071499 0 0.012661944662274972 0.024113277565319249 0 0.012571983999219894 0.024153438849079341 0 0.012620065466915666 0.024011008584607418 0 0.012662862728445056 0.02402207540540206 0 0.012620065466915666 0.024011008584607418 0 0.012696247355306967 0.023998381458827562 0 0.012777289098276919 0.023992341663704283 0 0.012696247355306967 0.023998381458827562 0 0.012780629740125031 0.023957101280071499 0 0.012713542434518636 0.023969157543940481 0 0.012696247355306967 0.023998381458827562 0 0.012780629740125031 0.023957101280071499 0 0.012620065466915666 0.024011008584607418 0 0.012713542434518636 0.023969157543940481 0 0.012696247355306967 0.023998381458827562 0 0.012777289098276919 0.023992341663704283 0 0.012839884924031179 0.023952819905044009 0 0.012780629740125031 0.023957101280071499 0 0.012867487094227241 0.023988676392016656 0 0.012839884924031179 0.023952819905044009 0 0.012920215058326089 0.023908775862217627 0 0.012839884924031179 0.023952819905044009 0 0.012780629740125031 0.023957101280071499 0 0.012857957898225962 0.023888775318642218 0 0.012839884924031179 0.023952819905044009 0 0.012920215058326089 0.023908775862217627 0 0.012857957898225962 0.023888775318642218 0 0.012920215058326089 0.023908775862217627 0 0.012922861972186072 0.023857579557988506 0 0.012857957898225962 0.023888775318642218 0 0.012865378488213956 0.023831985402563025 0 0.012922861972186072 0.023857579557988506 0 0.012857957898225962 0.023888775318642218 0 0.012865378488213956 0.023831985402563025 0 0.012812385398560418 0.023874933593147546 0 0.012857957898225962 0.023888775318642218 0 0.012787281795092028 0.023825335304680537 0 0.012754755586082241 0.02388466816642594 0 0.012812385398560418 0.023874933593147546 0 0.012780629740125031 0.023957101280071499 0 0.012812385398560418 0.023874933593147546 0 0.012857957898225962 0.023888775318642218 0 0.012754755586082241 0.02388466816642594 0 0.012780629740125031 0.023957101280071499 0 0.012812385398560418 0.023874933593147546 0 0.012489342454642414 0.02522093582169032 0 0.01230922974048013 0.02500048210578909 0 0.012518548261387034 0.024817428883367829 0 0.012202074528883599 0.024688250224691718 0 0.01230922974048013 0.02500048210578909 0 0.012397095852825328 0.024682385321756335 0 0.01230922974048013 0.02500048210578909 0 0.012397095852825328 0.024682385321756335 0 0.012518548261387034 0.024817428883367829 0 0.012547344712291977 0.024577985079262968 0 0.012397095852825328 0.024682385321756335 0 0.012518548261387034 0.024817428883367829 0 0.012489342454642414 0.02522093582169032 0 0.012518548261387034 0.024817428883367829 0 0.012681746181912732 0.024914053306579875 0 0.012739337947181338 0.024627196984082961 0 0.012547344712291977 0.024577985079262968 0 0.012518548261387034 0.024817428883367829 0 0.012739337947181338 0.024627196984082961 0 0.012518548261387034 0.024817428883367829 0 0.012681746181912732 0.024914053306579875 0 0.012489342454642414 0.02522093582169032 0 0.012681746181912732 0.024914053306579875 0 0.012755734865887805 0.025097512036887978 0 0.012755734865887805 0.025097512036887978 0 0.012859957996598368 0.024796535485819334 0 0.012939912753860354 0.024896650515439777 0 0.012681746181912732 0.024914053306579875 0 0.012755734865887805 0.025097512036887978 0 0.012859957996598368 0.024796535485819334 0 0.012739337947181338 0.024627196984082961 0 0.012681746181912732 0.024914053306579875 0 0.012859957996598368 0.024796535485819334 0 0.012928621866294728 0.02450000914197583 0 0.012859957996598368 0.024796535485819334 0 0.01299873931942095 0.02469242838601686 0 0.012859957996598368 0.024796535485819334 0 0.01299873931942095 0.02469242838601686 0 0.012939912753860354 0.024896650515439777 0 0.01299873931942095 0.02469242838601686 0 0.012939912753860354 0.024896650515439777 0 0.013129608611584751 0.024782374238059689 0 0.012755734865887805 0.025097512036887978 0 0.012939912753860354 0.024896650515439777 0 0.01287562565670256 0.02507905714874592 0 0.012939912753860354 0.024896650515439777 0 0.01287562565670256 0.02507905714874592 0 0.013006938621768443 0.024932501191298074 0 0.01287562565670256 0.02507905714874592 0 0.013006938621768443 0.024932501191298074 0 0.01296376919130581 0.025046841811079922 0 0.01287562565670256 0.02507905714874592 0 0.01287764247706215 0.02522748152301155 0 0.01296376919130581 0.025046841811079922 0 0.01287562565670256 0.02507905714874592 0 0.012771398006565706 0.025218753180309302 0 0.01287764247706215 0.02522748152301155 0 0.01287764247706215 0.02522748152301155 0 0.012784897477874566 0.025326258105274002 0 0.012878825163834038 0.025354687797659748 0 0.012784897477874566 0.025326258105274002 0 0.012878825163834038 0.025354687797659748 0 0.012794306250640488 0.025407603300457781 0 0.012771398006565706 0.025218753180309302 0 0.01287764247706215 0.02522748152301155 0 0.012784897477874566 0.025326258105274002 0 0.012771398006565706 0.025218753180309302 0 0.012784897477874566 0.025326258105274002 0 0.01265146590155187 0.025311972020400249 0 0.012784897477874566 0.025326258105274002 0 0.01265146590155187 0.025311972020400249 0 0.012694035032046797 0.025449566582333646 0 0.012755734865887805 0.025097512036887978 0 0.012771398006565706 0.025218753180309302 0 0.01265146590155187 0.025311972020400249 0 0.012755734865887805 0.025097512036887978 0 0.01287562565670256 0.02507905714874592 0 0.012771398006565706 0.025218753180309302 0 0.012489342454642414 0.02522093582169032 0 0.012755734865887805 0.025097512036887978 0 0.012648560171094909 0.025646051893732449 0 0.012755734865887805 0.025097512036887978 0 0.01265146590155187 0.025311972020400249 0 0.012487714469523566 0.025268017639533385 0 0.012739846210055205 0.025146582479018798 0 0.012560915753363423 0.025461314408475051 0 0.01265146590155187 0.025311972020400249 0 0.012487714469523566 0.025268017639533385 0 0.012489851873396709 0.025433118414540198 0 0.012560915753363423 0.025461314408475051 0 0.01237265226771099 0.025793250289398908 0 0.012487714469523566 0.025268017639533385 0 0.012360102645981327 0.025474376468028415 0 0.012489851873396709 0.025433118414540198 0 0.012301236816890004 0.025735668868961611 0 0.012648560171094909 0.025646051893732449 0 0.012391739036396102 0.026131771667129721 0 0.012301236816890004 0.025735668868961611 0 0.012489342454642414 0.02522093582169032 0 0.012648560171094909 0.025646051893732449 0 0.0051343740986422052 0.019263973334109206 0 0.0050220131697453372 0.019279778520055885 0 0.0052328197772900454 0.019385131048035468 0 0.0051343740986422052 0.019263973334109206 0 0.0052328197772900454 0.019385131048035468 0 0.0052309628067326898 0.019229683109132534 0 0.0048800793942610013 0.019210708878964242 0 0.0050440688392921623 0.01925199773944045 0 0.0050100358505703662 0.01928358693839315 0 0.0051343740986422052 0.019263973334109206 0 0.0050440688392921623 0.01925199773944045 0 0.0050220131697453372 0.019279778520055885 0 0.0023833852195797056 0.016949727800234991 0 0.0020332379299686748 0.015132173591225154 0 -0.00024453589063042552 0.015524905689209284 0 0.0018677420766722199 0.012033106134729613 0 0.0017232490482921039 0.014647426891657253 0 0.0018677420766722199 0.012033106134729613 0 0.0017232490482921039 0.014647426891657253 0 0.0057807112068623467 0.014595985208371994 0 0.0017232490482921039 0.014647426891657253 0 0.002172978934832987 0.015486272953076297 0 0.0057807112068623467 0.014595985208371994 0 -0.002517118672306307 0.01206070364837911 0 0.0020332379299686748 0.015132173591225154 0 -0.00024453589063042552 0.015524905689209284 0 0.0017232490482921039 0.014647426891657253 0 0.0021570537157832945 0.015459455689049814 0 -0.002517118672306307 0.01206070364837911 0 0.00053711249296809274 0.012477515639188433 0 0.0014898988179068812 0.014246035999006713 0 0.00053711249296809274 0.012477515639188433 0 0.00053711249296809274 0.012477515639188433 0 0.0072929266912336796 0.01423846614517736 0 0.002172978934832987 0.015486272953076297 0 0.0057063517934938185 0.015411179660358395 0 0.0057807112068623467 0.014595985208371994 0 0.0020332379299686748 0.015132173591225154 0 0.0080952834216668056 0.018004554190359522 0 0.0072929266912336796 0.01423846614517736 0 0.0080952834216668056 0.018004554190359522 0 0.012724351058082185 0.020114765201476547 0 0.013626362547291659 0.020717735678080239 0 0.012620660437576559 0.022067753428251857 0 0.010665230816123937 0.014996498523516028 0 0.01103831220763137 0.015273945148931834 0 0.010875570684315352 0.015089550161939748 0 0.0072929266912336796 0.01423846614517736 0 0.0097086278133163284 0.014409464818287433 0 0.011918783973922055 0.019022767750536799 0 0.013028442659285728 0.023765855123142714 0 0.011918783973922055 0.019022767750536799 0 0.0080952834216668056 0.018004554190359522 0 0.011049366517849674 0.015092627653815097 0 0.01103831220763137 0.015273945148931834 0 0.010875570684315352 0.015089550161939748 0 0.013451128465262642 0.022945742661107299 0 0.012618431492633886 0.023692976249562372 0 0.013252150421342731 0.024462204868991168 0 0.013129608611584751 0.024782374238059689 0 0.013006938621768443 0.024932501191298074 0 0.01308868135648685 0.024919209467067216 0 0.012939912753860354 0.024896650515439777 0 0.013129608611584751 0.024782374238059689 0 0.013006938621768443 0.024932501191298074 0 0.012618431492633886 0.023692976249562372 0 0.013252150421342731 0.024462204868991168 0 0.01308868135648685 0.024919209467067216 0 0.012984935929485604 0.02515267045988849 0 0.012994666947936018 0.024498381334379687 0 0.013626362547291659 0.020717735678080239 0 0.012620660437576559 0.022067753428251857 0 0.013455351981839159 0.022967651723508328 0 0.0080952834216668056 0.018004554190359522 0 0.0096457168367811621 0.021458121252210367 0 0.013028442659285728 0.023765855123142714 0 0.012846310098540309 0.024453663989442202 0 0.012620660437576559 0.022067753428251857 0 0.013455351981839159 0.022967651723508328 0 0.012625391813783821 0.023873854944540869 0 0.013252150421342731 0.024462204868991168 0 0.013065662694682468 0.025319421093664692 0 0.01308868135648685 0.024919209467067216 0 0.01287764247706215 0.02522748152301155 0 0.013065662694682468 0.025319421093664692 0 0.01296376919130581 0.025046841811079922 0 0.013006938621768443 0.024932501191298074 0 0.01296376919130581 0.025046841811079922 0 0.01308868135648685 0.024919209467067216 0 0.013065662694682468 0.025319421093664692 0 0.01296376919130581 0.025046841811079922 0 0.01308868135648685 0.024919209467067216 0 0.01287764247706215 0.02522748152301155 0 0.013065662694682468 0.025319421093664692 0 0.012878825163834038 0.025354687797659748 0 0.013065662694682468 0.025319421093664692 0 0.012878825163834038 0.025354687797659748 0 0.012813670093833442 0.02534816897203402 0 0.012846310098540309 0.024453663989442202 0 0.0128119813072613 0.025318728522412147 0 0.013455351981839159 0.022967651723508328 0 0.012625391813783821 0.023873854944540869 0 0.013309695547953072 0.024892237828941097 0 0.012625391813783821 0.023873854944540869 0 0.013309695547953072 0.024892237828941097 0 0.012813670093833442 0.02534816897203402 0 0.0096457168367811621 0.021458121252210367 0 0.0082037667868461953 0.02228042926767624 0 0.0078381610348737529 0.023732195489671242 0 0.0070969595406669504 0.023950562036979609 0 0.0075006551388943042 0.02356641706206147 0 0.0052594189554484626 0.01910396727219095 0 0.0051377477763735685 0.019181803435634626 0 0.0051093654691920804 0.019112522549767537 0 0.0082037667868461953 0.02228042926767624 0 0.0055121477502050259 0.022456015764814045 0 0.0055121477502050259 0.022456015764814045 0 0.0070520732299892532 0.024735059840091115 0 0.0052309628067326898 0.019229683109132534 0 0.0052594189554484626 0.01910396727219095 0 0.0051377477763735685 0.019181803435634626 0 0.0051343740986422052 0.019263973334109206 0 0.0050440688392921623 0.01925199773944045 0 0.0051377477763735685 0.019181803435634626 0 0.0051343740986422052 0.019263973334109206 0 0.0052309628067326898 0.019229683109132534 0 0.0051377477763735685 0.019181803435634626 0 0.0048800793942610013 0.019210708878964242 0 0.0050440688392921623 0.01925199773944045 0 0.0050035916414411935 0.019153433534102329 0 0.0051377477763735685 0.019181803435634626 0 0.0050035916414411935 0.019153433534102329 0 0.0051093654691920804 0.019112522549767537 0 0.0050440688392921623 0.01925199773944045 0 0.0051377477763735685 0.019181803435634626 0 0.0050035916414411935 0.019153433534102329 0 0.0045080416249527926 0.025479555486039501 0 0.0067814520905342436 0.027828545220453259 0 0.0055925078264486066 0.026316273542039685 0 0.0064229002239619909 0.026075255485701512 0 0.0067468923452301518 0.025372442966459605 0 0.0029410834252731853 0.021284467882833374 0 0.0032123532807506777 0.021656042433407623 0 0.0038967184126563362 0.021001698953398429 0 0.0045080416249527926 0.025479555486039501 0 0.0055121477502050259 0.022456015764814045 0 0.0041020354298952309 0.020322562284126204 0 0.0055121477502050259 0.022456015764814045 0 0.0058612384067596229 0.029919811919148321 0 0.00688017034392746 0.029157472321642963 0 0.0059066038332315522 0.028872789414731263 0 0.0070261647858424732 0.028550431461164899 0 0.00688017034392746 0.029157472321642963 0 0.0059066038332315522 0.028872789414731263 0 0.0069486078755863507 0.028579485852040919 0 0.0059089434081176827 0.028931728200103469 0 0.006389127202633656 0.028641969773729126 0 0.0058743235199806799 0.029008095750388662 0 0.0059096379170367561 0.028305421203296932 0 0.006389127202633656 0.028641969773729126 0 0.0065176352852077896 0.028147260094958035 0 0.0059096379170367561 0.028305421203296932 0 0.006389127202633656 0.028641969773729126 0 0.0070261647858424732 0.028550431461164899 0 0.0058743235199806799 0.029008095750388662 0 0.0064032498430222724 0.028553817706397904 0 0.0065952981862444134 0.027970570727056963 0 0.0070261647858424732 0.028550431461164899 0 0.00688017034392746 0.029157472321642963 0 0.0078132545012464284 0.028498854494786566 0 0.0070261647858424732 0.028550431461164899 0 0.0066200033619823444 0.027806812694131617 0 0.0073731018967255349 0.027773382360785689 0 0.006389127202633656 0.028641969773729126 0 0.0070261647858424732 0.028550431461164899 0 0.0066200033619823444 0.027806812694131617 0 0.0067468923452301518 0.025372442966459605 0 0.0070073952090610458 0.025520315009443333 0 0.0076011002975414415 0.024955067040712726 0 0.0067814520905342436 0.027828545220453259 0 0.0088672154474138155 0.026136173174849734 0 0.0064229002239619909 0.026075255485701512 0 0.0067468923452301518 0.025372442966459605 0 0.0070073952090610458 0.025520315009443333 0 0.0078381610348737529 0.023732195489671242 0 0.0075006551388943042 0.02356641706206147 0 0.007902638915726146 0.02318727501155134 0 0.0067468923452301518 0.025372442966459605 0 0.0076275473609252716 0.024649397449096305 0 0.0076011002975414415 0.024955067040712726 0 0.0082037667868461953 0.02228042926767624 0 0.0099034342459185104 0.024998858352519873 0 0.013309695547953072 0.024892237828941097 0 0.012813670093833442 0.02534816897203402 0 0.013125872995681617 0.025544971784833351 0 0.012813670093833442 0.02534816897203402 0 0.013125872995681617 0.025544971784833351 0 0.01291629820026606 0.025533319443595128 0 0.0070520732299892532 0.024735059840091115 0 0.0099034342459185104 0.024998858352519873 0 0.012878825163834038 0.025354687797659748 0 0.012808118950853065 0.025414149304531494 0 0.012794306250640488 0.025407603300457781 0 0.012878825163834038 0.025354687797659748 0 0.012813670093833442 0.02534816897203402 0 0.012808118950853065 0.025414149304531494 0 0.012813670093833442 0.02534816897203402 0 0.012834291117154339 0.025486676446966977 0 0.012808118950853065 0.025414149304531494 0 0.012834291117154339 0.025486676446966977 0 0.012808118950853065 0.025414149304531494 0 0.012802220559984961 0.025529615965724662 0 0.012813670093833442 0.02534816897203402 0 0.012834291117154339 0.025486676446966977 0 0.01291629820026606 0.025533319443595128 0 0.012760835853037689 0.025482365811231797 0 0.012808118950853065 0.025414149304531494 0 0.012794306250640488 0.025407603300457781 0 0.012760835853037689 0.025482365811231797 0 0.012808118950853065 0.025414149304531494 0 0.012802220559984961 0.025529615965724662 0 0.012765417250124316 0.02562557431359052 0 0.012888338186933137 0.025617306529882301 0 0.012708980415287379 0.025681848340043809 0 0.012760835853037689 0.025482365811231797 0 0.012749282423171917 0.025565905888671053 0 0.012802220559984961 0.025529615965724662 0 0.012749282423171917 0.025565905888671053 0 0.012802220559984961 0.025529615965724662 0 0.012823844824896352 0.025590428687588117 0 0.012802220559984961 0.025529615965724662 0 0.012849494792174057 0.025555964624712574 0 0.012823844824896352 0.025590428687588117 0 0.012834291117154339 0.025486676446966977 0 0.012802220559984961 0.025529615965724662 0 0.012849494792174057 0.025555964624712574 0 0.012834291117154339 0.025486676446966977 0 0.012849494792174057 0.025555964624712574 0 0.01291629820026606 0.025533319443595128 0 0.012849494792174057 0.025555964624712574 0 0.012823844824896352 0.025590428687588117 0 0.012891572884415364 0.025618551846912932 0 0.012823844824896352 0.025590428687588117 0 0.012765417250124316 0.02562557431359052 0 0.012888338186933137 0.025617306529882301 0 0.012823844824896352 0.025590428687588117 0 0.012891572884415364 0.025618551846912932 0 0.012888338186933137 0.025617306529882301 0 0.012749282423171917 0.025565905888671053 0 0.012823844824896352 0.025590428687588117 0 0.012765417250124316 0.02562557431359052 0 0.0070261647858424732 0.028550431461164899 0 0.0078132545012464284 0.028498854494786566 0 0.0081366979420679757 0.028233071605386451 0 0.0070261647858424732 0.028550431461164899 0 0.0081366979420679757 0.028233071605386451 0 0.0073731018967255349 0.027773382360785689 0 0.0088672154474138155 0.026136173174849734 0 0.0099034342459185104 0.024998858352519873 0 0.0099034342459185104 0.024998858352519873 0 0.012302146834718437 0.024784384787624875 0 0.013125872995681617 0.025544971784833351 0 0.01291629820026606 0.025533319443595128 0 0.012891572884415364 0.025618551846912932 0 0.012849494792174057 0.025555964624712574 0 0.01291629820026606 0.025533319443595128 0 0.012891572884415364 0.025618551846912932 0 0.0128058433363434 0.025632910844943266 0 0.0127893962000654 0.025707777690614275 0 0.012891572884415364 0.025618551846912932 0 0.0088672154474138155 0.026136173174849734 0 0.010057123444767835 0.026660102312124595 0 0.0128058433363434 0.025632910844943266 0 0.012891572884415364 0.025618551846912932 0 0.012888338186933137 0.025617306529882301 0 0.0081134534922781623 0.027135084626576603 0 0.0068916571988039427 0.026973263124034905 0 0.0073731018967255349 0.027773382360785689 0 0.0081366979420679757 0.028233071605386451 0 0.0081134534922781623 0.027135084626576603 0 0.0073731018967255349 0.027773382360785689 0 0.012888338186933137 0.025617306529882301 0 0.012708980415287379 0.025681848340043809 0 0.012667859315251596 0.025766640915379814 0 0.010057123444767835 0.026660102312124595 0 0.011615523495884824 0.026396056236728901 0 0.0081366979420679757 0.028233071605386451 0 0.0081134534922781623 0.027135084626576603 0 0.0094258260963783116 0.027133293434675586 0 0.0081134534922781623 0.027135084626576603 0 0.0087439274494922128 0.026595108229304949 0 0.0094258260963783116 0.027133293434675586 0 0.0087439274494922128 0.026595108229304949 0 0.0094258260963783116 0.027133293434675586 0 0.0093590092736465513 0.026067173489789933 0 0.0081134534922781623 0.027135084626576603 0 0.0087439274494922128 0.026595108229304949 0 0.0080951684653928508 0.025981109175817134 0 0.0081134534922781623 0.027135084626576603 0 0.0068916571988039427 0.026973263124034905 0 0.0080951684653928508 0.025981109175817134 0 0.0071817803659585235 0.027626129058503465 0 0.0080723441613296722 0.026847967042984217 0 0.0071817803659585235 0.027626129058503465 0 0.0074591268545055401 0.02754203386423637 0 0.006685605945617395 0.027649655683298455 0 0.0063947884356066681 0.027416874021799206 0 0.0068852073294610617 0.027118690532467724 0 0.0077886380534846027 0.027803492507987183 0 0.0074996069024964637 0.028315835303321376 0 0.0077376585237613205 0.027653221274866212 0 0.0077886380534846027 0.027803492507987183 0 0.0074996069024964637 0.028315835303321376 0 0.0083950051856621945 0.027609665368717798 0 0.0063947884356066681 0.027416874021799206 0 0.0062547095425785027 0.027840713032731772 0 0.0057711072577301976 0.027682936286339332 0 0.0063947884356066681 0.027416874021799206 0 0.0058759965529393745 0.027086639770258793 0 0.0057711072577301976 0.027682936286339332 0 0.006685605945617395 0.027649655683298455 0 0.0063947884356066681 0.027416874021799206 0 0.0062547095425785027 0.027840713032731772 0 0.0062547095425785027 0.027840713032731772 0 0.0065176352852077896 0.028147260094958035 0 0.0059096379170367561 0.028305421203296932 0 0.0062547095425785027 0.027840713032731772 0 0.0057711072577301976 0.027682936286339332 0 0.0059096379170367561 0.028305421203296932 0 0.006685605945617395 0.027649655683298455 0 0.0062547095425785027 0.027840713032731772 0 0.0065176352852077896 0.028147260094958035 0 0.0071817803659585235 0.027626129058503465 0 0.0065952981862444134 0.027970570727056963 0 0.0068916571988039427 0.026973263124034905 0 0.0066200033619823444 0.027806812694131617 0 0.0073731018967255349 0.027773382360785689 0 0.012419772691793157 0.025570369703612268 0 0.012466235778598856 0.025656365855857725 0 0.012384753011135631 0.025667271294787377 0 0.012339711962685329 0.025631550906166447 0 0.012419772691793157 0.025570369703612268 0 0.012384753011135631 0.025667271294787377 0 0.012419772691793157 0.025570369703612268 0 0.012360102645981327 0.025474376468028415 0 0.012489851873396709 0.025433118414540198 0 0.012419772691793157 0.025570369703612268 0 0.012489851873396709 0.025433118414540198 0 0.012553333064285993 0.025502217911735708 0 0.01265146590155187 0.025311972020400249 0 0.012489851873396709 0.025433118414540198 0 0.012553333064285993 0.025502217911735708 0 0.012419772691793157 0.025570369703612268 0 0.012553333064285993 0.025502217911735708 0 0.012466235778598856 0.025656365855857725 0 0.012610943983647961 0.025556504117206724 0 0.012553333064285993 0.025502217911735708 0 0.012466235778598856 0.025656365855857725 0 0.012610943983647961 0.025556504117206724 0 0.01256260444188778 0.025646057641509332 0 0.012466235778598856 0.025656365855857725 0 0.01265146590155187 0.025311972020400249 0 0.012553333064285993 0.025502217911735708 0 0.012694035032046797 0.025449566582333646 0 0.012610943983647961 0.025556504117206724 0 0.012553333064285993 0.025502217911735708 0 0.012694035032046797 0.025449566582333646 0 0.012784897477874566 0.025326258105274002 0 0.012694035032046797 0.025449566582333646 0 0.012794306250640488 0.025407603300457781 0 0.012760835853037689 0.025482365811231797 0 0.012694035032046797 0.025449566582333646 0 0.012794306250640488 0.025407603300457781 0 0.012760835853037689 0.025482365811231797 0 0.012694035032046797 0.025449566582333646 0 0.012688498215078482 0.0255429247156112 0 0.012760835853037689 0.025482365811231797 0 0.012749282423171917 0.025565905888671053 0 0.012688498215078482 0.0255429247156112 0 0.012610943983647961 0.025556504117206724 0 0.012694035032046797 0.025449566582333646 0 0.012688498215078482 0.0255429247156112 0 0.012610943983647961 0.025556504117206724 0 0.01266280765273884 0.025628826095999094 0 0.01256260444188778 0.025646057641509332 0 0.012610943983647961 0.025556504117206724 0 0.012688498215078482 0.0255429247156112 0 0.01266280765273884 0.025628826095999094 0 0.012749282423171917 0.025565905888671053 0 0.012688498215078482 0.0255429247156112 0 0.01266280765273884 0.025628826095999094 0 0.012749282423171917 0.025565905888671053 0 0.012765417250124316 0.02562557431359052 0 0.01266280765273884 0.025628826095999094 0 0.012607048309291671 0.025694587191391643 0 0.012659690346455066 0.025765570368171592 0 0.012487874771048693 0.025725567546380095 0 0.01266280765273884 0.025628826095999094 0 0.012708980415287379 0.025681848340043809 0 0.012607048309291671 0.025694587191391643 0 0.012765417250124316 0.02562557431359052 0 0.01266280765273884 0.025628826095999094 0 0.012708980415287379 0.025681848340043809 0 0.01266280765273884 0.025628826095999094 0 0.012607048309291671 0.025694587191391643 0 0.01256260444188778 0.025646057641509332 0 0.012708980415287379 0.025681848340043809 0 0.012607048309291671 0.025694587191391643 0 0.012666756783344918 0.02573553625759013 0 0.012708980415287379 0.025681848340043809 0 0.012666756783344918 0.02573553625759013 0 0.012667859315251596 0.025766640915379814 0 0.012607048309291671 0.025694587191391643 0 0.012666756783344918 0.02573553625759013 0 0.012659690346455066 0.025765570368171592 0 0.011726115545614943 0.026170155888055383 0 0.011615523495884824 0.026396056236728901 0 0.011980156725077259 0.026131211192770988 0 0.012303115703402128 0.025823405861749624 0 0.011966843157376622 0.025832887901569748 0 0.011615523495884824 0.026396056236728901 0 0.010643853299421484 0.025894347878459862 0 0.011615523495884824 0.026396056236728901 0 0.012606921420964425 0.02562156611106094 0 0.012386042259376081 0.025761855009362757 0 0.012487874771048693 0.025725567546380095 0 0.012303115703402128 0.025823405861749624 0 0.012659690346455066 0.025765570368171592 0 0.012487874771048693 0.025725567546380095 0 0.012303115703402128 0.025823405861749624 0 0.012386042259376081 0.025761855009362757 0 0.012487874771048693 0.025725567546380095 0 0.012466235778598856 0.025656365855857725 0 0.012487874771048693 0.025725567546380095 0 0.01256260444188778 0.025646057641509332 0 0.012466235778598856 0.025656365855857725 0 0.012607048309291671 0.025694587191391643 0 0.012487874771048693 0.025725567546380095 0 0.01256260444188778 0.025646057641509332 0 0.012466235778598856 0.025656365855857725 0 0.012377717801548969 0.02574743881117221 0 0.012384753011135631 0.025667271294787377 0 0.012386042259376081 0.025761855009362757 0 0.012466235778598856 0.025656365855857725 0 0.012377717801548969 0.02574743881117221 0 0.012386042259376081 0.025761855009362757 0 0.012377717801548969 0.02574743881117221 0 0.012292101074148279 0.025778860552720276 0 0.012384965026358059 0.025703068049068696 0 0.012377717801548969 0.02574743881117221 0 0.012391422762102144 0.025737510833585615 0 0.012377717801548969 0.02574743881117221 0 0.012391422762102144 0.025737510833585615 0 0.012360130792294938 0.025760023064484716 0 0.012384965026358059 0.025703068049068696 0 0.012377717801548969 0.02574743881117221 0 0.012384753011135631 0.025667271294787377 0 0.012510827570049066 0.025805901709717579 0 0.012369750121415404 0.025769674428489597 0 0.012305182091330578 0.025697234856251829 0 0.012369750121415404 0.025769674428489597 0 0.012222256338460474 0.025706791280834258 0 0.012305182091330578 0.025697234856251829 0 0.012427663890005086 0.025737935269275744 0 0.012369750121415404 0.025769674428489597 0 0.012391422762102144 0.025737510833585615 0 0.012369750121415404 0.025769674428489597 0 0.012391422762102144 0.025737510833585615 0 0.012360130792294938 0.025760023064484716 0 0.012377717801548969 0.02574743881117221 0 0.012360130792294938 0.025760023064484716 0 0.012292101074148279 0.025778860552720276 0 0.012369750121415404 0.025769674428489597 0 0.012360130792294938 0.025760023064484716 0 0.012292101074148279 0.025778860552720276 0 0.012369750121415404 0.025769674428489597 0 0.012292101074148279 0.025778860552720276 0 0.012222256338460474 0.025706791280834258 0 0.012292101074148279 0.025778860552720276 0 0.012222256338460474 0.025706791280834258 0 0.012207414516448554 0.025729206660742351 0 0.012222256338460474 0.025706791280834258 0 0.012102694149787164 0.025628771617374004 0 0.012207414516448554 0.025729206660742351 0 0.012102694149787164 0.025628771617374004 0 0.012110447773213563 0.025697634738848795 0 0.012019260676611977 0.025598505858381412 0 0.012102694149787164 0.025628771617374004 0 0.012110447773213563 0.025697634738848795 0 0.012207414516448554 0.025729206660742351 0 0.012110447773213563 0.025697634738848795 0 0.012207414516448554 0.025729206660742351 0 0.012303115703402128 0.025823405861749624 0 0.012110447773213563 0.025697634738848795 0 0.012303115703402128 0.025823405861749624 0 0.012066920823543992 0.025739422979722509 0 0.012386042259376081 0.025761855009362757 0 0.012292101074148279 0.025778860552720276 0 0.012303115703402128 0.025823405861749624 0 0.012292101074148279 0.025778860552720276 0 0.012207414516448554 0.025729206660742351 0 0.012303115703402128 0.025823405861749624 0 0.012303115703402128 0.025823405861749624 0 0.012066920823543992 0.025739422979722509 0 0.011966843157376622 0.025832887901569748 0 0.010643853299421484 0.025894347878459862 0 0.010304804988898011 0.025873969811242108 0 0.012066920823543992 0.025739422979722509 0 0.011966843157376622 0.025832887901569748 0 0.011983202463048877 0.025660782255960919 0 0.012110447773213563 0.025697634738848795 0 0.012066920823543992 0.025739422979722509 0 0.011983202463048877 0.025660782255960919 0 0.010304804988898011 0.025873969811242108 0 0.012500577576926457 0.025346024900030489 0 0.012110447773213563 0.025697634738848795 0 0.011983202463048877 0.025660782255960919 0 0.012019260676611977 0.025598505858381412 0 0.011996415640680989 0.025689880989825352 0 0.011995247778582319 0.025678345821001501 0 0.012019260676611977 0.025598505858381412 0 0.010304804988898011 0.025873969811242108 0 0.010063259578199141 0.026260197735912 0 0.0094012605811372042 0.02592042126158671 0 0.0099613613359402498 0.025462828039433668 0 0.010584612329044495 0.025923301444890287 0 0.011995247778582319 0.025678345821001501 0 0.012011681432396408 0.025542238012284425 0 0.012019260676611977 0.025598505858381412 0 0.010063259578199141 0.026260197735912 0 0.011429498183560679 0.025677977321214587 0 0.0094610492490162026 0.02682703203923914 0 0.0094012605811372042 0.02592042126158671 0 0.010584612329044495 0.025923301444890287 0 0.010063259578199141 0.026260197735912 0 0.0093536617457047368 0.025991214917259434 0 0.0099613613359402498 0.025462828039433668 0 0.010532177982324666 0.024999988924431865 0 0.0093268472849338604 0.024999998369019078 0 0.0094012605811372042 0.02592042126158671 0 0.0099613613359402498 0.025462828039433668 0 0.0093268472849338604 0.024999998369019078 0 0.0099613613359402498 0.025462828039433668 0 0.010532177982324666 0.024999988924431865 0 0.010584612329044495 0.025923301444890287 0 0.012102694149787164 0.025628771617374004 0 0.012011681432396408 0.025542238012284425 0 0.012019260676611977 0.025598505858381412 0 0.012222256338460474 0.025706791280834258 0 0.012076913503356089 0.02555046319998322 0 0.012305182091330578 0.025697234856251829 0 0.012222256338460474 0.025706791280834258 0 0.012102694149787164 0.025628771617374004 0 0.012076913503356089 0.02555046319998322 0 0.012102694149787164 0.025628771617374004 0 0.012011681432396408 0.025542238012284425 0 0.012076913503356089 0.02555046319998322 0 0.011429498183560679 0.025677977321214587 0 0.011737423721992572 0.025000200002326861 0 0.012011681432396408 0.025542238012284425 0 0.012076913503356089 0.02555046319998322 0 0.011738564803311714 0.02500014171184706 0 0.010532177982324666 0.024999988924431865 0 0.010584612329044495 0.025923301444890287 0 0.011737549415560811 0.025000001847181767 0 0.012076913503356089 0.02555046319998322 0 0.011738564803311714 0.02500014171184706 0 0.01239452266202349 0.025513687483502679 0 0.013124108723930399 0.025426344669655904 0 0.011738564803311714 0.02500014171184706 0 0.01239452266202349 0.025513687483502679 0 0.012076913503356089 0.02555046319998322 0 0.01239452266202349 0.025513687483502679 0 0.012305182091330578 0.025697234856251829 0 0.012510827570049066 0.025805901709717579 0 0.01239452266202349 0.025513687483502679 0 0.012305182091330578 0.025697234856251829 0 0.0072755916723468376 0.026907903545061618 0 0.0076057495543475949 0.027850366316542346 0 0.0078930658764301467 0.027017990191831452 0 0.0072755916723468376 0.026907903545061618 0 0.0078930658764301467 0.027017990191831452 0 0.0075808653544403755 0.026365715249388452 0 0.0067099981198166028 0.026478726144250692 0 0.0063679788648470228 0.026898078216226154 0 0.0059666023109901526 0.026391975134380592 0 0.0067099981198166028 0.026478726144250692 0 0.006591616619122739 0.025800891371337311 0 0.0059666023109901526 0.026391975134380592 0 0.0063679788648470228 0.026898078216226154 0 0.0059666023109901526 0.026391975134380592 0 0.0058759965529393745 0.027086639770258793 0 0.0063947884356066681 0.027416874021799206 0 0.0063679788648470228 0.026898078216226154 0 0.0058759965529393745 0.027086639770258793 0 0.0069763184993207597 0.02666831993605762 0 0.0074591268545055401 0.02754203386423637 0 0.0063947884356066681 0.027416874021799206 0 0.0063679788648470228 0.026898078216226154 0 0.0068852073294610617 0.027118690532467724 0 0.0074591268545055401 0.02754203386423637 0 0.0079371106597475125 0.026974778352003719 0 0.0067099981198166028 0.026478726144250692 0 0.0063679788648470228 0.026898078216226154 0 0.0068852073294610617 0.027118690532467724 0 0.0075313751494882706 0.027655092143363282 0 0.0074591268545055401 0.02754203386423637 0 0.0077886380534846027 0.027803492507987183 0 0.0077344781301702708 0.027652771782597039 0 0.0083950051856621945 0.027609665368717798 0 0.0077344781301702708 0.027652771782597039 0 0.0083950051856621945 0.027609665368717798 0 0.0082486565418571148 0.027250019840756447 0 0.0077344781301702708 0.027652771782597039 0 0.0082486565418571148 0.027250019840756447 0 0.0079766763186258065 0.026918961609113647 0 0.0083950051856621945 0.027609665368717798 0 0.0082486565418571148 0.027250019840756447 0 0.0088009657201487106 0.027167772567361019 0 0.0093590092736465513 0.026067173489789933 0 0.009303916091551203 0.02500425095995876 0 0.0080951684653928508 0.025981109175817134 0 0.010304804988898011 0.025873969811242108 0 0.0080723441613296722 0.026847967042984217 0 0.009359572641431238 0.02685239624053895 0 0.0083950051856621945 0.027609665368717798 0 0.0088009657201487106 0.027167772567361019 0 0.0087439274494922128 0.026595108229304949 0 0.0093590092736465513 0.026067173489789933 0 0.0080951684653928508 0.025981109175817134 0 0.0088009657201487106 0.027167772567361019 0 0.0087633502158244361 0.026479474896468236 0 0.0084299575414192099 0.026897824373598701 0 0.0093522775282429294 0.026745118924740949 0 0.0088009657201487106 0.027167772567361019 0 0.0087633502158244361 0.026479474896468236 0 0.010063259578199141 0.026260197735912 0 0.0086798412211312181 0.027281536497198208 0 0.009359572641431238 0.02685239624053895 0 0.0093541535016179213 0.026735232995487208 0 0.0088009657201487106 0.027167772567361019 0 0.0078930658764301467 0.027017990191831452 0 0.0082007235547002979 0.026161025122528523 0 0.0075808653544403755 0.026365715249388452 0 0.0079371106597475125 0.026974778352003719 0 0.0081775759622518453 0.026236224579244887 0 0.0079766763186258065 0.026918961609113647 0 0.0084299575414192099 0.026897824373598701 0 0.0082007235547002979 0.026161025122528523 0 0.0087633502158244361 0.026479474896468236 0 0.0084299575414192099 0.026897824373598701 0 0.0082007235547002979 0.026161025122528523 0 0.0082486565418571148 0.027250019840756447 0 0.0079766763186258065 0.026918961609113647 0 0.0084299575414192099 0.026897824373598701 0 0.0082486565418571148 0.027250019840756447 0 0.0088009657201487106 0.027167772567361019 0 0.0084299575414192099 0.026897824373598701 0 0.0082007235547002979 0.026161025122528523 0 0.0085687136718002703 0.025664753974349371 0 0.0076282720252991102 0.0257180291056891 0 0.0087633502158244361 0.026479474896468236 0 0.0082007235547002979 0.026161025122528523 0 0.0085687136718002703 0.025664753974349371 0 0.0093522775282429294 0.026745118924740949 0 0.009332727412053772 0.02589932660037568 0 0.0087633502158244361 0.026479474896468236 0 0.009332727412053772 0.02589932660037568 0 0.0087633502158244361 0.026479474896468236 0 0.0085687136718002703 0.025664753974349371 0 0.0093536617457047368 0.025991214917259434 0 0.0093268111780214456 0.025000145579387987 0 0.009332727412053772 0.02589932660037568 0 0.0093267144773450539 0.025000004397824474 0 0.0085687136718002703 0.025664753974349371 0 0.0093267144773450539 0.025000004397824474 0 0.0085687136718002703 0.025664753974349371 0 0.0079477691912572795 0.024999974443723105 0 0.0085687136718002703 0.025664753974349371 0 0.0079477691912572795 0.024999974443723105 0 0.0076282720252991102 0.0257180291056891 0 0.0076282720252991102 0.0257180291056891 0 0.0069298537762248792 0.025954989957387622 0 0.0065687060579366864 0.024999990517726386 0 0.0079477691912572795 0.024999974443723105 0 0.0076282720252991102 0.0257180291056891 0 0.0065687060579366864 0.024999990517726386 0 0.0072755916723468376 0.026907903545061618 0 0.0075808653544403755 0.026365715249388452 0 0.0069298537762248792 0.025954989957387622 0 0.0069763184993207597 0.02666831993605762 0 0.0067640318717934224 0.025863394173054166 0 0.0082007235547002979 0.026161025122528523 0 0.0076282720252991102 0.0257180291056891 0 0.0075808653544403755 0.026365715249388452 0 0.0076282720252991102 0.0257180291056891 0 0.0075808653544403755 0.026365715249388452 0 0.0069298537762248792 0.025954989957387622 0 0.006591616619122739 0.025800891371337311 0 0.005913808780803601 0.02571002363608953 0 0.0059666023109901526 0.026391975134380592 0 0.006591616619122739 0.025800891371337311 0 0.0065681851310830488 0.024999997922983869 0 0.005913808780803601 0.02571002363608953 0 0.0067640318717934224 0.025863394173054166 0 0.0065686705880137839 0.025000169265611532 0 0.0065681851310830488 0.024999997922983869 0 0.0056375111296301907 0.02499998591831696 0 0.005913808780803601 0.02571002363608953 0 0.0056375111296301907 0.02499998591831696 0 0.0049602998326538188 0.025950644868801387 0 0.005913808780803601 0.02571002363608953 0 0.0056375111296301907 0.02499998591831696 0 0.0047066771421937718 0.024999903754026311 0 0.0049602998326538188 0.025950644868801387 0 0.0047063949279053715 0.025000151326285924 0 0.0047966567108006248 0.025921022811932017 0 0.0049602998326538188 0.025950644868801387 0 0.005913808780803601 0.02571002363608953 0 0.0059666023109901526 0.026391975134380592 0 0.0047060188399323027 0.024999986499404582 0 0.0032544161428108716 0.024999861583442234 0 0.0036690219267922651 0.02541189554275318 0 0.0036690219267922651 0.02541189554275318 0 0.0034207197227521554 0.025935561172424178 0 0.0029494168678250964 0.025313958184546733 0 0.0032544161428108716 0.024999861583442234 0 0.0036690219267922651 0.02541189554275318 0 0.0029494168678250964 0.025313958184546733 0 0.0047060188399323027 0.024999986499404582 0 0.0046360291414261302 0.025932906888866441 0 0.0040280963722871136 0.025746703549389637 0 0.0047060188399323027 0.024999986499404582 0 0.0036690219267922651 0.02541189554275318 0 0.0040280963722871136 0.025746703549389637 0 0.0046360291414261302 0.025932906888866441 0 0.0040280963722871136 0.025746703549389637 0 0.0040180864551931901 0.026333480860373359 0 0.0040280963722871136 0.025746703549389637 0 0.0034207197227521554 0.025935561172424178 0 0.0040180864551931901 0.026333480860373359 0 0.0036690219267922651 0.02541189554275318 0 0.0040280963722871136 0.025746703549389637 0 0.0034207197227521554 0.025935561172424178 0 0.0034564763701007213 0.02664082713001803 0 0.0040180864551931901 0.026333480860373359 0 0.0039246869946438665 0.026965436728896654 0 0.0034207197227521554 0.025935561172424178 0 0.0034564763701007213 0.02664082713001803 0 0.0040180864551931901 0.026333480860373359 0 0.0040180864551931901 0.026333480860373359 0 0.0039246869946438665 0.026965436728896654 0 0.0046729590821457771 0.026710994755908039 0 0.0046360291414261302 0.025932906888866441 0 0.0040180864551931901 0.026333480860373359 0 0.0046729590821457771 0.026710994755908039 0 0.0039246869946438665 0.026965436728896654 0 0.0046729590821457771 0.026710994755908039 0 0.0042473218290547442 0.027381314077684227 0 0.0039246869946438665 0.026965436728896654 0 0.0034625911820176433 0.027130597393272858 0 0.0037453752599468323 0.027419723273262017 0 0.0034564763701007213 0.02664082713001803 0 0.0039246869946438665 0.026965436728896654 0 0.0034625911820176433 0.027130597393272858 0 0.0059666023109901526 0.026391975134380592 0 0.0050829021838179065 0.026707333374663196 0 0.0058759965529393745 0.027086639770258793 0 0.0049602998326538188 0.025950644868801387 0 0.0059666023109901526 0.026391975134380592 0 0.0050829021838179065 0.026707333374663196 0 0.0047966567108006248 0.025921022811932017 0 0.0048778576456305319 0.026706684060790142 0 0.0046729590821457771 0.026710994755908039 0 0.0047937042930716618 0.027433349152047395 0 0.0042473218290547442 0.027381314077684227 0 0.0048778576456305319 0.026706684060790142 0 0.0049576106742894085 0.02745734215202366 0 0.0050829021838179065 0.026707333374663196 0 0.0058759965529393745 0.027086639770258793 0 0.005116464495752128 0.027430301373008836 0 0.0058759965529393745 0.027086639770258793 0 0.0057711072577301976 0.027682936286339332 0 0.005116464495752128 0.027430301373008836 0 0.0057711072577301976 0.027682936286339332 0 0.0050374505179376682 0.028216017302318468 0 0.0059096379170367561 0.028305421203296932 0 0.0050335971529417876 0.028178318727590985 0 0.0049576106742894085 0.02745734215202366 0 0.0057711072577301976 0.027682936286339332 0 0.0050374505179376682 0.028216017302318468 0 0.005116464495752128 0.027430301373008836 0 0.0050374505179376682 0.028216017302318468 0 0.0047937042930716618 0.027433349152047395 0 0.0044142687057627137 0.027832627238405818 0 0.0039246869946438665 0.026965436728896654 0 0.0042473218290547442 0.027381314077684227 0 0.0037453752599468323 0.027419723273262017 0 0.0042473218290547442 0.027381314077684227 0 0.003847834395695205 0.027847864383798784 0 0.0044142687057627137 0.027832627238405818 0 0.0047937042930716618 0.027433349152047395 0 0.0042473218290547442 0.027381314077684227 0 0.0044142687057627137 0.027832627238405818 0 0.0037453752599468323 0.027419723273262017 0 0.003847834395695205 0.027847864383798784 0 0.003290820901678222 0.027600534981051233 0 0.0034625911820176433 0.027130597393272858 0 0.0037453752599468323 0.027419723273262017 0 0.003290820901678222 0.027600534981051233 0 0.0042473218290547442 0.027381314077684227 0 0.0037453752599468323 0.027419723273262017 0 0.003847834395695205 0.027847864383798784 0 0.003847834395695205 0.027847864383798784 0 0.0033832668132503978 0.027972789242910523 0 0.003290820901678222 0.027600534981051233 0 0.003847834395695205 0.027847864383798784 0 0.0035962334779123385 0.02821009509670893 0 0.0033832668132503978 0.027972789242910523 0 0.003847834395695205 0.027847864383798784 0 0.0035962334779123385 0.02821009509670893 0 0.0041383765098652135 0.028312598498107109 0 0.0050374505179376682 0.028216017302318468 0 0.0044142687057627137 0.027832627238405818 0 0.0041383765098652135 0.028312598498107109 0 0.003847834395695205 0.027847864383798784 0 0.0044142687057627137 0.027832627238405818 0 0.0041383765098652135 0.028312598498107109 0 0.0041383765098652135 0.028312598498107109 0 0.0043395590885662366 0.028842115344957953 0 0.0035270051285024111 0.028624377507792939 0 0.0050374505179376682 0.028216017302318468 0 0.0041383765098652135 0.028312598498107109 0 0.0043395590885662366 0.028842115344957953 0 0.0043395590885662366 0.028842115344957953 0 0.0035270051285024111 0.028624377507792939 0 0.0037631607310222538 0.029118247061808013 0 0.0035962334779123385 0.02821009509670893 0 0.0041383765098652135 0.028312598498107109 0 0.0035270051285024111 0.028624377507792939 0 0.0035962334779123385 0.02821009509670893 0 0.0035270051285024111 0.028624377507792939 0 0.0031420525637890842 0.028222464640507785 0 0.003917792170825083 0.029564558491843921 0 0.0037631607310222538 0.029118247061808013 0 0.0032325727232884217 0.029209862637130917 0 0.0030143790889693984 0.027886594325668281 0 0.0024841627595487796 0.027123549975310527 0 0.0035270051285024111 0.028624377507792939 0 0.0037631607310222538 0.029118247061808013 0 0.0032325727232884217 0.029209862637130917 0 0.003917792170825083 0.029564558491843921 0 0.0037631607310222538 0.029118247061808013 0 0.0042255185562232568 0.029210284931008839 0 0.0043395590885662366 0.028842115344957953 0 0.0042255185562232568 0.029210284931008839 0 0.0048948961488614771 0.029319150030705992 0 0.0039848740754723213 0.029545873239541519 0 0.0048758029390478094 0.029264972915576545 0 0.003917792170825083 0.029564558491843921 0 0.0042255185562232568 0.029210284931008839 0 0.0048948961488614771 0.029319150030705992 0 0.0043395590885662366 0.028842115344957953 0 0.0037631607310222538 0.029118247061808013 0 0.0042255185562232568 0.029210284931008839 0 0.0043395590885662366 0.028842115344957953 0 0.0048948961488614771 0.029319150030705992 0 0.0052761506266105623 0.028756394710565694 0 0.0048758029390478094 0.029264972915576545 0 0.0059089434081176827 0.028931728200103469 0 0.0048948961488614771 0.029319150030705992 0 0.0058743235199806799 0.029008095750388662 0 0.0052761506266105623 0.028756394710565694 0 0.0048831941866483881 0.029203736174107701 0 0.0059066038332315522 0.028872789414731263 0 0.0055056797532687159 0.02938631424035882 0 0.0058612384067596229 0.029919811919148321 0 0.0059066038332315522 0.028872789414731263 0 0.0055056797532687159 0.02938631424035882 0 0.0058743235199806799 0.029008095750388662 0 0.0052761506266105623 0.028756394710565694 0 0.0059096379170367561 0.028305421203296932 0 0.0050374505179376682 0.028216017302318468 0 0.0052761506266105623 0.028756394710565694 0 0.0059096379170367561 0.028305421203296932 0 0.0050374505179376682 0.028216017302318468 0 0.0043395590885662366 0.028842115344957953 0 0.0052761506266105623 0.028756394710565694 0 -0.0014442666114780054 0.025770943849605751 0 -0.001390342917819407 0.025731222252437146 0 -0.0013966459541221443 0.025660294146574964 0 -0.0014442666114780054 0.025770943849605751 0 -0.0013966459541221443 0.025660294146574964 0 -0.0014768387280496495 0.025687014277954466 0 -0.0014442666114780054 0.025770943849605751 0 -0.001390342917819407 0.025731222252437146 0 -0.0013377933240825775 0.02583061511267358 0 -0.0014359462254856822 0.025643693403867639 0 -0.0013377933240825775 0.02583061511267358 0 -0.0012758493123957877 0.025999831101968032 0 -0.001390342917819407 0.025731222252437146 0 -0.0014359462254856822 0.025643693403867639 0 -0.0013377933240825775 0.02583061511267358 0 -0.001390342917819407 0.025731222252437146 0 -0.0014359462254856822 0.025643693403867639 0 -0.0013966459541221443 0.025660294146574964 0 -0.0014359462254856822 0.025643693403867639 0 -0.0014097748466587131 0.025613124346480668 0 -0.0013966459541221443 0.025660294146574964 0 -0.0014569325216898868 0.025560872958904735 0 -0.0013495527324418855 0.025606147345973787 0 -0.0014097748466587131 0.025613124346480668 0 -0.0014569325216898868 0.025560872958904735 0 -0.0014359462254856822 0.025643693403867639 0 -0.0014097748466587131 0.025613124346480668 0 -0.0009985320731516127 0.025383480012600528 0 0.00058174090899158119 0.025569445037201492 0 -7.7022219447552898e-05 0.025568302847371757 0 -0.00037208092739736317 0.025148427176693772 0 0.00017442657423827055 0.024475574824806133 0 -0.0013495527324418855 0.025606147345973787 0 -0.0013966459541221443 0.025660294146574964 0 -0.0014768387280496495 0.025687014277954466 0 -0.0013495527324418855 0.025606147345973787 0 -0.0014097748466587131 0.025613124346480668 0 -0.0013966459541221443 0.025660294146574964 0 0.0020228186508946841 0.02490863623332484 0 0.0018531446600041804 0.025127508778143348 0 0.0019419192418448485 0.025309767721751496 0 0.0011226587609868294 0.025380675150165823 0 0.00058174090899158119 0.025569445037201492 0 0.0018531446600041804 0.025127508778143348 0 0.0019037813770194588 0.025359525270898197 0 0.0019419192418448485 0.025309767721751496 0 0.0018531446600041804 0.025127508778143348 0 0.00164617551334659 0.02517004843385803 0 0.0019037813770194588 0.025359525270898197 0 0.0024841627595487796 0.027123549975310527 0 0.0013131137243317795 0.02703036204782926 0 0.0032325727232884217 0.029209862637130917 0 0.0029378852831963703 0.02864022452544426 0 0.0021933852039064295 0.028585412760847587 0 0.0035270051285024111 0.028624377507792939 0 0.0032325727232884217 0.029209862637130917 0 0.0029378852831963703 0.02864022452544426 0 0.0035270051285024111 0.028624377507792939 0 0.0029378852831963703 0.02864022452544426 0 0.0028414862759815387 0.028330544738719765 0 0.0029378852831963703 0.02864022452544426 0 0.0028414862759815387 0.028330544738719765 0 0.0021933852039064295 0.028585412760847587 0 0.0028414862759815387 0.028330544738719765 0 0.002958040736545943 0.027971607879033279 0 0.0025825432131984859 0.028060694062167782 0 0.0035270051285024111 0.028624377507792939 0 0.0028414862759815387 0.028330544738719765 0 0.002958040736545943 0.027971607879033279 0 0.0034313124442996506 0.02851316822987161 0 0.0031690530483729096 0.02823568166623271 0 -0.0014442666114780054 0.025770943849605751 0 -0.0014875164046639884 0.02572705691440972 0 -0.0014768387280496495 0.025687014277954466 0 0.00022173932504771684 0.026620537432042783 0 0.00058174090899158119 0.025569445037201492 0 -7.939872703405766e-05 0.026859210898969539 0 0.00039811079040498839 0.027175861540855408 0 0.00070556109727517636 0.025858345817046473 0 0.0013131137243317795 0.02703036204782926 0 0.00022173932504771684 0.026620537432042783 0 0.0013131137243317795 0.02703036204782926 0 0.00058174090899158119 0.025569445037201492 0 0.0013131137243317795 0.02703036204782926 0 0.0021631237849761877 0.028080404566383221 0 0.0028414862759815387 0.028330544738719765 0 0.0021933852039064295 0.028585412760847587 0 0.0025825432131984859 0.028060694062167782 0 0.0021555082046310053 0.028580216805379786 0 0.0020676531351365517 0.028522728088179846 0 0.0025825432131984859 0.028060694062167782 0 -0.0014442666114780054 0.025770943849605751 0 -0.0015233268871799636 0.025712185656642614 0 -0.0014822839431677692 0.025885364791619719 0 -0.00144670478089472 0.025646613197285104 0 0.00022173932504771684 0.026620537432042783 0 0.00022173932504771684 0.026620537432042783 0 0.0013163324291543003 0.027392259555347697 0 -0.0015233268871799636 0.025712185656642614 0 -0.0014822839431677692 0.025885364791619719 0 -0.0015930054494249963 0.026024281925172175 0 0.0020676531351365517 0.028522728088179846 0 0.002345395480634459 0.027346584702390948 0 0.0025825432131984859 0.028060694062167782 0 -0.0014822839431677692 0.025885364791619719 0 -0.0015930054494249963 0.026024281925172175 0 -0.0013542085197202711 0.025999764512368642 0 0.0027415086571423732 0.027816839751367041 0 0.0031117812323047701 0.027894185753999063 0 0.003290820901678222 0.027600534981051233 0 0.0035962334779123385 0.02821009509670893 0 0.0031420525637890842 0.028222464640507785 0 0.0033832668132503978 0.027972789242910523 0 0.0031420525637890842 0.028222464640507785 0 0.0031117812323047701 0.027894185753999063 0 0.0033832668132503978 0.027972789242910523 0 0.002345395480634459 0.027346584702390948 0 0.002958040736545943 0.027971607879033279 0 0.0025825432131984859 0.028060694062167782 0 0.0013163324291543003 0.027392259555347697 0 0.0031690530483729096 0.02823568166623271 0 0.0027415086571423732 0.027816839751367041 0 0.0031420525637890842 0.028222464640507785 0 0.0031117812323047701 0.027894185753999063 0 0.0031117812323047701 0.027894185753999063 0 0.0033832668132503978 0.027972789242910523 0 0.003290820901678222 0.027600534981051233 0 0.0027415086571423732 0.027816839751367041 0 0.003290820901678222 0.027600534981051233 0 0.0029163649967399825 0.027033635149981312 0 0.0013163324291543003 0.027392259555347697 0 -0.00044186078469682128 0.02698438458502531 0 0.0017180144760875584 0.028846819364393081 0 0.00076280812767946641 0.027898023457447931 0 0.0020663901151061906 0.027424164791382839 0 0.0013163324291543003 0.027392259555347697 0 0.002564684281098256 0.027407384121864851 0 -0.0015930054494249963 0.026024281925172175 0 -0.0012932343245361053 0.026289288154422618 0 -0.0013542085197202711 0.025999764512368642 0 -0.0012932343245361053 0.026289288154422618 0 -0.0013542085197202711 0.025999764512368642 0 -0.0010161911373840196 0.026199782120367065 0 -0.0014442666114780054 0.025770943849605751 0 -0.0013542085197202711 0.025999764512368642 0 -0.0013377933240825775 0.02583061511267358 0 -0.0013542085197202711 0.025999764512368642 0 -0.0013377933240825775 0.02583061511267358 0 -0.0010161911373840196 0.026199782120367065 0 -0.0014442666114780054 0.025770943849605751 0 -0.0014822839431677692 0.025885364791619719 0 -0.0013542085197202711 0.025999764512368642 0 -0.0013377933240825775 0.02583061511267358 0 -0.0010161911373840196 0.026199782120367065 0 -0.0012758493123957877 0.025999831101968032 0 -0.0010161911373840196 0.026199782120367065 0 -0.00044667950433104216 0.026597320153356221 0 -0.00085687187166986448 0.026372944509281956 0 -0.0012932343245361053 0.026289288154422618 0 -0.0010161911373840196 0.026199782120367065 0 -0.00044667950433104216 0.026597320153356221 0 0.00076280812767946641 0.027898023457447931 0 -0.00044667950433104216 0.026597320153356221 0 0.001206486772358222 0.026768729039100159 0 -0.00044186078469682128 0.02698438458502531 0 -0.00041496158721791702 0.026687099520648402 0 -0.00044667950433104216 0.026597320153356221 0 0.001206486772358222 0.026768729039100159 0 0.0010197724981393325 0.02592323055050344 0 -0.00044667950433104216 0.026597320153356221 0 -0.00029869933191251568 0.025927758346573505 0 0.0010197724981393325 0.02592323055050344 0 -0.00044667950433104216 0.026597320153356221 0 -0.00029869933191251568 0.025927758346573505 0 -0.00085687187166986448 0.026372944509281956 0 0.0034564763701007213 0.02664082713001803 0 0.0034625911820176433 0.027130597393272858 0 0.0029163649967399825 0.027033635149981312 0 0.0034625911820176433 0.027130597393272858 0 0.003290820901678222 0.027600534981051233 0 0.0029163649967399825 0.027033635149981312 0 0.00076280812767946641 0.027898023457447931 0 0.0020663901151061906 0.027424164791382839 0 0.001206486772358222 0.026768729039100159 0 0.001206486772358222 0.026768729039100159 0 0.0024155203639914572 0.026245797323262515 0 0.0010197724981393325 0.02592323055050344 0 0.0020663901151061906 0.027424164791382839 0 0.001206486772358222 0.026768729039100159 0 0.0024155203639914572 0.026245797323262515 0 0.002564684281098256 0.027407384121864851 0 0.002722630200744946 0.026183395426204396 0 0.0034564763701007213 0.02664082713001803 0 0.0029163649967399825 0.027033635149981312 0 0.0030183722424367058 0.026254461600559949 0 0.0034207197227521554 0.025935561172424178 0 0.0034564763701007213 0.02664082713001803 0 0.0030183722424367058 0.026254461600559949 0 0.0034207197227521554 0.025935561172424178 0 0.0030183722424367058 0.026254461600559949 0 0.0029494168678250964 0.025313958184546733 0 0.0024155203639914572 0.026245797323262515 0 0.0020045007146096564 0.025625707204175743 0 0.0029494168678250964 0.025313958184546733 0 0.002722630200744946 0.026183395426204396 0 0.0029392882544732402 0.025353997327078756 0 0.0024155203639914572 0.026245797323262515 0 0.0020045007146096564 0.025625707204175743 0 0.0010197724981393325 0.02592323055050344 0 0.0020045007146096564 0.025625707204175743 0 0.001801763533638783 0.024999775370896538 0 0.0010197724981393325 0.02592323055050344 0 0.0020045007146096564 0.025625707204175743 0 0.001801763533638783 0.024999775370896538 0 0.0029494168678250964 0.025313958184546733 0 0.0032544161428108716 0.024999861583442234 0 0.001801763533638783 0.024999775370896538 0 0.0029494168678250964 0.025313958184546733 0 -0.00029869933191251568 0.025927758346573505 0 0.0010197724981393325 0.02592323055050344 0 0.00034962170989562562 0.024999812939516763 0 0.001801763533638783 0.024999775370896538 0 0.0010197724981393325 0.02592323055050344 0 0.00034962170989562562 0.024999812939516763 0 -0.00029869933191251568 0.025927758346573505 0 0.00034962170989562562 0.024999812939516763 0 -0.00078265841178544525 0.025603461609380065 0 0.00034962170989562562 0.024999812939516763 0 -0.00078265841178544525 0.025603461609380065 0 -0.0011021066362602915 0.024999926352575721 0 -0.00029869933191251568 0.025927758346573505 0 -0.00078265841178544525 0.025603461609380065 0 -0.0010915702433129573 0.026122552820883341 0 -0.0016078432011570377 0.02572553828949118 0 -0.0015506396820202898 0.02616805325601965 0 -0.0010915702433129573 0.026122552820883341 0 -0.00078265841178544525 0.025603461609380065 0 -0.0016078432011570377 0.02572553828949118 0 -0.0010915702433129573 0.026122552820883341 0 -0.00078265841178544525 0.025603461609380065 0 -0.0011021066362602915 0.024999926352575721 0 -0.0016078432011570377 0.02572553828949118 0 -0.0025536960854939065 0.024999860381058961 0 -0.0023191381402555456 0.025652111283728619 0 -0.0016078432011570377 0.02572553828949118 0 -0.0011021066362602915 0.024999926352575721 0 -0.0025536960854939065 0.024999860381058961 0 -0.0016078432011570377 0.02572553828949118 0 -0.0025536960854939065 0.024999860381058961 0 -0.0023191381402555456 0.025652111283728619 0 -0.0031141558780518395 0.025659751112100594 0 -0.0020839307210895057 0.026190779060518532 0 -0.0031141558780518395 0.025659751112100594 0 -0.0030253713318981845 0.026623941386192888 0 -0.0023191381402555456 0.025652111283728619 0 -0.0020839307210895057 0.026190779060518532 0 -0.0031141558780518395 0.025659751112100594 0 -0.0023191381402555456 0.025652111283728619 0 -0.0016078432011570377 0.02572553828949118 0 -0.0020839307210895057 0.026190779060518532 0 -0.0016078432011570377 0.02572553828949118 0 -0.0015506396820202898 0.02616805325601965 0 -0.0020839307210895057 0.026190779060518532 0 -0.0015506396820202898 0.02616805325601965 0 -0.0020839307210895057 0.026190779060518532 0 -0.0015922566181022688 0.026115747661810292 0 -0.0020839307210895057 0.026190779060518532 0 -0.0015922566181022688 0.026115747661810292 0 -0.0021259068083668096 0.026202022831389712 0 -0.0012141845379736007 0.026191604999515533 0 -0.0031364689404242002 0.025949137482016368 0 -0.0020815555639443705 0.026141974748042016 0 -0.0031364689404242002 0.025949137482016368 0 -0.0016640917519762885 0.025924615953212986 0 -0.0015922566181022688 0.026115747661810292 0 -0.0015678645054694096 0.025990062829097962 0 -0.0016640917519762885 0.025924615953212986 0 -0.0015922566181022688 0.026115747661810292 0 -0.0016984897938459294 0.025681096089050601 0 -0.0015506396820202898 0.02616805325601965 0 -0.0015922566181022688 0.026115747661810292 0 -0.00120079460539313 0.026253584918533298 0 -0.00120079460539313 0.026253584918533298 0 -0.00085687187166986448 0.026372944509281956 0 -0.0010915702433129573 0.026122552820883341 0 -0.0010161911373840196 0.026199782120367065 0 -0.00120079460539313 0.026253584918533298 0 -0.00085687187166986448 0.026372944509281956 0 -0.00029869933191251568 0.025927758346573505 0 -0.00085687187166986448 0.026372944509281956 0 -0.0010915702433129573 0.026122552820883341 0 -0.0015506396820202898 0.02616805325601965 0 -0.00120079460539313 0.026253584918533298 0 -0.0010915702433129573 0.026122552820883341 0 -0.0066658052007536328 0.025170172385515714 0 -0.0054617022178539967 0.024999381397885583 0 -0.006673855275537488 0.024999775788821923 0 -0.0054581052257991133 0.025000196308137563 0 -0.0054124459294875304 0.025403075425478015 0 -0.0066658052007536328 0.025170172385515714 0 -0.0054617022178539967 0.024999381397885583 0 -0.0061794080959687069 0.025140959443947074 0 -0.0054617022178539967 0.024999381397885583 0 -0.0061794080959687069 0.025140959443947074 0 -0.0061060991717921103 0.025110973827427021 0 -0.0066658052007536328 0.025170172385515714 0 -0.0061794080959687069 0.025140959443947074 0 -0.0065136649223760373 0.02543330603283564 0 -0.0061794080959687069 0.025140959443947074 0 -0.0061060991717921103 0.025110973827427021 0 -0.0061677807570418757 0.025271061913263542 0 -0.0061060991717921103 0.025110973827427021 0 -0.0056219852130795127 0.025381585394425345 0 -0.0059919857384882255 0.025326616414818686 0 -0.0061060991717921103 0.025110973827427021 0 -0.0059919857384882255 0.025326616414818686 0 -0.0061677807570418757 0.025271061913263542 0 -0.005458286581427654 0.025000054810772221 0 -0.0043056748221697453 0.025829992534728952 0 -0.0040060662056724729 0.024999832017309771 0 -0.0043056748221697453 0.025829992534728952 0 -0.0040060662056724729 0.024999832017309771 0 -0.0031141558780518395 0.025659751112100594 0 -0.0025536960854939065 0.024999860381058961 0 -0.0040060662056724729 0.024999832017309771 0 -0.0031141558780518395 0.025659751112100594 0 -0.0043056748221697453 0.025829992534728952 0 -0.0031141558780518395 0.025659751112100594 0 -0.0030253713318981845 0.026623941386192888 0 -0.0054124459294875304 0.025403075425478015 0 -0.0031364689404242002 0.025949137482016368 0 -0.0016984897938459294 0.025681096089050601 0 -0.0018282348347201918 0.025791328478111549 0 -0.002052315899982924 0.025629662142689056 0 -0.0016640917519762885 0.025924615953212986 0 -0.0016984897938459294 0.025681096089050601 0 -0.0018282348347201918 0.025791328478111549 0 -0.0016640917519762885 0.025924615953212986 0 -0.0018282348347201918 0.025791328478111549 0 -0.0017860498930040967 0.025888051505443304 0 -0.0018282348347201918 0.025791328478111549 0 -0.0019801559506389781 0.025795594228995609 0 -0.002052315899982924 0.025629662142689056 0 -0.0018282348347201918 0.025791328478111549 0 -0.0019801559506389781 0.025795594228995609 0 -0.0017860498930040967 0.025888051505443304 0 -0.0019801559506389781 0.025795594228995609 0 -0.002052315899982924 0.025629662142689056 0 -0.0022067467636398305 0.025757236641279116 0 -0.0031364689404242002 0.025949137482016368 0 -0.0039036085604759389 0.025555276522731495 0 -0.0056219852130795127 0.025381585394425345 0 -0.006138563585809601 0.025574015914590017 0 -0.0059919857384882255 0.025326616414818686 0 -0.006138563585809601 0.025574015914590017 0 -0.0059919857384882255 0.025326616414818686 0 -0.0061677807570418757 0.025271061913263542 0 -0.0061794080959687069 0.025140959443947074 0 -0.0061677807570418757 0.025271061913263542 0 -0.0065136649223760373 0.02543330603283564 0 -0.006138563585809601 0.025574015914590017 0 -0.0061677807570418757 0.025271061913263542 0 -0.0065136649223760373 0.02543330603283564 0 -0.006138563585809601 0.025574015914590017 0 -0.0065136649223760373 0.02543330603283564 0 -0.0068558423097265812 0.025809789595007144 0 -0.0039036085604759389 0.025555276522731495 0 -0.0061814702638094861 0.025484137878847742 0 -0.002052315899982924 0.025629662142689056 0 -0.0022067467636398305 0.025757236641279116 0 -0.0025129776130490451 0.025635284755372509 0 -0.0068291568481963702 0.025677589213053752 0 -0.0061814702638094861 0.025484137878847742 0 -0.0022067467636398305 0.025757236641279116 0 -0.0025129776130490451 0.025635284755372509 0 -0.0024102465630069228 0.025760566216301857 0 -0.0025129776130490451 0.025635284755372509 0 -0.0025417994250968232 0.025765366701566095 0 -0.0024102465630069228 0.025760566216301857 0 -0.0061814702638094861 0.025484137878847742 0 -0.009092742863861485 0.026220738842689686 0 -0.0061814702638094861 0.025484137878847742 0 -0.010307495566638318 0.022980466020016192 0 -0.0088192375715588339 0.025957553860012285 0 -0.0089585028004727091 0.026056168023318144 0 -0.0089210280299945235 0.025999131836385997 0 -0.0088192375715588339 0.025957553860012285 0 -0.0089647522454430525 0.02607652520212593 0 -0.0089585028004727091 0.026056168023318144 0 -0.0025129776130490451 0.025635284755372509 0 -0.0025417994250968232 0.025765366701566095 0 -0.0026820780975596414 0.025768124909626551 0 -0.0074265318467553318 0.026009149189358823 0 -0.0080921484666428255 0.025585732022682106 0 -0.0089210280299945235 0.025999131836385997 0 -0.0074265318467553318 0.026009149189358823 0 -0.007275664720489042 0.025376376614532157 0 -0.0080921484666428255 0.025585732022682106 0 -0.0066658052007536328 0.025170172385515714 0 -0.0065136649223760373 0.02543330603283564 0 -0.007275664720489042 0.025376376614532157 0 -0.007275664720489042 0.025376376614532157 0 -0.0078689714014957505 0.025136450883430691 0 -0.0080921484666428255 0.025585732022682106 0 -0.0066658052007536328 0.025170172385515714 0 -0.007275664720489042 0.025376376614532157 0 -0.0078689714014957505 0.025136450883430691 0 -0.0065136649223760373 0.02543330603283564 0 -0.0074265318467553318 0.026009149189358823 0 -0.007275664720489042 0.025376376614532157 0 -0.0025774426717073682 0.026139509745034109 0 -0.0025700281027947977 0.025984631701603998 0 -0.0027715162533085 0.026054204652124525 0 -0.0025774426717073682 0.026139509745034109 0 -0.0024541434902528416 0.026018564295215898 0 -0.0023548419654929233 0.026109628519840385 0 -0.0024541434902528416 0.026018564295215898 0 -0.0024542378745774688 0.025912914407895001 0 -0.0023213591850305302 0.025952213032148425 0 -0.0024541434902528416 0.026018564295215898 0 -0.0025700281027947977 0.025984631701603998 0 -0.0024542378745774688 0.025912914407895001 0 -0.0025774426717073682 0.026139509745034109 0 -0.0024541434902528416 0.026018564295215898 0 -0.0025700281027947977 0.025984631701603998 0 -0.0025700281027947977 0.025984631701603998 0 -0.0025857362819008784 0.025882041193023692 0 -0.0027715162533085 0.026054204652124525 0 -0.0025700281027947977 0.025984631701603998 0 -0.0025857362819008784 0.025882041193023692 0 -0.0024542378745774688 0.025912914407895001 0 -0.0025857362819008784 0.025882041193023692 0 -0.0025417994250968232 0.025765366701566095 0 -0.0026820780975596414 0.025768124909626551 0 -0.0025857362819008784 0.025882041193023692 0 -0.0025417994250968232 0.025765366701566095 0 -0.0024656564337425919 0.025812136794952954 0 -0.0024102465630069228 0.025760566216301857 0 -0.0024656564337425919 0.025812136794952954 0 -0.0023298067029952924 0.025832343904858678 0 -0.0025417994250968232 0.025765366701566095 0 -0.0024102465630069228 0.025760566216301857 0 -0.0024656564337425919 0.025812136794952954 0 -0.0024656564337425919 0.025812136794952954 0 -0.0024542378745774688 0.025912914407895001 0 -0.0023298067029952924 0.025832343904858678 0 -0.0025857362819008784 0.025882041193023692 0 -0.0024656564337425919 0.025812136794952954 0 -0.0024542378745774688 0.025912914407895001 0 -0.0024542378745774688 0.025912914407895001 0 -0.0023213591850305302 0.025952213032148425 0 -0.0023298067029952924 0.025832343904858678 0 -0.0023213591850305302 0.025952213032148425 0 -0.0023298067029952924 0.025832343904858678 0 -0.0022064589821006193 0.02589062476814067 0 -0.0022067467636398305 0.025757236641279116 0 -0.0023298067029952924 0.025832343904858678 0 -0.0022064589821006193 0.02589062476814067 0 -0.0022067467636398305 0.025757236641279116 0 -0.0024102465630069228 0.025760566216301857 0 -0.0023298067029952924 0.025832343904858678 0 -0.0022067467636398305 0.025757236641279116 0 -0.0022064589821006193 0.02589062476814067 0 -0.0020111844547817835 0.025904256122924716 0 -0.0023213591850305302 0.025952213032148425 0 -0.0022064589821006193 0.02589062476814067 0 -0.0021645652957910603 0.026013214681493323 0 -0.0022064589821006193 0.02589062476814067 0 -0.0021645652957910603 0.026013214681493323 0 -0.0020111844547817835 0.025904256122924716 0 -0.0023213591850305302 0.025952213032148425 0 -0.0021645652957910603 0.026013214681493323 0 -0.0023548419654929233 0.026109628519840385 0 -0.0024541434902528416 0.026018564295215898 0 -0.0023213591850305302 0.025952213032148425 0 -0.0023548419654929233 0.026109628519840385 0 -0.0021645652957910603 0.026013214681493323 0 -0.0023548419654929233 0.026109628519840385 0 -0.0021376931260001933 0.026206761989020732 0 -0.0019488033797949648 0.026160056320165496 0 -0.0019819523804162683 0.026059028836525659 0 -0.0021376931260001933 0.026206761989020732 0 -0.0021645652957910603 0.026013214681493323 0 -0.0019819523804162683 0.026059028836525659 0 -0.0021376931260001933 0.026206761989020732 0 -0.0019488033797949648 0.026160056320165496 0 -0.0019819523804162683 0.026059028836525659 0 -0.0017883427249833579 0.026106244628756825 0 -0.0019488033797949648 0.026160056320165496 0 -0.0017883427249833579 0.026106244628756825 0 -0.0018914171385146518 0.026252526051580086 0 -0.0019819523804162683 0.026059028836525659 0 -0.0020111844547817835 0.025904256122924716 0 -0.0017610073840255609 0.025978249611281486 0 -0.0019819523804162683 0.026059028836525659 0 -0.0017610073840255609 0.025978249611281486 0 -0.0017883427249833579 0.026106244628756825 0 -0.0021645652957910603 0.026013214681493323 0 -0.0019819523804162683 0.026059028836525659 0 -0.0020111844547817835 0.025904256122924716 0 -0.0019801559506389781 0.025795594228995609 0 -0.0022067467636398305 0.025757236641279116 0 -0.0020111844547817835 0.025904256122924716 0 -0.0019801559506389781 0.025795594228995609 0 -0.0020111844547817835 0.025904256122924716 0 -0.0017860498930040967 0.025888051505443304 0 -0.0020111844547817835 0.025904256122924716 0 -0.0017860498930040967 0.025888051505443304 0 -0.0017610073840255609 0.025978249611281486 0 -0.0017860498930040967 0.025888051505443304 0 -0.0017610073840255609 0.025978249611281486 0 -0.0015678645054694096 0.025990062829097962 0 -0.0016640917519762885 0.025924615953212986 0 -0.0017860498930040967 0.025888051505443304 0 -0.0015678645054694096 0.025990062829097962 0 -0.0017610073840255609 0.025978249611281486 0 -0.0015808070636125721 0.026019241903608811 0 -0.0015678645054694096 0.025990062829097962 0 -0.0017883427249833579 0.026106244628756825 0 -0.0015808070636125721 0.026019241903608811 0 -0.0017836468526326575 0.026339694019289955 0 -0.0017610073840255609 0.025978249611281486 0 -0.0017883427249833579 0.026106244628756825 0 -0.0015808070636125721 0.026019241903608811 0 -0.0015808070636125721 0.026019241903608811 0 -0.0015444583252402359 0.025968066738145026 0 -0.0014593362971622075 0.025947506840990876 0 -0.0041787254403129132 0.022558226373126749 0 -0.0026826438387392328 0.02484268693304785 0 -0.002129940124782142 0.026281967823590938 0 -0.0041787254403129132 0.022558226373126749 0 -0.006297860543106386 0.022649601161106307 0 -0.005515338722797046 0.023552156622078116 0 -0.0041210552338914698 0.023296137486106643 0 -0.006297860543106386 0.022649601161106307 0 -0.005515338722797046 0.023552156622078116 0 -0.0065149241444318008 0.024128729562177566 0 -0.0041787254403129132 0.022558226373126749 0 -0.0067966214734433072 0.019923949812734546 0 -0.006297860543106386 0.022649601161106307 0 -0.0065149241444318008 0.024128729562177566 0 -0.0068708715367853746 0.02384876808662207 0 -0.0059610855124665116 0.016614073437768231 0 -0.0063708357200375964 0.016739484295661626 0 -0.0063105621996336287 0.017107279535452668 0 -0.0059610855124665116 0.016614073437768231 0 -0.0061496354548082012 0.016530614605949508 0 -0.0063708357200375964 0.016739484295661626 0 -0.0017836468526326575 0.026339694019289955 0 -0.0019813703230081203 0.026269187501592409 0 -0.0018914171385146518 0.026252526051580086 0 -0.0017883427249833579 0.026106244628756825 0 -0.0017836468526326575 0.026339694019289955 0 -0.0018914171385146518 0.026252526051580086 0 -0.0041787254403129132 0.022558226373126749 0 -0.003591206688824347 0.02377155720626678 0 -0.003591206688824347 0.02377155720626678 0 -0.0030402657573165553 0.024058771502265857 0 -0.0019488033797949648 0.026160056320165496 0 -0.0019643929545952645 0.026270230261613809 0 -0.0018914171385146518 0.026252526051580086 0 -0.0019488033797949648 0.026160056320165496 0 -0.0019643929545952645 0.026270230261613809 0 -0.0021376931260001933 0.026206761989020732 0 -0.003591206688824347 0.02377155720626678 0 -0.0017188101686670507 0.025472669261482946 0 -0.003591206688824347 0.02377155720626678 0 -0.0037202836420847751 0.021220761224658907 0 -0.0061496354548082012 0.016530614605949508 0 -0.0063708357200375964 0.016739484295661626 0 -0.0068012446891596951 0.016574798166077216 0 -0.0019927653015986788 0.026250722808742393 0 -0.0021376931260001933 0.026206761989020732 0 -0.0024243911959843556 0.02632674738663876 0 -0.0023548419654929233 0.026109628519840385 0 -0.0021376931260001933 0.026206761989020732 0 -0.0024243911959843556 0.02632674738663876 0 -0.0063708357200375964 0.016739484295661626 0 -0.0067059637088694073 0.016870113702682682 0 -0.0063105621996336287 0.017107279535452668 0 -0.0063708357200375964 0.016739484295661626 0 -0.0067059637088694073 0.016870113702682682 0 -0.0068012446891596951 0.016574798166077216 0 -0.0067059637088694073 0.016870113702682682 0 -0.0063105621996336287 0.017107279535452668 0 -0.0068394025873836908 0.017183292126026307 0 -0.0067059637088694073 0.016870113702682682 0 -0.0071206530298669555 0.016998939759749605 0 -0.0068012446891596951 0.016574798166077216 0 -0.0071206530298669555 0.016998939759749605 0 -0.0068012446891596951 0.016574798166077216 0 -0.0076161824750574959 0.01672265377949704 0 -0.0067059637088694073 0.016870113702682682 0 -0.0071206530298669555 0.016998939759749605 0 -0.0068394025873836908 0.017183292126026307 0 -0.0025774426717073682 0.026139509745034109 0 -0.0024243911959843556 0.02632674738663876 0 -0.0028948921691140609 0.026363216928684402 0 -0.0037202836420847751 0.021220761224658907 0 -0.010016056160294388 0.020330205401914835 0 -0.0025774426717073682 0.026139509745034109 0 -0.0023548419654929233 0.026109628519840385 0 -0.0024243911959843556 0.02632674738663876 0 -0.0012758493123957877 0.025999831101968032 0 -0.0014131354994136079 0.026068506748886517 0 -0.0014970474960940851 0.025801944293915382 0 -0.0010161911373840196 0.026199782120367065 0 -0.00120079460539313 0.026253584918533298 0 -0.0012758493123957877 0.025999831101968032 0 -0.00120079460539313 0.026253584918533298 0 -0.0012758493123957877 0.025999831101968032 0 -0.0014131354994136079 0.026068506748886517 0 -0.0015922566181022688 0.026115747661810292 0 -0.0014131354994136079 0.026068506748886517 0 -0.0015678645054694096 0.025990062829097962 0 -0.0015922566181022688 0.026115747661810292 0 -0.00120079460539313 0.026253584918533298 0 -0.0014131354994136079 0.026068506748886517 0 -0.0015808070636125721 0.026019241903608811 0 -0.0015678645054694096 0.025990062829097962 0 -0.0014593362971622075 0.025947506840990876 0 -0.0014131354994136079 0.026068506748886517 0 -0.0015678645054694096 0.025990062829097962 0 -0.0014593362971622075 0.025947506840990876 0 -0.0014131354994136079 0.026068506748886517 0 -0.0014593362971622075 0.025947506840990876 0 -0.0014970474960940851 0.025801944293915382 0 -0.0014593362971622075 0.025947506840990876 0 -0.0013995607978212041 0.025776056889778704 0 -0.0014970474960940851 0.025801944293915382 0 -0.0015444583252402359 0.025968066738145026 0 -0.0014593362971622075 0.025947506840990876 0 -0.0013995607978212041 0.025776056889778704 0 -0.0041210552338914698 0.023296137486106643 0 -0.0034258320514028925 0.025316682625335828 0 -0.0048515878473594223 0.024550396903553949 0 -0.005515338722797046 0.023552156622078116 0 -0.0041210552338914698 0.023296137486106643 0 -0.0048515878473594223 0.024550396903553949 0 -0.0013995607978212041 0.025776056889778704 0 -0.0017748697880428934 0.025160621241402521 0 -0.0014970474960940851 0.025801944293915382 0 -0.0041210552338914698 0.023296137486106643 0 -0.0017748697880428934 0.025160621241402521 0 -0.0034258320514028925 0.025316682625335828 0 -0.0026826438387392328 0.02484268693304785 0 -0.0019404862788455026 0.024983746229350162 0 -0.0014359462254856822 0.025643693403867639 0 -0.0017748697880428934 0.025160621241402521 0 -0.0014970474960940851 0.025801944293915382 0 -0.0014359462254856822 0.025643693403867639 0 -0.0012758493123957877 0.025999831101968032 0 -0.0014970474960940851 0.025801944293915382 0 -0.0014569325216898868 0.025560872958904735 0 -0.0014359462254856822 0.025643693403867639 0 -0.0017748697880428934 0.025160621241402521 0 -0.0014569325216898868 0.025560872958904735 0 -0.0013214455828816105 0.025900053804018455 0 -0.0017876784359820389 0.025883485799259611 0 -0.0014569325216898868 0.025560872958904735 0 -0.0017748697880428934 0.025160621241402521 0 -0.0017876784359820389 0.025883485799259611 0 -0.0017748697880428934 0.025160621241402521 0 -0.002522267954751114 0.025903975136602898 0 -0.0017876784359820389 0.025883485799259611 0 -0.0017748697880428934 0.025160621241402521 0 -0.002522267954751114 0.025903975136602898 0 -0.0034258320514028925 0.025316682625335828 0 -0.002522267954751114 0.025903975136602898 0 -0.0023347811710870406 0.026613114106185644 0 -0.0030895751499808552 0.026317195201282836 0 -0.002522267954751114 0.025903975136602898 0 -0.0017876784359820389 0.025883485799259611 0 -0.0023347811710870406 0.026613114106185644 0 -0.0013214455828816105 0.025900053804018455 0 -0.0017876784359820389 0.025883485799259611 0 -0.0016460507300381465 0.026666238143555298 0 -0.0017876784359820389 0.025883485799259611 0 -0.0016460507300381465 0.026666238143555298 0 -0.0023347811710870406 0.026613114106185644 0 -0.0016460507300381465 0.026666238143555298 0 -0.0023347811710870406 0.026613114106185644 0 -0.0020647136065700656 0.027602722522900604 0 -0.0023347811710870406 0.026613114106185644 0 -0.0020647136065700656 0.027602722522900604 0 -0.0029433227423711489 0.027181200830692847 0 -0.002829958550013105 0.020846831171100918 0 -0.0054778154440088111 0.024426464096092854 0 -0.0058518048317112402 0.021699029105068803 0 -0.005522031744139037 0.021596205527751919 0 -0.0043752722663467167 0.022795585787353131 0 -0.0064342283959737921 0.01970470958086111 0 -0.0054778154440088111 0.024426464096092854 0 -0.002829958550013105 0.020846831171100918 0 -0.0064342283959737921 0.01970470958086111 0 -0.0019095783432260482 0.022897026630971953 0 -0.002829958550013105 0.020846831171100918 0 -0.0012149163826757139 0.0272874349643581 0 -0.0016460507300381465 0.026666238143555298 0 -0.0020647136065700656 0.027602722522900604 0 -0.0022352413687953257 0.017924914528218559 0 -0.0013877325276267147 0.017666267361230784 0 -0.0020620205356029421 0.017158456975843905 0 -0.0074586301215230208 0.022860646653933284 0 -0.007187158539758696 0.022717479992348827 0 -0.0076368217162371601 0.022507104044836426 0 -0.0074586301215230208 0.022860646653933284 0 -0.0071954772134879665 0.023000577646858363 0 -0.007187158539758696 0.022717479992348827 0 -0.0080340551011979771 0.022631248312591615 0 -0.0077637448138906991 0.02293669057998525 0 -0.0076368217162371601 0.022507104044836426 0 -0.0074586301215230208 0.022860646653933284 0 -0.0077637448138906991 0.02293669057998525 0 -0.0076368217162371601 0.022507104044836426 0 -0.0023347811710870406 0.026613114106185644 0 -0.0029433227423711489 0.027181200830692847 0 -0.0030895751499808552 0.026317195201282836 0 -0.0074586301215230208 0.022860646653933284 0 -0.0077637448138906991 0.02293669057998525 0 -0.0074980320833899173 0.023148629332333019 0 -0.0054778154440088111 0.024426464096092854 0 -0.005900831905173114 0.024966640642123384 0 -0.0054778154440088111 0.024426464096092854 0 -0.0079138826523821003 0.022921906557404663 0 -0.0077866019278718442 0.023068846611498928 0 -0.0075835355418345284 0.023230077382215279 0 -0.0074832065138147209 0.023405657556383824 0 -0.0029433227423711489 0.027181200830692847 0 -0.0044325194708074479 0.026345328762993281 0 -0.0030895751499808552 0.026317195201282836 0 -0.0074980320833899173 0.023148629332333019 0 -0.0071954772134879665 0.023000577646858363 0 -0.0071541683622190037 0.023189535008110999 0 -0.0074586301215230208 0.022860646653933284 0 -0.0074980320833899173 0.023148629332333019 0 -0.0071954772134879665 0.023000577646858363 0 -0.0079138826523821003 0.022921906557404663 0 -0.0071195415577393175 0.023454944339853397 0 -0.0074980320833899173 0.023148629332333019 0 -0.0072141370058522629 0.02337750017900907 0 -0.0071541683622190037 0.023189535008110999 0 -0.0075835355418345284 0.023230077382215279 0 -0.0074832065138147209 0.023405657556383824 0 -0.0072141370058522629 0.02337750017900907 0 -0.0074832065138147209 0.023405657556383824 0 -0.0072141370058522629 0.02337750017900907 0 -0.0070054538372334423 0.023544970590513609 0 -0.0044325194708074479 0.026345328762993281 0 -0.0030895751499808552 0.026317195201282836 0 -0.0034258320514028925 0.025316682625335828 0 -0.002522267954751114 0.025903975136602898 0 -0.0030895751499808552 0.026317195201282836 0 -0.0034258320514028925 0.025316682625335828 0 -0.0044325194708074479 0.026345328762993281 0 -0.0034258320514028925 0.025316682625335828 0 -0.0048515878473594223 0.024550396903553949 0 -0.0044325194708074479 0.026345328762993281 0 -0.0048515878473594223 0.024550396903553949 0 -0.0065149241444318008 0.024128729562177566 0 -0.005515338722797046 0.023552156622078116 0 -0.0048515878473594223 0.024550396903553949 0 -0.0065149241444318008 0.024128729562177566 0 -0.005900831905173114 0.024966640642123384 0 -0.0065308910124678059 0.024134758875255853 0 -0.0065149241444318008 0.024128729562177566 0 -0.0070054538372334423 0.023544970590513609 0 -0.0068606261092559965 0.023504464394222959 0 -0.0065149241444318008 0.024128729562177566 0 -0.0067925208659528639 0.023635791198241607 0 -0.0068606261092559965 0.023504464394222959 0 -0.0065149241444318008 0.024128729562177566 0 -0.0068708715367853746 0.02384876808662207 0 -0.0067925208659528639 0.023635791198241607 0 -0.0068708715367853746 0.02384876808662207 0 -0.0067925208659528639 0.023635791198241607 0 -0.0068728771766869614 0.023355735231433833 0 -0.0067925208659528639 0.023635791198241607 0 -0.0068848385442227336 0.023266039019214403 0 -0.0068606261092559965 0.023504464394222959 0 -0.0067925208659528639 0.023635791198241607 0 -0.0068848385442227336 0.023266039019214403 0 -0.0068728771766869614 0.023355735231433833 0 -0.0068848385442227336 0.023266039019214403 0 -0.0068728771766869614 0.023355735231433833 0 -0.0069515472586989136 0.023009623550881871 0 -0.0068848385442227336 0.023266039019214403 0 -0.0068606261092559965 0.023504464394222959 0 -0.006987430964563458 0.023182385331348906 0 -0.0074832065138147209 0.023405657556383824 0 -0.0065149241444318008 0.024128729562177566 0 -0.0070054538372334423 0.023544970590513609 0 -0.0070355023014107348 0.023360260478726119 0 -0.0068606261092559965 0.023504464394222959 0 -0.006987430964563458 0.023182385331348906 0 -0.0072141370058522629 0.02337750017900907 0 -0.0070355023014107348 0.023360260478726119 0 -0.0071541683622190037 0.023189535008110999 0 -0.0070355023014107348 0.023360260478726119 0 -0.0071541683622190037 0.023189535008110999 0 -0.006987430964563458 0.023182385331348906 0 -0.0072141370058522629 0.02337750017900907 0 -0.0070355023014107348 0.023360260478726119 0 -0.0070054538372334423 0.023544970590513609 0 -0.0070355023014107348 0.023360260478726119 0 -0.0070054538372334423 0.023544970590513609 0 -0.0068606261092559965 0.023504464394222959 0 -0.0071782567983795864 0.017368968763323042 0 -0.0068955871687643574 0.017558395841633743 0 -0.0073587606748793952 0.017720301275913015 0 -0.0071206530298669555 0.016998939759749605 0 -0.0071782567983795864 0.017368968763323042 0 -0.0068394025873836908 0.017183292126026307 0 -0.0071782567983795864 0.017368968763323042 0 -0.0068394025873836908 0.017183292126026307 0 -0.0068955871687643574 0.017558395841633743 0 -0.0067966214734433072 0.019923949812734546 0 -0.0068457743271467392 0.020838362245201976 0 -0.0063105621996336287 0.017107279535452668 0 -0.0068394025873836908 0.017183292126026307 0 -0.0068955871687643574 0.017558395841633743 0 -0.0063105621996336287 0.017107279535452668 0 -0.0068955871687643574 0.017558395841633743 0 -0.0066140313301548828 0.018306545037795816 0 -0.0068708715367853746 0.02384876808662207 0 -0.0068728771766869614 0.023355735231433833 0 -0.0068730812760964379 0.022961421988502612 0 -0.0068728771766869614 0.023355735231433833 0 -0.0068730812760964379 0.022961421988502612 0 -0.0069515472586989136 0.023009623550881871 0 -0.0066140313301548828 0.018306545037795816 0 -0.0086373890518684025 0.019467640642958264 0 -0.0086159199186277811 0.017362326726415134 0 -0.0068955871687643574 0.017558395841633743 0 -0.0066140313301548828 0.018306545037795816 0 -0.0086159199186277811 0.017362326726415134 0 -0.0072376042257156145 0.017535834886714587 0 -0.0075935282247414516 0.017466385453799006 0 -0.0068730812760964379 0.022961421988502612 0 -0.0072379391911781797 0.022774446606106918 0 -0.0084312434900257732 0.022308087027383895 0 -0.0066140313301548828 0.018306545037795816 0 -0.0084312434900257732 0.022308087027383895 0 -0.0086373890518684025 0.019467640642958264 0 -0.0068457743271467392 0.020838362245201976 0 -0.0083447047761868245 0.022297683313694465 0 -0.0072379391911781797 0.022774446606106918 0 -0.0070671038724318654 0.022897713913118328 0 -0.0073844827470493932 0.022848642430348377 0 -0.0068730812760964379 0.022961421988502612 0 -0.0072379391911781797 0.022774446606106918 0 -0.0069515472586989136 0.023009623550881871 0 -0.0072379391911781797 0.022774446606106918 0 -0.0069515472586989136 0.023009623550881871 0 -0.0070671038724318654 0.022897713913118328 0 -0.0069515472586989136 0.023009623550881871 0 -0.0070671038724318654 0.022897713913118328 0 -0.0069292055810994905 0.022994686941512018 0 -0.0070154658885652832 0.023010915368652959 0 -0.0072456447909492556 0.023289626989614773 0 -0.0068780010182383899 0.023226207075328104 0 -0.0070671038724318654 0.022897713913118328 0 -0.0070154658885652832 0.023010915368652959 0 -0.0073844827470493932 0.022848642430348377 0 -0.0070154658885652832 0.023010915368652959 0 -0.0072456447909492556 0.023289626989614773 0 -0.0073844827470493932 0.022848642430348377 0 -0.0072456447909492556 0.023289626989614773 0 -0.0073844827470493932 0.022848642430348377 0 -0.0078298167222213121 0.023675197236035974 0 -0.0072379391911781797 0.022774446606106918 0 -0.0073844827470493932 0.022848642430348377 0 -0.0084312434900257732 0.022308087027383895 0 -0.0073844827470493932 0.022848642430348377 0 -0.0078298167222213121 0.023675197236035974 0 -0.0084312434900257732 0.022308087027383895 0 -0.0071954772134879665 0.023000577646858363 0 -0.006987430964563458 0.023182385331348906 0 -0.0069135221184049682 0.022938241912592805 0 -0.0071954772134879665 0.023000577646858363 0 -0.0071541683622190037 0.023189535008110999 0 -0.006987430964563458 0.023182385331348906 0 -0.006987430964563458 0.023182385331348906 0 -0.0069292055810994905 0.022994686941512018 0 -0.0069135221184049682 0.022938241912592805 0 -0.0068848385442227336 0.023266039019214403 0 -0.006987430964563458 0.023182385331348906 0 -0.0069292055810994905 0.022994686941512018 0 -0.0068848385442227336 0.023266039019214403 0 -0.0069515472586989136 0.023009623550881871 0 -0.0069292055810994905 0.022994686941512018 0 -0.0070671038724318654 0.022897713913118328 0 -0.0070154658885652832 0.023010915368652959 0 -0.0069292055810994905 0.022994686941512018 0 -0.0070154658885652832 0.023010915368652959 0 -0.0069292055810994905 0.022994686941512018 0 -0.0069135221184049682 0.022938241912592805 0 -0.0070154658885652832 0.023010915368652959 0 -0.0069135221184049682 0.022938241912592805 0 -0.0068780010182383899 0.023226207075328104 0 -0.0068803299821613021 0.022919855415920662 0 -0.0069925256342678955 0.022966385510166974 0 -0.0069135221184049682 0.022938241912592805 0 -0.007187158539758696 0.022717479992348827 0 -0.0067528858151143182 0.022580463915963023 0 -0.0071954772134879665 0.023000577646858363 0 -0.0069135221184049682 0.022938241912592805 0 -0.007187158539758696 0.022717479992348827 0 -0.007187158539758696 0.022717479992348827 0 -0.0072249500441547501 0.022358016770085819 0 -0.0067528858151143182 0.022580463915963023 0 -0.0076996716461302916 0.01916932711022926 0 -0.010154740898538248 0.016837678689385897 0 -0.0067528858151143182 0.022580463915963023 0 -0.0068009107814512096 0.022190099065749893 0 -0.006611426348515863 0.022263209752059341 0 -0.0072249500441547501 0.022358016770085819 0 -0.0067528858151143182 0.022580463915963023 0 -0.0068009107814512096 0.022190099065749893 0 -0.0069925256342678955 0.022966385510166974 0 -0.01111534890356314 0.01953455765548557 0 -0.013121356352626063 0.013329926640536905 0 -0.013799612274480627 0.013541908753383673 0 -0.013177837692399332 0.014317735277209061 0 -0.010154740898538248 0.016837678689385897 0 -0.01111534890356314 0.01953455765548557 0 -0.010154740898538248 0.016837678689385897 0 -0.015208689089181125 0.016219723910378177 0 -0.0089291334850167704 0.015726907911936081 0 -0.0094232568383687092 0.015891014872087446 0 -0.0088697497798657324 0.016067643539884935 0 -0.013121356352626063 0.013329926640536905 0 -0.013177837692399332 0.014317735277209061 0 -0.012008840406015046 0.013727488440329536 0 -0.010154740898538248 0.016837678689385897 0 -0.010770043661728719 0.014535120088144813 0 -0.018775990292744765 0.017191820256499325 0 -0.018811481391066975 0.017061533843207469 0 -0.018710221961604229 0.017113473888764628 0 -0.018775990292744765 0.017191820256499325 0 -0.018838376055643691 0.017086123845000033 0 -0.018811481391066975 0.017061533843207469 0 -0.0072456447909492556 0.023289626989614773 0 -0.0078298167222213121 0.023675197236035974 0 -0.0070498778611418579 0.023671657673265158 0 -0.013686578383467171 0.020459630291636985 0 -0.01111534890356314 0.01953455765548557 0 -0.0072456447909492556 0.023289626989614773 0 -0.0068780010182383899 0.023226207075328104 0 -0.0070498778611418579 0.023671657673265158 0 -0.018838376055643691 0.017086123845000033 0 -0.018838965125320409 0.017050779199905344 0 -0.018811481391066975 0.017061533843207469 0 -0.01111534890356314 0.01953455765548557 0 -0.015208689089181125 0.016219723910378177 0 -0.010887562468688682 0.016964538835990247 0 -0.012574287662083596 0.016331397842038405 0 -0.013464232361832303 0.017784488875660361 0 -0.015208689089181125 0.016219723910378177 0 -0.015309961497926279 0.014588179281876602 0 -0.015208689089181125 0.016219723910378177 0 -0.018367188817443526 0.016115633096128866 0 -0.016351090215970806 0.014966937499641016 0 -0.017128112677372572 0.015203002106003956 0 -0.016682065179736957 0.015488864413712363 0 -0.018838965125320409 0.017050779199905344 0 -0.018811481391066975 0.017061533843207469 0 -0.01880684157185462 0.016902626879980627 0 -0.018811481391066975 0.017061533843207469 0 -0.01880684157185462 0.016902626879980627 0 -0.018710221961604229 0.017113473888764628 0 -0.017128112677372572 0.015203002106003956 0 -0.017178304834919965 0.015538205057982651 0 -0.016682065179736957 0.015488864413712363 0 -0.015309961497926279 0.014588179281876602 0 -0.017008791263585274 0.014549567396035034 0 -0.017178304834919965 0.015538205057982651 0 -0.016682065179736957 0.015488864413712363 0 -0.017008298751053367 0.0160120913392021 0 -0.013799612274480627 0.013541908753383673 0 -0.014182670791412055 0.014144759292141254 0 -0.013177837692399332 0.014317735277209061 0 -0.014182670791412055 0.014144759292141254 0 -0.013874960774645511 0.014650274059011427 0 -0.013177837692399332 0.014317735277209061 0 -0.014182670791412055 0.014144759292141254 0 -0.013874960774645511 0.014650274059011427 0 -0.014568026999904267 0.014752563891637894 0 -0.013874960774645511 0.014650274059011427 0 -0.013177837692399332 0.014317735277209061 0 -0.013571835824152714 0.015386604649458855 0 -0.013874960774645511 0.014650274059011427 0 -0.014568026999904267 0.014752563891637894 0 -0.013571835824152714 0.015386604649458855 0 -0.017008791263585274 0.014549567396035034 0 -0.014775613923013572 0.013684925786953323 0 -0.017265751149060128 0.011781937066577581 0 -0.01635751736106263 0.012115137413643905 0 -0.017048646178537689 0.012565576069933915 0 -0.017008791263585274 0.014549567396035034 0 -0.018097702126251228 0.012969995139130414 0 -0.013177837692399332 0.014317735277209061 0 -0.012513699416623496 0.015045823283262219 0 -0.012008840406015046 0.013727488440329536 0 -0.013177837692399332 0.014317735277209061 0 -0.012513699416623496 0.015045823283262219 0 -0.013571835824152714 0.015386604649458855 0 -0.012513699416623496 0.015045823283262219 0 -0.011550598510840089 0.014698090927729453 0 -0.011643501230308464 0.0155422358924488 0 -0.0094624049110337526 0.015440934265409888 0 -0.010770043661728719 0.014535120088144813 0 -0.011550598510840089 0.014698090927729453 0 -0.010880649379648902 0.014128487372749072 0 -0.012008840406015046 0.013727488440329536 0 -0.012513699416623496 0.015045823283262219 0 -0.011550598510840089 0.014698090927729453 0 -0.012008840406015046 0.013727488440329536 0 -0.011550598510840089 0.014698090927729453 0 -0.010692164914142788 0.01505115591548975 0 -0.011643501230308464 0.0155422358924488 0 -0.011550598510840089 0.014698090927729453 0 -0.010880649379648902 0.014128487372749072 0 -0.010692164914142788 0.01505115591548975 0 -0.011301076815904499 0.013521967398769496 0 -0.012065519836455513 0.01422675905925432 0 -0.011548211456418121 0.012095562886498497 0 -0.010537807764327797 0.012326561604839531 0 -0.010366438350274194 0.011475323127395697 0 -0.011301076815904499 0.013521967398769496 0 -0.0088746669563163124 0.013903004764701058 0 -0.0080336583802576231 0.012313996610722779 0 -0.0093393114880844386 0.011384032745933437 0 -0.0060094362871558242 0.01074768162247043 0 -0.0075358511235412229 0.010185577933523988 0 -0.0072824636315903983 0.012566877733913106 0 -0.010537807764327797 0.012326561604839531 0 -0.010083444912079477 0.011581012033816283 0 -0.0099377585658783785 0.012957697173310218 0 -0.010537807764327797 0.012326561604839531 0 -0.010083444912079477 0.011581012033816283 0 -0.010366438350274194 0.011475323127395697 0 -0.0077301952134139363 0.016337551917008249 0 -0.0079063018413315211 0.016182537742397148 0 -0.0077516185563744041 0.016021076414463237 0 -0.0077071902989656049 0.016278157514135409 0 -0.0076015169534667101 0.016133706298486334 0 -0.0077516185563744041 0.016021076414463237 0 -0.0077315341135358699 0.014191499615544273 0 -0.00766508517259816 0.016698475078176317 0 -0.0056961989735252773 0.012036063243260483 0 -0.0065650183146744034 0.012237882974509765 0 -0.006609066665379062 0.011839563610453095 0 -0.0080336583802576231 0.012313996610722779 0 -0.0077315341135358699 0.014191499615544273 0 -0.0077301952134139363 0.016337551917008249 0 -0.0078218242760025123 0.016385604614848667 0 -0.0079063018413315211 0.016182537742397148 0 -0.0080336583802576231 0.012313996610722779 0 -0.0088746669563163124 0.013903004764701058 0 -0.0077093966252747767 0.013687510630307778 0 -0.0077466520837667216 0.013345573193913796 0 -0.0081088032566591361 0.013539506147325502 0 -0.0077315341135358699 0.014191499615544273 0 -0.0088746669563163124 0.013903004764701058 0 -0.0094624049110337526 0.015440934265409888 0 -0.0088746669563163124 0.013903004764701058 0 -0.0083331176953022213 0.016228593349601052 0 -0.0078218242760025123 0.016385604614848667 0 -0.0079063018413315211 0.016182537742397148 0 -0.010880649379648902 0.014128487372749072 0 -0.010692164914142788 0.01505115591548975 0 -0.0097323890346977682 0.014541753349699208 0 -0.0083331176953022213 0.016228593349601052 0 -0.0079063018413315211 0.016182537742397148 0 -0.0080922214728593699 0.015865816669201345 0 -0.0079063018413315211 0.016182537742397148 0 -0.0080922214728593699 0.015865816669201345 0 -0.0077516185563744041 0.016021076414463237 0 -0.0073692204655637925 0.015998088241358868 0 -0.0077516185563744041 0.016021076414463237 0 -0.0076699136326551154 0.015735843456090307 0 -0.0080922214728593699 0.015865816669201345 0 -0.0077516185563744041 0.016021076414463237 0 -0.0076699136326551154 0.015735843456090307 0 -0.0032542875781171108 0.017454551714025456 0 -0.0029248674248804527 0.017351867682038703 0 -0.0041572040965730337 0.016068465490515826 0 -0.0064342283959737921 0.01970470958086111 0 -0.0061359602215111239 0.015646296408755773 0 -0.0032542875781171108 0.017454551714025456 0 -0.0041572040965730337 0.016068465490515826 0 -0.004428572743408272 0.016583219345650317 0 -0.002829958550013105 0.020846831171100918 0 -0.0034582619722939171 0.016721331199659687 0 -0.0079859598924549025 0.015454076894481045 0 -0.0080922214728593699 0.015865816669201345 0 -0.0084488479995033141 0.015584489505130002 0 -0.0079859598924549025 0.015454076894481045 0 -0.0080922214728593699 0.015865816669201345 0 -0.0076699136326551154 0.015735843456090307 0 -0.0064342283959737921 0.01970470958086111 0 -0.008386071433454656 0.019037352868981505 0 -0.0080922214728593699 0.015865816669201345 0 -0.0084488479995033141 0.015584489505130002 0 -0.0085313201103253116 0.015895532185452872 0 -0.007187158539758696 0.022717479992348827 0 -0.0072249500441547501 0.022358016770085819 0 -0.0076368217162371601 0.022507104044836426 0 -0.0076996716461302916 0.01916932711022926 0 -0.008386071433454656 0.019037352868981505 0 -0.0089291334850167704 0.015726907911936081 0 -0.0084488479995033141 0.015584489505130002 0 -0.0085313201103253116 0.015895532185452872 0 -0.0083331176953022213 0.016228593349601052 0 -0.0088697497798657324 0.016067643539884935 0 -0.0085313201103253116 0.015895532185452872 0 -0.0089291334850167704 0.015726907911936081 0 -0.0088697497798657324 0.016067643539884935 0 -0.0085313201103253116 0.015895532185452872 0 -0.0083331176953022213 0.016228593349601052 0 -0.0080922214728593699 0.015865816669201345 0 -0.0085313201103253116 0.015895532185452872 0 -0.018528071183592374 0.016976012814347272 0 -0.018201279456418678 0.017874668109481989 0 -0.018183453874174034 0.017705274764863776 0 -0.018528071183592374 0.016976012814347272 0 -0.018183453874174034 0.017705274764863776 0 -0.018566445949947226 0.016681851779790754 0 -0.018528071183592374 0.016976012814347272 0 -0.018272310766565911 0.01742163018859081 0 -0.018201279456418678 0.017874668109481989 0 -0.018528071183592374 0.016976012814347272 0 -0.018272310766565911 0.01742163018859081 0 -0.018352168100194473 0.016816951529774301 0 -0.018272310766565911 0.01742163018859081 0 -0.018201279456418678 0.017874668109481989 0 -0.018025300618870626 0.018110377041875906 0 -0.018201279456418678 0.017874668109481989 0 -0.017978579145131776 0.018482929891077707 0 -0.018183453874174034 0.017705274764863776 0 -0.017978579145131776 0.018482929891077707 0 -0.017455154336308041 0.019166795866320026 0 -0.018183453874174034 0.017705274764863776 0 -0.017455154336308041 0.019166795866320026 0 -0.017414729253783148 0.018030236262632265 0 -0.018183453874174034 0.017705274764863776 0 -0.017414729253783148 0.018030236262632265 0 -0.018183453874174034 0.017705274764863776 0 -0.017959699866831748 0.016684766901748645 0 -0.018183453874174034 0.017705274764863776 0 -0.018566445949947226 0.016681851779790754 0 -0.017959699866831748 0.016684766901748645 0 -0.018566445949947226 0.016681851779790754 0 -0.017959699866831748 0.016684766901748645 0 -0.018640746977585491 0.01517862134678734 0 -0.017414729253783148 0.018030236262632265 0 -0.017959699866831748 0.016684766901748645 0 -0.017049331656775274 0.016896611310128817 0 -0.018640746977585491 0.01517862134678734 0 -0.017782402642314017 0.015131764140182561 0 -0.018379966934849737 0.013759952377942144 0 -0.017959699866831748 0.016684766901748645 0 -0.018640746977585491 0.01517862134678734 0 -0.017782402642314017 0.015131764140182561 0 -0.018566445949947226 0.016681851779790754 0 -0.018640746977585491 0.01517862134678734 0 -0.019033363716101072 0.016070134898982971 0 -0.018640746977585491 0.01517862134678734 0 -0.019033363716101072 0.016070134898982971 0 -0.019568903307821562 0.014115696670269368 0 -0.019033363716101072 0.016070134898982971 0 -0.018656502718796427 0.016393267823645204 0 -0.018978893239749647 0.016574022212164679 0 -0.018528071183592374 0.016976012814347272 0 -0.018566445949947226 0.016681851779790754 0 -0.019033363716101072 0.016070134898982971 0 -0.018528071183592374 0.016976012814347272 0 -0.01855934405345425 0.016516109533597629 0 -0.018352168100194473 0.016816951529774301 0 -0.018528071183592374 0.016976012814347272 0 -0.019033363716101072 0.016070134898982971 0 -0.01855934405345425 0.016516109533597629 0 -0.01855934405345425 0.016516109533597629 0 -0.018656502718796427 0.016393267823645204 0 -0.018462097549140494 0.016454255194468154 0 -0.019033363716101072 0.016070134898982971 0 -0.01855934405345425 0.016516109533597629 0 -0.018656502718796427 0.016393267823645204 0 -0.018656502718796427 0.016393267823645204 0 -0.018454886727999466 0.016488296320981831 0 -0.018462097549140494 0.016454255194468154 0 -0.018454886727999466 0.016488296320981831 0 -0.018462097549140494 0.016454255194468154 0 -0.018331670054714578 0.016416290600787524 0 -0.018462097549140494 0.016454255194468154 0 -0.018331670054714578 0.016416290600787524 0 -0.018346786361785567 0.016478236147155201 0 -0.018454886727999466 0.016488296320981831 0 -0.018331670054714578 0.016416290600787524 0 -0.018232636948441648 0.016577335877461269 0 -0.018331670054714578 0.016416290600787524 0 -0.018085481732742329 0.016184882110641417 0 -0.018232636948441648 0.016577335877461269 0 -0.017563881261618477 0.015509492248115294 0 -0.016886432942134766 0.015255485583037045 0 -0.018085481732742329 0.016184882110641417 0 -0.017593316799668541 0.015468561025756182 0 -0.018232636948441648 0.016577335877461269 0 -0.018331670054714578 0.016416290600787524 0 -0.018085481732742329 0.016184882110641417 0 -0.018346786361785567 0.016478236147155201 0 -0.018085481732742329 0.016184882110641417 0 -0.018247107963310073 0.016574765556349985 0 -0.018346786361785567 0.016478236147155201 0 -0.018085481732742329 0.016184882110641417 0 -0.018115889066837892 0.016433949978359532 0 -0.01792109790478039 0.016035092737571199 0 -0.018085481732742329 0.016184882110641417 0 -0.018115889066837892 0.016433949978359532 0 -0.018247107963310073 0.016574765556349985 0 -0.018247107963310073 0.016574765556349985 0 -0.018346786361785567 0.016478236147155201 0 -0.018352168100194473 0.016816951529774301 0 -0.01855934405345425 0.016516109533597629 0 -0.018346786361785567 0.016478236147155201 0 -0.018352168100194473 0.016816951529774301 0 -0.01855934405345425 0.016516109533597629 0 -0.018462097549140494 0.016454255194468154 0 -0.018346786361785567 0.016478236147155201 0 -0.018212227647776705 0.015011530892667751 0 -0.017593316799668541 0.015468561025756182 0 -0.017901468857083533 0.013135636878274562 0 -0.019353694117382535 0.01526230789831364 0 -0.018212227647776705 0.015011530892667751 0 -0.017901468857083533 0.013135636878274562 0 -0.018085481732742329 0.016184882110641417 0 -0.017593316799668541 0.015468561025756182 0 -0.01792109790478039 0.016035092737571199 0 -0.017593316799668541 0.015468561025756182 0 -0.018062525443478167 0.016285208420845802 0 -0.018009300736910823 0.016353194091125015 0 -0.018115889066837892 0.016433949978359532 0 -0.01792109790478039 0.016035092737571199 0 -0.017987849458086565 0.016184597377764818 0 -0.018115889066837892 0.016433949978359532 0 -0.017987849458086565 0.016184597377764818 0 -0.018134736885567802 0.016483989522102418 0 -0.018115889066837892 0.016433949978359532 0 -0.018134736885567802 0.016483989522102418 0 -0.018243192455598342 0.01672497906999933 0 -0.018134736885567802 0.016483989522102418 0 -0.018141557984256883 0.016443184178465499 0 -0.018228792451344834 0.016628603131911231 0 -0.017987849458086565 0.016184597377764818 0 -0.018134736885567802 0.016483989522102418 0 -0.018141557984256883 0.016443184178465499 0 -0.017987849458086565 0.016184597377764818 0 -0.018141557984256883 0.016443184178465499 0 -0.018062525443478167 0.016285208420845802 0 -0.018141557984256883 0.016443184178465499 0 -0.018299573956858387 0.016634645011520614 0 -0.018228792451344834 0.016628603131911231 0 -0.018141557984256883 0.016443184178465499 0 -0.018215266576803894 0.016475825335461273 0 -0.018062525443478167 0.016285208420845802 0 -0.018141557984256883 0.016443184178465499 0 -0.018215266576803894 0.016475825335461273 0 -0.018299573956858387 0.016634645011520614 0 -0.018215266576803894 0.016475825335461273 0 -0.018459330097271073 0.016502816242760541 0 -0.018299573956858387 0.016634645011520614 0 -0.018215266576803894 0.016475825335461273 0 -0.018062525443478167 0.016285208420845802 0 -0.018459330097271073 0.016502816242760541 0 -0.018161547262324797 0.016071047767217926 0 -0.018138095253719212 0.016004294029943109 0 -0.017593316799668541 0.015468561025756182 0 -0.017987849458086565 0.016184597377764818 0 -0.018062525443478167 0.016285208420845802 0 -0.017593316799668541 0.015468561025756182 0 -0.01792109790478039 0.016035092737571199 0 -0.017987849458086565 0.016184597377764818 0 -0.019353694117382535 0.01526230789831364 0 -0.018212227647776705 0.015011530892667751 0 -0.018009300736910823 0.016353194091125015 0 -0.017178304834919965 0.015538205057982651 0 -0.017008298751053367 0.0160120913392021 0 -0.017891353513906697 0.015448687637111472 0 -0.017128112677372572 0.015203002106003956 0 -0.017178304834919965 0.015538205057982651 0 -0.017891353513906697 0.015448687637111472 0 -0.017008791263585274 0.014549567396035034 0 -0.018138095253719212 0.016004294029943109 0 -0.018367188817443526 0.016115633096128866 0 -0.018138095253719212 0.016004294029943109 0 -0.018212227647776705 0.015011530892667751 0 -0.017593316799668541 0.015468561025756182 0 -0.018009300736910823 0.016353194091125015 0 -0.01880684157185462 0.016902626879980627 0 -0.018459330097271073 0.016502816242760541 0 -0.01862353272728114 0.016927221780219118 0 -0.01880684157185462 0.016902626879980627 0 -0.01862353272728114 0.016927221780219118 0 -0.018710221961604229 0.017113473888764628 0 -0.01862353272728114 0.016927221780219118 0 -0.018477840530780061 0.016993383697831693 0 -0.018432929606163353 0.016748778937120287 0 -0.018459330097271073 0.016502816242760541 0 -0.01862353272728114 0.016927221780219118 0 -0.018432929606163353 0.016748778937120287 0 -0.01862353272728114 0.016927221780219118 0 -0.018477840530780061 0.016993383697831693 0 -0.018576473367619774 0.017199536721662093 0 -0.01862353272728114 0.016927221780219118 0 -0.018576473367619774 0.017199536721662093 0 -0.018710221961604229 0.017113473888764628 0 -0.018477840530780061 0.016993383697831693 0 -0.018349386471757684 0.01682080582170321 0 -0.018412985193875703 0.017087539441048846 0 -0.018477840530780061 0.016993383697831693 0 -0.018432929606163353 0.016748778937120287 0 -0.018349386471757684 0.01682080582170321 0 -0.018432929606163353 0.016748778937120287 0 -0.018299573956858387 0.016634645011520614 0 -0.018349386471757684 0.01682080582170321 0 -0.018459330097271073 0.016502816242760541 0 -0.018432929606163353 0.016748778937120287 0 -0.018299573956858387 0.016634645011520614 0 -0.018299573956858387 0.016634645011520614 0 -0.018228792451344834 0.016628603131911231 0 -0.018349386471757684 0.01682080582170321 0 -0.018228792451344834 0.016628603131911231 0 -0.018349386471757684 0.01682080582170321 0 -0.018243192455598342 0.01672497906999933 0 -0.018134736885567802 0.016483989522102418 0 -0.018228792451344834 0.016628603131911231 0 -0.018243192455598342 0.01672497906999933 0 -0.018243192455598342 0.01672497906999933 0 -0.018412985193875703 0.017087539441048846 0 -0.018287612630011246 0.016933749207771354 0 -0.018349386471757684 0.01682080582170321 0 -0.018243192455598342 0.01672497906999933 0 -0.018412985193875703 0.017087539441048846 0 -0.018412985193875703 0.017087539441048846 0 -0.018483298278901571 0.017461172214205335 0 -0.018287612630011246 0.016933749207771354 0 -0.018483298278901571 0.017461172214205335 0 -0.018576473367619774 0.017199536721662093 0 -0.018602910476334205 0.017460592172112103 0 -0.018412985193875703 0.017087539441048846 0 -0.018483298278901571 0.017461172214205335 0 -0.018576473367619774 0.017199536721662093 0 -0.018477840530780061 0.016993383697831693 0 -0.018412985193875703 0.017087539441048846 0 -0.018576473367619774 0.017199536721662093 0 -0.018576473367619774 0.017199536721662093 0 -0.018710221961604229 0.017113473888764628 0 -0.018602910476334205 0.017460592172112103 0 -0.013686578383467171 0.020459630291636985 0 -0.014593723277891364 0.020285455218588332 0 -0.018775990292744765 0.017191820256499325 0 -0.018710221961604229 0.017113473888764628 0 -0.018602910476334205 0.017460592172112103 0 -0.018272310766565911 0.01742163018859081 0 -0.018352168100194473 0.016816951529774301 0 -0.018317914964787383 0.017422838803768863 0 -0.018352168100194473 0.016816951529774301 0 -0.018287612630011246 0.016933749207771354 0 -0.018317914964787383 0.017422838803768863 0 -0.018247107963310073 0.016574765556349985 0 -0.018352168100194473 0.016816951529774301 0 -0.018287612630011246 0.016933749207771354 0 -0.018115889066837892 0.016433949978359532 0 -0.018247107963310073 0.016574765556349985 0 -0.018287612630011246 0.016933749207771354 0 -0.018115889066837892 0.016433949978359532 0 -0.018243192455598342 0.01672497906999933 0 -0.018287612630011246 0.016933749207771354 0 -0.018483298278901571 0.017461172214205335 0 -0.018317914964787383 0.017422838803768863 0 -0.018500662659707207 0.017993576183475371 0 -0.018483298278901571 0.017461172214205335 0 -0.018287612630011246 0.016933749207771354 0 -0.018317914964787383 0.017422838803768863 0 -0.018272310766565911 0.01742163018859081 0 -0.018317914964787383 0.017422838803768863 0 -0.018025300618870626 0.018110377041875906 0 -0.018317914964787383 0.017422838803768863 0 -0.018500662659707207 0.017993576183475371 0 -0.018025300618870626 0.018110377041875906 0 -0.018500662659707207 0.017993576183475371 0 -0.017742990678632945 0.019009593488602251 0 -0.018025300618870626 0.018110377041875906 0 -0.014596831770266754 0.021359866025991547 0 -0.013175445210402266 0.019398964476603039 0 -0.01535852941740835 0.017918913462684757 0 -0.014596831770266754 0.021359866025991547 0 -0.017742990678632945 0.019009593488602251 0 -0.01535852941740835 0.017918913462684757 0 -0.016731075643234783 0.018359627352119073 0 -0.017760230888684253 0.018637320610566034 0 -0.017742990678632945 0.019009593488602251 0 -0.01535852941740835 0.017918913462684757 0 -0.018036552648653979 0.018649765592305061 0 -0.016479265978200708 0.019671304197241474 0 -0.017585775357822173 0.019119461622270399 0 -0.010713886286314539 0.02314934719824624 0 -0.0084312434900257732 0.022308087027383895 0 -0.010910525323588417 0.020302671307533153 0 -0.0078298167222213121 0.023675197236035974 0 -0.010713886286314539 0.02314934719824624 0 -0.0084312434900257732 0.022308087027383895 0 -0.014596831770266754 0.021359866025991547 0 -0.010713886286314539 0.02314934719824624 0 -0.010910525323588417 0.020302671307533153 0 -0.016479265978200708 0.019671304197241474 0 -0.014593723277891364 0.020285455218588332 0 -0.018483298278901571 0.017461172214205335 0 -0.018500662659707207 0.017993576183475371 0 -0.018602910476334205 0.017460592172112103 0 -0.014596831770266754 0.021359866025991547 0 -0.013175445210402266 0.019398964476603039 0 -0.010910525323588417 0.020302671307533153 0 -0.013175445210402266 0.019398964476603039 0 -0.010910525323588417 0.020302671307533153 0 -0.010993384694420065 0.017460345791174718 0 -0.010910525323588417 0.020302671307533153 0 -0.0098688230459745493 0.018825649381959474 0 -0.010993384694420065 0.017460345791174718 0 -0.0084312434900257732 0.022308087027383895 0 -0.010910525323588417 0.020302671307533153 0 -0.0086373890518684025 0.019467640642958264 0 -0.010910525323588417 0.020302671307533153 0 -0.0086373890518684025 0.019467640642958264 0 -0.0098688230459745493 0.018825649381959474 0 -0.0086373890518684025 0.019467640642958264 0 -0.0086159199186277811 0.017362326726415134 0 -0.0098688230459745493 0.018825649381959474 0 -0.0086159199186277811 0.017362326726415134 0 -0.0098688230459745493 0.018825649381959474 0 -0.010993384694420065 0.017460345791174718 0 -0.0075935282247414516 0.017466385453799006 0 -0.012125784496017459 0.018798642820660339 0 -0.013175445210402266 0.019398964476603039 0 -0.010993384694420065 0.017460345791174718 0 -0.01535852941740835 0.017918913462684757 0 -0.012125784496017459 0.018798642820660339 0 -0.016731075643234783 0.018359627352119073 0 -0.016746852515796457 0.01879533858318164 0 -0.017336644497665553 0.018858887322201607 0 -0.017125114188320287 0.018593210364836067 0 -0.016746852515796457 0.01879533858318164 0 -0.016929693975879463 0.018399146818496203 0 -0.016674405759764466 0.018451655010087321 0 -0.016746852515796457 0.01879533858318164 0 -0.016929693975879463 0.018399146818496203 0 -0.017125114188320287 0.018593210364836067 0 -0.016929693975879463 0.018399146818496203 0 -0.017125114188320287 0.018593210364836067 0 -0.017166927629634 0.018420907406786226 0 -0.0073587606748793952 0.017720301275913015 0 -0.0078794162845765483 0.017858386576261962 0 -0.0077396553964620271 0.017263170601047352 0 -0.012125784496017459 0.018798642820660339 0 -0.012188273383431789 0.0173278803661331 0 -0.0071206530298669555 0.016998939759749605 0 -0.0071782567983795864 0.017368968763323042 0 -0.0077396553964620271 0.017263170601047352 0 -0.0071782567983795864 0.017368968763323042 0 -0.0073587606748793952 0.017720301275913015 0 -0.0077396553964620271 0.017263170601047352 0 -0.017731295608457775 0.018625584248747263 0 -0.017336644497665553 0.018858887322201607 0 -0.018036552648653979 0.018649765592305061 0 -0.017731295608457775 0.018625584248747263 0 -0.017336644497665553 0.018858887322201607 0 -0.017400584152092436 0.018528472219992258 0 -0.017336644497665553 0.018858887322201607 0 -0.017400584152092436 0.018528472219992258 0 -0.017125114188320287 0.018593210364836067 0 -0.017400584152092436 0.018528472219992258 0 -0.017166927629634 0.018420907406786226 0 -0.01730498587034195 0.018392571616270795 0 -0.017400584152092436 0.018528472219992258 0 -0.017125114188320287 0.018593210364836067 0 -0.017166927629634 0.018420907406786226 0 -0.017400584152092436 0.018528472219992258 0 -0.017626729757330657 0.018422903656684562 0 -0.01730498587034195 0.018392571616270795 0 -0.017731295608457775 0.018625584248747263 0 -0.017400584152092436 0.018528472219992258 0 -0.017626729757330657 0.018422903656684562 0 -0.015349524205216607 0.025121208517968844 0 -0.016035109558399843 0.024497226673747045 0 -0.016724860178710704 0.023680456739162414 0 -0.015349524205216607 0.025121208517968844 0 -0.016035109558399843 0.024497226673747045 0 -0.015478010843186686 0.02497566998332747 0 -0.016439665318057101 0.021716596671859212 0 -0.017299598989625659 0.021107370079286012 0 -0.017731295608457775 0.018625584248747263 0 -0.017626729757330657 0.018422903656684562 0 -0.018015128528973298 0.018654835171874853 0 -0.016363895700541146 0.024061663992272744 0 -0.016555554742719719 0.023552621002029466 0 -0.016032735963579223 0.024611521977084386 0 -0.016035109558399843 0.024497226673747045 0 -0.016363895700541146 0.024061663992272744 0 -0.016724860178710704 0.023680456739162414 0 -0.016035109558399843 0.024497226673747045 0 -0.016363895700541146 0.024061663992272744 0 -0.016032735963579223 0.024611521977084386 0 -0.016724860178710704 0.023680456739162414 0 -0.017431691779172115 0.021769545203366849 0 -0.016555554742719719 0.023552621002029466 0 -0.016363895700541146 0.024061663992272744 0 -0.016724860178710704 0.023680456739162414 0 -0.016555554742719719 0.023552621002029466 0 -0.017731295608457775 0.018625584248747263 0 -0.018015128528973298 0.018654835171874853 0 -0.018036552648653979 0.018649765592305061 0 -0.018015128528973298 0.018654835171874853 0 -0.018036552648653979 0.018649765592305061 0 -0.017945194916332598 0.018675591094373681 0 -0.018015128528973298 0.018654835171874853 0 -0.017945194916332598 0.018675591094373681 0 -0.017974881544364558 0.018516416660960711 0 -0.017742990678632945 0.019009593488602251 0 -0.018036552648653979 0.018649765592305061 0 -0.017945194916332598 0.018675591094373681 0 -0.018015128528973298 0.018654835171874853 0 -0.017974881544364558 0.018516416660960711 0 -0.017937988438034874 0.018614591632263856 0 -0.017299598989625659 0.021107370079286012 0 -0.017596294705395404 0.020121175836624736 0 -0.018201279456418678 0.017874668109481989 0 -0.017978579145131776 0.018482929891077707 0 -0.017974881544364558 0.018516416660960711 0 -0.017978579145131776 0.018482929891077707 0 -0.017974881544364558 0.018516416660960711 0 -0.017937988438034874 0.018614591632263856 0 -0.017945194916332598 0.018675591094373681 0 -0.017974881544364558 0.018516416660960711 0 -0.018025300618870626 0.018110377041875906 0 -0.017742990678632945 0.019009593488602251 0 -0.017945194916332598 0.018675591094373681 0 -0.018025300618870626 0.018110377041875906 0 -0.018201279456418678 0.017874668109481989 0 -0.017974881544364558 0.018516416660960711 0 -0.018025300618870626 0.018110377041875906 0 -0.017455154336308041 0.019166795866320026 0 -0.016656424115372478 0.021692939119438252 0 -0.016324562514774949 0.020818584022443073 0 -0.017455154336308041 0.019166795866320026 0 -0.017431691779172115 0.021769545203366849 0 -0.016656424115372478 0.021692939119438252 0 -0.017978579145131776 0.018482929891077707 0 -0.017455154336308041 0.019166795866320026 0 -0.017937988438034874 0.018614591632263856 0 -0.017350493788433757 0.019168475330440301 0 -0.017596294705395404 0.020121175836624736 0 -0.017431691779172115 0.021769545203366849 0 -0.016656424115372478 0.021692939119438252 0 -0.016693714985783606 0.022540312697059948 0 -0.016656424115372478 0.021692939119438252 0 -0.01621356516019043 0.023024457337789829 0 -0.016693714985783606 0.022540312697059948 0 -0.017431691779172115 0.021769545203366849 0 -0.016693714985783606 0.022540312697059948 0 -0.016555554742719719 0.023552621002029466 0 -0.01621356516019043 0.023024457337789829 0 -0.016693714985783606 0.022540312697059948 0 -0.016555554742719719 0.023552621002029466 0 -0.016555554742719719 0.023552621002029466 0 -0.016210518708981696 0.024207056387489684 0 -0.016032735963579223 0.024611521977084386 0 -0.01621356516019043 0.023024457337789829 0 -0.016555554742719719 0.023552621002029466 0 -0.016210518708981696 0.024207056387489684 0 -0.01621356516019043 0.023024457337789829 0 -0.016210518708981696 0.024207056387489684 0 -0.016009305613051278 0.024295542396035968 0 -0.01621356516019043 0.023024457337789829 0 -0.016009305613051278 0.024295542396035968 0 -0.015688210062869468 0.024354740431633503 0 -0.016009305613051278 0.024295542396035968 0 -0.015799617221666742 0.024596652351210082 0 -0.01595413672575435 0.024656337446251182 0 -0.016210518708981696 0.024207056387489684 0 -0.016009305613051278 0.024295542396035968 0 -0.01595413672575435 0.024656337446251182 0 -0.016009305613051278 0.024295542396035968 0 -0.015799617221666742 0.024596652351210082 0 -0.015688210062869468 0.024354740431633503 0 -0.015799617221666742 0.024596652351210082 0 -0.015764959295390183 0.024755255239966693 0 -0.01595413672575435 0.024656337446251182 0 -0.015764959295390183 0.024755255239966693 0 -0.01595413672575435 0.024656337446251182 0 -0.015771058884310764 0.024788601823421914 0 -0.01595413672575435 0.024656337446251182 0 -0.015689557383444346 0.024866511496030221 0 -0.015807152317546487 0.024755138615558607 0 -0.01595413672575435 0.024656337446251182 0 -0.015771058884310764 0.024788601823421914 0 -0.015807152317546487 0.024755138615558607 0 -0.01595413672575435 0.024656337446251182 0 -0.016032735963579223 0.024611521977084386 0 -0.015689557383444346 0.024866511496030221 0 -0.016210518708981696 0.024207056387489684 0 -0.01595413672575435 0.024656337446251182 0 -0.016032735963579223 0.024611521977084386 0 -0.016035109558399843 0.024497226673747045 0 -0.016032735963579223 0.024611521977084386 0 -0.015478010843186686 0.02497566998332747 0 -0.016032735963579223 0.024611521977084386 0 -0.015478010843186686 0.02497566998332747 0 -0.015038448254627378 0.025183107185489398 0 -0.015478010843186686 0.02497566998332747 0 -0.015038448254627378 0.025183107185489398 0 -0.014659144596777512 0.025340775401187697 0 -0.015038448254627378 0.025183107185489398 0 -0.015689557383444346 0.024866511496030221 0 -0.015231404274493614 0.024935291452909049 0 -0.015038448254627378 0.025183107185489398 0 -0.015231404274493614 0.024935291452909049 0 -0.013613355550822775 0.025231199242065433 0 -0.016032735963579223 0.024611521977084386 0 -0.015038448254627378 0.025183107185489398 0 -0.015689557383444346 0.024866511496030221 0 -0.015681611360338694 0.024711238254789547 0 -0.015231404274493614 0.024935291452909049 0 -0.015432323289177296 0.024358611318638101 0 -0.015689557383444346 0.024866511496030221 0 -0.015681611360338694 0.024711238254789547 0 -0.015231404274493614 0.024935291452909049 0 -0.015231404274493614 0.024935291452909049 0 -0.015432323289177296 0.024358611318638101 0 -0.013613355550822775 0.025231199242065433 0 -0.013984498391778007 0.024969160159219985 0 -0.013620731162655324 0.025194806136936337 0 -0.012613969265282526 0.02541875135800355 0 -0.013049651072609698 0.025575822520989482 0 -0.012913700455753675 0.025661611622143865 0 -0.012613969265282526 0.02541875135800355 0 -0.013613355550822775 0.025231199242065433 0 -0.013049651072609698 0.025575822520989482 0 -0.013984498391778007 0.024969160159219985 0 -0.013820738076394418 0.025544305150442058 0 -0.015432323289177296 0.024358611318638101 0 -0.015695535740056978 0.024664554846747268 0 -0.015781708572423604 0.024846198704136246 0 -0.015681611360338694 0.024711238254789547 0 -0.015432323289177296 0.024358611318638101 0 -0.015695535740056978 0.024664554846747268 0 -0.015681611360338694 0.024711238254789547 0 -0.015695535740056978 0.024664554846747268 0 -0.015747784544960907 0.024736576619280998 0 -0.015695535740056978 0.024664554846747268 0 -0.015747784544960907 0.024736576619280998 0 -0.015722682511520893 0.024762516283383725 0 -0.015747784544960907 0.024736576619280998 0 -0.015691329126403433 0.024800746812346321 0 -0.015731673773162862 0.024790734714203084 0 -0.015747784544960907 0.024736576619280998 0 -0.015722682511520893 0.024762516283383725 0 -0.015691329126403433 0.024800746812346321 0 -0.015722682511520893 0.024762516283383725 0 -0.015677000596203802 0.024826838625949411 0 -0.015781708572423604 0.024846198704136246 0 -0.015695535740056978 0.024664554846747268 0 -0.015722682511520893 0.024762516283383725 0 -0.015781708572423604 0.024846198704136246 0 -0.015722682511520893 0.024762516283383725 0 -0.015677000596203802 0.024826838625949411 0 -0.015691329126403433 0.024800746812346321 0 -0.015677000596203802 0.024826838625949411 0 -0.01561121025404549 0.024865781062781672 0 -0.015579868775866541 0.02490386515595604 0 -0.01561121025404549 0.024865781062781672 0 -0.015645424800116128 0.024850837980366258 0 -0.015691329126403433 0.024800746812346321 0 -0.015677000596203802 0.024826838625949411 0 -0.01561121025404549 0.024865781062781672 0 -0.015691329126403433 0.024800746812346321 0 -0.015568601089784528 0.024906796087715379 0 -0.015529480839084281 0.024925673862327302 0 -0.015496174592412391 0.024956369772034689 0 -0.01561121025404549 0.024865781062781672 0 -0.015568601089784528 0.024906796087715379 0 -0.015529480839084281 0.024925673862327302 0 -0.01561121025404549 0.024865781062781672 0 -0.015568601089784528 0.024906796087715379 0 -0.015645424800116128 0.024850837980366258 0 -0.015645424800116128 0.024850837980366258 0 -0.015681309244272731 0.024846454406615155 0 -0.015603840355745165 0.024906219513775873 0 -0.015568601089784528 0.024906796087715379 0 -0.015645424800116128 0.024850837980366258 0 -0.015603840355745165 0.024906219513775873 0 -0.015645424800116128 0.024850837980366258 0 -0.015731673773162862 0.024790734714203084 0 -0.015681309244272731 0.024846454406615155 0 -0.015645424800116128 0.024850837980366258 0 -0.015691329126403433 0.024800746812346321 0 -0.015731673773162862 0.024790734714203084 0 -0.015731673773162862 0.024790734714203084 0 -0.015681309244272731 0.024846454406615155 0 -0.015771058884310764 0.024788601823421914 0 -0.015681309244272731 0.024846454406615155 0 -0.015771058884310764 0.024788601823421914 0 -0.01569449108674674 0.024840356737900374 0 -0.015764959295390183 0.024755255239966693 0 -0.015771058884310764 0.024788601823421914 0 -0.01569449108674674 0.024840356737900374 0 -0.015731673773162862 0.024790734714203084 0 -0.015771058884310764 0.024788601823421914 0 -0.015807152317546487 0.024755138615558607 0 -0.015689557383444346 0.024866511496030221 0 -0.015681611360338694 0.024711238254789547 0 -0.015807152317546487 0.024755138615558607 0 -0.015681611360338694 0.024711238254789547 0 -0.015747784544960907 0.024736576619280998 0 -0.015807152317546487 0.024755138615558607 0 -0.015747784544960907 0.024736576619280998 0 -0.015731673773162862 0.024790734714203084 0 -0.015807152317546487 0.024755138615558607 0 -0.016391057125084981 0.018495583557783406 0 -0.016585910871362547 0.01834415606266173 0 -0.016337931319972413 0.018237784280612689 0 -0.0025774426717073682 0.026139509745034109 0 -0.0028948921691140609 0.026363216928684402 0 -0.0027715162533085 0.026054204652124525 0 -0.010016056160294388 0.020330205401914835 0 -0.0094652165467425577 0.02233803158041282 0 -0.0071206530298669555 0.016998939759749605 0 -0.0077396553964620271 0.017263170601047352 0 -0.0076161824750574959 0.01672265377949704 0 -0.012188273383431789 0.0173278803661331 0 -0.010016056160294388 0.020330205401914835 0 -0.016929693975879463 0.018399146818496203 0 -0.016568732632972219 0.018087699955235279 0 -0.017014094391239271 0.018191972414776339 0 -0.010016056160294388 0.020330205401914835 0 -0.018000223772435757 0.018509186854213031 0 -0.016929693975879463 0.018399146818496203 0 -0.016674405759764466 0.018451655010087321 0 -0.016568732632972219 0.018087699955235279 0 -0.016929693975879463 0.018399146818496203 0 -0.017166927629634 0.018420907406786226 0 -0.017014094391239271 0.018191972414776339 0 -0.016585910871362547 0.01834415606266173 0 -0.017040288941206065 0.018323638784725805 0 -0.016516652999326399 0.018194069099050886 0 -0.01677275508407253 0.018530988819046013 0 -0.016585910871362547 0.01834415606266173 0 -0.017040288941206065 0.018323638784725805 0 -0.016391057125084981 0.018495583557783406 0 -0.01677275508407253 0.018530988819046013 0 -0.016585910871362547 0.01834415606266173 0 -0.015146394680307691 0.022007136407174336 0 -0.014308538778100479 0.022140306131066434 0 -0.013451148436947424 0.025804141832339804 0 -0.012920340052415578 0.025715468466952444 0 -0.011476016444002281 0.02630708076425756 0 -0.013451148436947424 0.025804141832339804 0 -0.013846217435129624 0.025481673443854814 0 -0.012920340052415578 0.025715468466952444 0 -0.01677275508407253 0.018530988819046013 0 -0.017040288941206065 0.018323638784725805 0 -0.01730498587034195 0.018392571616270795 0 -0.017166927629634 0.018420907406786226 0 -0.017014094391239271 0.018191972414776339 0 -0.01730498587034195 0.018392571616270795 0 -0.018000223772435757 0.018509186854213031 0 -0.01683949670350323 0.018307269079687084 0 -0.015349524205216607 0.025121208517968844 0 -0.013451148436947424 0.025804141832339804 0 -0.014659144596777512 0.025340775401187697 0 -0.017626729757330657 0.018422903656684562 0 -0.017040288941206065 0.018323638784725805 0 -0.01730498587034195 0.018392571616270795 0 -0.015349524205216607 0.025121208517968844 0 -0.015478010843186686 0.02497566998332747 0 -0.014659144596777512 0.025340775401187697 0 -0.016439665318057101 0.021716596671859212 0 -0.015146394680307691 0.022007136407174336 0 -0.015038448254627378 0.025183107185489398 0 -0.013846217435129624 0.025481673443854814 0 -0.013613355550822775 0.025231199242065433 0 -0.015038448254627378 0.025183107185489398 0 -0.014659144596777512 0.025340775401187697 0 -0.013846217435129624 0.025481673443854814 0 -0.013451148436947424 0.025804141832339804 0 -0.014659144596777512 0.025340775401187697 0 -0.013846217435129624 0.025481673443854814 0 -0.013846217435129624 0.025481673443854814 0 -0.013613355550822775 0.025231199242065433 0 -0.012920340052415578 0.025715468466952444 0 -0.013613355550822775 0.025231199242065433 0 -0.012928608025365487 0.025563999562574304 0 -0.012920340052415578 0.025715468466952444 0 -0.013049651072609698 0.025575822520989482 0 -0.012928608025365487 0.025563999562574304 0 -0.012518037666376606 0.025606825467853062 0 -0.013049651072609698 0.025575822520989482 0 -0.012518037666376606 0.025606825467853062 0 -0.012779283782222794 0.02551477036166595 0 -0.013613355550822775 0.025231199242065433 0 -0.013049651072609698 0.025575822520989482 0 -0.012928608025365487 0.025563999562574304 0 -0.012518037666376606 0.025606825467853062 0 -0.01201295878450049 0.025878043780902662 0 -0.011543632933735011 0.025588761188402118 0 -0.012928608025365487 0.025563999562574304 0 -0.012518037666376606 0.025606825467853062 0 -0.01201295878450049 0.025878043780902662 0 -0.01201295878450049 0.025878043780902662 0 -0.012920340052415578 0.025715468466952444 0 -0.011476016444002281 0.02630708076425756 0 -0.012928608025365487 0.025563999562574304 0 -0.01201295878450049 0.025878043780902662 0 -0.012920340052415578 0.025715468466952444 0 -0.016585910871362547 0.01834415606266173 0 -0.016516652999326399 0.018194069099050886 0 -0.016337931319972413 0.018237784280612689 0 -0.01201295878450049 0.025878043780902662 0 -0.011476016444002281 0.02630708076425756 0 -0.010559895158891748 0.025969657642302166 0 -0.01201295878450049 0.025878043780902662 0 -0.010559895158891748 0.025969657642302166 0 -0.011543632933735011 0.025588761188402118 0 -0.0025857362819008784 0.025882041193023692 0 -0.0026820780975596414 0.025768124909626551 0 -0.0027715162533085 0.026054204652124525 0 -0.011476016444002281 0.02630708076425756 0 -0.010559895158891748 0.025969657642302166 0 -0.0090108720455679171 0.026207439386393191 0 -0.010559895158891748 0.025969657642302166 0 -0.0090108720455679171 0.026207439386393191 0 -0.0093555786170334554 0.026062114786246916 0 -0.014308538778100479 0.022140306131066434 0 -0.010307495566638318 0.022980466020016192 0 -0.010307495566638318 0.022980466020016192 0 -0.0094652165467425577 0.02233803158041282 0 -0.010307495566638318 0.022980466020016192 0 -0.010306847244636473 0.023327547263512965 0 -0.0090108720455679171 0.026207439386393191 0 -0.0089585028004727091 0.026056168023318144 0 -0.0090918171887134254 0.026065286904050092 0 -0.0090108720455679171 0.026207439386393191 0 -0.0090918171887134254 0.026065286904050092 0 -0.0093555786170334554 0.026062114786246916 0 -0.016516652999326399 0.018194069099050886 0 -0.016220475745709711 0.018151529687051429 0 -0.016337931319972413 0.018237784280612689 0 -0.0078689714014957505 0.025136450883430691 0 -0.0080921484666428255 0.025585732022682106 0 -0.0087223457008499209 0.02556872242750554 0 -0.0078689714014957505 0.025136450883430691 0 -0.0087223457008499209 0.02556872242750554 0 -0.0099953469544770777 0.025629181561340607 0 -0.0080921484666428255 0.025585732022682106 0 -0.0087223457008499209 0.02556872242750554 0 -0.0089210280299945235 0.025999131836385997 0 -0.0090918171887134254 0.026065286904050092 0 -0.0093555786170334554 0.026062114786246916 0 -0.0089210280299945235 0.025999131836385997 0 -0.0089585028004727091 0.026056168023318144 0 -0.0090918171887134254 0.026065286904050092 0 -0.0089210280299945235 0.025999131836385997 0 -0.0087223457008499209 0.02556872242750554 0 -0.0089210280299945235 0.025999131836385997 0 -0.0099953469544770777 0.025629181561340607 0 -0.0093555786170334554 0.026062114786246916 0 -0.0089210280299945235 0.025999131836385997 0 -0.0099953469544770777 0.025629181561340607 0 -0.010559895158891748 0.025969657642302166 0 -0.0093555786170334554 0.026062114786246916 0 -0.0099953469544770777 0.025629181561340607 0 -0.0099953469544770777 0.025629181561340607 0 -0.011629670345642723 0.024514907669384564 0 -0.011543632933735011 0.025588761188402118 0 -0.010559895158891748 0.025969657642302166 0 -0.0099953469544770777 0.025629181561340607 0 -0.011543632933735011 0.025588761188402118 0 -0.008076876675998922 0.025136594511228391 0 -0.0098444090857602497 0.025284791496088997 0 -0.0078689714014957505 0.025136450883430691 0 -0.0080320955880122964 0.026016223589681101 0 -0.0075752424658704718 0.025442929353796748 0 -0.0078689714014957505 0.025136450883430691 0 -0.0099953469544770777 0.025629181561340607 0 -0.011629670345642723 0.024514907669384564 0 -0.011629670345642723 0.024514907669384564 0 -0.011543632933735011 0.025588761188402118 0 -0.012562130474647647 0.025342962898015332 0 -0.012518037666376606 0.025606825467853062 0 -0.011543632933735011 0.025588761188402118 0 -0.012562130474647647 0.025342962898015332 0 -0.011629670345642723 0.024514907669384564 0 -0.012562130474647647 0.025342962898015332 0 -0.013097756891898822 0.025334102556128595 0 -0.012518037666376606 0.025606825467853062 0 -0.012562130474647647 0.025342962898015332 0 -0.012779283782222794 0.02551477036166595 0 -0.012562130474647647 0.025342962898015332 0 -0.012779283782222794 0.02551477036166595 0 -0.012852561497708697 0.025478385880298514 0 -0.013049651072609698 0.025575822520989482 0 -0.012779283782222794 0.02551477036166595 0 -0.012947003370113376 0.025564672356589282 0 -0.012779283782222794 0.02551477036166595 0 -0.012852561497708697 0.025478385880298514 0 -0.012947003370113376 0.025564672356589282 0 -0.012562130474647647 0.025342962898015332 0 -0.013039459162773411 0.025454183831263605 0 -0.013097756891898822 0.025334102556128595 0 -0.012562130474647647 0.025342962898015332 0 -0.012852561497708697 0.025478385880298514 0 -0.013039459162773411 0.025454183831263605 0 -0.012852561497708697 0.025478385880298514 0 -0.012947003370113376 0.025564672356589282 0 -0.013039459162773411 0.025454183831263605 0 -0.011212740607644689 0.025855123094077444 0 -0.010978761150644381 0.026127818843830069 0 -0.0080320955880122964 0.026016223589681101 0 -0.0091173860347190053 0.026457617325074935 0 -0.0085666255594876364 0.025679095468567257 0 -0.0091173860347190053 0.026457617325074935 0 -0.0085666255594876364 0.025679095468567257 0 -0.0095926021020554964 0.025761496273255202 0 -0.0098444090857602497 0.025284791496088997 0 -0.010978761150644381 0.026127818843830069 0 -0.0085666255594876364 0.025679095468567257 0 -0.0091051480364632408 0.02499977997591005 0 -0.0095926021020554964 0.025761496273255202 0 -0.0085666255594876364 0.025679095468567257 0 -0.0091051480364632408 0.02499977997591005 0 -0.0078899696034504582 0.024999789587347335 0 -0.0085666255594876364 0.025679095468567257 0 -0.0078899696034504582 0.024999789587347335 0 -0.0075752424658704718 0.025442929353796748 0 -0.0080320955880122964 0.026016223589681101 0 -0.0085666255594876364 0.025679095468567257 0 -0.0075752424658704718 0.025442929353796748 0 -0.0078899696034504582 0.024999789587347335 0 -0.0075752424658704718 0.025442929353796748 0 -0.006673855275537488 0.024999775788821923 0 -0.0066658052007536328 0.025170172385515714 0 -0.0075752424658704718 0.025442929353796748 0 -0.006673855275537488 0.024999775788821923 0 -0.0066658052007536328 0.025170172385515714 0 -0.0078689714014957505 0.025136450883430691 0 -0.0075752424658704718 0.025442929353796748 0 -0.011984589039427859 0.02610763892739059 0 -0.011684852188396731 0.0261838760469753 0 -0.01203536783761772 0.026168609877531054 0 -0.011984589039427859 0.02610763892739059 0 -0.012191835593732124 0.026166153614219055 0 -0.01203536783761772 0.026168609877531054 0 -0.011984589039427859 0.02610763892739059 0 -0.011684852188396731 0.0261838760469753 0 -0.011426673790341792 0.026006021563460213 0 -0.011984589039427859 0.02610763892739059 0 -0.011426673790341792 0.026006021563460213 0 -0.011878756101935891 0.025928782460526646 0 -0.011984589039427859 0.02610763892739059 0 -0.012207369081022709 0.0260281223869295 0 -0.012201586917103133 0.02615790734672923 0 -0.011984589039427859 0.02610763892739059 0 -0.012207369081022709 0.0260281223869295 0 -0.011878756101935891 0.025928782460526646 0 -0.012207369081022709 0.0260281223869295 0 -0.012654144397687547 0.025929701985779097 0 -0.012343961560031449 0.026281685111568476 0 -0.012207369081022709 0.0260281223869295 0 -0.012201586917103133 0.02615790734672923 0 -0.012343961560031449 0.026281685111568476 0 -0.012201586917103133 0.02615790734672923 0 -0.012191835593732124 0.026166153614219055 0 -0.012343961560031449 0.026281685111568476 0 -0.011984589039427859 0.02610763892739059 0 -0.012201586917103133 0.02615790734672923 0 -0.012191835593732124 0.026166153614219055 0 -0.015481246478582367 0.024967722014547541 0 -0.015781708572423604 0.024846198704136246 0 -0.015265554116927191 0.025103287640119324 0 -0.012283523241963154 0.026044984100668637 0 -0.015078799800994242 0.024735830817263174 0 -0.015265554116927191 0.025103287640119324 0 -0.012191835593732124 0.026166153614219055 0 -0.012283523241963154 0.026044984100668637 0 -0.012343961560031449 0.026281685111568476 0 -0.011709383007995669 0.026357565955130346 0 -0.012283523241963154 0.026044984100668637 0 -0.015265554116927191 0.025103287640119324 0 -0.013820738076394418 0.025544305150442058 0 -0.01518508970362889 0.025093877461832562 0 -0.012416438866136708 0.026082435999884766 0 -0.013637613082530168 0.025531130112264541 0 -0.015481246478582367 0.024967722014547541 0 -0.015579868775866541 0.02490386515595604 0 -0.015781708572423604 0.024846198704136246 0 -0.015481246478582367 0.024967722014547541 0 -0.015436166971898705 0.024988031630290321 0 -0.015380409038322832 0.025022682318056176 0 -0.015503617365235004 0.024947330998352849 0 -0.015529480839084281 0.024925673862327302 0 -0.015436166971898705 0.024988031630290321 0 -0.015481246478582367 0.024967722014547541 0 -0.015503617365235004 0.024947330998352849 0 -0.015436166971898705 0.024988031630290321 0 -0.015481246478582367 0.024967722014547541 0 -0.015503617365235004 0.024947330998352849 0 -0.015579868775866541 0.02490386515595604 0 -0.01561121025404549 0.024865781062781672 0 -0.015529480839084281 0.024925673862327302 0 -0.015579868775866541 0.02490386515595604 0 -0.015503617365235004 0.024947330998352849 0 -0.015529480839084281 0.024925673862327302 0 -0.015579868775866541 0.02490386515595604 0 -0.015677000596203802 0.024826838625949411 0 -0.015579868775866541 0.02490386515595604 0 -0.015781708572423604 0.024846198704136246 0 -0.012613969265282526 0.02541875135800355 0 -0.011709383007995669 0.026357565955130346 0 -0.011807714325688553 0.026341998936194985 0 -0.011709383007995669 0.026357565955130346 0 -0.012283523241963154 0.026044984100668637 0 -0.011807714325688553 0.026341998936194985 0 -0.012283523241963154 0.026044984100668637 0 -0.01203536783761772 0.026168609877531054 0 -0.011807714325688553 0.026341998936194985 0 -0.012191835593732124 0.026166153614219055 0 -0.012283523241963154 0.026044984100668637 0 -0.01203536783761772 0.026168609877531054 0 -0.011684852188396731 0.0261838760469753 0 -0.01203536783761772 0.026168609877531054 0 -0.011807714325688553 0.026341998936194985 0 -0.012613969265282526 0.02541875135800355 0 -0.011807714325688553 0.026341998936194985 0 -0.012545790199688673 0.026077695966898028 0 -0.011724152629988858 0.026308235723413394 0 -0.011862199084004136 0.026227238967345898 0 -0.011684852188396731 0.0261838760469753 0 -0.011807714325688553 0.026341998936194985 0 -0.010998401830934324 0.026432095466733203 0 -0.013013682925268744 0.025535533852393738 0 -0.012545790199688673 0.026077695966898028 0 -0.012913700455753675 0.025661611622143865 0 -0.010978761150644381 0.026127818843830069 0 -0.011862199084004136 0.026227238967345898 0 -0.012613969265282526 0.02541875135800355 0 -0.012545790199688673 0.026077695966898028 0 -0.012913700455753675 0.025661611622143865 0 -0.013049651072609698 0.025575822520989482 0 -0.012947003370113376 0.025564672356589282 0 -0.012913700455753675 0.025661611622143865 0 -0.012947003370113376 0.025564672356589282 0 -0.013039459162773411 0.025454183831263605 0 -0.012913700455753675 0.025661611622143865 0 -0.013039459162773411 0.025454183831263605 0 -0.013013682925268744 0.025535533852393738 0 -0.012913700455753675 0.025661611622143865 0 -0.010978761150644381 0.026127818843830069 0 -0.0099362568613847804 0.025782037044208492 0 -0.010397685063123713 0.026341471208433404 0 -0.010998401830934324 0.026432095466733203 0 -0.010874793239148041 0.026032506363837228 0 -0.010397685063123713 0.026341471208433404 0 -0.010874793239148041 0.026032506363837228 0 -0.010588040287118398 0.025693899915595394 0 -0.011684852188396731 0.0261838760469753 0 -0.011426673790341792 0.026006021563460213 0 -0.010998401830934324 0.026432095466733203 0 -0.011426673790341792 0.026006021563460213 0 -0.010998401830934324 0.026432095466733203 0 -0.010874793239148041 0.026032506363837228 0 -0.011426673790341792 0.026006021563460213 0 -0.010874793239148041 0.026032506363837228 0 -0.011000914304058123 0.025699016689167312 0 -0.010874793239148041 0.026032506363837228 0 -0.011000914304058123 0.025699016689167312 0 -0.010588040287118398 0.025693899915595394 0 -0.0099362568613847804 0.025782037044208492 0 -0.01032120819695974 0.024999810964575531 0 -0.0091051480364632408 0.02499977997591005 0 -0.0095926021020554964 0.025761496273255202 0 -0.010320606291648916 0.024999914614205167 0 -0.010322281814352916 0.024999936871585939 0 -0.011059523502887027 0.025341630790568021 0 -0.01152571175650299 0.024999832345070822 0 -0.011000914304058123 0.025699016689167312 0 -0.010588040287118398 0.025693899915595394 0 -0.010322281814352916 0.024999936871585939 0 -0.011000914304058123 0.025699016689167312 0 -0.010322281814352916 0.024999936871585939 0 -0.011059523502887027 0.025341630790568021 0 -0.011059523502887027 0.025341630790568021 0 -0.01152571175650299 0.024999832345070822 0 -0.011527929050380699 0.025687244942020973 0 -0.01152571175650299 0.024999832345070822 0 -0.011527929050380699 0.025687244942020973 0 -0.012227528587015545 0.025698900704946317 0 -0.011000914304058123 0.025699016689167312 0 -0.011059523502887027 0.025341630790568021 0 -0.011527929050380699 0.025687244942020973 0 -0.011426673790341792 0.026006021563460213 0 -0.011000914304058123 0.025699016689167312 0 -0.011527929050380699 0.025687244942020973 0 -0.011426673790341792 0.026006021563460213 0 -0.011527929050380699 0.025687244942020973 0 -0.011878756101935891 0.025928782460526646 0 -0.011527929050380699 0.025687244942020973 0 -0.011878756101935891 0.025928782460526646 0 -0.012227528587015545 0.025698900704946317 0 -0.012207369081022709 0.0260281223869295 0 -0.012227528587015545 0.025698900704946317 0 -0.012654144397687547 0.025929701985779097 0 -0.012207369081022709 0.0260281223869295 0 -0.011878756101935891 0.025928782460526646 0 -0.012227528587015545 0.025698900704946317 0 -0.01152571175650299 0.024999832345070822 0 -0.012227528587015545 0.025698900704946317 0 -0.012730492590096705 0.024999894201559222 0 -0.012227528587015545 0.025698900704946317 0 -0.012730492590096705 0.024999894201559222 0 -0.013211531296554713 0.025463091595631412 0 -0.013934693685338288 0.024999843723648076 0 -0.013211531296554713 0.025463091595631412 0 -0.01422187954990382 0.025436506585621892 0 -0.012730492590096705 0.024999894201559222 0 -0.013934693685338288 0.024999843723648076 0 -0.013211531296554713 0.025463091595631412 0 -0.01550367591284591 0.024647030637788579 0 -0.015676604942009179 0.0246794483183723 0 -0.015688696563116916 0.024515484952141037 0 -0.013211531296554713 0.025463091595631412 0 -0.01328795309972877 0.02599551613604149 0 -0.01422187954990382 0.025436506585621892 0 -0.014435478508354306 0.025251579129102749 0 -0.014838014296376042 0.025206607749745705 0 -0.01328795309972877 0.02599551613604149 0 -0.012654144397687547 0.025929701985779097 0 -0.012343961560031449 0.026281685111568476 0 -0.012227528587015545 0.025698900704946317 0 -0.013211531296554713 0.025463091595631412 0 -0.012654144397687547 0.025929701985779097 0 -0.013211531296554713 0.025463091595631412 0 -0.01328795309972877 0.02599551613604149 0 -0.012654144397687547 0.025929701985779097 0 -0.01550367591284591 0.024647030637788579 0 -0.015078799800994242 0.024735830817263174 0 -0.015502252915667968 0.02487838301270583 0 -0.015078799800994242 0.024735830817263174 0 -0.015265554116927191 0.025103287640119324 0 -0.015502252915667968 0.02487838301270583 0 -0.014435478508354306 0.025251579129102749 0 -0.013637613082530168 0.025531130112264541 0 -0.015265554116927191 0.025103287640119324 0 -0.015502252915667968 0.02487838301270583 0 -0.015399052550743258 0.025032186449708893 0 -0.01550367591284591 0.024647030637788579 0 -0.015502252915667968 0.02487838301270583 0 -0.015676604942009179 0.0246794483183723 0 -0.015502252915667968 0.02487838301270583 0 -0.015657426669065284 0.024921948206064477 0 -0.015676604942009179 0.0246794483183723 0 -0.015502252915667968 0.02487838301270583 0 -0.015530553213567749 0.024991059588044894 0 -0.015399052550743258 0.025032186449708893 0 -0.015502252915667968 0.02487838301270583 0 -0.015530553213567749 0.024991059588044894 0 -0.015657426669065284 0.024921948206064477 0 -0.015530553213567749 0.024991059588044894 0 -0.015593434958502336 0.025041074830593282 0 -0.015657426669065284 0.024921948206064477 0 -0.015530553213567749 0.024991059588044894 0 -0.015540289599472137 0.02502174855006465 0 -0.015478654213582391 0.025011854828893138 0 -0.015530553213567749 0.024991059588044894 0 -0.015593434958502336 0.025041074830593282 0 -0.015540289599472137 0.02502174855006465 0 -0.015540289599472137 0.02502174855006465 0 -0.015478654213582391 0.025011854828893138 0 -0.015526132350880312 0.025005066865736947 0 -0.015478654213582391 0.025011854828893138 0 -0.015526132350880312 0.025005066865736947 0 -0.015505945952918548 0.024976036999283403 0 -0.015478654213582391 0.025011854828893138 0 -0.015459004202532193 0.024996305561691495 0 -0.015399052550743258 0.025032186449708893 0 -0.015478654213582391 0.025011854828893138 0 -0.015459004202532193 0.024996305561691495 0 -0.015505945952918548 0.024976036999283403 0 -0.015496174592412391 0.024956369772034689 0 -0.015459004202532193 0.024996305561691495 0 -0.015505945952918548 0.024976036999283403 0 -0.015529480839084281 0.024925673862327302 0 -0.015496174592412391 0.024956369772034689 0 -0.015436166971898705 0.024988031630290321 0 -0.015496174592412391 0.024956369772034689 0 -0.015436166971898705 0.024988031630290321 0 -0.015459004202532193 0.024996305561691495 0 -0.015436166971898705 0.024988031630290321 0 -0.015459004202532193 0.024996305561691495 0 -0.015399052550743258 0.025032186449708893 0 -0.015481246478582367 0.024967722014547541 0 -0.015265554116927191 0.025103287640119324 0 -0.015380409038322832 0.025022682318056176 0 -0.015436166971898705 0.024988031630290321 0 -0.015380409038322832 0.025022682318056176 0 -0.015399052550743258 0.025032186449708893 0 -0.015265554116927191 0.025103287640119324 0 -0.015380409038322832 0.025022682318056176 0 -0.015399052550743258 0.025032186449708893 0 -0.015530553213567749 0.024991059588044894 0 -0.015478654213582391 0.025011854828893138 0 -0.015399052550743258 0.025032186449708893 0 -0.015817704775204489 0.025010380863285438 0 -0.016087283487299202 0.024930583194486825 0 -0.015978299218362014 0.025283329839463936 0 -0.015817704775204489 0.025010380863285438 0 -0.015791720927547621 0.025188668608575833 0 -0.015978299218362014 0.025283329839463936 0 -0.015817704775204489 0.025010380863285438 0 -0.015692736866296422 0.025078494327854473 0 -0.015791720927547621 0.025188668608575833 0 -0.015593434958502336 0.025041074830593282 0 -0.015692736866296422 0.025078494327854473 0 -0.015657426669065284 0.024921948206064477 0 -0.015817704775204489 0.025010380863285438 0 -0.015692736866296422 0.025078494327854473 0 -0.015657426669065284 0.024921948206064477 0 -0.015657426669065284 0.024921948206064477 0 -0.015853523079430949 0.024704026964685752 0 -0.015676604942009179 0.0246794483183723 0 -0.015817704775204489 0.025010380863285438 0 -0.015657426669065284 0.024921948206064477 0 -0.015853523079430949 0.024704026964685752 0 -0.015817704775204489 0.025010380863285438 0 -0.015853523079430949 0.024704026964685752 0 -0.016087283487299202 0.024930583194486825 0 -0.015713868866288921 0.025232756447716002 0 -0.016156812315393836 0.025507522573090309 0 -0.015495496052509394 0.025861297564651615 0 -0.015264885058732282 0.025417440354062813 0 -0.015818354429162844 0.025442357972943346 0 -0.015713868866288921 0.025232756447716002 0 -0.014838014296376042 0.025206607749745705 0 -0.015495496052509394 0.025861297564651615 0 -0.014797963796197295 0.025323477840074663 0 -0.015264885058732282 0.025417440354062813 0 -0.015853523079430949 0.024704026964685752 0 -0.015676604942009179 0.0246794483183723 0 -0.015688696563116916 0.024515484952141037 0 -0.01393519344209782 0.024999997333380757 0 -0.01434119365222219 0.025531642080155754 0 -0.014976887856600198 0.024999998320830542 0 -0.014797963796197295 0.025323477840074663 0 -0.015264885058732282 0.025417440354062813 0 -0.014978133971718424 0.024999718433859203 0 -0.014838014296376042 0.025206607749745705 0 -0.014976593376788718 0.025000301505673173 0 -0.013935413334144074 0.025000018356942495 0 -0.014838014296376042 0.025206607749745705 0 -0.015264885058732282 0.025417440354062813 0 -0.014978133971718424 0.024999718433859203 0 -0.015818354429162844 0.025442357972943346 0 -0.014978133971718424 0.024999718433859203 0 -0.015818354429162844 0.025442357972943346 0 -0.016449102867880039 0.024999900829866226 0 -0.015818354429162844 0.025442357972943346 0 -0.016449102867880039 0.024999900829866226 0 -0.016460262598147844 0.025858153936338429 0 -0.016449102867880039 0.024999900829866226 0 -0.016460262598147844 0.025858153936338429 0 -0.01719363010827421 0.025640645293887075 0 -0.015495496052509394 0.025861297564651615 0 -0.015818354429162844 0.025442357972943346 0 -0.016460262598147844 0.025858153936338429 0 -0.017921266038157167 0.024999535995678501 0 -0.018020708067821176 0.025701229744266346 0 -0.018749299155132383 0.025322349745817603 0 -0.016449102867880039 0.024999900829866226 0 -0.017921266038157167 0.024999535995678501 0 -0.01719363010827421 0.025640645293887075 0 -0.01719363010827421 0.025640645293887075 0 -0.018020708067821176 0.025701229744266346 0 -0.017368919098764563 0.025888676928395318 0 -0.017921266038157167 0.024999535995678501 0 -0.01719363010827421 0.025640645293887075 0 -0.018020708067821176 0.025701229744266346 0 -0.017647377742266206 0.026059713884957848 0 -0.018191711680272685 0.025987555765316427 0 -0.017833907953482331 0.026272116247563225 0 -0.017647377742266206 0.026059713884957848 0 -0.017301952302291413 0.026204347296795775 0 -0.017833907953482331 0.026272116247563225 0 -0.018020708067821176 0.025701229744266346 0 -0.017647377742266206 0.026059713884957848 0 -0.018191711680272685 0.025987555765316427 0 -0.018020708067821176 0.025701229744266346 0 -0.017647377742266206 0.026059713884957848 0 -0.017368919098764563 0.025888676928395318 0 -0.017647377742266206 0.026059713884957848 0 -0.017289077360745447 0.026063530060985274 0 -0.017301952302291413 0.026204347296795775 0 -0.017647377742266206 0.026059713884957848 0 -0.017289077360745447 0.026063530060985274 0 -0.017368919098764563 0.025888676928395318 0 -0.01719363010827421 0.025640645293887075 0 -0.017368919098764563 0.025888676928395318 0 -0.016942327287309621 0.026016262996247919 0 -0.017289077360745447 0.026063530060985274 0 -0.017368919098764563 0.025888676928395318 0 -0.016942327287309621 0.026016262996247919 0 -0.016942327287309621 0.026016262996247919 0 -0.016787808168057583 0.025949629217485486 0 -0.017098005838240803 0.02609934886710806 0 -0.016787808168057583 0.025949629217485486 0 -0.016979124117067645 0.026000642496106393 0 -0.017098005838240803 0.02609934886710806 0 -0.017289077360745447 0.026063530060985274 0 -0.016942327287309621 0.026016262996247919 0 -0.017098005838240803 0.02609934886710806 0 -0.017098005838240803 0.02609934886710806 0 -0.017301952302291413 0.026204347296795775 0 -0.017118965953256418 0.026154905272960591 0 -0.017289077360745447 0.026063530060985274 0 -0.017098005838240803 0.02609934886710806 0 -0.017301952302291413 0.026204347296795775 0 -0.016979124117067645 0.026000642496106393 0 -0.017098005838240803 0.02609934886710806 0 -0.017118965953256418 0.026154905272960591 0 -0.016979124117067645 0.026000642496106393 0 -0.017118965953256418 0.026154905272960591 0 -0.016997169662654629 0.025931274225444615 0 -0.017301952302291413 0.026204347296795775 0 -0.017118965953256418 0.026154905272960591 0 -0.017032637418674151 0.026345690497027816 0 -0.017118965953256418 0.026154905272960591 0 -0.016997169662654629 0.025931274225444615 0 -0.017032637418674151 0.026345690497027816 0 -0.017301952302291413 0.026204347296795775 0 -0.017032637418674151 0.026345690497027816 0 -0.017833907953482331 0.026272116247563225 0 -0.016460262598147844 0.025858153936338429 0 -0.016575104036301538 0.025986937699182786 0 -0.01628081497624129 0.02611605930595285 0 -0.015495496052509394 0.025861297564651615 0 -0.016460262598147844 0.025858153936338429 0 -0.01628081497624129 0.02611605930595285 0 -0.016460262598147844 0.025858153936338429 0 -0.016942327287309621 0.026016262996247919 0 -0.016575104036301538 0.025986937699182786 0 -0.016460262598147844 0.025858153936338429 0 -0.01719363010827421 0.025640645293887075 0 -0.016942327287309621 0.026016262996247919 0 -0.016942327287309621 0.026016262996247919 0 -0.016787808168057583 0.025949629217485486 0 -0.016575104036301538 0.025986937699182786 0 -0.016787808168057583 0.025949629217485486 0 -0.016575104036301538 0.025986937699182786 0 -0.016506530306723884 0.025668173557908115 0 -0.016087283487299202 0.024930583194486825 0 -0.016506530306723884 0.025668173557908115 0 -0.015978299218362014 0.025283329839463936 0 -0.016575104036301538 0.025986937699182786 0 -0.01628081497624129 0.02611605930595285 0 -0.016506530306723884 0.025668173557908115 0 -0.016156812315393836 0.025507522573090309 0 -0.016450427364621083 0.025649252882040532 0 -0.016089507283993738 0.025467456495805799 0 -0.016506530306723884 0.025668173557908115 0 -0.015978299218362014 0.025283329839463936 0 -0.016089507283993738 0.025467456495805799 0 -0.016506530306723884 0.025668173557908115 0 -0.016360231128018474 0.025641694554190467 0 -0.016506530306723884 0.025668173557908115 0 -0.016360231128018474 0.025641694554190467 0 -0.016764774831502495 0.025884889973686327 0 -0.016787808168057583 0.025949629217485486 0 -0.016506530306723884 0.025668173557908115 0 -0.016764774831502495 0.025884889973686327 0 -0.016198160160147336 0.024635237003945702 0 -0.016652216370260407 0.025108305165847496 0 -0.016203809299396934 0.025616242565035578 0 -0.016360231128018474 0.025641694554190467 0 -0.016764774831502495 0.025884889973686327 0 -0.016351741155465296 0.023870283826754803 0 -0.016130330829742467 0.023616879177965393 0 -0.016591142117897754 0.024198718872870523 0 -0.016351741155465296 0.023870283826754803 0 -0.016130330829742467 0.023616879177965393 0 -0.016188207863438307 0.023613945003087888 0 -0.016203809299396934 0.025616242565035578 0 -0.016086448259245083 0.025501681149861809 0 -0.015885066429207118 0.025373714209545768 0 -0.016089507283993738 0.025467456495805799 0 -0.016086448259245083 0.025501681149861809 0 -0.015927370573031646 0.025385704867359769 0 -0.016203809299396934 0.025616242565035578 0 -0.016086448259245083 0.025501681149861809 0 -0.016360231128018474 0.025641694554190467 0 -0.016089507283993738 0.025467456495805799 0 -0.016086448259245083 0.025501681149861809 0 -0.016360231128018474 0.025641694554190467 0 -0.016997169662654629 0.025931274225444615 0 -0.016682459916182026 0.02492679089359123 0 -0.016591142117897754 0.024198718872870523 0 -0.016997169662654629 0.025931274225444615 0 -0.017032637418674151 0.026345690497027816 0 -0.015956205416967968 0.025194883773555384 0 -0.016997169662654629 0.025931274225444615 0 -0.016388127425413089 0.024956840058200556 0 -0.016682459916182026 0.02492679089359123 0 -0.016388127425413089 0.024956840058200556 0 -0.016682459916182026 0.02492679089359123 0 -0.016517987706143957 0.024550884038670305 0 -0.016847263596050172 0.025822352685943534 0 -0.016652216370260407 0.025108305165847496 0 -0.016682459916182026 0.02492679089359123 0 -0.016591142117897754 0.024198718872870523 0 -0.016517987706143957 0.024550884038670305 0 -0.016979124117067645 0.026000642496106393 0 -0.016997169662654629 0.025931274225444615 0 -0.016764774831502495 0.025884889973686327 0 -0.016787808168057583 0.025949629217485486 0 -0.016979124117067645 0.026000642496106393 0 -0.016764774831502495 0.025884889973686327 0 -0.016591142117897754 0.024198718872870523 0 -0.016386253102896476 0.02406659009031482 0 -0.016517987706143957 0.024550884038670305 0 -0.016351741155465296 0.023870283826754803 0 -0.016591142117897754 0.024198718872870523 0 -0.016386253102896476 0.02406659009031482 0 -0.016351741155465296 0.023870283826754803 0 -0.016386253102896476 0.02406659009031482 0 -0.016248352938963265 0.023760413319978371 0 -0.016388127425413089 0.024956840058200556 0 -0.016517987706143957 0.024550884038670305 0 -0.01613540889147878 0.024123193827074434 0 -0.016386253102896476 0.02406659009031482 0 -0.016517987706143957 0.024550884038670305 0 -0.01613540889147878 0.024123193827074434 0 -0.016130221328772523 0.023631962845491801 0 -0.015759633352695004 0.023864259437401052 0 -0.015840249644479866 0.023355699117076717 0 -0.01613540889147878 0.024123193827074434 0 -0.016130221328772523 0.023631962845491801 0 -0.015759633352695004 0.023864259437401052 0 -0.016386253102896476 0.02406659009031482 0 -0.01613540889147878 0.024123193827074434 0 -0.016130221328772523 0.023631962845491801 0 -0.016130221328772523 0.023631962845491801 0 -0.016248352938963265 0.023760413319978371 0 -0.016040998728261736 0.023360533073124398 0 -0.016386253102896476 0.02406659009031482 0 -0.016130221328772523 0.023631962845491801 0 -0.016248352938963265 0.023760413319978371 0 -0.016248352938963265 0.023760413319978371 0 -0.016209781711691969 0.023653341744124489 0 -0.016040998728261736 0.023360533073124398 0 -0.016351741155465296 0.023870283826754803 0 -0.016248352938963265 0.023760413319978371 0 -0.016209781711691969 0.023653341744124489 0 -0.016130221328772523 0.023631962845491801 0 -0.016019001357060955 0.023247471568659528 0 -0.016040998728261736 0.023360533073124398 0 -0.016130221328772523 0.023631962845491801 0 -0.016019001357060955 0.023247471568659528 0 -0.015840249644479866 0.023355699117076717 0 -0.015099852743042388 0.022689471253790505 0 -0.01500555416821746 0.02262522603173223 0 -0.016101063318473944 0.023606525033430002 0 -0.015865445401420701 0.023565126357769743 0 -0.016130330829742467 0.023616879177965393 0 -0.015872233688303802 0.024106010139519622 0 -0.015710921580649861 0.024118567727984663 0 -0.016198160160147336 0.024635237003945702 0 -0.015713897487124755 0.024616003049314765 0 -0.016130330829742467 0.023616879177965393 0 -0.016188207863438307 0.023613945003087888 0 -0.015872233688303802 0.024106010139519622 0 -0.016188207863438307 0.023613945003087888 0 -0.015878480317272174 0.023071339890248722 0 -0.015894935883695713 0.0229598513097387 0 -0.016188207863438307 0.023613945003087888 0 -0.016040998728261736 0.023360533073124398 0 -0.015878480317272174 0.023071339890248722 0 -0.016188207863438307 0.023613945003087888 0 -0.016209781711691969 0.023653341744124489 0 -0.016040998728261736 0.023360533073124398 0 -0.016351741155465296 0.023870283826754803 0 -0.016188207863438307 0.023613945003087888 0 -0.016209781711691969 0.023653341744124489 0 -0.016019001357060955 0.023247471568659528 0 -0.016040998728261736 0.023360533073124398 0 -0.015415143739938832 0.022506707195550611 0 -0.016040998728261736 0.023360533073124398 0 -0.015878480317272174 0.023071339890248722 0 -0.015415143739938832 0.022506707195550611 0 -0.015878480317272174 0.023071339890248722 0 -0.015799680560985307 0.022799773364343009 0 -0.015415143739938832 0.022506707195550611 0 -0.015878480317272174 0.023071339890248722 0 -0.015799680560985307 0.022799773364343009 0 -0.015894935883695713 0.0229598513097387 0 -0.015866131438750493 0.022712093659358657 0 -0.015950791577375702 0.02259626399631999 0 -0.015821265192751226 0.022448606650206752 0 -0.015865445401420701 0.023565126357769743 0 -0.015779441718134207 0.023477635771801245 0 -0.015799680560985307 0.022799773364343009 0 -0.015866131438750493 0.022712093659358657 0 -0.015821265192751226 0.022448606650206752 0 -0.015872233688303802 0.024106010139519622 0 -0.015710921580649861 0.024118567727984663 0 -0.015538816989007586 0.024452497252298856 0 -0.015950791577375702 0.02259626399631999 0 -0.015894935883695713 0.0229598513097387 0 -0.016053760558875595 0.02252991499832508 0 -0.015799680560985307 0.022799773364343009 0 -0.015866131438750493 0.022712093659358657 0 -0.015894935883695713 0.0229598513097387 0 -0.015866131438750493 0.022712093659358657 0 -0.015950791577375702 0.02259626399631999 0 -0.015894935883695713 0.0229598513097387 0 -0.016203809299396934 0.025616242565035578 0 -0.015639067512193149 0.025199871301924283 0 -0.015885066429207118 0.025373714209545768 0 -0.015639067512193149 0.025199871301924283 0 -0.015720186560100158 0.025240594689134376 0 -0.015647121939733635 0.02514459012630638 0 -0.015720186560100158 0.025240594689134376 0 -0.015647121939733635 0.02514459012630638 0 -0.015677999654294849 0.025180313134576984 0 -0.015639067512193149 0.025199871301924283 0 -0.015720186560100158 0.025240594689134376 0 -0.015885066429207118 0.025373714209545768 0 -0.015639067512193149 0.025199871301924283 0 -0.015599293902652838 0.025028475388139623 0 -0.015552632821953969 0.024838706871441178 0 -0.015614180680416569 0.025065585644287458 0 -0.015575828327091451 0.024923995242882965 0 -0.015595821626886107 0.024992180241641054 0 -0.015614180680416569 0.025065585644287458 0 -0.015599293902652838 0.025028475388139623 0 -0.015575828327091451 0.024923995242882965 0 -0.015614180680416569 0.025065585644287458 0 -0.015647121939733635 0.02514459012630638 0 -0.015677999654294849 0.025180313134576984 0 -0.015614180680416569 0.025065585644287458 0 -0.015647121939733635 0.02514459012630638 0 -0.015599293902652838 0.025028475388139623 0 -0.015639067512193149 0.025199871301924283 0 -0.015647121939733635 0.02514459012630638 0 -0.015599293902652838 0.025028475388139623 0 -0.015575828327091451 0.024923995242882965 0 -0.015552632821953969 0.024838706871441178 0 -0.015551151404674309 0.024753476185934386 0 -0.015599293902652838 0.025028475388139623 0 -0.015575828327091451 0.024923995242882965 0 -0.015552632821953969 0.024838706871441178 0 -0.015713897487124755 0.024616003049314765 0 -0.015529881898316467 0.024476353614992417 0 -0.015710921580649861 0.024118567727984663 0 -0.015538816989007586 0.024452497252298856 0 -0.01546847769539433 0.024451352894240466 0 -0.015552632821953969 0.024838706871441178 0 -0.01546847769539433 0.024451352894240466 0 -0.015523294139304198 0.024645015769971263 0 -0.015639067512193149 0.025199871301924283 0 -0.015552632821953969 0.024838706871441178 0 -0.01546847769539433 0.024451352894240466 0 -0.015950791577375702 0.02259626399631999 0 -0.016053760558875595 0.02252991499832508 0 -0.015968724285729905 0.02235518321151057 0 -0.015779441718134207 0.023477635771801245 0 -0.015858460144601995 0.023231143437551824 0 -0.015538816989007586 0.024452497252298856 0 -0.01546847769539433 0.024451352894240466 0 -0.01538470616909293 0.024147101551920614 0 -0.01546847769539433 0.024451352894240466 0 -0.015522930615682331 0.024536438590310711 0 -0.01538470616909293 0.024147101551920614 0 -0.015522930615682331 0.024536438590310711 0 -0.015653372540302191 0.024663771387837898 0 -0.015569733834915549 0.024714796418577559 0 -0.01546847769539433 0.024451352894240466 0 -0.015522930615682331 0.024536438590310711 0 -0.015523294139304198 0.024645015769971263 0 -0.015522930615682331 0.024536438590310711 0 -0.015523294139304198 0.024645015769971263 0 -0.015551151404674309 0.024753476185934386 0 -0.015552632821953969 0.024838706871441178 0 -0.015523294139304198 0.024645015769971263 0 -0.015551151404674309 0.024753476185934386 0 -0.015522930615682331 0.024536438590310711 0 -0.015551151404674309 0.024753476185934386 0 -0.015569733834915549 0.024714796418577559 0 -0.015522930615682331 0.024536438590310711 0 -0.015688210062869468 0.024354740431633503 0 -0.01538470616909293 0.024147101551920614 0 -0.015522930615682331 0.024536438590310711 0 -0.015688210062869468 0.024354740431633503 0 -0.015653372540302191 0.024663771387837898 0 -0.015799617221666742 0.024596652351210082 0 -0.015688210062869468 0.024354740431633503 0 -0.015653372540302191 0.024663771387837898 0 -0.015799617221666742 0.024596652351210082 0 -0.015653372540302191 0.024663771387837898 0 -0.01567216517860805 0.024818620631225124 0 -0.015653372540302191 0.024663771387837898 0 -0.01567216517860805 0.024818620631225124 0 -0.015615472453719862 0.024785858532254776 0 -0.01567216517860805 0.024818620631225124 0 -0.015615472453719862 0.024785858532254776 0 -0.015613114683662506 0.024881450216659374 0 -0.01567216517860805 0.024818620631225124 0 -0.015613114683662506 0.024881450216659374 0 -0.015628059879299442 0.024897674258527916 0 -0.015799617221666742 0.024596652351210082 0 -0.015764959295390183 0.024755255239966693 0 -0.01567216517860805 0.024818620631225124 0 -0.015764959295390183 0.024755255239966693 0 -0.01567216517860805 0.024818620631225124 0 -0.01569449108674674 0.024840356737900374 0 -0.015575828327091451 0.024923995242882965 0 -0.015551151404674309 0.024753476185934386 0 -0.015582603001957032 0.024850239755930044 0 -0.015551151404674309 0.024753476185934386 0 -0.015569733834915549 0.024714796418577559 0 -0.015582603001957032 0.024850239755930044 0 -0.015653372540302191 0.024663771387837898 0 -0.015569733834915549 0.024714796418577559 0 -0.015615472453719862 0.024785858532254776 0 -0.015569733834915549 0.024714796418577559 0 -0.015615472453719862 0.024785858532254776 0 -0.015582603001957032 0.024850239755930044 0 -0.015615472453719862 0.024785858532254776 0 -0.015613114683662506 0.024881450216659374 0 -0.015582603001957032 0.024850239755930044 0 -0.015613114683662506 0.024881450216659374 0 -0.015582603001957032 0.024850239755930044 0 -0.015598092192559159 0.024952307503897871 0 -0.015575828327091451 0.024923995242882965 0 -0.015582603001957032 0.024850239755930044 0 -0.015595821626886107 0.024992180241641054 0 -0.015582603001957032 0.024850239755930044 0 -0.015595821626886107 0.024992180241641054 0 -0.015598092192559159 0.024952307503897871 0 -0.015595821626886107 0.024992180241641054 0 -0.015603705134206676 0.025032129335220726 0 -0.015598092192559159 0.024952307503897871 0 -0.015603705134206676 0.025032129335220726 0 -0.015598092192559159 0.024952307503897871 0 -0.01560111703887772 0.024971843849426075 0 -0.015613114683662506 0.024881450216659374 0 -0.01560111703887772 0.024971843849426075 0 -0.015628059879299442 0.024897674258527916 0 -0.015613114683662506 0.024881450216659374 0 -0.015598092192559159 0.024952307503897871 0 -0.01560111703887772 0.024971843849426075 0 -0.01560111703887772 0.024971843849426075 0 -0.015594118030868815 0.025041567586919635 0 -0.015589961557630141 0.024977712008060465 0 -0.015603705134206676 0.025032129335220726 0 -0.01560111703887772 0.024971843849426075 0 -0.015594118030868815 0.025041567586919635 0 -0.015603705134206676 0.025032129335220726 0 -0.015594118030868815 0.025041567586919635 0 -0.015634275712217656 0.025110176974530902 0 -0.01567216517860805 0.024818620631225124 0 -0.01569449108674674 0.024840356737900374 0 -0.015627992801519285 0.024910594659205358 0 -0.01567216517860805 0.024818620631225124 0 -0.015628059879299442 0.024897674258527916 0 -0.015627992801519285 0.024910594659205358 0 -0.01560111703887772 0.024971843849426075 0 -0.015628059879299442 0.024897674258527916 0 -0.015627992801519285 0.024910594659205358 0 -0.01560111703887772 0.024971843849426075 0 -0.015589961557630141 0.024977712008060465 0 -0.015627992801519285 0.024910594659205358 0 -0.015589961557630141 0.024977712008060465 0 -0.015603449065206916 0.024933375522259296 0 -0.015627992801519285 0.024910594659205358 0 -0.01569449108674674 0.024840356737900374 0 -0.015627992801519285 0.024910594659205358 0 -0.015641715534082359 0.024889027510763679 0 -0.015603449065206916 0.024933375522259296 0 -0.015627992801519285 0.024910594659205358 0 -0.015641715534082359 0.024889027510763679 0 -0.015603449065206916 0.024933375522259296 0 -0.015641715534082359 0.024889027510763679 0 -0.015603840355745165 0.024906219513775873 0 -0.015681309244272731 0.024846454406615155 0 -0.015641715534082359 0.024889027510763679 0 -0.015603840355745165 0.024906219513775873 0 -0.015681309244272731 0.024846454406615155 0 -0.01569449108674674 0.024840356737900374 0 -0.015641715534082359 0.024889027510763679 0 -0.015603449065206916 0.024933375522259296 0 -0.015603840355745165 0.024906219513775873 0 -0.015558554899649741 0.024973541774306104 0 -0.015603840355745165 0.024906219513775873 0 -0.015558554899649741 0.024973541774306104 0 -0.015554412786219544 0.024938687880933209 0 -0.015589961557630141 0.024977712008060465 0 -0.015603449065206916 0.024933375522259296 0 -0.015558554899649741 0.024973541774306104 0 -0.015558554899649741 0.024973541774306104 0 -0.015526132350880312 0.025005066865736947 0 -0.015505945952918548 0.024976036999283403 0 -0.015558554899649741 0.024973541774306104 0 -0.015526132350880312 0.025005066865736947 0 -0.015563167599947901 0.025029860496082811 0 -0.015558554899649741 0.024973541774306104 0 -0.015554412786219544 0.024938687880933209 0 -0.015505945952918548 0.024976036999283403 0 -0.015496174592412391 0.024956369772034689 0 -0.015554412786219544 0.024938687880933209 0 -0.015505945952918548 0.024976036999283403 0 -0.015568601089784528 0.024906796087715379 0 -0.015496174592412391 0.024956369772034689 0 -0.015554412786219544 0.024938687880933209 0 -0.015568601089784528 0.024906796087715379 0 -0.015603840355745165 0.024906219513775873 0 -0.015554412786219544 0.024938687880933209 0 -0.015594118030868815 0.025041567586919635 0 -0.015618761225625883 0.025085473633067696 0 -0.015634275712217656 0.025110176974530902 0 -0.015594118030868815 0.025041567586919635 0 -0.015563167599947901 0.025029860496082811 0 -0.015618761225625883 0.025085473633067696 0 -0.015594118030868815 0.025041567586919635 0 -0.015589961557630141 0.024977712008060465 0 -0.015563167599947901 0.025029860496082811 0 -0.015589961557630141 0.024977712008060465 0 -0.015558554899649741 0.024973541774306104 0 -0.015563167599947901 0.025029860496082811 0 -0.015593434958502336 0.025041074830593282 0 -0.015540289599472137 0.02502174855006465 0 -0.015563167599947901 0.025029860496082811 0 -0.015540289599472137 0.02502174855006465 0 -0.015526132350880312 0.025005066865736947 0 -0.015563167599947901 0.025029860496082811 0 -0.015593434958502336 0.025041074830593282 0 -0.015563167599947901 0.025029860496082811 0 -0.015618761225625883 0.025085473633067696 0 -0.015692736866296422 0.025078494327854473 0 -0.015618761225625883 0.025085473633067696 0 -0.015699933081882386 0.025162726461338141 0 -0.015593434958502336 0.025041074830593282 0 -0.015692736866296422 0.025078494327854473 0 -0.015618761225625883 0.025085473633067696 0 -0.015618761225625883 0.025085473633067696 0 -0.015699933081882386 0.025162726461338141 0 -0.015634275712217656 0.025110176974530902 0 -0.015699933081882386 0.025162726461338141 0 -0.015825161882010004 0.025283185668007409 0 -0.01570078304034643 0.02519301985138318 0 -0.015692736866296422 0.025078494327854473 0 -0.015699933081882386 0.025162726461338141 0 -0.015791720927547621 0.025188668608575833 0 -0.015791720927547621 0.025188668608575833 0 -0.015978299218362014 0.025283329839463936 0 -0.015825161882010004 0.025283185668007409 0 -0.016089507283993738 0.025467456495805799 0 -0.015978299218362014 0.025283329839463936 0 -0.015825161882010004 0.025283185668007409 0 -0.015699933081882386 0.025162726461338141 0 -0.015791720927547621 0.025188668608575833 0 -0.015825161882010004 0.025283185668007409 0 -0.015825161882010004 0.025283185668007409 0 -0.015782399741870682 0.025283113058494577 0 -0.01570078304034643 0.02519301985138318 0 -0.016089507283993738 0.025467456495805799 0 -0.015825161882010004 0.025283185668007409 0 -0.015927370573031646 0.025385704867359769 0 -0.015825161882010004 0.025283185668007409 0 -0.015927370573031646 0.025385704867359769 0 -0.015782399741870682 0.025283113058494577 0 -0.016086448259245083 0.025501681149861809 0 -0.015927370573031646 0.025385704867359769 0 -0.015885066429207118 0.025373714209545768 0 -0.015927370573031646 0.025385704867359769 0 -0.015885066429207118 0.025373714209545768 0 -0.015782399741870682 0.025283113058494577 0 -0.015720186560100158 0.025240594689134376 0 -0.015782399741870682 0.025283113058494577 0 -0.015677999654294849 0.025180313134576984 0 -0.015782399741870682 0.025283113058494577 0 -0.015677999654294849 0.025180313134576984 0 -0.01570078304034643 0.02519301985138318 0 -0.015720186560100158 0.025240594689134376 0 -0.015885066429207118 0.025373714209545768 0 -0.015782399741870682 0.025283113058494577 0 -0.015677999654294849 0.025180313134576984 0 -0.015631101927982845 0.025102155163344478 0 -0.01570078304034643 0.02519301985138318 0 -0.015614180680416569 0.025065585644287458 0 -0.015677999654294849 0.025180313134576984 0 -0.015631101927982845 0.025102155163344478 0 -0.015614180680416569 0.025065585644287458 0 -0.015595821626886107 0.024992180241641054 0 -0.015631101927982845 0.025102155163344478 0 -0.015595821626886107 0.024992180241641054 0 -0.015603705134206676 0.025032129335220726 0 -0.015631101927982845 0.025102155163344478 0 -0.015603705134206676 0.025032129335220726 0 -0.015631101927982845 0.025102155163344478 0 -0.015634275712217656 0.025110176974530902 0 -0.015631101927982845 0.025102155163344478 0 -0.015634275712217656 0.025110176974530902 0 -0.01570078304034643 0.02519301985138318 0 -0.015699933081882386 0.025162726461338141 0 -0.015634275712217656 0.025110176974530902 0 -0.01570078304034643 0.02519301985138318 0 -0.024999602788234872 0.022449659349057509 0 -0.025030009737732055 0.022383411875196171 0 -0.024999646992756738 0.021713735768004085 0 -0.024999677542327469 0.022452397006891854 0 -0.024647853230668898 0.023023841146100812 0 -0.025030009737732055 0.022383411875196171 0 -0.024869631266937652 0.022079218280242188 0 -0.024999646992756738 0.021713735768004085 0 -0.025030009737732055 0.022383411875196171 0 -0.02500255234393798 0.022482947212584311 0 -0.024869631266937652 0.022079218280242188 0 -0.024425608763074775 0.023731708821158052 0 -0.024292678886283281 0.024321801220651869 0 -0.023913895138676387 0.024281828943728268 0 -0.024998181809567192 0.022457680443937564 0 -0.024425608763074775 0.023731708821158052 0 -0.024292678886283281 0.024321801220651869 0 -0.024998926984838316 0.02499789272269452 0 -0.024292678886283281 0.024321801220651869 0 -0.022595146394347575 0.024999391761492445 0 -0.024998181809567192 0.022457680443937564 0 -0.024998926984838316 0.02499789272269452 0 -0.024292678886283281 0.024321801220651869 0 -0.024292678886283281 0.024321801220651869 0 -0.023740943205556381 0.024253425270268941 0 -0.023913895138676387 0.024281828943728268 0 -0.024113497394480377 0.024419110949770728 0 -0.023370014999995609 0.024605159352713592 0 -0.024292678886283281 0.024321801220651869 0 -0.023053898305768334 0.024998286501811552 0 -0.022595146394347575 0.024999391761492445 0 -0.023740943205556381 0.024253425270268941 0 -0.023612289892398053 0.024403449232083083 0 -0.023913895138676387 0.024281828943728268 0 -0.023370014999995609 0.024605159352713592 0 -0.02238524661118256 0.024922582113546483 0 -0.023053898305768334 0.024998286501811552 0 -0.022595146394347575 0.024999391761492445 0 -0.02193662259564191 0.025324996448723738 0 -0.023740943205556381 0.024253425270268941 0 -0.023268563406224917 0.024571394636189427 0 -0.022790901039852016 0.024486246907950988 0 -0.023740943205556381 0.024253425270268941 0 -0.023268563406224917 0.024571394636189427 0 -0.023612289892398053 0.024403449232083083 0 -0.023268563406224917 0.024571394636189427 0 -0.023612289892398053 0.024403449232083083 0 -0.023479652133624178 0.024467473543446059 0 -0.023767297875547152 0.024174082142770371 0 -0.023783010634657879 0.024156007901218874 0 -0.024300911601036135 0.02345486360281681 0 -0.023479652133624178 0.024467473543446059 0 -0.023767297875547152 0.024174082142770371 0 -0.023763815920232915 0.024201294910810713 0 -0.023767297875547152 0.024174082142770371 0 -0.024300911601036135 0.02345486360281681 0 -0.023763815920232915 0.024201294910810713 0 -0.023612289892398053 0.024403449232083083 0 -0.023479652133624178 0.024467473543446059 0 -0.023767297875547152 0.024174082142770371 0 -0.023612289892398053 0.024403449232083083 0 -0.023767297875547152 0.024174082142770371 0 -0.023913895138676387 0.024281828943728268 0 -0.024425608763074775 0.023731708821158052 0 -0.023913895138676387 0.024281828943728268 0 -0.023783010634657879 0.024156007901218874 0 -0.023767297875547152 0.024174082142770371 0 -0.023913895138676387 0.024281828943728268 0 -0.023783010634657879 0.024156007901218874 0 -0.025030009737732055 0.022383411875196171 0 -0.024879197083781765 0.02263759073143741 0 -0.02500255234393798 0.022482947212584311 0 -0.024647853230668898 0.023023841146100812 0 -0.024397667317036149 0.023365324117656287 0 -0.024879197083781765 0.02263759073143741 0 -0.024746262693154327 0.022891689158703554 0 -0.02500255234393798 0.022482947212584311 0 -0.024397667317036149 0.023365324117656287 0 -0.024406039185997618 0.023449380678407183 0 -0.024879197083781765 0.02263759073143741 0 -0.024746262693154327 0.022891689158703554 0 -0.024300911601036135 0.02345486360281681 0 -0.023332712634351015 0.025418494411488111 0 -0.021491140138322391 0.024274130522137758 0 -0.021199922815017747 0.027360182742543281 0 -0.021949351429510225 0.026764900304620535 0 -0.021910810304338439 0.028328631537793678 0 -0.024746262693154327 0.022891689158703554 0 -0.024300911601036135 0.02345486360281681 0 -0.024814605489851954 0.022799272339104251 0 -0.024300911601036135 0.02345486360281681 0 -0.024512315689015695 0.023641903993265857 0 -0.024814605489851954 0.022799272339104251 0 -0.021199922815017747 0.027360182742543281 0 -0.021161996163207686 0.026597356822902631 0 -0.021949351429510225 0.026764900304620535 0 -0.021199922815017747 0.027360182742543281 0 -0.020433229985899869 0.026900493651454652 0 -0.019752374913011961 0.027937523409833829 0 -0.021199922815017747 0.027360182742543281 0 -0.020433229985899869 0.026900493651454652 0 -0.021161996163207686 0.026597356822902631 0 -0.020433229985899869 0.026900493651454652 0 -0.021161996163207686 0.026597356822902631 0 -0.020054740186171399 0.026025101566494235 0 -0.021161996163207686 0.026597356822902631 0 -0.021282082295865441 0.025918558249347034 0 -0.020054740186171399 0.026025101566494235 0 -0.023332712634351015 0.025418494411488111 0 -0.022640869577878867 0.024756752103012702 0 -0.021282082295865441 0.025918558249347034 0 -0.021949351429510225 0.026764900304620535 0 -0.022508980185753886 0.025020753608491916 0 -0.024512315689015695 0.023641903993265857 0 -0.023763815920232915 0.024201294910810713 0 -0.022508980185753886 0.025020753608491916 0 -0.021161996163207686 0.026597356822902631 0 -0.021282082295865441 0.025918558249347034 0 -0.021949351429510225 0.026764900304620535 0 -0.024300911601036135 0.02345486360281681 0 -0.024512315689015695 0.023641903993265857 0 -0.023763815920232915 0.024201294910810713 0 -0.022595146394347575 0.024999391761492445 0 -0.02193662259564191 0.025324996448723738 0 -0.020865847519897882 0.025000113243291516 0 -0.023268563406224917 0.024571394636189427 0 -0.023479652133624178 0.024467473543446059 0 -0.022508980185753886 0.025020753608491916 0 -0.023479652133624178 0.024467473543446059 0 -0.023763815920232915 0.024201294910810713 0 -0.022508980185753886 0.025020753608491916 0 -0.023268563406224917 0.024571394636189427 0 -0.022508980185753886 0.025020753608491916 0 -0.022790901039852016 0.024486246907950988 0 -0.022508980185753886 0.025020753608491916 0 -0.022790901039852016 0.024486246907950988 0 -0.020867420169443672 0.024997036890887735 0 -0.02238524661118256 0.024922582113546483 0 -0.020866948780659669 0.024999929427686907 0 -0.020867420169443672 0.024997036890887735 0 -0.02086857829203858 0.025364616392465771 0 -0.019823943914139431 0.025296217852179389 0 -0.022508980185753886 0.025020753608491916 0 -0.020867420169443672 0.024997036890887735 0 -0.02086857829203858 0.025364616392465771 0 -0.021282082295865441 0.025918558249347034 0 -0.022508980185753886 0.025020753608491916 0 -0.02086857829203858 0.025364616392465771 0 -0.021282082295865441 0.025918558249347034 0 -0.02086857829203858 0.025364616392465771 0 -0.020054740186171399 0.026025101566494235 0 -0.02086857829203858 0.025364616392465771 0 -0.019823943914139431 0.025296217852179389 0 -0.020054740186171399 0.026025101566494235 0 -0.019823943914139431 0.025296217852179389 0 -0.018928511106805948 0.025705429169455382 0 -0.020054740186171399 0.026025101566494235 0 -0.020867420169443672 0.024997036890887735 0 -0.019823943914139431 0.025296217852179389 0 -0.019393314689011329 0.025000159929734318 0 -0.019823943914139431 0.025296217852179389 0 -0.018749299155132383 0.025322349745817603 0 -0.019393314689011329 0.025000159929734318 0 -0.017921266038157167 0.024999535995678501 0 -0.018749299155132383 0.025322349745817603 0 -0.019393314689011329 0.025000159929734318 0 -0.018020708067821176 0.025701229744266346 0 -0.018928511106805948 0.025705429169455382 0 -0.018191711680272685 0.025987555765316427 0 -0.019823943914139431 0.025296217852179389 0 -0.018749299155132383 0.025322349745817603 0 -0.018928511106805948 0.025705429169455382 0 -0.018020708067821176 0.025701229744266346 0 -0.018749299155132383 0.025322349745817603 0 -0.018928511106805948 0.025705429169455382 0 -0.018191711680272685 0.025987555765316427 0 -0.018626364078842821 0.026212645460739897 0 -0.017833907953482331 0.026272116247563225 0 -0.018928511106805948 0.025705429169455382 0 -0.018191711680272685 0.025987555765316427 0 -0.018626364078842821 0.026212645460739897 0 -0.018928511106805948 0.025705429169455382 0 -0.018626364078842821 0.026212645460739897 0 -0.020054740186171399 0.026025101566494235 0 -0.018626364078842821 0.026212645460739897 0 -0.020054740186171399 0.026025101566494235 0 -0.019513855853004119 0.026641843400696218 0 -0.020433229985899869 0.026900493651454652 0 -0.020054740186171399 0.026025101566494235 0 -0.019513855853004119 0.026641843400696218 0 -0.020433229985899869 0.026900493651454652 0 -0.019513855853004119 0.026641843400696218 0 -0.019752374913011961 0.027937523409833829 0 -0.019513855853004119 0.026641843400696218 0 -0.018584041711320894 0.026693963353946248 0 -0.019752374913011961 0.027937523409833829 0 -0.017032637418674151 0.026345690497027816 0 -0.017833907953482331 0.026272116247563225 0 -0.018584041711320894 0.026693963353946248 0 -0.017032637418674151 0.026345690497027816 0 -0.018584041711320894 0.026693963353946248 0 -0.019752374913011961 0.027937523409833829 0 -0.017452472843426721 0.026348244385954213 0 -0.016603199572353705 0.026955051238267306 0 -0.018626364078842821 0.026212645460739897 0 -0.017833907953482331 0.026272116247563225 0 -0.018584041711320894 0.026693963353946248 0 -0.018626364078842821 0.026212645460739897 0 -0.019513855853004119 0.026641843400696218 0 -0.018584041711320894 0.026693963353946248 0 -0.017032637418674151 0.026345690497027816 0 -0.015956205416967968 0.025194883773555384 0 -0.014966224431775305 0.025426691216345148 0 -0.016388127425413089 0.024956840058200556 0 -0.015956205416967968 0.025194883773555384 0 -0.015881047964717732 0.02443920059131037 0 -0.016997169662654629 0.025931274225444615 0 -0.016388127425413089 0.024956840058200556 0 -0.015956205416967968 0.025194883773555384 0 -0.014966224431775305 0.025426691216345148 0 -0.015199701384828889 0.024376151002894419 0 -0.014539988985733816 0.024675587353491547 0 -0.015956205416967968 0.025194883773555384 0 -0.014966224431775305 0.025426691216345148 0 -0.015199701384828889 0.024376151002894419 0 -0.015956205416967968 0.025194883773555384 0 -0.015199701384828889 0.024376151002894419 0 -0.015881047964717732 0.02443920059131037 0 -0.015199701384828889 0.024376151002894419 0 -0.015881047964717732 0.02443920059131037 0 -0.015759633352695004 0.023864259437401052 0 -0.016388127425413089 0.024956840058200556 0 -0.01613540889147878 0.024123193827074434 0 -0.015881047964717732 0.02443920059131037 0 -0.01613540889147878 0.024123193827074434 0 -0.015881047964717732 0.02443920059131037 0 -0.015759633352695004 0.023864259437401052 0 -0.015759633352695004 0.023864259437401052 0 -0.015840249644479866 0.023355699117076717 0 -0.014989947823941486 0.023463866973217947 0 -0.01500555416821746 0.02262522603173223 0 -0.01292438466808684 0.022982711781717964 0 -0.013220624244351262 0.021980380981576252 0 -0.013121458843488122 0.021669714779910851 0 -0.01337453614204776 0.021631954575722895 0 -0.013654440990686068 0.022007301701745759 0 -0.013220624244351262 0.021980380981576252 0 -0.01337453614204776 0.021631954575722895 0 -0.015199701384828889 0.024376151002894419 0 -0.014989947823941486 0.023463866973217947 0 -0.014559916211222814 0.024128968264052478 0 -0.015199701384828889 0.024376151002894419 0 -0.015759633352695004 0.023864259437401052 0 -0.014989947823941486 0.023463866973217947 0 -0.014989947823941486 0.023463866973217947 0 -0.014043027233612252 0.023692344220418233 0 -0.014559916211222814 0.024128968264052478 0 -0.01292438466808684 0.022982711781717964 0 -0.018829504859408194 0.021872085541018538 0 -0.013220624244351262 0.021980380981576252 0 -0.012987254832966852 0.021846267715260246 0 -0.013121458843488122 0.021669714779910851 0 -0.013220624244351262 0.021980380981576252 0 -0.012987254832966852 0.021846267715260246 0 -0.012859113015848536 0.022049924839672885 0 -0.018829504859408194 0.021872085541018538 0 -0.019803455382633898 0.020561019517936419 0 -0.026448090442421305 0.019939976729493526 0 -0.026539200924816278 0.020223734641766446 0 -0.026597677092782445 0.019731242684517161 0 -0.026539200924816278 0.020223734641766446 0 -0.026759033901259041 0.020566879513456999 0 -0.026597677092782445 0.019731242684517161 0 -0.012987254832966852 0.021846267715260246 0 -0.012859113015848536 0.022049924839672885 0 -0.012793151227701393 0.021608245491885145 0 -0.026862590635036342 0.02065557078466301 0 -0.02682953423682612 0.021697641783265421 0 -0.026403639688895343 0.020760708898930395 0 -0.018829504859408194 0.021872085541018538 0 -0.020434248554073452 0.023033192247620373 0 -0.018829504859408194 0.021872085541018538 0 -0.026798461263156253 0.020322041052575509 0 -0.026539200924816278 0.020223734641766446 0 -0.026759033901259041 0.020566879513456999 0 -0.026403639688895343 0.020760708898930395 0 -0.014043027233612252 0.023692344220418233 0 -0.01402901087944501 0.024383935180353599 0 -0.014559916211222814 0.024128968264052478 0 -0.020434248554073452 0.023033192247620373 0 -0.021491140138322391 0.024274130522137758 0 -0.02682953423682612 0.021697641783265421 0 -0.026772979742969195 0.02284256209878098 0 -0.025957150170150853 0.021566311923154422 0 -0.02682953423682612 0.021697641783265421 0 -0.025957150170150853 0.021566311923154422 0 -0.026403639688895343 0.020760708898930395 0 -0.01402901087944501 0.024383935180353599 0 -0.014539988985733816 0.024675587353491547 0 -0.014042137050347859 0.025042067802836798 0 -0.015199701384828889 0.024376151002894419 0 -0.014559916211222814 0.024128968264052478 0 -0.014539988985733816 0.024675587353491547 0 -0.01402901087944501 0.024383935180353599 0 -0.014559916211222814 0.024128968264052478 0 -0.014539988985733816 0.024675587353491547 0 -0.014966224431775305 0.025426691216345148 0 -0.014539988985733816 0.024675587353491547 0 -0.014042137050347859 0.025042067802836798 0 -0.021199922815017747 0.027360182742543281 0 -0.019752374913011961 0.027937523409833829 0 -0.021910810304338439 0.028328631537793678 0 -0.016603199572353705 0.026955051238267306 0 -0.021491140138322391 0.024274130522137758 0 -0.021491140138322391 0.024274130522137758 0 -0.02679620463030508 0.022507764348731106 0 -0.024746262693154327 0.022891689158703554 0 -0.024814605489851954 0.022799272339104251 0 -0.025174808303669458 0.022518721883581078 0 -0.026772979742969195 0.02284256209878098 0 -0.025174808303669458 0.022518721883581078 0 -0.025957150170150853 0.021566311923154422 0 -0.024746262693154327 0.022891689158703554 0 -0.025174808303669458 0.022518721883581078 0 -0.02500255234393798 0.022482947212584311 0 -0.025174808303669458 0.022518721883581078 0 -0.02500255234393798 0.022482947212584311 0 -0.024919203251479213 0.021990272014903948 0 -0.025174808303669458 0.022518721883581078 0 -0.025363462516209884 0.02145243523085192 0 -0.024919203251479213 0.021990272014903948 0 -0.025174808303669458 0.022518721883581078 0 -0.025363462516209884 0.02145243523085192 0 -0.025957150170150853 0.021566311923154422 0 -0.025957150170150853 0.021566311923154422 0 -0.025818846168146982 0.020869970719764083 0 -0.026403639688895343 0.020760708898930395 0 -0.025363462516209884 0.02145243523085192 0 -0.025957150170150853 0.021566311923154422 0 -0.025818846168146982 0.020869970719764083 0 -0.025818846168146982 0.020869970719764083 0 -0.026403639688895343 0.020760708898930395 0 -0.026381386080555007 0.020109864102201013 0 -0.026539200924816278 0.020223734641766446 0 -0.026403639688895343 0.020760708898930395 0 -0.026381386080555007 0.020109864102201013 0 -0.026448090442421305 0.019939976729493526 0 -0.026539200924816278 0.020223734641766446 0 -0.026381386080555007 0.020109864102201013 0 -0.026381386080555007 0.020109864102201013 0 -0.024770839982429287 0.020606547659693563 0 -0.02601765671622602 0.018753077836612505 0 -0.025421632493157501 0.020000739655091592 0 -0.025978086400900938 0.018853925286243897 0 -0.025818846168146982 0.020869970719764083 0 -0.026381386080555007 0.020109864102201013 0 -0.024770839982429287 0.020606547659693563 0 -0.025363462516209884 0.02145243523085192 0 -0.025818846168146982 0.020869970719764083 0 -0.024770839982429287 0.020606547659693563 0 -0.025363462516209884 0.02145243523085192 0 -0.024770839982429287 0.020606547659693563 0 -0.024919203251479213 0.021990272014903948 0 -0.026016375307842732 0.019397112256044718 0 -0.025451198152004334 0.019754007487830301 0 -0.025630852912986644 0.020560373723586288 0 -0.025421632493157501 0.020000739655091592 0 -0.025106528379576585 0.021155468195320694 0 -0.026016375307842732 0.019397112256044718 0 -0.024999963888488765 0.018999795711121623 0 -0.025665307168100948 0.018227184479213013 0 -0.026016375307842732 0.019397112256044718 0 -0.024999963888488765 0.018999795711121623 0 -0.025451198152004334 0.019754007487830301 0 -0.024999963888488765 0.018999795711121623 0 -0.025451198152004334 0.019754007487830301 0 -0.024999831334246301 0.020355061760689411 0 -0.025451198152004334 0.019754007487830301 0 -0.024999831334246301 0.020355061760689411 0 -0.025630852912986644 0.020560373723586288 0 -0.024999831334246301 0.020355061760689411 0 -0.025630852912986644 0.020560373723586288 0 -0.025000061710264917 0.021710631541914518 0 -0.024589698159216758 0.021819423789108838 0 -0.024919203251479213 0.021990272014903948 0 -0.024869631266937652 0.022079218280242188 0 -0.024770839982429287 0.020606547659693563 0 -0.024589698159216758 0.021819423789108838 0 -0.024919203251479213 0.021990272014903948 0 -0.02500255234393798 0.022482947212584311 0 -0.024919203251479213 0.021990272014903948 0 -0.024869631266937652 0.022079218280242188 0 -0.025106528379576585 0.021155468195320694 0 -0.025000002552343203 0.021710505579576277 0 -0.024589698159216758 0.021819423789108838 0 -0.024869631266937652 0.022079218280242188 0 -0.024999646992756738 0.021713735768004085 0 -0.024981330847639739 0.016280457969007612 0 -0.025202295045538382 0.015938501540729996 0 -0.024999851774046636 0.015453820466504113 0 -0.025202295045538382 0.015938501540729996 0 -0.025859715652507137 0.015749880881597726 0 -0.024999851774046636 0.015453820466504113 0 -0.024981330847639739 0.016280457969007612 0 -0.025202295045538382 0.015938501540729996 0 -0.025859715652507137 0.015749880881597726 0 -0.024603452170415162 0.01646286910294684 0 -0.025541296169341463 0.015900400350877621 0 -0.024037071229918276 0.016565647315771991 0 -0.025150611222326279 0.016640247667386095 0 -0.025244511288353044 0.016039881018420288 0 -0.025150611222326279 0.016640247667386095 0 -0.025244511288353044 0.016039881018420288 0 -0.026053810246390294 0.01665541207914379 0 -0.025150611222326279 0.016640247667386095 0 -0.025274327318349447 0.017300262227680763 0 -0.026053810246390294 0.01665541207914379 0 -0.024037071229918276 0.016565647315771991 0 -0.025150611222326279 0.016640247667386095 0 -0.025274327318349447 0.017300262227680763 0 -0.024603452170415162 0.01646286910294684 0 -0.0255200795911508 0.017291602082424501 0 -0.024981318522655494 0.016281440989650002 0 -0.025829945124215013 0.017318278323437897 0 -0.02528575569617476 0.01708184326916665 0 -0.024981318522655494 0.016281440989650002 0 -0.02528575569617476 0.01708184326916665 0 -0.024999665248077462 0.017644814499986398 0 -0.02528575569617476 0.01708184326916665 0 -0.024999665248077462 0.017644814499986398 0 -0.025665307168100948 0.018227184479213013 0 -0.024999963888488765 0.018999795711121623 0 -0.024999665248077462 0.017644814499986398 0 -0.025665307168100948 0.018227184479213013 0 -0.026016375307842732 0.019397112256044718 0 -0.025665307168100948 0.018227184479213013 0 -0.02601765671622602 0.018753077836612505 0 -0.025829945124215013 0.017318278323437897 0 -0.02528575569617476 0.01708184326916665 0 -0.025665307168100948 0.018227184479213013 0 -0.025829945124215013 0.017318278323437897 0 -0.025665307168100948 0.018227184479213013 0 -0.025981399624578481 0.018100135872627408 0 -0.0255200795911508 0.017291602082424501 0 -0.026455799906520989 0.018011656482376175 0 -0.025274327318349447 0.017300262227680763 0 -0.026487821524268346 0.01806341297457285 0 -0.026167300933366323 0.017324215380750942 0 -0.025829945124215013 0.017318278323437897 0 -0.025981399624578481 0.018100135872627408 0 -0.026487821524268346 0.01806341297457285 0 -0.025665307168100948 0.018227184479213013 0 -0.025981399624578481 0.018100135872627408 0 -0.02601765671622602 0.018753077836612505 0 -0.025981399624578481 0.018100135872627408 0 -0.02601765671622602 0.018753077836612505 0 -0.026487821524268346 0.01806341297457285 0 -0.026381386080555007 0.020109864102201013 0 -0.02601765671622602 0.018753077836612505 0 -0.026789923296537881 0.018452595208582799 0 -0.026405132398325169 0.019986278920924073 0 -0.026466998450502818 0.019015297208902021 0 -0.026448090442421305 0.019939976729493526 0 -0.026381386080555007 0.020109864102201013 0 -0.026176591659797858 0.019556500964075865 0 -0.02601765671622602 0.018753077836612505 0 -0.026789923296537881 0.018452595208582799 0 -0.026487821524268346 0.01806341297457285 0 -0.026176591659797858 0.019556500964075865 0 -0.026040235088975135 0.018945634894726487 0 -0.026434910211740617 0.019077446299809907 0 -0.026466998450502818 0.019015297208902021 0 -0.02644982987530483 0.018061301542211607 0 -0.026789923296537881 0.018452595208582799 0 -0.026487821524268346 0.01806341297457285 0 -0.026863560576131606 0.017274165837976325 0 -0.026487821524268346 0.01806341297457285 0 -0.026863560576131606 0.017274165837976325 0 -0.026167300933366323 0.017324215380750942 0 -0.025274327318349447 0.017300262227680763 0 -0.026167300933366323 0.017324215380750942 0 -0.026053810246390294 0.01665541207914379 0 -0.026863560576131606 0.017274165837976325 0 -0.026167300933366323 0.017324215380750942 0 -0.026053810246390294 0.01665541207914379 0 -0.025244511288353044 0.016039881018420288 0 -0.026053810246390294 0.01665541207914379 0 -0.02630202157174558 0.016081465820675631 0 -0.02644982987530483 0.018061301542211607 0 -0.026478054209948108 0.017344498458690641 0 -0.02630202157174558 0.016081465820675631 0 -0.026899526857409192 0.016045601587189224 0 -0.026511962501181971 0.015506875437102587 0 -0.026863560576131606 0.017274165837976325 0 -0.026053810246390294 0.01665541207914379 0 -0.026899526857409192 0.016045601587189224 0 -0.026040235088975135 0.018945634894726487 0 -0.025951688621558517 0.018312362967340175 0 -0.026163374616360213 0.01864949467662563 0 -0.026053810246390294 0.01665541207914379 0 -0.02630202157174558 0.016081465820675631 0 -0.026899526857409192 0.016045601587189224 0 -0.025951688621558517 0.018312362967340175 0 -0.026331798780931434 0.018374019896446051 0 -0.026163374616360213 0.01864949467662563 0 -0.025951688621558517 0.018312362967340175 0 -0.026331798780931434 0.018374019896446051 0 -0.026118257259473077 0.018007507376286234 0 -0.013074476464349574 0.020485146323361424 0 -0.013388265323659738 0.020254317781949988 0 -0.01305331055621997 0.020246757121889853 0 -0.012778409699349749 0.020439138866408715 0 -0.013074476464349574 0.020485146323361424 0 -0.012952295359225319 0.02074733684627118 0 -0.012778409699349749 0.020439138866408715 0 -0.013074476464349574 0.020485146323361424 0 -0.01305331055621997 0.020246757121889853 0 -0.013074476464349574 0.020485146323361424 0 -0.012952295359225319 0.02074733684627118 0 -0.013192952763745196 0.020732908388893384 0 -0.012952295359225319 0.02074733684627118 0 -0.013044835125349978 0.02101598912770879 0 -0.012747517745441016 0.02104037764672154 0 -0.012952295359225319 0.02074733684627118 0 -0.013044835125349978 0.02101598912770879 0 -0.013192952763745196 0.020732908388893384 0 -0.026331798780931434 0.018374019896446051 0 -0.026434910211740617 0.019077446299809907 0 -0.026163374616360213 0.01864949467662563 0 -0.012778409699349749 0.020439138866408715 0 -0.012952295359225319 0.02074733684627118 0 -0.012747517745441016 0.02104037764672154 0 -0.019418873997325066 0.019584564675994509 0 -0.01960065025944643 0.020052010838948021 0 -0.026040235088975135 0.018945634894726487 0 -0.026434910211740617 0.019077446299809907 0 -0.026163374616360213 0.01864949467662563 0 -0.012747517745441016 0.02104037764672154 0 -0.012793151227701393 0.021608245491885145 0 -0.013072838108659246 0.021348306040848378 0 -0.01960065025944643 0.020052010838948021 0 -0.019803455382633898 0.020561019517936419 0 -0.026176591659797858 0.019556500964075865 0 -0.026434910211740617 0.019077446299809907 0 -0.026597677092782445 0.019731242684517161 0 -0.026448090442421305 0.019939976729493526 0 -0.026176591659797858 0.019556500964075865 0 -0.026597677092782445 0.019731242684517161 0 -0.012987254832966852 0.021846267715260246 0 -0.012793151227701393 0.021608245491885145 0 -0.013121458843488122 0.021669714779910851 0 -0.012793151227701393 0.021608245491885145 0 -0.013121458843488122 0.021669714779910851 0 -0.013072838108659246 0.021348306040848378 0 -0.013044835125349978 0.02101598912770879 0 -0.013072838108659246 0.021348306040848378 0 -0.013380007761589622 0.021128372919594653 0 -0.013044835125349978 0.02101598912770879 0 -0.012747517745441016 0.02104037764672154 0 -0.013072838108659246 0.021348306040848378 0 -0.013072838108659246 0.021348306040848378 0 -0.013380007761589622 0.021128372919594653 0 -0.01337453614204776 0.021631954575722895 0 -0.013121458843488122 0.021669714779910851 0 -0.013072838108659246 0.021348306040848378 0 -0.01337453614204776 0.021631954575722895 0 -0.013654440990686068 0.022007301701745759 0 -0.01337453614204776 0.021631954575722895 0 -0.013780179108988079 0.021453570667689922 0 -0.013380007761589622 0.021128372919594653 0 -0.013686677790910446 0.020924175555234945 0 -0.013780179108988079 0.021453570667689922 0 -0.013380007761589622 0.021128372919594653 0 -0.01337453614204776 0.021631954575722895 0 -0.013780179108988079 0.021453570667689922 0 -0.013380007761589622 0.021128372919594653 0 -0.013686677790910446 0.020924175555234945 0 -0.013518905545736832 0.020626112379058478 0 -0.013044835125349978 0.02101598912770879 0 -0.013380007761589622 0.021128372919594653 0 -0.013192952763745196 0.020732908388893384 0 -0.013380007761589622 0.021128372919594653 0 -0.013192952763745196 0.020732908388893384 0 -0.013518905545736832 0.020626112379058478 0 -0.013192952763745196 0.020732908388893384 0 -0.013518905545736832 0.020626112379058478 0 -0.013388265323659738 0.020254317781949988 0 -0.013074476464349574 0.020485146323361424 0 -0.013192952763745196 0.020732908388893384 0 -0.013388265323659738 0.020254317781949988 0 -0.013518905545736832 0.020626112379058478 0 -0.013668083041454589 0.020203617702034677 0 -0.013388265323659738 0.020254317781949988 0 -0.013686677790910446 0.020924175555234945 0 -0.013518905545736832 0.020626112379058478 0 -0.013841687750044632 0.02042421626089843 0 -0.013518905545736832 0.020626112379058478 0 -0.013668083041454589 0.020203617702034677 0 -0.013841687750044632 0.02042421626089843 0 -0.013668083041454589 0.020203617702034677 0 -0.013694408909983852 0.019842408369410373 0 -0.014148473311467968 0.019856879881899638 0 -0.013668083041454589 0.020203617702034677 0 -0.013388265323659738 0.020254317781949988 0 -0.013694408909983852 0.019842408369410373 0 -0.01270410149675923 0.020968941988536997 0 -0.015839676305531149 0.016890837359233857 0 -0.013388265323659738 0.020254317781949988 0 -0.013306620107869743 0.019756839144399151 0 -0.013694408909983852 0.019842408369410373 0 -0.013388265323659738 0.020254317781949988 0 -0.013306620107869743 0.019756839144399151 0 -0.013037617630322433 0.019751440450866423 0 -0.019994241143599163 0.012527306272683657 0 -0.01872290881072243 0.013381773361261711 0 -0.024626480107120013 0.007097018743162594 0 -0.02446333286074466 0.0073186309512422538 0 -0.02409173008712431 0.0068846098560426264 0 -0.024626480107120013 0.007097018743162594 0 -0.024738833830765888 0.0071084350150316493 0 -0.02409173008712431 0.0068846098560426264 0 -0.021793890618006399 0.011847052954670739 0 -0.019994241143599163 0.012527306272683657 0 -0.024710476044049006 0.0072861368718087592 0 -0.024732674019472975 0.00750593794321632 0 -0.024990787954054093 0.0073812103059898047 0 -0.024740334835059833 0.0071035610255072478 0 -0.024710476044049006 0.0072861368718087592 0 -0.024990787954054093 0.0073812103059898047 0 -0.024626480107120013 0.007097018743162594 0 -0.024740334835059833 0.0071035610255072478 0 -0.024710476044049006 0.0072861368718087592 0 -0.024710476044049006 0.0072861368718087592 0 -0.02446333286074466 0.0073186309512422538 0 -0.024732674019472975 0.00750593794321632 0 -0.024626480107120013 0.007097018743162594 0 -0.024710476044049006 0.0072861368718087592 0 -0.02446333286074466 0.0073186309512422538 0 -0.02446333286074466 0.0073186309512422538 0 -0.02409173008712431 0.0068846098560426264 0 -0.024179469599474483 0.0075332523021413118 0 -0.02409173008712431 0.0068846098560426264 0 -0.024179469599474483 0.0075332523021413118 0 -0.023541347582058701 0.0072599446607401197 0 -0.02446333286074466 0.0073186309512422538 0 -0.024179469599474483 0.0075332523021413118 0 -0.024549924563830556 0.007698983690239458 0 -0.024179469599474483 0.0075332523021413118 0 -0.024389058471460043 0.0080003836408773215 0 -0.024549924563830556 0.007698983690239458 0 -0.024179469599474483 0.0075332523021413118 0 -0.024389058471460043 0.0080003836408773215 0 -0.023917478200955373 0.0079350120614997046 0 -0.024389058471460043 0.0080003836408773215 0 -0.023917478200955373 0.0079350120614997046 0 -0.024262101073868 0.0084867060005940874 0 -0.024389058471460043 0.0080003836408773215 0 -0.024670055324687974 0.0083428685631165601 0 -0.024262101073868 0.0084867060005940874 0 -0.024670055324687974 0.0083428685631165601 0 -0.025100498443789154 0.0081320196590524488 0 -0.02496289052365781 0.0086354655114607871 0 -0.024670055324687974 0.0083428685631165601 0 -0.024738969950540576 0.0079800744163802464 0 -0.025100498443789154 0.0081320196590524488 0 -0.024389058471460043 0.0080003836408773215 0 -0.024670055324687974 0.0083428685631165601 0 -0.024738969950540576 0.0079800744163802464 0 -0.024389058471460043 0.0080003836408773215 0 -0.024738969950540576 0.0079800744163802464 0 -0.024549924563830556 0.007698983690239458 0 -0.024738969950540576 0.0079800744163802464 0 -0.02488156915920367 0.0077382896928151305 0 -0.025100498443789154 0.0081320196590524488 0 -0.02488156915920367 0.0077382896928151305 0 -0.024549924563830556 0.007698983690239458 0 -0.024732674019472975 0.00750593794321632 0 -0.024738969950540576 0.0079800744163802464 0 -0.02488156915920367 0.0077382896928151305 0 -0.024549924563830556 0.007698983690239458 0 -0.02446333286074466 0.0073186309512422538 0 -0.024549924563830556 0.007698983690239458 0 -0.024732674019472975 0.00750593794321632 0 -0.02488156915920367 0.0077382896928151305 0 -0.024732674019472975 0.00750593794321632 0 -0.024990787954054093 0.0073812103059898047 0 -0.02488156915920367 0.0077382896928151305 0 -0.025173404529625062 0.0077143581612796807 0 -0.024990787954054093 0.0073812103059898047 0 -0.025318256601111082 0.0075278295694204316 0 -0.025173404529625062 0.0077143581612796807 0 -0.024990787954054093 0.0073812103059898047 0 -0.02537148186960636 0.0078880017724753428 0 -0.025173404529625062 0.0077143581612796807 0 -0.025100498443789154 0.0081320196590524488 0 -0.025318256601111082 0.0075278295694204316 0 -0.02537148186960636 0.0078880017724753428 0 -0.025173404529625062 0.0077143581612796807 0 -0.02488156915920367 0.0077382896928151305 0 -0.025173404529625062 0.0077143581612796807 0 -0.025100498443789154 0.0081320196590524488 0 -0.025100498443789154 0.0081320196590524488 0 -0.025597221483534181 0.0081875025978401551 0 -0.025288136739448113 0.008541437194231628 0 -0.02537148186960636 0.0078880017724753428 0 -0.025100498443789154 0.0081320196590524488 0 -0.025597221483534181 0.0081875025978401551 0 -0.025614445428030486 0.0095137413646439427 0 -0.025538947139994352 0.0095873526082283101 0 -0.025551838611916171 0.0094502875607221613 0 -0.025614445428030486 0.0095137413646439427 0 -0.025538947139994352 0.0095873526082283101 0 -0.025560384477423946 0.0096834284375187825 0 -0.0256961992832739 0.0084289695332138755 0 -0.024168443558033128 0.010774531928977501 0 -0.025560384477423946 0.0096834284375187825 0 -0.025516691060654954 0.0097112236919581589 0 -0.025613791420435253 0.0098066544993401072 0 -0.025614445428030486 0.0095137413646439427 0 -0.025560384477423946 0.0096834284375187825 0 -0.025613791420435253 0.0098066544993401072 0 -0.02537148186960636 0.0078880017724753428 0 -0.025597221483534181 0.0081875025978401551 0 -0.025591577416823615 0.0075466186168874645 0 -0.025538947139994352 0.0095873526082283101 0 -0.025560384477423946 0.0096834284375187825 0 -0.025525002529245697 0.009705209562239029 0 -0.025468980831153204 0.011121292124664879 0 -0.025136863318070597 0.011499564731606834 0 -0.025318256601111082 0.0075278295694204316 0 -0.02537148186960636 0.0078880017724753428 0 -0.025591577416823615 0.0075466186168874645 0 -0.023588761256471167 0.013514070662124318 0 -0.024040020888388483 0.013963080362349278 0 -0.023607135954136261 0.013988498392475344 0 -0.025136863318070597 0.011499564731606834 0 -0.024168443558033128 0.010774531928977501 0 -0.024040020888388483 0.013963080362349278 0 -0.023607135954136261 0.013988498392475344 0 -0.024035356686279846 0.014420645500079233 0 -0.022515084164222848 0.014474105311059381 0 -0.023675810494827667 0.014426665029655067 0 -0.023607135954136261 0.013988498392475344 0 -0.024035356686279846 0.014420645500079233 0 -0.023201508179819929 0.014264881836855727 0 -0.023589057053455331 0.01464145593281894 0 -0.024003203795069834 0.014466454722344087 0 -0.023201508179819929 0.014264881836855727 0 -0.023589057053455331 0.01464145593281894 0 -0.024000863152871574 0.014895636533818705 0 -0.024003203795069834 0.014466454722344087 0 -0.023589057053455331 0.01464145593281894 0 -0.024000863152871574 0.014895636533818705 0 -0.023143853606399506 0.01493807933661807 0 -0.020829095849893977 0.018003570212646647 0 -0.025722687914477921 0.015563826865053077 0 -0.026276178715202249 0.01766672390363138 0 -0.026118257259473077 0.018007507376286234 0 -0.025913089236780571 0.017678296316793261 0 -0.020829095849893977 0.018003570212646647 0 -0.015839676305531149 0.016890837359233857 0 -0.012856019418263021 0.019923395007146783 0 -0.013081247250743295 0.019924855722301484 0 -0.012945873640919901 0.020129609644284122 0 -0.023024454410816353 0.012967282375234375 0 -0.023021015472711466 0.012579274210783812 0 -0.022496520960233919 0.01247508576091799 0 -0.022515084164222848 0.014474105311059381 0 -0.021214474341786093 0.013170154283158736 0 -0.021265544631780594 0.015585197480501625 0 -0.021264562263740131 0.016966072347193595 0 -0.019369107127442012 0.016575436851098763 0 -0.024168443558033128 0.010774531928977501 0 -0.021214474341786093 0.013170154283158736 0 -0.025318256601111082 0.0075278295694204316 0 -0.025591577416823615 0.0075466186168874645 0 -0.025295020985844765 0.0072584061200753952 0 -0.020829095849893977 0.018003570212646647 0 -0.022515084164222848 0.014474105311059381 0 -0.024168443558033128 0.010774531928977501 0 -0.022515084164222848 0.014474105311059381 0 -0.024740334835059833 0.0071035610255072478 0 -0.025295020985844765 0.0072584061200753952 0 -0.024990787954054093 0.0073812103059898047 0 -0.025318256601111082 0.0075278295694204316 0 -0.025295020985844765 0.0072584061200753952 0 -0.024990787954054093 0.0073812103059898047 0 -0.019994241143599163 0.012527306272683657 0 -0.021214474341786093 0.013170154283158736 0 -0.01931926923101264 0.013426198127470481 0 -0.019287194907994146 0.013442824286660656 0 -0.019292531643812155 0.013445449246794264 0 -0.019994241143599163 0.012527306272683657 0 -0.015839676305531149 0.016890837359233857 0 -0.021265544631780594 0.015585197480501625 0 -0.019369107127442012 0.016575436851098763 0 -0.018477964184740653 0.015717605076511352 0 -0.021214474341786093 0.013170154283158736 0 -0.015839676305531149 0.016890837359233857 0 -0.013081247250743295 0.019924855722301484 0 -0.01305331055621997 0.020246757121889853 0 -0.012945873640919901 0.020129609644284122 0 -0.013388265323659738 0.020254317781949988 0 -0.013081247250743295 0.019924855722301484 0 -0.01305331055621997 0.020246757121889853 0 -0.019418873997325066 0.019584564675994509 0 -0.020829095849893977 0.018003570212646647 0 -0.012778409699349749 0.020439138866408715 0 -0.012856019418263021 0.019923395007146783 0 -0.012945873640919901 0.020129609644284122 0 -0.026331798780931434 0.018374019896446051 0 -0.026276178715202249 0.01766672390363138 0 -0.026118257259473077 0.018007507376286234 0 -0.012778409699349749 0.020439138866408715 0 -0.01305331055621997 0.020246757121889853 0 -0.012945873640919901 0.020129609644284122 0 -0.026899526857409192 0.016045601587189224 0 -0.026511962501181971 0.015506875437102587 0 -0.026854234730189469 0.015023392080675753 0 -0.025951688621558517 0.018312362967340175 0 -0.026118257259473077 0.018007507376286234 0 -0.025913089236780571 0.017678296316793261 0 -0.026511962501181971 0.015506875437102587 0 -0.026278611625165343 0.01511985236006908 0 -0.026854234730189469 0.015023392080675753 0 -0.026478054209948108 0.017344498458690641 0 -0.025722687914477921 0.015563826865053077 0 -0.025244511288353044 0.016039881018420288 0 -0.02630202157174558 0.016081465820675631 0 -0.026511962501181971 0.015506875437102587 0 -0.025541296169341463 0.015900400350877621 0 -0.026466510881272675 0.015521862951506435 0 -0.025859715652507137 0.015749880881597726 0 -0.026511962501181971 0.015506875437102587 0 -0.026278611625165343 0.01511985236006908 0 -0.026078974999663291 0.014531313093876045 0 -0.026078733223323512 0.014521896788824077 0 -0.026067459569088354 0.014534856254956367 0 -0.026299338660038973 0.014824849173379201 0 -0.026004915635127072 0.014784646278419175 0 -0.026695603307220924 0.014316151413353132 0 -0.026004915635127072 0.014784646278419175 0 -0.026078974999663291 0.014531313093876045 0 -0.026078733223323512 0.014521896788824077 0 -0.026090716648715921 0.014531996195906062 0 -0.023143853606399506 0.01493807933661807 0 -0.023201508179819929 0.014264881836855727 0 -0.023163774325012269 0.013774391718004372 0 -0.025722687914477921 0.015563826865053077 0 -0.025653295437137194 0.013441075869693663 0 -0.026078733223323512 0.014521896788824077 0 -0.026090716648715921 0.014531996195906062 0 -0.026090699297753879 0.014505922479046427 0 -0.026299338660038973 0.014824849173379201 0 -0.025722687914477921 0.015563826865053077 0 -0.023589057053455331 0.01464145593281894 0 -0.023143853606399506 0.01493807933661807 0 -0.023201508179819929 0.014264881836855727 0 -0.023607135954136261 0.013988498392475344 0 -0.023201508179819929 0.014264881836855727 0 -0.023163774325012269 0.013774391718004372 0 -0.026695603307220924 0.014316151413353132 0 -0.025653295437137194 0.013441075869693663 0 -0.023588761256471167 0.013514070662124318 0 -0.023607135954136261 0.013988498392475344 0 -0.023163774325012269 0.013774391718004372 0 -0.027828782307199443 0.0137130347018352 0 -0.027844002809528336 0.013169600166446374 0 -0.027046824248816995 0.013400423396859477 0 -0.025653295437137194 0.013441075869693663 0 -0.026131662386570532 0.01141940136963227 0 -0.026033867816618116 0.012101107881243056 0 -0.025705584059774311 0.012300621504912802 0 -0.0257142094526485 0.0117861092388786 0 -0.025538947139994352 0.0095873526082283101 0 -0.025525002529245697 0.009705209562239029 0 -0.025454742594408417 0.0096149048537098724 0 -0.025136863318070597 0.011499564731606834 0 -0.025653295437137194 0.013441075869693663 0 -0.025136863318070597 0.011499564731606834 0 -0.026131662386570532 0.01141940136963227 0 -0.026131662386570532 0.01141940136963227 0 -0.025654750994406027 0.0097158194243651633 0 -0.025538947139994352 0.0095873526082283101 0 -0.025454742594408417 0.0096149048537098724 0 -0.025551838611916171 0.0094502875607221613 0 -0.026131662386570532 0.01141940136963227 0 -0.0264177830376713 0.011628251119591919 0 -0.027844002809528336 0.013169600166446374 0 -0.027046824248816995 0.013400423396859477 0 -0.02689170738211507 0.012176470716844436 0 -0.027046824248816995 0.013400423396859477 0 -0.02584325443600537 0.012670423990543135 0 -0.02689170738211507 0.012176470716844436 0 -0.026977858551796852 0.014224690429663114 0 -0.027046824248816995 0.013400423396859477 0 -0.026097041433756352 0.013717273150721639 0 -0.026977858551796852 0.014224690429663114 0 -0.027828782307199443 0.0137130347018352 0 -0.027046824248816995 0.013400423396859477 0 -0.027046824248816995 0.013400423396859477 0 -0.026097041433756352 0.013717273150721639 0 -0.02584325443600537 0.012670423990543135 0 -0.02584325443600537 0.012670423990543135 0 -0.024999994267224969 0.013496107971618366 0 -0.024999691418111321 0.012196869598010489 0 -0.026097041433756352 0.013717273150721639 0 -0.02584325443600537 0.012670423990543135 0 -0.024999994267224969 0.013496107971618366 0 -0.026097041433756352 0.013717273150721639 0 -0.024999994267224969 0.013496107971618366 0 -0.025557126741503577 0.014198449479781631 0 -0.025000465976858167 0.014794842666678441 0 -0.026004915635127072 0.014784646278419175 0 -0.025557126741503577 0.014198449479781631 0 -0.024999950274950906 0.01479479124953428 0 -0.026148857540845893 0.014712750110263493 0 -0.024999994267224969 0.013496107971618366 0 -0.025557126741503577 0.014198449479781631 0 -0.024999950274950906 0.01479479124953428 0 -0.026097041433756352 0.013717273150721639 0 -0.025557126741503577 0.014198449479781631 0 -0.026148857540845893 0.014712750110263493 0 -0.026977858551796852 0.014224690429663114 0 -0.026097041433756352 0.013717273150721639 0 -0.026148857540845893 0.014712750110263493 0 -0.025859715652507137 0.015749880881597726 0 -0.02582765093346533 0.015107115725675952 0 -0.024999851774046636 0.015453820466504113 0 -0.025859715652507137 0.015749880881597726 0 -0.026278611625165343 0.01511985236006908 0 -0.02582765093346533 0.015107115725675952 0 -0.024999993360827803 0.014794911442006257 0 -0.026189257214745038 0.01473788410535592 0 -0.025000001819029515 0.015453136693190766 0 -0.026004915635127072 0.014784646278419175 0 -0.02500009432059053 0.015453206596676825 0 -0.015985259664511468 0.020764984850778885 0 -0.015555040075324459 0.020890639134232843 0 -0.015905547823706862 0.021605726444624711 0 -0.015555040075324459 0.020890639134232843 0 -0.014889707802108732 0.020127534707889527 0 -0.015875465186010455 0.019804609810375774 0 -0.015985259664511468 0.020764984850778885 0 -0.015555040075324459 0.020890639134232843 0 -0.015875465186010455 0.019804609810375774 0 -0.015985259664511468 0.020764984850778885 0 -0.015875465186010455 0.019804609810375774 0 -0.01613279790293588 0.019733590693389719 0 -0.015985259664511468 0.020764984850778885 0 -0.016324562514774949 0.020818584022443073 0 -0.01613279790293588 0.019733590693389719 0 -0.017455154336308041 0.019166795866320026 0 -0.016324562514774949 0.020818584022443073 0 -0.01613279790293588 0.019733590693389719 0 -0.016656424115372478 0.021692939119438252 0 -0.016324562514774949 0.020818584022443073 0 -0.016188124117251561 0.021678817138116771 0 -0.015985259664511468 0.020764984850778885 0 -0.016324562514774949 0.020818584022443073 0 -0.016188124117251561 0.021678817138116771 0 -0.015985259664511468 0.020764984850778885 0 -0.016188124117251561 0.021678817138116771 0 -0.015905547823706862 0.021605726444624711 0 -0.016188124117251561 0.021678817138116771 0 -0.016156835693116978 0.022144022125719837 0 -0.015905547823706862 0.021605726444624711 0 -0.01621356516019043 0.023024457337789829 0 -0.016188124117251561 0.021678817138116771 0 -0.016156835693116978 0.022144022125719837 0 -0.016656424115372478 0.021692939119438252 0 -0.01621356516019043 0.023024457337789829 0 -0.016188124117251561 0.021678817138116771 0 -0.01621356516019043 0.023024457337789829 0 -0.015688210062869468 0.024354740431633503 0 -0.01538470616909293 0.024147101551920614 0 -0.01621356516019043 0.023024457337789829 0 -0.016156835693116978 0.022144022125719837 0 -0.016206157419006138 0.022321478316516683 0 -0.016244625884822755 0.023000919741521644 0 -0.015858460144601995 0.023231143437551824 0 -0.016156835693116978 0.022144022125719837 0 -0.016206157419006138 0.022321478316516683 0 -0.016057761784448163 0.02216421326988724 0 -0.016206157419006138 0.022321478316516683 0 -0.016075080271281697 0.022343632735447497 0 -0.016057761784448163 0.02216421326988724 0 -0.016053760558875595 0.02252991499832508 0 -0.016206157419006138 0.022321478316516683 0 -0.016075080271281697 0.022343632735447497 0 -0.016075080271281697 0.022343632735447497 0 -0.015968724285729905 0.02235518321151057 0 -0.016057761784448163 0.02216421326988724 0 -0.016053760558875595 0.02252991499832508 0 -0.016075080271281697 0.022343632735447497 0 -0.015968724285729905 0.02235518321151057 0 -0.015968724285729905 0.02235518321151057 0 -0.016057761784448163 0.02216421326988724 0 -0.015887167925671884 0.022062915128143207 0 -0.016156835693116978 0.022144022125719837 0 -0.016057761784448163 0.02216421326988724 0 -0.015905547823706862 0.021605726444624711 0 -0.016057761784448163 0.02216421326988724 0 -0.015905547823706862 0.021605726444624711 0 -0.015887167925671884 0.022062915128143207 0 -0.015555040075324459 0.020890639134232843 0 -0.015672023519539533 0.021869848606341072 0 -0.015223091317998805 0.021272430147451091 0 -0.015555040075324459 0.020890639134232843 0 -0.015905547823706862 0.021605726444624711 0 -0.015672023519539533 0.021869848606341072 0 -0.015905547823706862 0.021605726444624711 0 -0.015672023519539533 0.021869848606341072 0 -0.015887167925671884 0.022062915128143207 0 -0.015672023519539533 0.021869848606341072 0 -0.015887167925671884 0.022062915128143207 0 -0.015821265192751226 0.022448606650206752 0 -0.015950791577375702 0.02259626399631999 0 -0.015968724285729905 0.02235518321151057 0 -0.015821265192751226 0.022448606650206752 0 -0.015968724285729905 0.02235518321151057 0 -0.015887167925671884 0.022062915128143207 0 -0.015821265192751226 0.022448606650206752 0 -0.015672023519539533 0.021869848606341072 0 -0.015821265192751226 0.022448606650206752 0 -0.015415143739938832 0.022506707195550611 0 -0.015672023519539533 0.021869848606341072 0 -0.015415143739938832 0.022506707195550611 0 -0.014941969286012144 0.02159733657027137 0 -0.015799680560985307 0.022799773364343009 0 -0.015821265192751226 0.022448606650206752 0 -0.015415143739938832 0.022506707195550611 0 -0.015415143739938832 0.022506707195550611 0 -0.014941969286012144 0.02159733657027137 0 -0.014281066017461087 0.021590860548609304 0 -0.014217911772382899 0.022176297247108741 0 -0.015415143739938832 0.022506707195550611 0 -0.014281066017461087 0.021590860548609304 0 -0.015099852743042388 0.022689471253790505 0 -0.015507019664954087 0.022514267987142192 0 -0.014941969286012144 0.02159733657027137 0 -0.014281066017461087 0.021590860548609304 0 -0.014363596475613269 0.021048410049592167 0 -0.015672023519539533 0.021869848606341072 0 -0.014941969286012144 0.02159733657027137 0 -0.015223091317998805 0.021272430147451091 0 -0.014217911772382899 0.022176297247108741 0 -0.013654440990686068 0.022007301701745759 0 -0.013780179108988079 0.021453570667689922 0 -0.014217911772382899 0.022176297247108741 0 -0.014281066017461087 0.021590860548609304 0 -0.013780179108988079 0.021453570667689922 0 -0.014281066017461087 0.021590860548609304 0 -0.013971457208245271 0.020867106882612244 0 -0.014363596475613269 0.021048410049592167 0 -0.014281066017461087 0.021590860548609304 0 -0.013780179108988079 0.021453570667689922 0 -0.013971457208245271 0.020867106882612244 0 -0.013686677790910446 0.020924175555234945 0 -0.013780179108988079 0.021453570667689922 0 -0.013971457208245271 0.020867106882612244 0 -0.013686677790910446 0.020924175555234945 0 -0.013971457208245271 0.020867106882612244 0 -0.013841687750044632 0.02042421626089843 0 -0.013971457208245271 0.020867106882612244 0 -0.014363596475613269 0.021048410049592167 0 -0.014243574861865067 0.020539556453865751 0 -0.013971457208245271 0.020867106882612244 0 -0.014243574861865067 0.020539556453865751 0 -0.014025121151505516 0.020354331374094321 0 -0.014025121151505516 0.020354331374094321 0 -0.013841687750044632 0.02042421626089843 0 -0.014019198845116553 0.019892083488922789 0 -0.014243574861865067 0.020539556453865751 0 -0.014025121151505516 0.020354331374094321 0 -0.014176775924937671 0.020118766970650879 0 -0.014025121151505516 0.020354331374094321 0 -0.014176775924937671 0.020118766970650879 0 -0.014019198845116553 0.019892083488922789 0 -0.013971457208245271 0.020867106882612244 0 -0.014025121151505516 0.020354331374094321 0 -0.013841687750044632 0.02042421626089843 0 -0.014941969286012144 0.02159733657027137 0 -0.015223091317998805 0.021272430147451091 0 -0.014724775213395356 0.020734441125846988 0 -0.015555040075324459 0.020890639134232843 0 -0.015223091317998805 0.021272430147451091 0 -0.014724775213395356 0.020734441125846988 0 -0.015555040075324459 0.020890639134232843 0 -0.014724775213395356 0.020734441125846988 0 -0.014889707802108732 0.020127534707889527 0 -0.014941969286012144 0.02159733657027137 0 -0.014363596475613269 0.021048410049592167 0 -0.014724775213395356 0.020734441125846988 0 -0.014363596475613269 0.021048410049592167 0 -0.014243574861865067 0.020539556453865751 0 -0.014724775213395356 0.020734441125846988 0 -0.014243574861865067 0.020539556453865751 0 -0.014724775213395356 0.020734441125846988 0 -0.01448922485456333 0.020301666169659085 0 -0.014724775213395356 0.020734441125846988 0 -0.01448922485456333 0.020301666169659085 0 -0.014889707802108732 0.020127534707889527 0 -0.014243574861865067 0.020539556453865751 0 -0.01448922485456333 0.020301666169659085 0 -0.014176775924937671 0.020118766970650879 0 -0.01448922485456333 0.020301666169659085 0 -0.014176775924937671 0.020118766970650879 0 -0.014324603059232076 0.019827881319605008 0 -0.014176775924937671 0.020118766970650879 0 -0.01411330996969168 0.019873070903184416 0 -0.014019198845116553 0.019892083488922789 0 -0.014176775924937671 0.020118766970650879 0 -0.014324603059232076 0.019827881319605008 0 -0.01411330996969168 0.019873070903184416 0 -0.01448922485456333 0.020301666169659085 0 -0.014324603059232076 0.019827881319605008 0 -0.014889707802108732 0.020127534707889527 0 -0.014324603059232076 0.019827881319605008 0 -0.014889707802108732 0.020127534707889527 0 -0.014723647374383555 0.019171257097705261 0 -0.014889707802108732 0.020127534707889527 0 -0.014723647374383555 0.019171257097705261 0 -0.015875465186010455 0.019804609810375774 0 -0.014723647374383555 0.019171257097705261 0 -0.014756570157834589 0.017698750943989285 0 -0.016496868090990355 0.017614244325458779 0 -0.014723647374383555 0.019171257097705261 0 -0.014003470022020785 0.019473790797457802 0 -0.014756570157834589 0.017698750943989285 0 -0.014324603059232076 0.019827881319605008 0 -0.014723647374383555 0.019171257097705261 0 -0.013927470067162908 0.019615084219147812 0 -0.016471009589916992 0.016118651340491306 0 -0.015760839708081897 0.016477893019067432 0 -0.014723647374383555 0.019171257097705261 0 -0.013927470067162908 0.019615084219147812 0 -0.014003470022020785 0.019473790797457802 0 -0.014324603059232076 0.019827881319605008 0 -0.01411330996969168 0.019873070903184416 0 -0.013927470067162908 0.019615084219147812 0 -0.01411330996969168 0.019873070903184416 0 -0.013927470067162908 0.019615084219147812 0 -0.014019198845116553 0.019892083488922789 0 -0.015539706485771994 0.017870994323754441 0 -0.016471009589916992 0.016118651340491306 0 -0.018168255575896373 0.016062492643319895 0 -0.017876085021057666 0.01664966855620055 0 -0.017377652369569202 0.016453362703955407 0 -0.015539706485771994 0.017870994323754441 0 -0.018182432282777411 0.014609193975869135 0 -0.018182432282777411 0.014609193975869135 0 -0.016471009589916992 0.016118651340491306 0 -0.016127842535340987 0.015381996715555445 0 -0.017176611793652933 0.014868771354959155 0 -0.016605022372426947 0.014126858578770763 0 -0.018182432282777411 0.014609193975869135 0 -0.019668040323478304 0.0098821560748366035 0 -0.01604677533646353 0.015348041031155047 0 -0.016127842535340987 0.015381996715555445 0 -0.016605022372426947 0.014126858578770763 0 -0.022659551680526847 0.0065466489273015988 0 -0.022896646647466178 0.0071432623641105595 0 -0.022123175992433179 0.0072847251404660161 0 -0.013668083041454589 0.020203617702034677 0 -0.013841687750044632 0.02042421626089843 0 -0.014148473311467968 0.019856879881899638 0 -0.01872290881072243 0.013381773361261711 0 -0.018855928556276796 0.013219617515155926 0 -0.014752452694892084 0.020016268198111687 0 -0.014791413882851465 0.019938907573094473 0 -0.014148473311467968 0.019856879881899638 0 -0.013841687750044632 0.02042421626089843 0 -0.014028581435177254 0.019782142123205084 0 -0.014019198845116553 0.019892083488922789 0 -0.022659551680526847 0.0065466489273015988 0 -0.023367034142471762 0.006677103984556002 0 -0.023106842127120112 0.0068979177546987696 0 -0.013841687750044632 0.02042421626089843 0 -0.014752452694892084 0.020016268198111687 0 -0.014148473311467968 0.019856879881899638 0 -0.013286590368709449 0.021081432322771102 0 -0.015539706485771994 0.017870994323754441 0 -0.018182432282777411 0.014609193975869135 0 -0.018855928556276796 0.013219617515155926 0 -0.015539706485771994 0.017870994323754441 0 -0.014871738269731205 0.019002837724140405 0 -0.023106842127120112 0.0068979177546987696 0 -0.022896646647466178 0.0071432623641105595 0 -0.023541347582058701 0.0072599446607401197 0 -0.022659551680526847 0.0065466489273015988 0 -0.023106842127120112 0.0068979177546987696 0 -0.022896646647466178 0.0071432623641105595 0 -0.02409173008712431 0.0068846098560426264 0 -0.023367034142471762 0.006677103984556002 0 -0.023541347582058701 0.0072599446607401197 0 -0.023367034142471762 0.006677103984556002 0 -0.023106842127120112 0.0068979177546987696 0 -0.023541347582058701 0.0072599446607401197 0 -0.024179469599474483 0.0075332523021413118 0 -0.023541347582058701 0.0072599446607401197 0 -0.023917478200955373 0.0079350120614997046 0 -0.023541347582058701 0.0072599446607401197 0 -0.023301023342974347 0.0078460778209750361 0 -0.023917478200955373 0.0079350120614997046 0 -0.022896646647466178 0.0071432623641105595 0 -0.022750802710338958 0.0076293743682966002 0 -0.023301023342974347 0.0078460778209750361 0 -0.022896646647466178 0.0071432623641105595 0 -0.023541347582058701 0.0072599446607401197 0 -0.023301023342974347 0.0078460778209750361 0 -0.023301023342974347 0.0078460778209750361 0 -0.022667322750104402 0.0082658413396618207 0 -0.023679466239258158 0.008452296669227902 0 -0.022750802710338958 0.0076293743682966002 0 -0.023301023342974347 0.0078460778209750361 0 -0.022667322750104402 0.0082658413396618207 0 -0.023301023342974347 0.0078460778209750361 0 -0.023917478200955373 0.0079350120614997046 0 -0.023679466239258158 0.008452296669227902 0 -0.023917478200955373 0.0079350120614997046 0 -0.023679466239258158 0.008452296669227902 0 -0.024262101073868 0.0084867060005940874 0 -0.016605022372426947 0.014126858578770763 0 -0.01757614527996279 0.012481117102558262 0 -0.01752339225551252 0.01401262820254705 0 -0.017176611793652933 0.014868771354959155 0 -0.016605022372426947 0.014126858578770763 0 -0.01752339225551252 0.01401262820254705 0 -0.022750802710338958 0.0076293743682966002 0 -0.022123175992433179 0.0072847251404660161 0 -0.022667322750104402 0.0082658413396618207 0 -0.022896646647466178 0.0071432623641105595 0 -0.022750802710338958 0.0076293743682966002 0 -0.022123175992433179 0.0072847251404660161 0 -0.022123175992433179 0.0072847251404660161 0 -0.022667322750104402 0.0082658413396618207 0 -0.021148486871822702 0.0082154338621149032 0 -0.019668040323478304 0.0098821560748366035 0 -0.019292795799371282 0.010614228463353791 0 -0.01757614527996279 0.012481117102558262 0 -0.018602283161859978 0.012860169851255101 0 -0.018078823724294976 0.013675026007570982 0 -0.01757614527996279 0.012481117102558262 0 -0.01752339225551252 0.01401262820254705 0 -0.018078823724294976 0.013675026007570982 0 -0.018602283161859978 0.012860169851255101 0 -0.019425145397223304 0.012749083558797973 0 -0.019171522191139104 0.0119288025353075 0 -0.018602283161859978 0.012860169851255101 0 -0.018546014830334016 0.013827055105268644 0 -0.019425145397223304 0.012749083558797973 0 -0.018546014830334016 0.013827055105268644 0 -0.018843959890380221 0.015943733178389031 0 -0.019425145397223304 0.012749083558797973 0 -0.018546014830334016 0.013827055105268644 0 -0.018253869793416977 0.014748022321065568 0 -0.018843959890380221 0.015943733178389031 0 -0.018602283161859978 0.012860169851255101 0 -0.018546014830334016 0.013827055105268644 0 -0.018078823724294976 0.013675026007570982 0 -0.018546014830334016 0.013827055105268644 0 -0.018253869793416977 0.014748022321065568 0 -0.018078823724294976 0.013675026007570982 0 -0.018253869793416977 0.014748022321065568 0 -0.01752339225551252 0.01401262820254705 0 -0.018078823724294976 0.013675026007570982 0 -0.015760839708081897 0.016477893019067432 0 -0.018348804375164802 0.014733938144104392 0 -0.017176611793652933 0.014868771354959155 0 -0.018253869793416977 0.014748022321065568 0 -0.01752339225551252 0.01401262820254705 0 -0.014756570157834589 0.017698750943989285 0 -0.018253869793416977 0.014748022321065568 0 -0.016496868090990355 0.017614244325458779 0 -0.018253869793416977 0.014748022321065568 0 -0.016496868090990355 0.017614244325458779 0 -0.018843959890380221 0.015943733178389031 0 -0.017050826242434421 0.017047362195312898 0 -0.015983160343585923 0.019567519214299011 0 -0.016496868090990355 0.017614244325458779 0 -0.018843959890380221 0.015943733178389031 0 -0.015875465186010455 0.019804609810375774 0 -0.015351971741773909 0.018215604485492042 0 -0.015875465186010455 0.019804609810375774 0 -0.015969803901801222 0.018803128446290816 0 -0.015875465186010455 0.019804609810375774 0 -0.01613279790293588 0.019733590693389719 0 -0.015969803901801222 0.018803128446290816 0 -0.014723647374383555 0.019171257097705261 0 -0.016496868090990355 0.017614244325458779 0 -0.015875465186010455 0.019804609810375774 0 -0.017455154336308041 0.019166795866320026 0 -0.017414729253783148 0.018030236262632265 0 -0.01613279790293588 0.019733590693389719 0 -0.017414729253783148 0.018030236262632265 0 -0.01613279790293588 0.019733590693389719 0 -0.016598449459163278 0.018069425719814611 0 -0.01613279790293588 0.019733590693389719 0 -0.015969803901801222 0.018803128446290816 0 -0.016598449459163278 0.018069425719814611 0 -0.015969803901801222 0.018803128446290816 0 -0.016137265549098515 0.017560766952528072 0 -0.016598449459163278 0.018069425719814611 0 -0.015351971741773909 0.018215604485492042 0 -0.015969803901801222 0.018803128446290816 0 -0.016137265549098515 0.017560766952528072 0 -0.017414729253783148 0.018030236262632265 0 -0.016598449459163278 0.018069425719814611 0 -0.017049331656775274 0.016896611310128817 0 -0.016137265549098515 0.017560766952528072 0 -0.016598449459163278 0.018069425719814611 0 -0.017049331656775274 0.016896611310128817 0 -0.017959699866831748 0.016684766901748645 0 -0.017049331656775274 0.016896611310128817 0 -0.017782402642314017 0.015131764140182561 0 -0.017050826242434421 0.017047362195312898 0 -0.017640314113150011 0.014345907812028743 0 -0.016137265549098515 0.017560766952528072 0 -0.017049331656775274 0.016896611310128817 0 -0.015818177532833846 0.015793841594523617 0 -0.015351971741773909 0.018215604485492042 0 -0.016137265549098515 0.017560766952528072 0 -0.015818177532833846 0.015793841594523617 0 -0.017640314113150011 0.014345907812028743 0 -0.018088283371235879 0.012905265231197963 0 -0.015818177532833846 0.015793841594523617 0 -0.017782402642314017 0.015131764140182561 0 -0.018139004677768945 0.012752451832601808 0 -0.017049331656775274 0.016896611310128817 0 -0.015818177532833846 0.015793841594523617 0 -0.017782402642314017 0.015131764140182561 0 -0.018139004677768945 0.012752451832601808 0 -0.018379966934849737 0.013759952377942144 0 -0.01839618644243798 0.01265718390803864 0 -0.017782402642314017 0.015131764140182561 0 -0.018139004677768945 0.012752451832601808 0 -0.018379966934849737 0.013759952377942144 0 -0.019425145397223304 0.012749083558797973 0 -0.018139004677768945 0.012752451832601808 0 -0.019171522191139104 0.0119288025353075 0 -0.018139004677768945 0.012752451832601808 0 -0.018826644867132206 0.011802286554655983 0 -0.019171522191139104 0.0119288025353075 0 -0.018139004677768945 0.012752451832601808 0 -0.018826644867132206 0.011802286554655983 0 -0.01839618644243798 0.01265718390803864 0 -0.01857800093155847 0.01217012001138602 0 -0.018826644867132206 0.011802286554655983 0 -0.01839618644243798 0.01265718390803864 0 -0.01857800093155847 0.01217012001138602 0 -0.018826644867132206 0.011802286554655983 0 -0.018743788415686011 0.011933643438149198 0 -0.018826644867132206 0.011802286554655983 0 -0.019100869258290076 0.011734852676706785 0 -0.018743788415686011 0.011933643438149198 0 -0.019100869258290076 0.011734852676706785 0 -0.018743788415686011 0.011933643438149198 0 -0.019272601151049104 0.012228745047754992 0 -0.01857800093155847 0.01217012001138602 0 -0.018743788415686011 0.011933643438149198 0 -0.01868253735078132 0.012043001614203498 0 -0.018743788415686011 0.011933643438149198 0 -0.018711974601516895 0.011993467703929278 0 -0.018723450071998608 0.012016132104783108 0 -0.018743788415686011 0.011933643438149198 0 -0.018711974601516895 0.011993467703929278 0 -0.01868253735078132 0.012043001614203498 0 -0.019734366501073394 0.011283213405727573 0 -0.022004196539013712 0.010572855051038447 0 -0.020999374565819937 0.01191706225727231 0 -0.019100869258290076 0.011734852676706785 0 -0.019734366501073394 0.011283213405727573 0 -0.019272601151049104 0.012228745047754992 0 -0.018826644867132206 0.011802286554655983 0 -0.019734366501073394 0.011283213405727573 0 -0.019563969702895832 0.01063544687878288 0 -0.018826644867132206 0.011802286554655983 0 -0.019100869258290076 0.011734852676706785 0 -0.019734366501073394 0.011283213405727573 0 -0.019734366501073394 0.011283213405727573 0 -0.019563969702895832 0.01063544687878288 0 -0.022004196539013712 0.010572855051038447 0 -0.01757614527996279 0.012481117102558262 0 -0.018602283161859978 0.012860169851255101 0 -0.019171522191139104 0.0119288025353075 0 -0.01757614527996279 0.012481117102558262 0 -0.019563969702895832 0.01063544687878288 0 -0.019171522191139104 0.0119288025353075 0 -0.018826644867132206 0.011802286554655983 0 -0.019563969702895832 0.01063544687878288 0 -0.019171522191139104 0.0119288025353075 0 -0.019292795799371282 0.010614228463353791 0 -0.019529905228299529 0.010567502206879893 0 -0.019563969702895832 0.01063544687878288 0 -0.022476625144446285 0.0091878644488045634 0 -0.022428574539938156 0.010029567506956794 0 -0.021148486871822702 0.0082154338621149032 0 -0.019563969702895832 0.01063544687878288 0 -0.022476625144446285 0.0091878644488045634 0 -0.022667322750104402 0.0082658413396618207 0 -0.021148486871822702 0.0082154338621149032 0 -0.022476625144446285 0.0091878644488045634 0 -0.022667322750104402 0.0082658413396618207 0 -0.022476625144446285 0.0091878644488045634 0 -0.023347313898775316 0.008975081293626657 0 -0.022476625144446285 0.0091878644488045634 0 -0.023530534444450028 0.0095519318103538756 0 -0.022428574539938156 0.010029567506956794 0 -0.023679466239258158 0.008452296669227902 0 -0.023347313898775316 0.008975081293626657 0 -0.024108765075562262 0.0091141565645449958 0 -0.023679466239258158 0.008452296669227902 0 -0.024108765075562262 0.0091141565645449958 0 -0.024262101073868 0.0084867060005940874 0 -0.022667322750104402 0.0082658413396618207 0 -0.023679466239258158 0.008452296669227902 0 -0.023347313898775316 0.008975081293626657 0 -0.022476625144446285 0.0091878644488045634 0 -0.023347313898775316 0.008975081293626657 0 -0.023530534444450028 0.0095519318103538756 0 -0.023347313898775316 0.008975081293626657 0 -0.024108765075562262 0.0091141565645449958 0 -0.023530534444450028 0.0095519318103538756 0 -0.024108765075562262 0.0091141565645449958 0 -0.023530534444450028 0.0095519318103538756 0 -0.02429616880631193 0.0096328705449837959 0 -0.023530534444450028 0.0095519318103538756 0 -0.023582861473249644 0.0099136361055507487 0 -0.022428574539938156 0.010029567506956794 0 -0.023530534444450028 0.0095519318103538756 0 -0.023582861473249644 0.0099136361055507487 0 -0.02429616880631193 0.0096328705449837959 0 -0.023582861473249644 0.0099136361055507487 0 -0.02429616880631193 0.0096328705449837959 0 -0.024587904215298717 0.0097366826226327075 0 -0.019563969702895832 0.01063544687878288 0 -0.022428574539938156 0.010029567506956794 0 -0.022004196539013712 0.010572855051038447 0 -0.023582861473249644 0.0099136361055507487 0 -0.022428574539938156 0.010029567506956794 0 -0.022004196539013712 0.010572855051038447 0 -0.023582861473249644 0.0099136361055507487 0 -0.022004196539013712 0.010572855051038447 0 -0.023587173691618883 0.0098229919018277718 0 -0.023587173691618883 0.0098229919018277718 0 -0.024690097452912538 0.0080480471038272151 0 -0.024997669047902984 0.0077479134745279659 0 -0.023355139066411967 0.0098521384827618373 0 -0.022853569538514345 0.0097680015035167163 0 -0.022004196539013712 0.010572855051038447 0 -0.023587173691618883 0.0098229919018277718 0 -0.020999374565819937 0.01191706225727231 0 -0.023587173691618883 0.0098229919018277718 0 -0.024214425373180613 0.0082909263260469764 0 -0.023801773221098447 0.0090117527254424713 0 -0.024214425373180613 0.0082909263260469764 0 -0.024690097452912538 0.0080480471038272151 0 -0.02473099709449943 0.0077712815580410982 0 -0.023587173691618883 0.0098229919018277718 0 -0.024214425373180613 0.0082909263260469764 0 -0.024690097452912538 0.0080480471038272151 0 -0.024690097452912538 0.0080480471038272151 0 -0.024898634408116769 0.0077439312918259904 0 -0.024847507087916151 0.007736269957613443 0 -0.024690097452912538 0.0080480471038272151 0 -0.024997669047902984 0.0077479134745279659 0 -0.024847507087916151 0.007736269957613443 0 -0.023582861473249644 0.0099136361055507487 0 -0.023587173691618883 0.0098229919018277718 0 -0.023801773221098447 0.0090117527254424713 0 -0.023686627910076648 0.0098060266024446122 0 -0.024115100025008739 0.0093124175717253302 0 -0.023582861473249644 0.0099136361055507487 0 -0.023655769930128363 0.0088860634900435938 0 -0.023801773221098447 0.0090117527254424713 0 -0.024214425373180613 0.0082909263260469764 0 -0.023801773221098447 0.0090117527254424713 0 -0.024248536551606796 0.007875376444005067 0 -0.023655769930128363 0.0088860634900435938 0 -0.023801773221098447 0.0090117527254424713 0 -0.024248536551606796 0.007875376444005067 0 -0.023655769930128363 0.0088860634900435938 0 -0.024248536551606796 0.007875376444005067 0 -0.024053732146874503 0.0078327328379806764 0 -0.024115100025008739 0.0093124175717253302 0 -0.024660882133261418 0.0085495056162220341 0 -0.024248536551606796 0.007875376444005067 0 -0.024571354482212433 0.0073860926732536442 0 -0.024498125798808976 0.0073224183049023757 0 -0.024248536551606796 0.007875376444005067 0 -0.024498125798808976 0.0073224183049023757 0 -0.024053732146874503 0.0078327328379806764 0 -0.024214425373180613 0.0082909263260469764 0 -0.024248536551606796 0.007875376444005067 0 -0.024506468950755447 0.0077627708405017589 0 -0.024248536551606796 0.007875376444005067 0 -0.024727175280945261 0.0073811275039090468 0 -0.024506468950755447 0.0077627708405017589 0 -0.024248536551606796 0.007875376444005067 0 -0.024727175280945261 0.0073811275039090468 0 -0.024571354482212433 0.0073860926732536442 0 -0.024727175280945261 0.0073811275039090468 0 -0.02497597247691204 0.0070646316206208447 0 -0.024838709858217765 0.006990460846032328 0 -0.024727175280945261 0.0073811275039090468 0 -0.024571354482212433 0.0073860926732536442 0 -0.024838709858217765 0.006990460846032328 0 -0.024571354482212433 0.0073860926732536442 0 -0.024498125798808976 0.0073224183049023757 0 -0.024838709858217765 0.006990460846032328 0 -0.024690097452912538 0.0080480471038272151 0 -0.024898634408116769 0.0077439312918259904 0 -0.02473099709449943 0.0077712815580410982 0 -0.024898634408116769 0.0077439312918259904 0 -0.02473099709449943 0.0077712815580410982 0 -0.024955841779024462 0.0075329224260825131 0 -0.024214425373180613 0.0082909263260469764 0 -0.02473099709449943 0.0077712815580410982 0 -0.024506468950755447 0.0077627708405017589 0 -0.02473099709449943 0.0077712815580410982 0 -0.024506468950755447 0.0077627708405017589 0 -0.024846685348252701 0.0074488116829618447 0 -0.02473099709449943 0.0077712815580410982 0 -0.024846685348252701 0.0074488116829618447 0 -0.024955841779024462 0.0075329224260825131 0 -0.024727175280945261 0.0073811275039090468 0 -0.024506468950755447 0.0077627708405017589 0 -0.024846685348252701 0.0074488116829618447 0 -0.024727175280945261 0.0073811275039090468 0 -0.024846685348252701 0.0074488116829618447 0 -0.02497597247691204 0.0070646316206208447 0 -0.024846685348252701 0.0074488116829618447 0 -0.025025424900617096 0.0072757021171720431 0 -0.024955841779024462 0.0075329224260825131 0 -0.024846685348252701 0.0074488116829618447 0 -0.025025424900617096 0.0072757021171720431 0 -0.02497597247691204 0.0070646316206208447 0 -0.025025424900617096 0.0072757021171720431 0 -0.024955841779024462 0.0075329224260825131 0 -0.025107670600605037 0.0073173155034322807 0 -0.024898634408116769 0.0077439312918259904 0 -0.024955841779024462 0.0075329224260825131 0 -0.024959693350421811 0.0076603052978738489 0 -0.024955841779024462 0.0075329224260825131 0 -0.024959693350421811 0.0076603052978738489 0 -0.025107670600605037 0.0073173155034322807 0 -0.02501929346079795 0.0075476527867879674 0 -0.024959693350421811 0.0076603052978738489 0 -0.025107670600605037 0.0073173155034322807 0 -0.02501929346079795 0.0075476527867879674 0 -0.024871788739181274 0.0078071617061479803 0 -0.025089659247730153 0.0075967936570774473 0 -0.02501929346079795 0.0075476527867879674 0 -0.024871788739181274 0.0078071617061479803 0 -0.024959693350421811 0.0076603052978738489 0 -0.024871788739181274 0.0078071617061479803 0 -0.024959693350421811 0.0076603052978738489 0 -0.024850008991510443 0.0078537305961706785 0 -0.024850008991510443 0.0078537305961706785 0 -0.024500538858185802 0.0081422719250344583 0 -0.024558096402228141 0.007474947764951884 0 -0.024898634408116769 0.0077439312918259904 0 -0.024959693350421811 0.0076603052978738489 0 -0.024850008991510443 0.0078537305961706785 0 -0.024871788739181274 0.0078071617061479803 0 -0.024850008991510443 0.0078537305961706785 0 -0.024500538858185802 0.0081422719250344583 0 -0.024850008991510443 0.0078537305961706785 0 -0.024847507087916151 0.007736269957613443 0 -0.024558096402228141 0.007474947764951884 0 -0.024898634408116769 0.0077439312918259904 0 -0.024850008991510443 0.0078537305961706785 0 -0.024847507087916151 0.007736269957613443 0 -0.024500538858185802 0.0081422719250344583 0 -0.024558096402228141 0.007474947764951884 0 -0.023618738699622655 0.0073888788852563376 0 -0.024500538858185802 0.0081422719250344583 0 -0.023085208097112661 0.0078519882205111656 0 -0.023618738699622655 0.0073888788852563376 0 -0.024500538858185802 0.0081422719250344583 0 -0.023460466254958096 0.0084165950801062383 0 -0.024137402251358294 0.0090768149464087768 0 -0.024500538858185802 0.0081422719250344583 0 -0.023460466254958096 0.0084165950801062383 0 -0.023085208097112661 0.0078519882205111656 0 -0.023460466254958096 0.0084165950801062383 0 -0.024003076687275585 0.0096583215154636051 0 -0.022467015742894652 0.0083590766859280331 0 -0.023460466254958096 0.0084165950801062383 0 -0.024137402251358294 0.0090768149464087768 0 -0.024003076687275585 0.0096583215154636051 0 -0.024640033901343433 0.0084539727028411678 0 -0.024146689372246576 0.0080639385428591063 0 -0.022853288011168482 0.008648954750598712 0 -0.023070740567777848 0.0089984288855292534 0 -0.024500538858185802 0.0081422719250344583 0 -0.024137402251358294 0.0090768149464087768 0 -0.024645162283786635 0.010178951302849303 0 -0.024871788739181274 0.0078071617061479803 0 -0.024500538858185802 0.0081422719250344583 0 -0.025089659247730153 0.0075967936570774473 0 -0.024137402251358294 0.0090768149464087768 0 -0.024645162283786635 0.010178951302849303 0 -0.024003076687275585 0.0096583215154636051 0 -0.023181934281956376 0.0081386601118301465 0 -0.023331710063559004 0.008254825033448163 0 -0.02317645924596318 0.0080574052439757095 0 -0.024146689372246576 0.0080639385428591063 0 -0.022853288011168482 0.008648954750598712 0 -0.019283299996150961 0.0075848572931470053 0 -0.019294417582990209 0.0074129175568405665 0 -0.019105350235445399 0.0073942887513422399 0 -0.022853288011168482 0.008648954750598712 0 -0.023200844129664357 0.007155895735644284 0 -0.019283299996150961 0.0075848572931470053 0 -0.019459386058175026 0.0075156936951232389 0 -0.019294417582990209 0.0074129175568405665 0 -0.019283299996150961 0.0075848572931470053 0 -0.019459386058175026 0.0075156936951232389 0 -0.019650177233777027 0.0076623345517293886 0 -0.019459386058175026 0.0075156936951232389 0 -0.019614059273030754 0.0075284237023015574 0 -0.019464717887549676 0.0073648223249781625 0 -0.024222942751954649 0.010445492391921682 0 -0.022467015742894652 0.0083590766859280331 0 -0.022049197798762497 0.008932241017042257 0 -0.019283299996150961 0.0075848572931470053 0 -0.019650177233777027 0.0076623345517293886 0 -0.019750981963448676 0.0077913620417020824 0 -0.022853288011168482 0.008648954750598712 0 -0.020708501434155736 0.0082808980635936565 0 -0.019459386058175026 0.0075156936951232389 0 -0.019614059273030754 0.0075284237023015574 0 -0.019650177233777027 0.0076623345517293886 0 -0.019614059273030754 0.0075284237023015574 0 -0.019650177233777027 0.0076623345517293886 0 -0.019758191898929689 0.0076484292182632096 0 -0.019614059273030754 0.0075284237023015574 0 -0.019758191898929689 0.0076484292182632096 0 -0.019803857699942081 0.0074311012878621784 0 -0.019740701016667032 0.0077261912203356849 0 -0.019650177233777027 0.0076623345517293886 0 -0.019758191898929689 0.0076484292182632096 0 -0.019740701016667032 0.0077261912203356849 0 -0.019650177233777027 0.0076623345517293886 0 -0.019750981963448676 0.0077913620417020824 0 -0.019758191898929689 0.0076484292182632096 0 -0.019908657611508149 0.0076656686809853016 0 -0.019803857699942081 0.0074311012878621784 0 -0.019758191898929689 0.0076484292182632096 0 -0.019908657611508149 0.0076656686809853016 0 -0.019736376851659781 0.0077571710321233302 0 -0.019740701016667032 0.0077261912203356849 0 -0.019758191898929689 0.0076484292182632096 0 -0.019736376851659781 0.0077571710321233302 0 -0.019815486325362661 0.0075037515289098035 0 -0.020708501434155736 0.0082808980635936565 0 -0.018592195127298521 0.0083231547465577507 0 -0.018050183257991334 0.0074656049573330113 0 -0.021092444972603781 0.0078982464293910204 0 -0.019689088485619115 0.0073926678609064931 0 -0.022049197798762497 0.008932241017042257 0 -0.019736376851659781 0.0077571710321233302 0 -0.019689088485619115 0.0073926678609064931 0 -0.019750981963448676 0.0077913620417020824 0 -0.018261168349076581 0.0086434676412283137 0 -0.018322522547718791 0.0074036428598684709 0 -0.018073224915229388 0.0072488480902587827 0 -0.019736376851659781 0.0077571710321233302 0 -0.019622524118008557 0.0078010201461333872 0 -0.019689088485619115 0.0073926678609064931 0 -0.018592195127298521 0.0083231547465577507 0 -0.019015337306005919 0.0074124359064073895 0 -0.019908657611508149 0.0076656686809853016 0 -0.019736376851659781 0.0077571710321233302 0 -0.019622524118008557 0.0078010201461333872 0 -0.021092444972603781 0.0078982464293910204 0 -0.019689088485619115 0.0073926678609064931 0 -0.020703641928598426 0.0070021535006284333 0 -0.021092444972603781 0.0078982464293910204 0 -0.021479454361770373 0.0073825406347675492 0 -0.020703641928598426 0.0070021535006284333 0 -0.019622524118008557 0.0078010201461333872 0 -0.019689088485619115 0.0073926678609064931 0 -0.019196002335315578 0.0061758500739564227 0 -0.018322522547718791 0.0074036428598684709 0 -0.019196002335315578 0.0061758500739564227 0 -0.018073224915229388 0.0072488480902587827 0 -0.023460466254958096 0.0084165950801062383 0 -0.022467015742894652 0.0083590766859280331 0 -0.023085208097112661 0.0078519882205111656 0 -0.019740701016667032 0.0077261912203356849 0 -0.019736376851659781 0.0077571710321233302 0 -0.019750981963448676 0.0077913620417020824 0 -0.021092444972603781 0.0078982464293910204 0 -0.022049197798762497 0.008932241017042257 0 -0.021912980673357316 0.0082139980626202199 0 -0.022467015742894652 0.0083590766859280331 0 -0.022049197798762497 0.008932241017042257 0 -0.021912980673357316 0.0082139980626202199 0 -0.021479454361770373 0.0073825406347675492 0 -0.02201753100387871 0.0077104383363601654 0 -0.022082718610985465 0.0069257335799110869 0 -0.022467015742894652 0.0083590766859280331 0 -0.021912980673357316 0.0082139980626202199 0 -0.02201753100387871 0.0077104383363601654 0 -0.021092444972603781 0.0078982464293910204 0 -0.021912980673357316 0.0082139980626202199 0 -0.02201753100387871 0.0077104383363601654 0 -0.021092444972603781 0.0078982464293910204 0 -0.021479454361770373 0.0073825406347675492 0 -0.02201753100387871 0.0077104383363601654 0 -0.02201753100387871 0.0077104383363601654 0 -0.023085208097112661 0.0078519882205111656 0 -0.022082718610985465 0.0069257335799110869 0 -0.022467015742894652 0.0083590766859280331 0 -0.02201753100387871 0.0077104383363601654 0 -0.023085208097112661 0.0078519882205111656 0 -0.022082718610985465 0.0069257335799110869 0 -0.021247765844956662 0.0060737697468854646 0 -0.023627518164423957 0.0059510472243609371 0 -0.022082718610985465 0.0069257335799110869 0 -0.023627518164423957 0.0059510472243609371 0 -0.023618738699622655 0.0073888788852563376 0 -0.023085208097112661 0.0078519882205111656 0 -0.022082718610985465 0.0069257335799110869 0 -0.023618738699622655 0.0073888788852563376 0 -0.021479454361770373 0.0073825406347675492 0 -0.022082718610985465 0.0069257335799110869 0 -0.020703641928598426 0.0070021535006284333 0 -0.022082718610985465 0.0069257335799110869 0 -0.021247765844956662 0.0060737697468854646 0 -0.020703641928598426 0.0070021535006284333 0 -0.019689088485619115 0.0073926678609064931 0 -0.020703641928598426 0.0070021535006284333 0 -0.019196002335315578 0.0061758500739564227 0 -0.019015337306005919 0.0074124359064073895 0 -0.019136046227604762 0.0062889789393998693 0 -0.019196002335315578 0.0061758500739564227 0 -0.018045059292331602 0.0066735298386844995 0 -0.018073224915229388 0.0072488480902587827 0 -0.021247765844956662 0.0060737697468854646 0 -0.020703641928598426 0.0070021535006284333 0 -0.019196002335315578 0.0061758500739564227 0 -0.021247765844956662 0.0060737697468854646 0 -0.019196002335315578 0.0061758500739564227 0 -0.020080963493172583 0.0047306203294227708 0 -0.018743788415686011 0.011933643438149198 0 -0.018748533162220072 0.012104675859497633 0 -0.018723450071998608 0.012016132104783108 0 -0.021247765844956662 0.0060737697468854646 0 -0.020080963493172583 0.0047306203294227708 0 -0.023627518164423957 0.0059510472243609371 0 -0.018743788415686011 0.011933643438149198 0 -0.018748533162220072 0.012104675859497633 0 -0.019272601151049104 0.012228745047754992 0 -0.019768127272726782 0.0084977980221492642 0 -0.021278031715275796 0.0091027904263084151 0 -0.023627518164423957 0.0059510472243609371 0 -0.024997669047902984 0.0077479134745279659 0 -0.024558096402228141 0.007474947764951884 0 -0.019734366501073394 0.011283213405727573 0 -0.019272601151049104 0.012228745047754992 0 -0.020999374565819937 0.01191706225727231 0 -0.021278031715275796 0.0091027904263084151 0 -0.022853569538514345 0.0097680015035167163 0 -0.024997669047902984 0.0077479134745279659 0 -0.024847507087916151 0.007736269957613443 0 -0.024558096402228141 0.007474947764951884 0 -0.023627518164423957 0.0059510472243609371 0 -0.024558096402228141 0.007474947764951884 0 -0.023618738699622655 0.0073888788852563376 0 -0.024999617556642179 0.0095990752749088738 0 -0.025218135327604831 0.0094690477079545556 0 -0.025405124198059993 0.010041250724408557 0 -0.025218135327604831 0.0094690477079545556 0 -0.025405124198059993 0.010041250724408557 0 -0.025305783865666207 0.0093096767078258442 0 -0.025405124198059993 0.010041250724408557 0 -0.025597466298126689 0.010968011684685256 0 -0.025609617279844409 0.010300157427300562 0 -0.025405124198059993 0.010041250724408557 0 -0.024999795488271605 0.010897929136111678 0 -0.025597466298126689 0.010968011684685256 0 -0.024999617556642179 0.0095990752749088738 0 -0.025405124198059993 0.010041250724408557 0 -0.024999795488271605 0.010897929136111678 0 -0.024999795488271605 0.010897929136111678 0 -0.024999691418111321 0.012196869598010489 0 -0.025597466298126689 0.010968011684685256 0 -0.02584325443600537 0.012670423990543135 0 -0.024999691418111321 0.012196869598010489 0 -0.025597466298126689 0.010968011684685256 0 -0.025569594442092294 0.01090982557838791 0 -0.0264177830376713 0.011628251119591919 0 -0.02584325443600537 0.012670423990543135 0 -0.025597466298126689 0.010968011684685256 0 -0.02689170738211507 0.012176470716844436 0 -0.025597466298126689 0.010968011684685256 0 -0.025609617279844409 0.010300157427300562 0 -0.0256370445394659 0.010654085555422922 0 -0.025609617279844409 0.010300157427300562 0 -0.0256370445394659 0.010654085555422922 0 -0.025922214839589151 0.01063084957866719 0 -0.025597466298126689 0.010968011684685256 0 -0.0256370445394659 0.010654085555422922 0 -0.025642333473092759 0.01075604708560301 0 -0.0256370445394659 0.010654085555422922 0 -0.025642333473092759 0.01075604708560301 0 -0.025922214839589151 0.01063084957866719 0 -0.025454742594408417 0.0096149048537098724 0 -0.025539111228403227 0.0093171700769624673 0 -0.025551838611916171 0.0094502875607221613 0 -0.025912784520644286 0.011028270572950836 0 -0.025642333473092759 0.01075604708560301 0 -0.025922214839589151 0.01063084957866719 0 -0.025609617279844409 0.010300157427300562 0 -0.025922214839589151 0.01063084957866719 0 -0.025643828226406144 0.0096416899547267024 0 -0.025654750994406027 0.0097158194243651633 0 -0.025677410888600576 0.0097928739733412935 0 -0.025539111228403227 0.0093171700769624673 0 -0.025643828226406144 0.0096416899547267024 0 -0.025528759252961671 0.0094073387955647854 0 -0.025405124198059993 0.010041250724408557 0 -0.025609617279844409 0.010300157427300562 0 -0.025503872330665665 0.0097731772830376776 0 -0.025609617279844409 0.010300157427300562 0 -0.025643828226406144 0.0096416899547267024 0 -0.025503872330665665 0.0097731772830376776 0 -0.025503872330665665 0.0097731772830376776 0 -0.025467008341862416 0.0094635608918211527 0 -0.025305783865666207 0.0093096767078258442 0 -0.025405124198059993 0.010041250724408557 0 -0.025503872330665665 0.0097731772830376776 0 -0.025305783865666207 0.0093096767078258442 0 -0.025643828226406144 0.0096416899547267024 0 -0.025503872330665665 0.0097731772830376776 0 -0.025467008341862416 0.0094635608918211527 0 -0.025643828226406144 0.0096416899547267024 0 -0.025467008341862416 0.0094635608918211527 0 -0.025421330813630901 0.009493392907545967 0 -0.025467008341862416 0.0094635608918211527 0 -0.025421330813630901 0.009493392907545967 0 -0.025341812565876878 0.009324270563424171 0 -0.025421330813630901 0.009493392907545967 0 -0.025233627138247471 0.0093994846142823416 0 -0.025341812565876878 0.009324270563424171 0 -0.025187153019490954 0.0094268745520837034 0 -0.025033815243158408 0.0094720212201994322 0 -0.025233627138247471 0.0093994846142823416 0 -0.025421330813630901 0.009493392907545967 0 -0.025187153019490954 0.0094268745520837034 0 -0.025233627138247471 0.0093994846142823416 0 -0.025187153019490954 0.0094268745520837034 0 -0.025473935080599849 0.0094114590753371329 0 -0.025272156864038508 0.0091737805881429001 0 -0.025187153019490954 0.0094268745520837034 0 -0.025272156864038508 0.0091737805881429001 0 -0.025015613623917587 0.0091405583291191 0 -0.025421330813630901 0.009493392907545967 0 -0.025187153019490954 0.0094268745520837034 0 -0.025473935080599849 0.0094114590753371329 0 -0.025643828226406144 0.0096416899547267024 0 -0.025473935080599849 0.0094114590753371329 0 -0.025528759252961671 0.0094073387955647854 0 -0.025643828226406144 0.0096416899547267024 0 -0.025421330813630901 0.009493392907545967 0 -0.025473935080599849 0.0094114590753371329 0 -0.025473935080599849 0.0094114590753371329 0 -0.025528759252961671 0.0094073387955647854 0 -0.025554925507502799 0.0093502594220532028 0 -0.025497599301737752 0.0093472927287371922 0 -0.025549972306966168 0.0091806770685155508 0 -0.025473935080599849 0.0094114590753371329 0 -0.025571907333185519 0.0088139088875765579 0 -0.025272156864038508 0.0091737805881429001 0 -0.025539111228403227 0.0093171700769624673 0 -0.025528759252961671 0.0094073387955647854 0 -0.025554925507502799 0.0093502594220532028 0 -0.0256961992832739 0.0084289695332138755 0 -0.025549972306966168 0.0091806770685155508 0 -0.025539111228403227 0.0093171700769624673 0 -0.025554925507502799 0.0093502594220532028 0 -0.025551838611916171 0.0094502875607221613 0 -0.025597221483534181 0.0081875025978401551 0 -0.025571907333185519 0.0088139088875765579 0 -0.025288136739448113 0.008541437194231628 0 -0.025614445428030486 0.0095137413646439427 0 -0.025554925507502799 0.0093502594220532028 0 -0.025551838611916171 0.0094502875607221613 0 -0.025100498443789154 0.0081320196590524488 0 -0.025288136739448113 0.008541437194231628 0 -0.02496289052365781 0.0086354655114607871 0 -0.025571907333185519 0.0088139088875765579 0 -0.025288136739448113 0.008541437194231628 0 -0.025216281647266307 0.0088954130078756771 0 -0.025288136739448113 0.008541437194231628 0 -0.025216281647266307 0.0088954130078756771 0 -0.02496289052365781 0.0086354655114607871 0 -0.025216281647266307 0.0088954130078756771 0 -0.025015613623917587 0.0091405583291191 0 -0.02496289052365781 0.0086354655114607871 0 -0.025571907333185519 0.0088139088875765579 0 -0.025216281647266307 0.0088954130078756771 0 -0.025272156864038508 0.0091737805881429001 0 -0.025216281647266307 0.0088954130078756771 0 -0.025272156864038508 0.0091737805881429001 0 -0.025015613623917587 0.0091405583291191 0 -0.025015613623917587 0.0091405583291191 0 -0.024630154491589364 0.0088913530619215992 0 -0.02496289052365781 0.0086354655114607871 0 -0.025015613623917587 0.0091405583291191 0 -0.024630154491589364 0.0088913530619215992 0 -0.024738888325451975 0.0094185977682170567 0 -0.024670055324687974 0.0083428685631165601 0 -0.024630154491589364 0.0088913530619215992 0 -0.02496289052365781 0.0086354655114607871 0 -0.024670055324687974 0.0083428685631165601 0 -0.024630154491589364 0.0088913530619215992 0 -0.024262101073868 0.0084867060005940874 0 -0.024108765075562262 0.0091141565645449958 0 -0.024630154491589364 0.0088913530619215992 0 -0.024262101073868 0.0084867060005940874 0 -0.024108765075562262 0.0091141565645449958 0 -0.024630154491589364 0.0088913530619215992 0 -0.024738888325451975 0.0094185977682170567 0 -0.024108765075562262 0.0091141565645449958 0 -0.02429616880631193 0.0096328705449837959 0 -0.024738888325451975 0.0094185977682170567 0 -0.025187153019490954 0.0094268745520837034 0 -0.025015613623917587 0.0091405583291191 0 -0.024738888325451975 0.0094185977682170567 0 -0.024738888325451975 0.0094185977682170567 0 -0.025033815243158408 0.0094720212201994322 0 -0.024950686032822557 0.0095529319259077036 0 -0.025187153019490954 0.0094268745520837034 0 -0.024738888325451975 0.0094185977682170567 0 -0.025033815243158408 0.0094720212201994322 0 -0.02429616880631193 0.0096328705449837959 0 -0.024738888325451975 0.0094185977682170567 0 -0.024950686032822557 0.0095529319259077036 0 -0.02429616880631193 0.0096328705449837959 0 -0.024587904215298717 0.0097366826226327075 0 -0.024950686032822557 0.0095529319259077036 0 -0.024587904215298717 0.0097366826226327075 0 -0.024950686032822557 0.0095529319259077036 0 -0.025270634714257015 0.0092463155756175551 0 -0.025033815243158408 0.0094720212201994322 0 -0.024950686032822557 0.0095529319259077036 0 -0.025233627138247471 0.0093994846142823416 0 -0.024950686032822557 0.0095529319259077036 0 -0.025258034241191954 0.0091863718579279757 0 -0.025233627138247471 0.0093994846142823416 0 -0.024950686032822557 0.0095529319259077036 0 -0.025258034241191954 0.0091863718579279757 0 -0.025270634714257015 0.0092463155756175551 0 -0.024498125798808976 0.0073224183049023757 0 -0.024053732146874503 0.0078327328379806764 0 -0.024566832080577628 0.0071870931640388011 0 -0.024498125798808976 0.0073224183049023757 0 -0.024566832080577628 0.0071870931640388011 0 -0.024905246788698668 0.0067934947564690946 0 -0.025258034241191954 0.0091863718579279757 0 -0.025585062369412416 0.0083793947015452421 0 -0.025202606498743608 0.0088555743234650097 0 -0.025258034241191954 0.0091863718579279757 0 -0.025270634714257015 0.0092463155756175551 0 -0.025585062369412416 0.0083793947015452421 0 -0.024660882133261418 0.0085495056162220341 0 -0.025051905245016954 0.00778367074185777 0 -0.025585062369412416 0.0083793947015452421 0 -0.025202606498743608 0.0088555743234650097 0 -0.025102855858413934 0.0080572802375095311 0 -0.025051905245016954 0.00778367074185777 0 -0.025040677849577381 0.0071065854293947068 0 -0.025585062369412416 0.0083793947015452421 0 -0.025102855858413934 0.0080572802375095311 0 -0.025080283636429973 0.0070218813940402663 0 -0.025102855858413934 0.0080572802375095311 0 -0.025041718466469239 0.0085685066629632659 0 -0.024843585778656342 0.0078887172470846426 0 -0.025102855858413934 0.0080572802375095311 0 -0.024843585778656342 0.0078887172470846426 0 -0.02483754955269446 0.006977307481640359 0 -0.025202606498743608 0.0088555743234650097 0 -0.025102855858413934 0.0080572802375095311 0 -0.025041718466469239 0.0085685066629632659 0 -0.025202606498743608 0.0088555743234650097 0 -0.025041718466469239 0.0085685066629632659 0 -0.025220631212118327 0.0090930970643234212 0 -0.025041718466469239 0.0085685066629632659 0 -0.025220631212118327 0.0090930970643234212 0 -0.025100277334162233 0.0088677008306111416 0 -0.025258034241191954 0.0091863718579279757 0 -0.025202606498743608 0.0088555743234650097 0 -0.025233627138247471 0.0093994846142823416 0 -0.025202606498743608 0.0088555743234650097 0 -0.025220631212118327 0.0090930970643234212 0 -0.025233627138247471 0.0093994846142823416 0 -0.025220631212118327 0.0090930970643234212 0 -0.025341812565876878 0.009324270563424171 0 -0.025100277334162233 0.0088677008306111416 0 -0.025220631212118327 0.0090930970643234212 0 -0.025233627138247471 0.0093994846142823416 0 -0.025341812565876878 0.009324270563424171 0 -0.025341812565876878 0.009324270563424171 0 -0.025246493397537127 0.0091376314947313152 0 -0.025100277334162233 0.0088677008306111416 0 -0.025467008341862416 0.0094635608918211527 0 -0.025341812565876878 0.009324270563424171 0 -0.025246493397537127 0.0091376314947313152 0 -0.025467008341862416 0.0094635608918211527 0 -0.025246493397537127 0.0091376314947313152 0 -0.025305783865666207 0.0093096767078258442 0 -0.025246493397537127 0.0091376314947313152 0 -0.025305783865666207 0.0093096767078258442 0 -0.025013796684868483 0.0087929641660251402 0 -0.025013796684868483 0.0087929641660251402 0 -0.025100277334162233 0.0088677008306111416 0 -0.024791851519528132 0.0083879988117851814 0 -0.025246493397537127 0.0091376314947313152 0 -0.025013796684868483 0.0087929641660251402 0 -0.025100277334162233 0.0088677008306111416 0 -0.025041718466469239 0.0085685066629632659 0 -0.025100277334162233 0.0088677008306111416 0 -0.024791851519528132 0.0083879988117851814 0 -0.025041718466469239 0.0085685066629632659 0 -0.024843585778656342 0.0078887172470846426 0 -0.024791851519528132 0.0083879988117851814 0 -0.024843585778656342 0.0078887172470846426 0 -0.024398216497906348 0.0078305345845185639 0 -0.024791851519528132 0.0083879988117851814 0 -0.025013796684868483 0.0087929641660251402 0 -0.024791851519528132 0.0083879988117851814 0 -0.024708715829650865 0.0084093564384623738 0 -0.02507115619375461 0.0062406028986476299 0 -0.025421983613585965 0.0070883795900556637 0 -0.025145846911310391 0.0062314480146527344 0 -0.024398216497906348 0.0078305345845185639 0 -0.024791851519528132 0.0083879988117851814 0 -0.024708715829650865 0.0084093564384623738 0 -0.024754350222390302 0.0070414454883450991 0 -0.025019073920432962 0.0077406516052777579 0 -0.025421983613585965 0.0070883795900556637 0 -0.024999543529913279 0.0069296159824800332 0 -0.025145846911310391 0.0062314480146527344 0 -0.025421983613585965 0.0070883795900556637 0 -0.024999543529913279 0.0069296159824800332 0 -0.025000077671901277 0.0083008755821009812 0 -0.024708715829650865 0.0084093564384623738 0 -0.024999287432330767 0.0083027903979815808 0 -0.025106341058472099 0.0088206777317346823 0 -0.025019073920432962 0.0077406516052777579 0 -0.024999951497477968 0.0083007251619542609 0 -0.025013796684868483 0.0087929641660251402 0 -0.024708715829650865 0.0084093564384623738 0 -0.025106341058472099 0.0088206777317346823 0 -0.025305783865666207 0.0093096767078258442 0 -0.025013796684868483 0.0087929641660251402 0 -0.025106341058472099 0.0088206777317346823 0 -0.025218135327604831 0.0094690477079545556 0 -0.025305783865666207 0.0093096767078258442 0 -0.025106341058472099 0.0088206777317346823 0 -0.024999617556642179 0.0095990752749088738 0 -0.024999287432330767 0.0083027903979815808 0 -0.025106341058472099 0.0088206777317346823 0 -0.024999617556642179 0.0095990752749088738 0 -0.025218135327604831 0.0094690477079545556 0 -0.025106341058472099 0.0088206777317346823 0 -0.024999970388939738 0.003383613241071452 0 -0.025835315299429912 0.0035095130610165591 0 -0.025555900836544018 0.0026426727482998262 0 -0.024999970388939738 0.003383613241071452 0 -0.025835315299429912 0.0035095130610165591 0 -0.025330850095960381 0.0040113598357699246 0 -0.026135370007217003 0.0032757582182026549 0 -0.026216110634263691 0.0038582507896884276 0 -0.025681573942382734 0.0035930201365606922 0 -0.026135370007217003 0.0032757582182026549 0 -0.026216110634263691 0.0038582507896884276 0 -0.026471496656245368 0.0031216316609109702 0 -0.024387535274061883 0.005966555802384834 0 -0.02456619827204538 0.0060498630953418567 0 -0.024804589419161985 0.0060935840894736307 0 -0.026216110634263691 0.0038582507896884276 0 -0.025681573942382734 0.0035930201365606922 0 -0.025208551927010738 0.0047012486182242815 0 -0.024387535274061883 0.005966555802384834 0 -0.02456619827204538 0.0060498630953418567 0 -0.024380076917471457 0.0059795206086555239 0 -0.025433242454972551 0.004891528156572688 0 -0.025131599943915409 0.0049977066564813755 0 -0.024999970388939738 0.003383613241071452 0 -0.025330850095960381 0.0040113598357699246 0 -0.0249999958249521 0.0048703373897528825 0 -0.025330850095960381 0.0040113598357699246 0 -0.025446791652425943 0.0044948163705704515 0 -0.0249999958249521 0.0048703373897528825 0 -0.025835315299429912 0.0035095130610165591 0 -0.025330850095960381 0.0040113598357699246 0 -0.025446791652425943 0.0044948163705704515 0 -0.025801156731254955 0.0034565675149450933 0 -0.025131599943915409 0.0049977066564813755 0 -0.025131599943915409 0.0049977066564813755 0 -0.025000396538864461 0.0048701237368192051 0 -0.025448352655028199 0.0045008404589847997 0 -0.024999988097744827 0.0048703650770749087 0 -0.025000006606976776 0.0055604997971323757 0 -0.024804589419161985 0.0060935840894736307 0 -0.024830520421509315 0.0059470058645707579 0 -0.024999573606616223 0.0055628580695562925 0 -0.025131599943915409 0.0049977066564813755 0 -0.024999917026587139 0.0055608225346413754 0 -0.024830520421509315 0.0059470058645707579 0 -0.024999573606616223 0.0055628580695562925 0 -0.025145846911310391 0.0062314480146527344 0 -0.024999543529913279 0.0069296159824800332 0 -0.024999573606616223 0.0055628580695562925 0 -0.025145846911310391 0.0062314480146527344 0 -0.024830520421509315 0.0059470058645707579 0 -0.025145846911310391 0.0062314480146527344 0 -0.024779479285519046 0.00624135852902957 0 -0.02507115619375461 0.0062406028986476299 0 -0.025145846911310391 0.0062314480146527344 0 -0.024779479285519046 0.00624135852902957 0 -0.02456619827204538 0.0060498630953418567 0 -0.024804589419161985 0.0060935840894736307 0 -0.024830520421509315 0.0059470058645707579 0 -0.02456619827204538 0.0060498630953418567 0 -0.024830520421509315 0.0059470058645707579 0 -0.024779479285519046 0.00624135852902957 0 -0.02456619827204538 0.0060498630953418567 0 -0.024779479285519046 0.00624135852902957 0 -0.024405466757432853 0.0061138486570399032 0 -0.024779479285519046 0.00624135852902957 0 -0.024517446976903348 0.0065707768283468186 0 -0.024405466757432853 0.0061138486570399032 0 -0.02507115619375461 0.0062406028986476299 0 -0.024779479285519046 0.00624135852902957 0 -0.024517446976903348 0.0065707768283468186 0 -0.024754350222390302 0.0070414454883450991 0 -0.024595491612888973 0.0066097340454531976 0 -0.024843585778656342 0.0078887172470846426 0 -0.024398216497906348 0.0078305345845185639 0 -0.024517446976903348 0.0065707768283468186 0 -0.024843585778656342 0.0078887172470846426 0 -0.024517446976903348 0.0065707768283468186 0 -0.02483754955269446 0.006977307481640359 0 -0.024517446976903348 0.0065707768283468186 0 -0.024547141024780346 0.0062307001408842214 0 -0.024405466757432853 0.0061138486570399032 0 -0.024517446976903348 0.0065707768283468186 0 -0.024547141024780346 0.0062307001408842214 0 -0.02483754955269446 0.006977307481640359 0 -0.024547141024780346 0.0062307001408842214 0 -0.024327409364120482 0.0058032431876513368 0 -0.024405466757432853 0.0061138486570399032 0 -0.024547141024780346 0.0062307001408842214 0 -0.024327409364120482 0.0058032431876513368 0 -0.024547411912287691 0.0057805223247626774 0 -0.02456619827204538 0.0060498630953418567 0 -0.024405466757432853 0.0061138486570399032 0 -0.024380076917471457 0.0059795206086555239 0 -0.024387535274061883 0.005966555802384834 0 -0.024380076917471457 0.0059795206086555239 0 -0.024257793383296308 0.0057901262144214394 0 -0.024405466757432853 0.0061138486570399032 0 -0.024380076917471457 0.0059795206086555239 0 -0.024257793383296308 0.0057901262144214394 0 -0.024327409364120482 0.0058032431876513368 0 -0.024405466757432853 0.0061138486570399032 0 -0.024257793383296308 0.0057901262144214394 0 -0.024387535274061883 0.005966555802384834 0 -0.024257793383296308 0.0057901262144214394 0 -0.02408000780940743 0.0054776416382455693 0 -0.026216110634263691 0.0038582507896884276 0 -0.027147283123829885 0.0030503301835171593 0 -0.026471496656245368 0.0031216316609109702 0 -0.024327409364120482 0.0058032431876513368 0 -0.024257793383296308 0.0057901262144214394 0 -0.0240739335784553 0.0055002153387215553 0 -0.025433242454972551 0.004891528156572688 0 -0.024602157313836005 0.0041904401157770027 0 -0.024257793383296308 0.0057901262144214394 0 -0.0240739335784553 0.0055002153387215553 0 -0.02408000780940743 0.0054776416382455693 0 -0.024532877978738654 0.0050426837512013937 0 -0.024602157313836005 0.0041904401157770027 0 -0.0240739335784553 0.0055002153387215553 0 -0.024350038544145136 0.0054809224352036058 0 -0.024279173702568289 0.0049150170432702969 0 -0.0240739335784553 0.0055002153387215553 0 -0.024279173702568289 0.0049150170432702969 0 -0.023834608747352597 0.0050830158852552777 0 -0.024350038544145136 0.0054809224352036058 0 -0.024613351970217717 0.0052945890313972612 0 -0.024279173702568289 0.0049150170432702969 0 -0.024327409364120482 0.0058032431876513368 0 -0.024350038544145136 0.0054809224352036058 0 -0.024547411912287691 0.0057805223247626774 0 -0.024350038544145136 0.0054809224352036058 0 -0.024613351970217717 0.0052945890313972612 0 -0.024547411912287691 0.0057805223247626774 0 -0.024327409364120482 0.0058032431876513368 0 -0.0240739335784553 0.0055002153387215553 0 -0.024350038544145136 0.0054809224352036058 0 -0.024613351970217717 0.0052945890313972612 0 -0.024937331269422092 0.0056807565542748659 0 -0.024547411912287691 0.0057805223247626774 0 -0.024613351970217717 0.0052945890313972612 0 -0.024937331269422092 0.0056807565542748659 0 -0.024900379174737551 0.004714376453444356 0 -0.024613351970217717 0.0052945890313972612 0 -0.024900379174737551 0.004714376453444356 0 -0.024279173702568289 0.0049150170432702969 0 -0.024937331269422092 0.0056807565542748659 0 -0.025351128907442955 0.0053220958383237123 0 -0.024900379174737551 0.004714376453444356 0 -0.024937331269422092 0.0056807565542748659 0 -0.025127913899899514 0.0062763868382275352 0 -0.025351128907442955 0.0053220958383237123 0 -0.024937331269422092 0.0056807565542748659 0 -0.024862171185625285 0.0063445835202464241 0 -0.025127913899899514 0.0062763868382275352 0 -0.024937331269422092 0.0056807565542748659 0 -0.024547411912287691 0.0057805223247626774 0 -0.024862171185625285 0.0063445835202464241 0 -0.024547141024780346 0.0062307001408842214 0 -0.024547411912287691 0.0057805223247626774 0 -0.024862171185625285 0.0063445835202464241 0 -0.024547141024780346 0.0062307001408842214 0 -0.024862171185625285 0.0063445835202464241 0 -0.02483754955269446 0.006977307481640359 0 -0.024862171185625285 0.0063445835202464241 0 -0.02483754955269446 0.006977307481640359 0 -0.025080283636429973 0.0070218813940402663 0 -0.025102855858413934 0.0080572802375095311 0 -0.02483754955269446 0.006977307481640359 0 -0.025080283636429973 0.0070218813940402663 0 -0.024862171185625285 0.0063445835202464241 0 -0.025080283636429973 0.0070218813940402663 0 -0.025127913899899514 0.0062763868382275352 0 -0.025080283636429973 0.0070218813940402663 0 -0.025127913899899514 0.0062763868382275352 0 -0.024905246788698668 0.0067934947564690946 0 -0.024566832080577628 0.0071870931640388011 0 -0.025080283636429973 0.0070218813940402663 0 -0.024905246788698668 0.0067934947564690946 0 -0.024905246788698668 0.0067934947564690946 0 -0.025422262016329352 0.0059187805096175055 0 -0.025213103878975383 0.006404383202970875 0 -0.025127913899899514 0.0062763868382275352 0 -0.024905246788698668 0.0067934947564690946 0 -0.025422262016329352 0.0059187805096175055 0 -0.025127913899899514 0.0062763868382275352 0 -0.025422262016329352 0.0059187805096175055 0 -0.025351128907442955 0.0053220958383237123 0 -0.025422262016329352 0.0059187805096175055 0 -0.025351128907442955 0.0053220958383237123 0 -0.025903171361430808 0.0047736821058844778 0 -0.025351128907442955 0.0053220958383237123 0 -0.025903171361430808 0.0047736821058844778 0 -0.02545553457140623 0.0041456809204761099 0 -0.025903171361430808 0.0047736821058844778 0 -0.025917878076891294 0.0039029955530710506 0 -0.02545553457140623 0.0041456809204761099 0 -0.025917878076891294 0.0039029955530710506 0 -0.025862425306711082 0.0028047233290559789 0 -0.02545553457140623 0.0041456809204761099 0 -0.025917878076891294 0.0039029955530710506 0 -0.025862425306711082 0.0028047233290559789 0 -0.026655508701899169 0.0034907523132080803 0 -0.025903171361430808 0.0047736821058844778 0 -0.025917878076891294 0.0039029955530710506 0 -0.026655508701899169 0.0034907523132080803 0 -0.025343315998571651 -0.00096984483258669163 0 -0.024599267137626193 -0.00050365076067345914 0 -0.026681743916452828 0.0016054259709019757 0 -0.025862425306711082 0.0028047233290559789 0 -0.026655508701899169 0.0034907523132080803 0 -0.024139022802200961 -0.003560929082814366 0 -0.022561841270920119 -0.0044251807537765177 0 -0.022999751255301095 -0.0034408621325848392 0 -0.02274994336441576 -0.0026185070420438289 0 -0.023682185782042439 -0.0025000578273879207 0 -0.022999751255301095 -0.0034408621325848392 0 -0.023682185782042439 -0.0025000578273879207 0 -0.024139022802200961 -0.003560929082814366 0 -0.022999751255301095 -0.0034408621325848392 0 -0.025766103188193015 -0.00095886930302016863 0 -0.026681743916452828 0.0016054259709019757 0 -0.025834256268140281 0.00064340306407803744 0 -0.026681743916452828 0.0016054259709019757 0 -0.025834256268140281 0.00064340306407803744 0 -0.025734883955554205 0.0015091350431845913 0 -0.02568546860302803 -0.001007281096151919 0 -0.025343315998571651 -0.00096984483258669163 0 -0.026681743916452828 0.0016054259709019757 0 -0.025862425306711082 0.0028047233290559789 0 -0.025734883955554205 0.0015091350431845913 0 -0.025862425306711082 0.0028047233290559789 0 -0.025734883955554205 0.0015091350431845913 0 -0.024990598947694804 0.0014915502603962631 0 -0.025862425306711082 0.0028047233290559789 0 -0.024990598947694804 0.0014915502603962631 0 -0.024954996635339448 0.0032439611951551929 0 -0.025734883955554205 0.0015091350431845913 0 -0.025256288089203226 0.00039914032840733711 0 -0.024990598947694804 0.0014915502603962631 0 -0.025834256268140281 0.00064340306407803744 0 -0.025734883955554205 0.0015091350431845913 0 -0.025256288089203226 0.00039914032840733711 0 -0.024829574543168215 9.9863404614119339e-05 0 -0.024990598947694804 0.0014915502603962631 0 -0.024235166899035834 0.00047602700550166294 0 -0.025256288089203226 0.00039914032840733711 0 -0.024829574543168215 9.9863404614119339e-05 0 -0.024990598947694804 0.0014915502603962631 0 -0.024990598947694804 0.0014915502603962631 0 -0.024954996635339448 0.0032439611951551929 0 -0.024062358236862244 0.0021172445932201461 0 -0.024990598947694804 0.0014915502603962631 0 -0.024062358236862244 0.0021172445932201461 0 -0.024235166899035834 0.00047602700550166294 0 -0.024954996635339448 0.0032439611951551929 0 -0.024228134250068256 0.0039229953466509123 0 -0.024062358236862244 0.0021172445932201461 0 -0.025862425306711082 0.0028047233290559789 0 -0.024954996635339448 0.0032439611951551929 0 -0.02545553457140623 0.0041456809204761099 0 -0.025351128907442955 0.0053220958383237123 0 -0.02545553457140623 0.0041456809204761099 0 -0.024900379174737551 0.004714376453444356 0 -0.024954996635339448 0.0032439611951551929 0 -0.02545553457140623 0.0041456809204761099 0 -0.024900379174737551 0.004714376453444356 0 -0.024900379174737551 0.004714376453444356 0 -0.024228134250068256 0.0039229953466509123 0 -0.024279173702568289 0.0049150170432702969 0 -0.024954996635339448 0.0032439611951551929 0 -0.024900379174737551 0.004714376453444356 0 -0.024228134250068256 0.0039229953466509123 0 -0.024228134250068256 0.0039229953466509123 0 -0.023182627282820407 0.0047376151245318195 0 -0.022827996634689714 0.0028931328821382514 0 -0.023867139045750184 0.0043122460991703729 0 -0.024602157313836005 0.0041904401157770027 0 -0.024228134250068256 0.0039229953466509123 0 -0.024279173702568289 0.0049150170432702969 0 -0.023834608747352597 0.0050830158852552777 0 -0.024602157313836005 0.0041904401157770027 0 -0.02489692562502396 0.0023219893833626259 0 -0.027147283123829885 0.0030503301835171593 0 -0.026654670077571441 0.0026306526509154446 0 -0.026818651129162305 0.0018247337471117735 0 -0.027147283123829885 0.0030503301835171593 0 -0.026471496656245368 0.0031216316609109702 0 -0.026654670077571441 0.0026306526509154446 0 -0.026654670077571441 0.0026306526509154446 0 -0.026818651129162305 0.0018247337471117735 0 -0.026180052500524364 0.0025423138057713698 0 -0.024228134250068256 0.0039229953466509123 0 -0.022827996634689714 0.0028931328821382514 0 -0.024062358236862244 0.0021172445932201461 0 -0.024062358236862244 0.0021172445932201461 0 -0.024235166899035834 0.00047602700550166294 0 -0.02289799160112771 0.00080856596524725378 0 -0.023971837453268006 -0.00055117399339005421 0 -0.024235166899035834 0.00047602700550166294 0 -0.02289799160112771 0.00080856596524725378 0 -0.022827996634689714 0.0028931328821382514 0 -0.024062358236862244 0.0021172445932201461 0 -0.02289799160112771 0.00080856596524725378 0 -0.02489692562502396 0.0023219893833626259 0 -0.024700820893631171 0.00077246683515649027 0 -0.026818651129162305 0.0018247337471117735 0 -0.026438552301755867 0.00062187875386543218 0 -0.025850484556574935 0.0015957660180520256 0 -0.026438552301755867 0.00062187875386543218 0 -0.024999965990556879 0.00041020215094982065 0 -0.025850484556574935 0.0015957660180520256 0 -0.025945174792757372 -0.00062924662825180895 0 -0.026438552301755867 0.00062187875386543218 0 -0.024999965990556879 0.00041020215094982065 0 -0.024819012693576451 -0.00071639579310464954 0 -0.024700820893631171 0.00077246683515649027 0 -0.024999965990556879 0.00041020215094982065 0 -0.024999916097377121 0.0018969268275550199 0 -0.025850484556574935 0.0015957660180520256 0 -0.024999916097377121 0.0018969268275550199 0 -0.025850484556574935 0.0015957660180520256 0 -0.025555900836544018 0.0026426727482998262 0 -0.025850484556574935 0.0015957660180520256 0 -0.026180052500524364 0.0025423138057713698 0 -0.025555900836544018 0.0026426727482998262 0 -0.026818651129162305 0.0018247337471117735 0 -0.025850484556574935 0.0015957660180520256 0 -0.026180052500524364 0.0025423138057713698 0 -0.025801156731254955 0.0034565675149450933 0 -0.026129367935006007 0.0026654821125334199 0 -0.026135370007217003 0.0032757582182026549 0 -0.025681573942382734 0.0035930201365606922 0 -0.026180052500524364 0.0025423138057713698 0 -0.025835315299429912 0.0035095130610165591 0 -0.026180052500524364 0.0025423138057713698 0 -0.025555900836544018 0.0026426727482998262 0 -0.026135370007217003 0.0032757582182026549 0 -0.026471496656245368 0.0031216316609109702 0 -0.026180052500524364 0.0025423138057713698 0 -0.026471496656245368 0.0031216316609109702 0 -0.026654670077571441 0.0026306526509154446 0 -0.026180052500524364 0.0025423138057713698 0 -0.024999970388939738 0.003383613241071452 0 -0.024999916097377121 0.0018969268275550199 0 -0.025555900836544018 0.0026426727482998262 0 -0.018983181080649739 0.0063743694454578637 0 -0.019504356029126382 0.0062119139068847118 0 -0.019407397786119236 0.0068321801123009222 0 -0.021209643936605186 0.00046440044518249109 0 -0.020799266960028758 0.0011898727049331503 0 -0.021438719686354687 -0.0035047398569329328 0 -0.021727402416081718 -0.0040173179001859747 0 -0.021898370658262716 -0.0036511104208972142 0 -0.021791405450028934 -0.0039199876695726957 0 -0.021602226732961988 -0.0041278840264439348 0 -0.021628220706968043 -0.0040724994320275295 0 -0.023370269461154284 0.0032241347652754407 0 -0.022655269686826022 0.0043259339541915874 0 -0.021222887093415559 0.0038983553863963763 0 -0.021791405450028934 -0.0039199876695726957 0 -0.021679947155807462 -0.0037286316332333373 0 -0.021628220706968043 -0.0040724994320275295 0 -0.021209643936605186 0.00046440044518249109 0 -0.023207228563287708 0.0030323627935658218 0 -0.021791405450028934 -0.0039199876695726957 0 -0.021602226732961988 -0.0041278840264439348 0 -0.021478280274097448 -0.0042497284205240621 0 -0.021209643936605186 0.00046440044518249109 0 -0.021532453522423348 -0.0059691355204627575 0 -0.021602226732961988 -0.0041278840264439348 0 -0.021628220706968043 -0.0040724994320275295 0 -0.021536408108193256 -0.004255570853793523 0 -0.021602226732961988 -0.0041278840264439348 0 -0.021536408108193256 -0.004255570853793523 0 -0.021478280274097448 -0.0042497284205240621 0 -0.021727402416081718 -0.0040173179001859747 0 -0.021614908455864841 -0.004239661874462522 0 -0.021478280274097448 -0.0042497284205240621 0 -0.021438719686354687 -0.0035047398569329328 0 -0.021727402416081718 -0.0040173179001859747 0 -0.021478280274097448 -0.0042497284205240621 0 -0.022020895595148349 -0.0040217443004443342 0 -0.022322604117711246 -0.0037609053526254329 0 -0.021898370658262716 -0.0036511104208972142 0 -0.021727402416081718 -0.0040173179001859747 0 -0.022020895595148349 -0.0040217443004443342 0 -0.021898370658262716 -0.0036511104208972142 0 -0.022020895595148349 -0.0040217443004443342 0 -0.022322604117711246 -0.0037609053526254329 0 -0.022257302208430949 -0.00429735255968862 0 -0.017423071081358463 0.0060254644636058858 0 -0.017667810125909181 0.0078350201682996501 0 -0.016376548279637113 0.0063802528947294341 0 -0.019957715970132562 0.0034478279445001323 0 -0.019507217309039867 -0.0015377586684934507 0 -0.019957715970132562 0.0034478279445001323 0 -0.015765164523209477 0.0061843763375912788 0 -0.017387410864391176 0.0060599877320505185 0 -0.017156243537664709 0.0043788357341567061 0 -0.016566470991446116 0.0051207099629020899 0 -0.020079051744419166 0.0060042077316244521 0 -0.019865123636630233 0.0063990400652756746 0 -0.020166298474152165 0.0066996607146287595 0 -0.017387410864391176 0.0060599877320505185 0 -0.016376548279637113 0.0063802528947294341 0 -0.016566470991446116 0.0051207099629020899 0 -0.019957715970132562 0.0034478279445001323 0 -0.01864990523743263 0.0067960987824263004 0 -0.019957715970132562 0.0034478279445001323 0 -0.020799266960028758 0.0011898727049331503 0 -0.019504356029126382 0.0062119139068847118 0 -0.019725352508244511 0.0066930071508906003 0 -0.019407397786119236 0.0068321801123009222 0 -0.020079051744419166 0.0060042077316244521 0 -0.019504356029126382 0.0062119139068847118 0 -0.019865123636630233 0.0063990400652756746 0 -0.019504356029126382 0.0062119139068847118 0 -0.019865123636630233 0.0063990400652756746 0 -0.019725352508244511 0.0066930071508906003 0 -0.019511167368283584 0.0071575550237425222 0 -0.019746523188634717 0.0070705625810476994 0 -0.019407397786119236 0.0068321801123009222 0 -0.019725352508244511 0.0066930071508906003 0 -0.019746523188634717 0.0070705625810476994 0 -0.019407397786119236 0.0068321801123009222 0 -0.018180495156630158 0.0075056250835068509 0 -0.018281302665216805 0.0082055051595094474 0 -0.01843603976346448 0.0075165748429457478 0 -0.020032797371441265 0.0067422955253552026 0 -0.02003452595331414 0.0072397847901331351 0 -0.019746523188634717 0.0070705625810476994 0 -0.01864990523743263 0.0067960987824263004 0 -0.019178146348707938 0.0077733729202297151 0 -0.018077407458561588 0.0097488848808392706 0 -0.017023599171764908 0.0075106116918195048 0 -0.017156243537664709 0.0043788357341567061 0 -0.016566470991446116 0.0051207099629020899 0 -0.016618929974553741 0.0043659560023920569 0 -0.01864990523743263 0.0067960987824263004 0 -0.017023599171764908 0.0075106116918195048 0 -0.020137941967653263 0.0067357462093664009 0 -0.01864990523743263 0.0067960987824263004 0 -0.019865123636630233 0.0063990400652756746 0 -0.019725352508244511 0.0066930071508906003 0 -0.020166298474152165 0.0066996607146287595 0 -0.019725352508244511 0.0066930071508906003 0 -0.020032797371441265 0.0067422955253552026 0 -0.019746523188634717 0.0070705625810476994 0 -0.018386713769801079 0.0088498750021672214 0 -0.01840526553591201 0.0082105993400464188 0 -0.018281302665216805 0.0082055051595094474 0 -0.01840526553591201 0.0082105993400464188 0 -0.018281302665216805 0.0082055051595094474 0 -0.01843603976346448 0.0075165748429457478 0 -0.018592195127298521 0.0083231547465577507 0 -0.018077407458561588 0.0097488848808392706 0 -0.019908657611508149 0.0076656686809853016 0 -0.02003452595331414 0.0072397847901331351 0 -0.019803857699942081 0.0074311012878621784 0 -0.018592195127298521 0.0083231547465577507 0 -0.019178146348707938 0.0077733729202297151 0 -0.02003452595331414 0.0072397847901331351 0 -0.019803857699942081 0.0074311012878621784 0 -0.019746523188634717 0.0070705625810476994 0 -0.019511167368283584 0.0071575550237425222 0 -0.019746523188634717 0.0070705625810476994 0 -0.019630322546588013 0.0073160071639622902 0 -0.019614059273030754 0.0075284237023015574 0 -0.019803857699942081 0.0074311012878621784 0 -0.019630322546588013 0.0073160071639622902 0 -0.019803857699942081 0.0074311012878621784 0 -0.019746523188634717 0.0070705625810476994 0 -0.019630322546588013 0.0073160071639622902 0 -0.019511167368283584 0.0071575550237425222 0 -0.019630322546588013 0.0073160071639622902 0 -0.019464717887549676 0.0073648223249781625 0 -0.019614059273030754 0.0075284237023015574 0 -0.019630322546588013 0.0073160071639622902 0 -0.019464717887549676 0.0073648223249781625 0 -0.023200844129664357 0.007155895735644284 0 -0.021332910023721265 0.0066632049049947413 0 -0.019464717887549676 0.0073648223249781625 0 -0.019294417582990209 0.0074129175568405665 0 -0.019270746108480067 0.007162912555059367 0 -0.019459386058175026 0.0075156936951232389 0 -0.019464717887549676 0.0073648223249781625 0 -0.019294417582990209 0.0074129175568405665 0 -0.019105350235445399 0.0073942887513422399 0 -0.019270746108480067 0.007162912555059367 0 -0.019032618375864958 0.0069084266813462776 0 -0.019294417582990209 0.0074129175568405665 0 -0.019105350235445399 0.0073942887513422399 0 -0.019270746108480067 0.007162912555059367 0 -0.024146689372246576 0.0080639385428591063 0 -0.023200844129664357 0.007155895735644284 0 -0.019511167368283584 0.0071575550237425222 0 -0.019464717887549676 0.0073648223249781625 0 -0.019270746108480067 0.007162912555059367 0 -0.019511167368283584 0.0071575550237425222 0 -0.019270746108480067 0.007162912555059367 0 -0.019407397786119236 0.0068321801123009222 0 -0.019270746108480067 0.007162912555059367 0 -0.019407397786119236 0.0068321801123009222 0 -0.019032618375864958 0.0069084266813462776 0 -0.018983181080649739 0.0063743694454578637 0 -0.019407397786119236 0.0068321801123009222 0 -0.019032618375864958 0.0069084266813462776 0 -0.021209643936605186 0.00046440044518249109 0 -0.021332910023721265 0.0066632049049947413 0 -0.023370269461154284 0.0032241347652754407 0 -0.023535113304877335 0.0050312729293453852 0 -0.022655269686826022 0.0043259339541915874 0 -0.022655269686826022 0.0043259339541915874 0 -0.022450015982305626 0.0053654230827815943 0 -0.021222887093415559 0.0038983553863963763 0 -0.023535113304877335 0.0050312729293453852 0 -0.022655269686826022 0.0043259339541915874 0 -0.022450015982305626 0.0053654230827815943 0 -0.025712037061585393 0.0067783742278209212 0 -0.025695329412703027 0.0069575626795562945 0 -0.025370082622496144 0.0067682568004727977 0 -0.023690256872654362 0.0068433670840908119 0 -0.023535113304877335 0.0050312729293453852 0 -0.022450015982305626 0.0053654230827815943 0 -0.023200844129664357 0.007155895735644284 0 -0.024373923912899997 0.0063978812310836091 0 -0.02589068144150012 0.0070758109946194494 0 -0.025712037061585393 0.0067783742278209212 0 -0.025695329412703027 0.0069575626795562945 0 -0.02501929346079795 0.0075476527867879674 0 -0.025089659247730153 0.0075967936570774473 0 -0.025158216808411526 0.0072759686506467828 0 -0.024146689372246576 0.0080639385428591063 0 -0.025453775070619338 0.0071839650341729419 0 -0.0258919788985764 0.0071308443635418103 0 -0.02589068144150012 0.0070758109946194494 0 -0.025695329412703027 0.0069575626795562945 0 -0.02501929346079795 0.0075476527867879674 0 -0.025158216808411526 0.0072759686506467828 0 -0.025107670600605037 0.0073173155034322807 0 -0.025107670600605037 0.0073173155034322807 0 -0.025156361844130053 0.0069618967486293508 0 -0.025370082622496144 0.0067682568004727977 0 -0.025158216808411526 0.0072759686506467828 0 -0.025107670600605037 0.0073173155034322807 0 -0.025370082622496144 0.0067682568004727977 0 -0.025453775070619338 0.0071839650341729419 0 -0.025276234097674384 0.0068234700074812612 0 -0.025156361844130053 0.0069618967486293508 0 -0.025288100341322475 0.0065875247655910072 0 -0.025370082622496144 0.0067682568004727977 0 -0.025025424900617096 0.0072757021171720431 0 -0.025107670600605037 0.0073173155034322807 0 -0.025156361844130053 0.0069618967486293508 0 -0.025025424900617096 0.0072757021171720431 0 -0.02497597247691204 0.0070646316206208447 0 -0.025156361844130053 0.0069618967486293508 0 -0.02497597247691204 0.0070646316206208447 0 -0.025156361844130053 0.0069618967486293508 0 -0.025184739059034462 0.0066576381160922127 0 -0.025156361844130053 0.0069618967486293508 0 -0.025288100341322475 0.0065875247655910072 0 -0.025184739059034462 0.0066576381160922127 0 -0.025288100341322475 0.0065875247655910072 0 -0.025184739059034462 0.0066576381160922127 0 -0.025365756891075758 0.0062913175600846924 0 -0.025184739059034462 0.0066576381160922127 0 -0.025365756891075758 0.0062913175600846924 0 -0.025395557271347388 0.0061725773555245667 0 -0.025288100341322475 0.0065875247655910072 0 -0.025365756891075758 0.0062913175600846924 0 -0.025405226398890451 0.0062658574094635522 0 -0.025405226398890451 0.0062658574094635522 0 -0.025486897903527591 0.0062627711903401207 0 -0.025370082622496144 0.0067682568004727977 0 -0.02453858408532953 0.0040495358776331414 0 -0.023207228563287708 0.0030323627935658218 0 -0.024373923912899997 0.0063978812310836091 0 -0.023207228563287708 0.0030323627935658218 0 -0.025712037061585393 0.0067783742278209212 0 -0.025486897903527591 0.0062627711903401207 0 -0.025370082622496144 0.0067682568004727977 0 -0.025288100341322475 0.0065875247655910072 0 -0.025405226398890451 0.0062658574094635522 0 -0.025370082622496144 0.0067682568004727977 0 -0.024498125798808976 0.0073224183049023757 0 -0.024905246788698668 0.0067934947564690946 0 -0.024838709858217765 0.006990460846032328 0 -0.024905246788698668 0.0067934947564690946 0 -0.024838709858217765 0.006990460846032328 0 -0.025213103878975383 0.006404383202970875 0 -0.024838709858217765 0.006990460846032328 0 -0.025107574957489453 0.0066552433037172631 0 -0.025213103878975383 0.006404383202970875 0 -0.02497597247691204 0.0070646316206208447 0 -0.024838709858217765 0.006990460846032328 0 -0.025107574957489453 0.0066552433037172631 0 -0.02497597247691204 0.0070646316206208447 0 -0.025184739059034462 0.0066576381160922127 0 -0.025107574957489453 0.0066552433037172631 0 -0.025107574957489453 0.0066552433037172631 0 -0.025395557271347388 0.0061725773555245667 0 -0.025213103878975383 0.006404383202970875 0 -0.025184739059034462 0.0066576381160922127 0 -0.025107574957489453 0.0066552433037172631 0 -0.025395557271347388 0.0061725773555245667 0 -0.025422262016329352 0.0059187805096175055 0 -0.025213103878975383 0.006404383202970875 0 -0.025722026834692737 0.0056092036366398555 0 -0.025395557271347388 0.0061725773555245667 0 -0.025722026834692737 0.0056092036366398555 0 -0.025703741016691248 0.0055915597889769943 0 -0.025395557271347388 0.0061725773555245667 0 -0.025213103878975383 0.006404383202970875 0 -0.025722026834692737 0.0056092036366398555 0 -0.025722026834692737 0.0056092036366398555 0 -0.025703741016691248 0.0055915597889769943 0 -0.026253134661850204 0.0048041167009223 0 -0.023618836001273652 0.00040074865993162056 0 -0.024040153908874793 0.00018907073902953131 0 -0.025422262016329352 0.0059187805096175055 0 -0.025903171361430808 0.0047736821058844778 0 -0.025722026834692737 0.0056092036366398555 0 -0.023207228563287708 0.0030323627935658218 0 -0.023618836001273652 0.00040074865993162056 0 -0.025405226398890451 0.0062658574094635522 0 -0.025421978758543552 0.0061707665352403792 0 -0.025703741016691248 0.0055915597889769943 0 -0.021679947155807462 -0.0037286316332333373 0 -0.02159092752212613 -0.0040974607524764863 0 -0.021604975946230048 -0.0041117588562938389 0 -0.021679947155807462 -0.0037286316332333373 0 -0.021604975946230048 -0.0041117588562938389 0 -0.021628220706968043 -0.0040724994320275295 0 -0.025365756891075758 0.0062913175600846924 0 -0.025405226398890451 0.0062658574094635522 0 -0.025703741016691248 0.0055915597889769943 0 -0.025365756891075758 0.0062913175600846924 0 -0.025395557271347388 0.0061725773555245667 0 -0.025703741016691248 0.0055915597889769943 0 -0.02159092752212613 -0.0040974607524764863 0 -0.021604975946230048 -0.0041117588562938389 0 -0.021578215112279468 -0.004298397883572766 0 -0.021604975946230048 -0.0041117588562938389 0 -0.021536408108193256 -0.004255570853793523 0 -0.021578215112279468 -0.004298397883572766 0 -0.021604975946230048 -0.0041117588562938389 0 -0.021628220706968043 -0.0040724994320275295 0 -0.021536408108193256 -0.004255570853793523 0 -0.021536408108193256 -0.004255570853793523 0 -0.021491113738526232 -0.0043498729085459245 0 -0.021447151698945777 -0.0043619001081776423 0 -0.021491113738526232 -0.0043498729085459245 0 -0.021578215112279468 -0.004298397883572766 0 -0.021555406095157634 -0.0043367447410364475 0 -0.021536408108193256 -0.004255570853793523 0 -0.021491113738526232 -0.0043498729085459245 0 -0.021578215112279468 -0.004298397883572766 0 -0.02159092752212613 -0.0040974607524764863 0 -0.021578215112279468 -0.004298397883572766 0 -0.021803675648617689 -0.0044917225719621132 0 -0.021578215112279468 -0.004298397883572766 0 -0.021555406095157634 -0.0043367447410364475 0 -0.021803675648617689 -0.0044917225719621132 0 -0.021555406095157634 -0.0043367447410364475 0 -0.021649672330461285 -0.0042575137569965914 0 -0.021803675648617689 -0.0044917225719621132 0 -0.021555406095157634 -0.0043367447410364475 0 -0.021649672330461285 -0.0042575137569965914 0 -0.021495171707463519 -0.0042432838594755407 0 -0.021555406095157634 -0.0043367447410364475 0 -0.021423294237122529 -0.0043463732755942997 0 -0.021495171707463519 -0.0042432838594755407 0 -0.021491113738526232 -0.0043498729085459245 0 -0.021423294237122529 -0.0043463732755942997 0 -0.021378038543253985 -0.0044240467656927558 0 -0.021491113738526232 -0.0043498729085459245 0 -0.021555406095157634 -0.0043367447410364475 0 -0.021423294237122529 -0.0043463732755942997 0 -0.025903171361430808 0.0047736821058844778 0 -0.026253134661850204 0.0048041167009223 0 -0.026655508701899169 0.0034907523132080803 0 -0.025903171361430808 0.0047736821058844778 0 -0.025722026834692737 0.0056092036366398555 0 -0.026253134661850204 0.0048041167009223 0 -0.021649672330461285 -0.0042575137569965914 0 -0.021803675648617689 -0.0044917225719621132 0 -0.021859401528431882 -0.0041205223498878337 0 -0.024040153908874793 0.00018907073902953131 0 -0.024599267137626193 -0.00050365076067345914 0 -0.021803675648617689 -0.0044917225719621132 0 -0.022561841270920119 -0.0044251807537765177 0 -0.021859401528431882 -0.0041205223498878337 0 -0.022561841270920119 -0.0044251807537765177 0 -0.021859401528431882 -0.0041205223498878337 0 -0.022155277024604954 -0.0036671795459223529 0 -0.022561841270920119 -0.0044251807537765177 0 -0.022155277024604954 -0.0036671795459223529 0 -0.022999751255301095 -0.0034408621325848392 0 -0.0215154444817354 -0.0034669520275179794 0 -0.021859401528431882 -0.0041205223498878337 0 -0.021526276335437387 -0.0040228637102324594 0 -0.0215154444817354 -0.0034669520275179794 0 -0.021859401528431882 -0.0041205223498878337 0 -0.022155277024604954 -0.0036671795459223529 0 -0.0215154444817354 -0.0034669520275179794 0 -0.02274994336441576 -0.0026185070420438289 0 -0.022155277024604954 -0.0036671795459223529 0 -0.02274994336441576 -0.0026185070420438289 0 -0.022155277024604954 -0.0036671795459223529 0 -0.022999751255301095 -0.0034408621325848392 0 -0.021423294237122529 -0.0043463732755942997 0 -0.021495171707463519 -0.0042432838594755407 0 -0.02136111614336287 -0.0042589706942114045 0 -0.021495171707463519 -0.0042432838594755407 0 -0.021526276335437387 -0.0040228637102324594 0 -0.02136111614336287 -0.0042589706942114045 0 -0.021649672330461285 -0.0042575137569965914 0 -0.021859401528431882 -0.0041205223498878337 0 -0.021526276335437387 -0.0040228637102324594 0 -0.021649672330461285 -0.0042575137569965914 0 -0.021495171707463519 -0.0042432838594755407 0 -0.021526276335437387 -0.0040228637102324594 0 -0.021652024057465948 -0.0039862345250547045 0 -0.0215154444817354 -0.0034669520275179794 0 -0.021526276335437387 -0.0040228637102324594 0 -0.021652024057465948 -0.0039862345250547045 0 -0.021526276335437387 -0.0040228637102324594 0 -0.021485605432182132 -0.0041425158714929258 0 -0.021526276335437387 -0.0040228637102324594 0 -0.021485605432182132 -0.0041425158714929258 0 -0.02136111614336287 -0.0042589706942114045 0 -0.021439502561239873 -0.0042768885142635662 0 -0.021485605432182132 -0.0041425158714929258 0 -0.02136111614336287 -0.0042589706942114045 0 -0.021439502561239873 -0.0042768885142635662 0 -0.02136111614336287 -0.0042589706942114045 0 -0.021183684963402116 -0.0043360289636866335 0 -0.02136111614336287 -0.0042589706942114045 0 -0.021183684963402116 -0.0043360289636866335 0 -0.02111052934588507 -0.0043897036242621099 0 -0.021183684963402116 -0.0043360289636866335 0 -0.020914127539309695 -0.0043689049760003299 0 -0.02111052934588507 -0.0043897036242621099 0 -0.020914127539309695 -0.0043689049760003299 0 -0.02111052934588507 -0.0043897036242621099 0 -0.02079892861196787 -0.0044318745910633325 0 -0.02111052934588507 -0.0043897036242621099 0 -0.021279490376901782 -0.0043961040882458027 0 -0.021089366356426907 -0.0045131174471146019 0 -0.02111052934588507 -0.0043897036242621099 0 -0.021089366356426907 -0.0045131174471146019 0 -0.02079892861196787 -0.0044318745910633325 0 -0.02136111614336287 -0.0042589706942114045 0 -0.02111052934588507 -0.0043897036242621099 0 -0.021279490376901782 -0.0043961040882458027 0 -0.021423294237122529 -0.0043463732755942997 0 -0.02136111614336287 -0.0042589706942114045 0 -0.021279490376901782 -0.0043961040882458027 0 -0.021279490376901782 -0.0043961040882458027 0 -0.021378038543253985 -0.0044240467656927558 0 -0.021089366356426907 -0.0045131174471146019 0 -0.021423294237122529 -0.0043463732755942997 0 -0.021279490376901782 -0.0043961040882458027 0 -0.021378038543253985 -0.0044240467656927558 0 -0.021378038543253985 -0.0044240467656927558 0 -0.021089366356426907 -0.0045131174471146019 0 -0.021398012124638838 -0.0044790413619066483 0 -0.021267902578938517 -0.0045057650958159282 0 -0.021734783539895247 -0.0045082112633289644 0 -0.021398012124638838 -0.0044790413619066483 0 -0.021614908455864841 -0.004239661874462522 0 -0.021888285774882509 -0.0043653231526737755 0 -0.021089366356426907 -0.0045131174471146019 0 -0.021398012124638838 -0.0044790413619066483 0 -0.020955283032973761 -0.0047127402382808759 0 -0.021727402416081718 -0.0040173179001859747 0 -0.021614908455864841 -0.004239661874462522 0 -0.021888285774882509 -0.0043653231526737755 0 -0.021398012124638838 -0.0044790413619066483 0 -0.021614908455864841 -0.004239661874462522 0 -0.021478280274097448 -0.0042497284205240621 0 -0.021398012124638838 -0.0044790413619066483 0 -0.021478280274097448 -0.0042497284205240621 0 -0.021447151698945777 -0.0043619001081776423 0 -0.021536408108193256 -0.004255570853793523 0 -0.021478280274097448 -0.0042497284205240621 0 -0.021447151698945777 -0.0043619001081776423 0 -0.021491113738526232 -0.0043498729085459245 0 -0.021378038543253985 -0.0044240467656927558 0 -0.021447151698945777 -0.0043619001081776423 0 -0.021378038543253985 -0.0044240467656927558 0 -0.021398012124638838 -0.0044790413619066483 0 -0.021447151698945777 -0.0043619001081776423 0 -0.019507217309039867 -0.0015377586684934507 0 -0.017701612367470025 0.0013562818551092568 0 -0.020454331213282516 -0.005477766822524769 0 -0.020016704363557517 -0.0051034529801465339 0 -0.019729699444125583 -0.005493466732592869 0 -0.019507217309039867 -0.0015377586684934507 0 -0.021734783539895247 -0.0045082112633289644 0 -0.022020895595148349 -0.0040217443004443342 0 -0.022257302208430949 -0.00429735255968862 0 -0.021888285774882509 -0.0043653231526737755 0 -0.021727402416081718 -0.0040173179001859747 0 -0.022020895595148349 -0.0040217443004443342 0 -0.021888285774882509 -0.0043653231526737755 0 -0.020740673779029863 -0.0047393139625852877 0 -0.020955283032973761 -0.0047127402382808759 0 -0.020620083918963899 -0.0046244432716326138 0 -0.021089366356426907 -0.0045131174471146019 0 -0.020955283032973761 -0.0047127402382808759 0 -0.020620083918963899 -0.0046244432716326138 0 -0.020620083918963899 -0.0046244432716326138 0 -0.019740131078918227 -0.004722215563894577 0 -0.020016704363557517 -0.0051034529801465339 0 -0.020454331213282516 -0.005477766822524769 0 -0.020620083918963899 -0.0046244432716326138 0 -0.020016704363557517 -0.0051034529801465339 0 -0.019507217309039867 -0.0015377586684934507 0 -0.020772420085446837 -0.0060879859583837124 0 -0.020620083918963899 -0.0046244432716326138 0 -0.020129758079167046 -0.0043834760579572621 0 -0.019740131078918227 -0.004722215563894577 0 -0.020620083918963899 -0.0046244432716326138 0 -0.02079892861196787 -0.0044318745910633325 0 -0.020512355414702407 -0.0043144834933336066 0 -0.021089366356426907 -0.0045131174471146019 0 -0.020620083918963899 -0.0046244432716326138 0 -0.02079892861196787 -0.0044318745910633325 0 -0.020656961256276085 -0.0043235402956828903 0 -0.02079892861196787 -0.0044318745910633325 0 -0.020512355414702407 -0.0043144834933336066 0 -0.020656961256276085 -0.0043235402956828903 0 -0.020914127539309695 -0.0043689049760003299 0 -0.02079892861196787 -0.0044318745910633325 0 -0.020255859208782416 -0.0040838189236511793 0 -0.020129758079167046 -0.0043834760579572621 0 -0.020512355414702407 -0.0043144834933336066 0 -0.020620083918963899 -0.0046244432716326138 0 -0.020129758079167046 -0.0043834760579572621 0 -0.020512355414702407 -0.0043144834933336066 0 -0.020255859208782416 -0.0040838189236511793 0 -0.019803701009960858 -0.0040921202827001197 0 -0.020129758079167046 -0.0043834760579572621 0 -0.019803701009960858 -0.0040921202827001197 0 -0.020129758079167046 -0.0043834760579572621 0 -0.01964162391201529 -0.0043926620639546232 0 -0.019803701009960858 -0.0040921202827001197 0 -0.019300376288674016 -0.0040505045969190289 0 -0.01964162391201529 -0.0043926620639546232 0 -0.019300376288674016 -0.0040505045969190289 0 -0.01964162391201529 -0.0043926620639546232 0 -0.019177423279054053 -0.0044928068490497569 0 -0.019300376288674016 -0.0040505045969190289 0 -0.019177423279054053 -0.0044928068490497569 0 -0.01893334336854802 -0.0042384440357788678 0 -0.01964162391201529 -0.0043926620639546232 0 -0.019177423279054053 -0.0044928068490497569 0 -0.019740131078918227 -0.004722215563894577 0 -0.019177423279054053 -0.0044928068490497569 0 -0.019740131078918227 -0.004722215563894577 0 -0.019070783579270532 -0.0049119674557280011 0 -0.020129758079167046 -0.0043834760579572621 0 -0.01964162391201529 -0.0043926620639546232 0 -0.019740131078918227 -0.004722215563894577 0 -0.018626158461769213 -0.003968857683581334 0 -0.018496844483993156 -0.0044213988079283536 0 -0.018096712511954105 -0.0041623920694299765 0 -0.018496844483993156 -0.0044213988079283536 0 -0.018063151237551249 -0.0044987634850278835 0 -0.018096712511954105 -0.0041623920694299765 0 -0.018626158461769213 -0.003968857683581334 0 -0.018496844483993156 -0.0044213988079283536 0 -0.01893334336854802 -0.0042384440357788678 0 -0.018496844483993156 -0.0044213988079283536 0 -0.01893334336854802 -0.0042384440357788678 0 -0.01882846079131565 -0.0046070110578901955 0 -0.019177423279054053 -0.0044928068490497569 0 -0.01893334336854802 -0.0042384440357788678 0 -0.01882846079131565 -0.0046070110578901955 0 -0.019300376288674016 -0.0040505045969190289 0 -0.018626158461769213 -0.003968857683581334 0 -0.01893334336854802 -0.0042384440357788678 0 -0.019177423279054053 -0.0044928068490497569 0 -0.01882846079131565 -0.0046070110578901955 0 -0.019070783579270532 -0.0049119674557280011 0 -0.018496844483993156 -0.0044213988079283536 0 -0.01882846079131565 -0.0046070110578901955 0 -0.018601702004615278 -0.0048318168669938847 0 -0.01882846079131565 -0.0046070110578901955 0 -0.018601702004615278 -0.0048318168669938847 0 -0.019070783579270532 -0.0049119674557280011 0 -0.018496844483993156 -0.0044213988079283536 0 -0.018277179871503922 -0.0047136211245809977 0 -0.018063151237551249 -0.0044987634850278835 0 -0.018496844483993156 -0.0044213988079283536 0 -0.018277179871503922 -0.0047136211245809977 0 -0.018601702004615278 -0.0048318168669938847 0 -0.014604339544442712 0.00351051696627831 0 -0.014001120892863095 0.001567075526566023 0 -0.018277179871503922 -0.0047136211245809977 0 -0.018351657562708502 -0.0050061544088867869 0 -0.017882147237830572 -0.004819595174149747 0 -0.018351657562708502 -0.0050061544088867869 0 -0.018683059307880934 -0.0051515837609250716 0 -0.01839091651668685 -0.005444875039303171 0 -0.018351657562708502 -0.0050061544088867869 0 -0.01839091651668685 -0.005444875039303171 0 -0.017882147237830572 -0.004819595174149747 0 -0.018277179871503922 -0.0047136211245809977 0 -0.018351657562708502 -0.0050061544088867869 0 -0.018601702004615278 -0.0048318168669938847 0 -0.018351657562708502 -0.0050061544088867869 0 -0.018683059307880934 -0.0051515837609250716 0 -0.018601702004615278 -0.0048318168669938847 0 -0.018683059307880934 -0.0051515837609250716 0 -0.019070783579270532 -0.0049119674557280011 0 -0.019037934832699326 -0.0054819094952408996 0 -0.018683059307880934 -0.0051515837609250716 0 -0.018601702004615278 -0.0048318168669938847 0 -0.019070783579270532 -0.0049119674557280011 0 -0.012220369007339761 0.007679169005427376 0 -0.014012706861672398 0.0078404771945771497 0 -0.013508056141000252 0.0069607606370836366 0 -0.014604339544442712 0.00351051696627831 0 -0.016648223219705594 0.0010195452788129657 0 -0.012220369007339761 0.007679169005427376 0 -0.012090591958786704 0.0078322905464051022 0 -0.014012706861672398 0.0078404771945771497 0 -0.018683059307880934 -0.0051515837609250716 0 -0.01839091651668685 -0.005444875039303171 0 -0.019037934832699326 -0.0054819094952408996 0 -0.014604339544442712 0.00351051696627831 0 -0.0097962106856518162 0.0075887186844799098 0 -0.012081883797659274 0.0078411110120837294 0 -0.011452862746499764 0.0070943892066334053 0 -0.010542923128977175 0.0077872430449860384 0 -0.012220369007339761 0.007679169005427376 0 -0.012081883797659274 0.0078411110120837294 0 -0.011452862746499764 0.0070943892066334053 0 -0.01407685048056315 0.0041942746136246576 0 -0.014604339544442712 0.00351051696627831 0 -0.020016704363557517 -0.0051034529801465339 0 -0.019490243373987422 -0.0051224169830777428 0 -0.019729699444125583 -0.005493466732592869 0 -0.019740131078918227 -0.004722215563894577 0 -0.020016704363557517 -0.0051034529801465339 0 -0.019490243373987422 -0.0051224169830777428 0 -0.019490243373987422 -0.0051224169830777428 0 -0.019070783579270532 -0.0049119674557280011 0 -0.019037934832699326 -0.0054819094952408996 0 -0.019740131078918227 -0.004722215563894577 0 -0.019490243373987422 -0.0051224169830777428 0 -0.019070783579270532 -0.0049119674557280011 0 -0.014012706861672398 0.0078404771945771497 0 -0.015868313022095213 0.0078301886628779713 0 -0.014966673020155932 0.0065762378268050432 0 -0.016648223219705594 0.0010195452788129657 0 -0.017701612367470025 0.0013562818551092568 0 -0.019490243373987422 -0.0051224169830777428 0 -0.019037934832699326 -0.0054819094952408996 0 -0.019729699444125583 -0.005493466732592869 0 -0.017667810125909181 0.0078350201682996501 0 -0.015868313022095213 0.0078301886628779713 0 -0.016376548279637113 0.0063802528947294341 0 -0.016376548279637113 0.0063802528947294341 0 -0.01580145653200089 0.0058663057607885091 0 -0.014966673020155932 0.0065762378268050432 0 -0.015868313022095213 0.0078301886628779713 0 -0.016376548279637113 0.0063802528947294341 0 -0.014966673020155932 0.0065762378268050432 0 -0.01580145653200089 0.0058663057607885091 0 -0.015281268391563367 0.0054044949563421107 0 -0.014966673020155932 0.0065762378268050432 0 -0.016376548279637113 0.0063802528947294341 0 -0.01580145653200089 0.0058663057607885091 0 -0.016566470991446116 0.0051207099629020899 0 -0.015281268391563367 0.0054044949563421107 0 -0.016616299931810481 0.0042991711475907452 0 -0.014224717529949497 0.0041972072835186119 0 -0.01580145653200089 0.0058663057607885091 0 -0.016566470991446116 0.0051207099629020899 0 -0.015281268391563367 0.0054044949563421107 0 -0.016566470991446116 0.0051207099629020899 0 -0.015281268391563367 0.0054044949563421107 0 -0.016616299931810481 0.0042991711475907452 0 -0.016838907352139269 0.0046694265855876348 0 -0.017023599171764908 0.0075106116918195048 0 -0.015281268391563367 0.0054044949563421107 0 -0.013729744853396867 0.0059416129678590713 0 -0.014224717529949497 0.0041972072835186119 0 -0.015281268391563367 0.0054044949563421107 0 -0.014966673020155932 0.0065762378268050432 0 -0.013729744853396867 0.0059416129678590713 0 -0.014966673020155932 0.0065762378268050432 0 -0.013508056141000252 0.0069607606370836366 0 -0.013729744853396867 0.0059416129678590713 0 -0.014012706861672398 0.0078404771945771497 0 -0.014966673020155932 0.0065762378268050432 0 -0.013508056141000252 0.0069607606370836366 0 -0.012220369007339761 0.007679169005427376 0 -0.013508056141000252 0.0069607606370836366 0 -0.012374311072281634 0.0065285598508202976 0 -0.013508056141000252 0.0069607606370836366 0 -0.013729744853396867 0.0059416129678590713 0 -0.012374311072281634 0.0065285598508202976 0 -0.012220369007339761 0.007679169005427376 0 -0.011452862746499764 0.0070943892066334053 0 -0.012374311072281634 0.0065285598508202976 0 -0.011452862746499764 0.0070943892066334053 0 -0.012374311072281634 0.0065285598508202976 0 -0.011284981236299731 0.0060076441303162824 0 -0.011284981236299731 0.0060076441303162824 0 -0.012330720316923487 0.005339464776828221 0 -0.010617934110380993 0.0052394428103062088 0 -0.012330720316923487 0.005339464776828221 0 -0.011730576097796496 0.0041400620488819409 0 -0.010617934110380993 0.0052394428103062088 0 -0.012374311072281634 0.0065285598508202976 0 -0.011284981236299731 0.0060076441303162824 0 -0.012330720316923487 0.005339464776828221 0 -0.013729744853396867 0.0059416129678590713 0 -0.012330720316923487 0.005339464776828221 0 -0.014224717529949497 0.0041972072835186119 0 -0.013729744853396867 0.0059416129678590713 0 -0.012374311072281634 0.0065285598508202976 0 -0.012330720316923487 0.005339464776828221 0 -0.012330720316923487 0.005339464776828221 0 -0.011730576097796496 0.0041400620488819409 0 -0.014224717529949497 0.0041972072835186119 0 -0.011646299271242784 0.011976181892972854 0 -0.013343260297733873 0.010376678801385259 0 -0.014836496554896307 0.012080370779373626 0 -0.011636024620804668 0.007987476367809259 0 -0.014563073629950629 0.0082380080087132452 0 -0.011646299271242784 0.011976181892972854 0 -0.011426431382271602 0.0090196812432358289 0 -0.0098660852832797106 0.01042896575268701 0 -0.011646299271242784 0.011976181892972854 0 -0.011426431382271602 0.0090196812432358289 0 -0.013343260297733873 0.010376678801385259 0 -0.011426431382271602 0.0090196812432358289 0 -0.013343260297733873 0.010376678801385259 0 -0.013591739510921115 0.0087736072934491253 0 -0.013343260297733873 0.010376678801385259 0 -0.015027727968871966 0.0099103444383411964 0 -0.013591739510921115 0.0087736072934491253 0 -0.013343260297733873 0.010376678801385259 0 -0.015027727968871966 0.0099103444383411964 0 -0.014836496554896307 0.012080370779373626 0 -0.015027727968871966 0.0099103444383411964 0 -0.016382966875240403 0.010728110123517928 0 -0.014836496554896307 0.012080370779373626 0 -0.015027727968871966 0.0099103444383411964 0 -0.016382966875240403 0.010728110123517928 0 -0.016532983890864647 0.0092373050802634464 0 -0.017762345585401608 0.010342772794351989 0 -0.016382966875240403 0.010728110123517928 0 -0.016532983890864647 0.0092373050802634464 0 -0.017023599171764908 0.0075106116918195048 0 -0.014563073629950629 0.0082380080087132452 0 -0.016382966875240403 0.010728110123517928 0 -0.017669997252339201 0.01212801234942263 0 -0.014836496554896307 0.012080370779373626 0 -0.017762345585401608 0.010342772794351989 0 -0.016382966875240403 0.010728110123517928 0 -0.017669997252339201 0.01212801234942263 0 -0.0080710530232465331 0.0084796876163767149 0 -0.007948140414757764 0.0084900671052651235 0 -0.0076804561847936652 0.008108404917166875 0 -0.0077244201438094531 0.0081748976024627225 0 -0.0080710530232465331 0.0084796876163767149 0 -0.0076688506795825817 0.0081044866538535175 0 -0.0080710530232465331 0.0084796876163767149 0 -0.0076688506795825817 0.0081044866538535175 0 -0.0081334385571804023 0.0081580691837111873 0 -0.0080710530232465331 0.0084796876163767149 0 -0.0081334385571804023 0.0081580691837111873 0 -0.0089419336401244266 0.008478610612082816 0 -0.0077244201438094531 0.0081748976024627225 0 -0.0076688506795825817 0.0081044866538535175 0 -0.0073338978570966131 0.0078979028292859958 0 -0.0076688506795825817 0.0081044866538535175 0 -0.0073338978570966131 0.0078979028292859958 0 -0.0073428736133932804 0.0079019771593268964 0 -0.0076688506795825817 0.0081044866538535175 0 -0.0075306355713375813 0.0079111792416863645 0 -0.0073428736133932804 0.0079019771593268964 0 -0.0076688506795825817 0.0081044866538535175 0 -0.0075306355713375813 0.0079111792416863645 0 -0.0078232175612736165 0.0078734244385143485 0 -0.0076688506795825817 0.0081044866538535175 0 -0.0078232175612736165 0.0078734244385143485 0 -0.0081334385571804023 0.0081580691837111873 0 -0.0075306355713375813 0.0079111792416863645 0 -0.0078232175612736165 0.0078734244385143485 0 -0.0075843764272275557 0.0076900780143520728 0 -0.0078232175612736165 0.0078734244385143485 0 -0.0081334385571804023 0.0081580691837111873 0 -0.0082302100326161511 0.0078016372873970794 0 -0.0081334385571804023 0.0081580691837111873 0 -0.0087437288653061645 0.007991085467231528 0 -0.0089419336401244266 0.008478610612082816 0 -0.0081334385571804023 0.0081580691837111873 0 -0.0087437288653061645 0.007991085467231528 0 -0.0082302100326161511 0.0078016372873970794 0 -0.0089419336401244266 0.008478610612082816 0 -0.0097216389342833411 0.0082783442429035202 0 -0.010156751112735668 0.0089605701640836366 0 -0.0087437288653061645 0.007991085467231528 0 -0.0089419336401244266 0.008478610612082816 0 -0.0097216389342833411 0.0082783442429035202 0 -0.011426431382271602 0.0090196812432358289 0 -0.0097216389342833411 0.0082783442429035202 0 -0.010156751112735668 0.0089605701640836366 0 -0.011319296423863402 0.008924420928390327 0 -0.0098914020839918869 0.0098344179968937132 0 -0.011646299271242784 0.011976181892972854 0 -0.0098660852832797106 0.01042896575268701 0 -0.0082955602995827115 0.011786813332995241 0 -0.011636024620804668 0.007987476367809259 0 -0.0089900885096395686 0.0084105667687559595 0 -0.011730576097796496 0.0041400620488819409 0 -0.0092377183765317578 0.0041462890842385303 0 -0.010617934110380993 0.0052394428103062088 0 -0.0098914020839918869 0.0098344179968937132 0 -0.0089900885096395686 0.0084105667687559595 0 -0.0089419336401244266 0.008478610612082816 0 -0.010156751112735668 0.0089605701640836366 0 -0.0091495230623897042 0.0090788600494605756 0 -0.0080710530232465331 0.0084796876163767149 0 -0.0089419336401244266 0.008478610612082816 0 -0.0091495230623897042 0.0090788600494605756 0 -0.0080942460456949385 0.0085484209523873922 0 -0.0089900885096395686 0.0084105667687559595 0 -0.0089900885096395686 0.0084105667687559595 0 -0.0077647502457469306 0.006569210147135897 0 -0.0092377183765317578 0.0041462890842385303 0 -0.0093170303354605175 0.005980500168147565 0 -0.0076439706857914886 0.005723992488497971 0 -0.011284981236299731 0.0060076441303162824 0 -0.010617934110380993 0.0052394428103062088 0 -0.01035858116026101 0.0066283551438572159 0 -0.0093170303354605175 0.005980500168147565 0 -0.010617934110380993 0.0052394428103062088 0 -0.01035858116026101 0.0066283551438572159 0 -0.0092377183765317578 0.0041462890842385303 0 -0.0093170303354605175 0.005980500168147565 0 -0.010617934110380993 0.0052394428103062088 0 -0.011452862746499764 0.0070943892066334053 0 -0.011284981236299731 0.0060076441303162824 0 -0.01035858116026101 0.0066283551438572159 0 -0.011452862746499764 0.0070943892066334053 0 -0.01035858116026101 0.0066283551438572159 0 -0.010542923128977175 0.0077872430449860384 0 -0.0093170303354605175 0.005980500168147565 0 -0.0083130882534613679 0.0067817402932555237 0 -0.0090312181194715131 0.0076301669414694465 0 -0.0093170303354605175 0.005980500168147565 0 -0.0083130882534613679 0.0067817402932555237 0 -0.0076439706857914886 0.005723992488497971 0 -0.0093170303354605175 0.005980500168147565 0 -0.01035858116026101 0.0066283551438572159 0 -0.0090312181194715131 0.0076301669414694465 0 -0.0083130882534613679 0.0067817402932555237 0 -0.0072294994458417094 0.0071671811440555244 0 -0.0076439706857914886 0.005723992488497971 0 -0.0083130882534613679 0.0067817402932555237 0 -0.0072294994458417094 0.0071671811440555244 0 -0.0083766100470037581 0.0077924867345088144 0 -0.0077244201438094531 0.0081748976024627225 0 -0.0080710530232465331 0.0084796876163767149 0 -0.0076804561847936652 0.008108404917166875 0 -0.0076804561847936652 0.008108404917166875 0 -0.0073338978570966131 0.0078979028292859958 0 -0.0069025600081181011 0.0073306642803474525 0 -0.0077244201438094531 0.0081748976024627225 0 -0.0076804561847936652 0.008108404917166875 0 -0.0073338978570966131 0.0078979028292859958 0 -0.0077647502457469306 0.006569210147135897 0 -0.0069942530833925166 0.0073521691033842634 0 -0.0072294994458417094 0.0071671811440555244 0 -0.0076439706857914886 0.005723992488497971 0 -0.0069025600081181011 0.0073306642803474525 0 -0.0073338978570966131 0.0078979028292859958 0 -0.0069025600081181011 0.0073306642803474525 0 -0.0070924651599276875 0.0075923410651994811 0 -0.0069025600081181011 0.0073306642803474525 0 -0.0068620156470166494 0.007151312552936686 0 -0.0068040011640454071 0.0071374349579088102 0 -0.0068620156470166494 0.007151312552936686 0 -0.0067745632091063858 0.0069751862282777608 0 -0.0068040011640454071 0.0071374349579088102 0 -0.0072294994458417094 0.0071671811440555244 0 -0.0069025600081181011 0.0073306642803474525 0 -0.0068620156470166494 0.007151312552936686 0 -0.0072294994458417094 0.0071671811440555244 0 -0.0083766100470037581 0.0077924867345088144 0 -0.0081881293732426457 0.0087654479784574548 0 -0.0072270314214497597 0.006968779683237317 0 -0.0071409742998418489 0.0082754577251926819 0 -0.0072294994458417094 0.0071671811440555244 0 -0.0068620156470166494 0.007151312552936686 0 -0.0064377884173637883 0.0069568902415199675 0 -0.0068620156470166494 0.007151312552936686 0 -0.0064377884173637883 0.0069568902415199675 0 -0.0067745632091063858 0.0069751862282777608 0 -0.0064377884173637883 0.0069568902415199675 0 -0.0067745632091063858 0.0069751862282777608 0 -0.0069574681497025954 0.0062296139114146592 0 -0.0097962106856518162 0.0075887186844799098 0 -0.0093562819100228532 0.0076410068431784261 0 -0.011073972393329497 0.007586421473973903 0 -0.010020358670772101 0.0075786874130893836 0 -0.0098208031101833133 0.0089511408865629496 0 -0.01035858116026101 0.0066283551438572159 0 -0.010542923128977175 0.0077872430449860384 0 -0.0090312181194715131 0.0076301669414694465 0 -0.010020358670772101 0.0075786874130893836 0 -0.0090312181194715131 0.0076301669414694465 0 -0.0090450289618501448 0.0083852556753827821 0 -0.0083130882534613679 0.0067817402932555237 0 -0.0083766100470037581 0.0077924867345088144 0 -0.0090312181194715131 0.0076301669414694465 0 -0.0083766100470037581 0.0077924867345088144 0 -0.0090312181194715131 0.0076301669414694465 0 -0.0090450289618501448 0.0083852556753827821 0 -0.0083766100470037581 0.0077924867345088144 0 -0.0081881293732426457 0.0087654479784574548 0 -0.0090450289618501448 0.0083852556753827821 0 -0.0081881293732426457 0.0087654479784574548 0 -0.0089385350367691511 0.0090781708467840162 0 -0.0090450289618501448 0.0083852556753827821 0 -0.0089385350367691511 0.0090781708467840162 0 -0.0090450289618501448 0.0083852556753827821 0 -0.0098208031101833133 0.0089511408865629496 0 -0.010020358670772101 0.0075786874130893836 0 -0.0090450289618501448 0.0083852556753827821 0 -0.0098208031101833133 0.0089511408865629496 0 -0.017882147237830572 -0.004819595174149747 0 -0.018063151237551249 -0.0044987634850278835 0 -0.01782998146007576 -0.0044420905549984934 0 -0.017882147237830572 -0.004819595174149747 0 -0.01782998146007576 -0.0044420905549984934 0 -0.017598183938573091 -0.0044399014463033541 0 -0.018277179871503922 -0.0047136211245809977 0 -0.017882147237830572 -0.004819595174149747 0 -0.018063151237551249 -0.0044987634850278835 0 -0.014001120892863095 0.001567075526566023 0 -0.012907421920078951 0.0019323163207721006 0 -0.0081881293732426457 0.0087654479784574548 0 -0.0089385350367691511 0.0090781708467840162 0 -0.0087518016100596244 0.010050799825952443 0 -0.0089385350367691511 0.0090781708467840162 0 -0.009069328782986481 0.00968471932684822 0 -0.0087518016100596244 0.010050799825952443 0 -0.0089385350367691511 0.0090781708467840162 0 -0.0098208031101833133 0.0089511408865629496 0 -0.009069328782986481 0.00968471932684822 0 -0.012205313593187581 0.0028231738731322744 0 -0.012223052888393848 0.0027848111134495044 0 -0.012210617430439129 0.0027490666703652855 0 -0.012907421920078951 0.0019323163207721006 0 -0.013212159878643109 0.00020917221678807264 0 -0.012907421920078951 0.0019323163207721006 0 -0.0090068163605709125 0.0058197876981211745 0 -0.0090068163605709125 0.0058197876981211745 0 -0.013212159878643109 0.00020917221678807264 0 -0.0061355304637279182 0.0058744085677112133 0 -0.0060781180106177189 0.0057234402585022584 0 -0.0063654529523407511 0.005604799241865706 0 -0.01778539725496131 -0.0040469085452223101 0 -0.017531031425572607 -0.0041475879071959524 0 -0.017803302672643514 -0.0042348665356532816 0 -0.017598183938573091 -0.0044399014463033541 0 -0.017531031425572607 -0.0041475879071959524 0 -0.017803302672643514 -0.0042348665356532816 0 -0.01782998146007576 -0.0044420905549984934 0 -0.017598183938573091 -0.0044399014463033541 0 -0.017803302672643514 -0.0042348665356532816 0 -0.018063151237551249 -0.0044987634850278835 0 -0.01782998146007576 -0.0044420905549984934 0 -0.017803302672643514 -0.0042348665356532816 0 -0.01778539725496131 -0.0040469085452223101 0 -0.017803302672643514 -0.0042348665356532816 0 -0.018096712511954105 -0.0041623920694299765 0 -0.018063151237551249 -0.0044987634850278835 0 -0.017803302672643514 -0.0042348665356532816 0 -0.018096712511954105 -0.0041623920694299765 0 -0.0067547151457937552 0.0069169778776696864 0 -0.0066733383297485098 0.0064857929636344125 0 -0.0064377884173637883 0.0069568902415199675 0 -0.0069574681497025954 0.0062296139114146592 0 -0.0065488035737226039 0.0060436181702282037 0 -0.0064377884173637883 0.0069568902415199675 0 -0.0060527140718184338 0.0060391547755422638 0 -0.0065488035737226039 0.0060436181702282037 0 -0.0071409742998418489 0.0082754577251926819 0 -0.0090068163605709125 0.0058197876981211745 0 -0.0069573870782183491 0.0052926824603228831 0 -0.0065488035737226039 0.0060436181702282037 0 -0.0063654529523407511 0.005604799241865706 0 -0.0090068163605709125 0.0058197876981211745 0 -0.0061628060169698342 0.0062402385731989531 0 -0.0060527140718184338 0.0060391547755422638 0 -0.0065488035737226039 0.0060436181702282037 0 -0.0063654529523407511 0.005604799241865706 0 -0.0065845786368831415 0.0058007271030460607 0 -0.0066733383297485098 0.0064857929636344125 0 -0.0069573870782183491 0.0052926824603228831 0 -0.0069574681497025954 0.0062296139114146592 0 -0.0065488035737226039 0.0060436181702282037 0 -0.006574378435718297 0.0065013355873109529 0 -0.0062103953149681458 0.0063198343954461549 0 -0.0063817060130238138 0.0067819668903641231 0 -0.006574378435718297 0.0065013355873109529 0 -0.0063817060130238138 0.0067819668903641231 0 -0.0061939478692506862 0.006693587427849956 0 -0.0063817060130238138 0.0067819668903641231 0 -0.0061939478692506862 0.006693587427849956 0 -0.0065329939787305549 0.006924815427269697 0 -0.0061939478692506862 0.006693587427849956 0 -0.0064813668249049427 0.006908077895124114 0 -0.0065329939787305549 0.006924815427269697 0 -0.0057626764841991656 0.0061106629289128132 0 -0.0061075285270186762 0.0066004322766186948 0 -0.0057194582281964723 0.0058119524824479856 0 -0.004939735230368507 0.0058152164695164004 0 -0.0061939478692506862 0.006693587427849956 0 -0.0057194582281964723 0.0058119524824479856 0 -0.0062545032025787123 0.006010514245497027 0 -0.0062901914513274456 0.0065680840777462791 0 -0.0057194582281964723 0.0058119524824479856 0 -0.0061939478692506862 0.006693587427849956 0 -0.0062901914513274456 0.0065680840777462791 0 -0.0062545032025787123 0.006010514245497027 0 -0.0065084915747671054 0.0067050192673558098 0 -0.0062901914513274456 0.0065680840777462791 0 -0.0062545032025787123 0.006010514245497027 0 -0.0065084915747671054 0.0067050192673558098 0 -0.0066427875812106255 0.0063706319391275534 0 -0.0061939478692506862 0.006693587427849956 0 -0.0062901914513274456 0.0065680840777462791 0 -0.0064813668249049427 0.006908077895124114 0 -0.0065084915747671054 0.0067050192673558098 0 -0.0062901914513274456 0.0065680840777462791 0 -0.0064813668249049427 0.006908077895124114 0 -0.0065084915747671054 0.0067050192673558098 0 -0.0064813668249049427 0.006908077895124114 0 -0.0066956146397639657 0.0071858991246735648 0 -0.0065084915747671054 0.0067050192673558098 0 -0.0066956146397639657 0.0071858991246735648 0 -0.0067012186343976274 0.0070119084165350095 0 -0.0066956146397639657 0.0071858991246735648 0 -0.0067012186343976274 0.0070119084165350095 0 -0.0067063334183482936 0.0072293317683623697 0 -0.0066956146397639657 0.0071858991246735648 0 -0.0067480954004916528 0.0071691907717378106 0 -0.0069085151812325694 0.0073868073767390015 0 -0.0064813668249049427 0.006908077895124114 0 -0.0066956146397639657 0.0071858991246735648 0 -0.0067480954004916528 0.0071691907717378106 0 -0.0067480954004916528 0.0071691907717378106 0 -0.0068040011640454071 0.0071374349579088102 0 -0.0065329939787305549 0.006924815427269697 0 -0.0067480954004916528 0.0071691907717378106 0 -0.0068040011640454071 0.0071374349579088102 0 -0.0069333260088726648 0.0073381377894872124 0 -0.0067745632091063858 0.0069751862282777608 0 -0.0068040011640454071 0.0071374349579088102 0 -0.0065329939787305549 0.006924815427269697 0 -0.0067745632091063858 0.0069751862282777608 0 -0.0063817060130238138 0.0067819668903641231 0 -0.0065329939787305549 0.006924815427269697 0 -0.0064813668249049427 0.006908077895124114 0 -0.0067480954004916528 0.0071691907717378106 0 -0.0065329939787305549 0.006924815427269697 0 -0.0070163078754063284 0.0068803905740727721 0 -0.0070002088780877752 0.0068312793828703734 0 -0.0069782640411155871 0.0068533108806295082 0 -0.0050435054002867753 0.010437089133350301 0 -0.0048511807901706243 0.010734507614767028 0 -0.0048903323141742698 0.010081094990760606 0 -0.005235798785234478 0.010870165790658177 0 -0.0050435054002867753 0.010437089133350301 0 -0.0048511807901706243 0.010734507614767028 0 -0.0058619788941401 0.0091418912012578932 0 -0.0065329882482596698 0.006939892071119798 0 -0.0050435054002867753 0.010437089133350301 0 -0.0049485771881684617 0.010023103718482205 0 -0.0048903323141742698 0.010081094990760606 0 -0.0080446564945639964 0.0054871270222156508 0 -0.0080180701064858691 0.0056688038472541575 0 -0.0074684334832341411 0.0055289645979307656 0 -0.006860564899177319 0.0060962723969033693 0 -0.0068337757045408105 0.0060683640937227133 0 -0.0068272361108272185 0.0061313794763922305 0 -0.0067704914448230655 0.0056654352114024155 0 -0.0065329882482596698 0.006939892071119798 0 -0.0071290743259487463 0.0044585425739664284 0 -0.0071197173267675664 0.0044319135903471201 0 -0.0071307920043409568 0.0044446194835926871 0 -0.0065311188024073392 0.0058788315063161151 0 -0.0067704914448230655 0.0056654352114024155 0 -0.0065311188024073392 0.0058788315063161151 0 -0.0065329882482596698 0.006939892071119798 0 -0.0065329882482596698 0.006939892071119798 0 -0.0073822993163643411 0.0064074593171449248 0 -0.0080180701064858691 0.0056688038472541575 0 -0.0074684334832341411 0.0055289645979307656 0 -0.0074523038724687669 0.0062829582470969401 0 -0.0074684334832341411 0.0055289645979307656 0 -0.0072151501758357314 0.0058614179271976761 0 -0.0074523038724687669 0.0062829582470969401 0 -0.0070338602922537163 0.0054017813139943796 0 -0.0074684334832341411 0.0055289645979307656 0 -0.0072151501758357314 0.0058614179271976761 0 -0.0070163078754063284 0.0068803905740727721 0 -0.0069782640411155871 0.0068533108806295082 0 -0.0069708158973637024 0.0068751598773448171 0 -0.0069782640411155871 0.0068533108806295082 0 -0.0069321817568721456 0.0068291694794821939 0 -0.0069708158973637024 0.0068751598773448171 0 -0.0073822993163643411 0.0064074593171449248 0 -0.006892659226689515 0.0068758315558128391 0 -0.0069234137423786271 0.0061752940051408569 0 -0.0066427875812106255 0.0063706319391275534 0 -0.0069321817568721456 0.0068291694794821939 0 -0.0074523038724687669 0.0062829582470969401 0 -0.0069234137423786271 0.0061752940051408569 0 -0.0069321817568721456 0.0068291694794821939 0 -0.0070338602922537163 0.0054017813139943796 0 -0.00664486406622422 0.005700634130329776 0 -0.0069234137423786271 0.0061752940051408569 0 -0.0070338602922537163 0.0054017813139943796 0 -0.0072151501758357314 0.0058614179271976761 0 -0.0069234137423786271 0.0061752940051408569 0 -0.0072151501758357314 0.0058614179271976761 0 -0.0074523038724687669 0.0062829582470969401 0 -0.0069234137423786271 0.0061752940051408569 0 -0.00664486406622422 0.005700634130329776 0 -0.0062545032025787123 0.006010514245497027 0 -0.0066427875812106255 0.0063706319391275534 0 -0.00664486406622422 0.005700634130329776 0 -0.0069234137423786271 0.0061752940051408569 0 -0.0066427875812106255 0.0063706319391275534 0 -0.0065084915747671054 0.0067050192673558098 0 -0.0066427875812106255 0.0063706319391275534 0 -0.0067012186343976274 0.0070119084165350095 0 -0.0066427875812106255 0.0063706319391275534 0 -0.0067012186343976274 0.0070119084165350095 0 -0.0069321817568721456 0.0068291694794821939 0 -0.0067012186343976274 0.0070119084165350095 0 -0.0067330607078031493 0.007256582320117156 0 -0.0067063334183482936 0.0072293317683623697 0 -0.0067012186343976274 0.0070119084165350095 0 -0.0067330607078031493 0.007256582320117156 0 -0.0068196982047990969 0.0071466830578357111 0 -0.0068196982047990969 0.0071466830578357111 0 -0.0068002738125851735 0.0072401251503337203 0 -0.0067376815360348846 0.0074230212388587263 0 -0.0067330607078031493 0.007256582320117156 0 -0.0068196982047990969 0.0071466830578357111 0 -0.0067376815360348846 0.0074230212388587263 0 -0.0067012186343976274 0.0070119084165350095 0 -0.0068196982047990969 0.0071466830578357111 0 -0.0069321817568721456 0.0068291694794821939 0 -0.0068196982047990969 0.0071466830578357111 0 -0.0069321817568721456 0.0068291694794821939 0 -0.0069687544457056076 0.0069603443292388821 0 -0.0070163078754063284 0.0068803905740727721 0 -0.0069687544457056076 0.0069603443292388821 0 -0.0071274685934560522 0.007036387476475712 0 -0.0069321817568721456 0.0068291694794821939 0 -0.0069708158973637024 0.0068751598773448171 0 -0.0069687544457056076 0.0069603443292388821 0 -0.0070163078754063284 0.0068803905740727721 0 -0.0069708158973637024 0.0068751598773448171 0 -0.0069687544457056076 0.0069603443292388821 0 -0.0068196982047990969 0.0071466830578357111 0 -0.0069687544457056076 0.0069603443292388821 0 -0.0068002738125851735 0.0072401251503337203 0 -0.0068002738125851735 0.0072401251503337203 0 -0.0066911853552366271 0.0076955340880161477 0 -0.0067376815360348846 0.0074230212388587263 0 -0.0068002738125851735 0.0072401251503337203 0 -0.0071274685934560522 0.007036387476475712 0 -0.0066911853552366271 0.0076955340880161477 0 -0.0069687544457056076 0.0069603443292388821 0 -0.0068002738125851735 0.0072401251503337203 0 -0.0071274685934560522 0.007036387476475712 0 -0.0049083142297612322 0.011299853164542564 0 -0.0051396498715824499 0.011346142775062927 0 -0.0051261838260652061 0.011547142865546792 0 -0.0049083142297612322 0.011299853164542564 0 -0.0051396498715824499 0.011346142775062927 0 -0.0050615181054092647 0.011078169686751457 0 -0.0048511807901706243 0.010734507614767028 0 -0.0049083142297612322 0.011299853164542564 0 -0.0050615181054092647 0.011078169686751457 0 -0.005235798785234478 0.010870165790658177 0 -0.0048511807901706243 0.010734507614767028 0 -0.0050615181054092647 0.011078169686751457 0 -0.0058619788941401 0.0091418912012578932 0 -0.0060218247268738617 0.0091142555717481904 0 -0.0052104176625224546 0.011824044637358698 0 -0.005195840838956918 0.011711016234607045 0 -0.0052745194830000185 0.011763902467140097 0 -0.005195840838956918 0.011711016234607045 0 -0.0051392511628462348 0.011750247334027788 0 -0.0052745194830000185 0.011763902467140097 0 -0.0060218247268738617 0.0091142555717481904 0 -0.0058952409721777363 0.01049666201461124 0 -0.0049083142297612322 0.011299853164542564 0 -0.0051261838260652061 0.011547142865546792 0 -0.0051392511628462348 0.011750247334027788 0 -0.0052361818813116568 0.011548481844066769 0 -0.005195840838956918 0.011711016234607045 0 -0.0051261838260652061 0.011547142865546792 0 -0.0052361818813116568 0.011548481844066769 0 -0.0051396498715824499 0.011346142775062927 0 -0.0051261838260652061 0.011547142865546792 0 -0.005195840838956918 0.011711016234607045 0 -0.0051261838260652061 0.011547142865546792 0 -0.0051392511628462348 0.011750247334027788 0 -0.0066911853552366271 0.0076955340880161477 0 -0.0067316428948640964 0.007318315295255627 0 -0.0067376815360348846 0.0074230212388587263 0 -0.0066911853552366271 0.0076955340880161477 0 -0.0060066035025582894 0.0088698222729567452 0 -0.006695033530030957 0.0093071812331586533 0 -0.0071274685934560522 0.007036387476475712 0 -0.0066911853552366271 0.0076955340880161477 0 -0.006695033530030957 0.0093071812331586533 0 -0.0066911853552366271 0.0076955340880161477 0 -0.0060066035025582894 0.0088698222729567452 0 -0.0042763692413294542 0.0098056624849000053 0 -0.0066958332578248222 0.0076015955839948308 0 -0.0053091088144676104 0.0088455241522095752 0 -0.0060066035025582894 0.0088698222729567452 0 -0.0054860493460921929 0.010260669214880627 0 -0.0047265475135625278 0.0099212762376623582 0 -0.0055215678492076398 0.009185141806093134 0 -0.0053091088144676104 0.0088455241522095752 0 -0.006695033530030957 0.0093071812331586533 0 -0.0054860493460921929 0.010260669214880627 0 -0.0056236477243635464 0.011593623287228735 0 -0.0060066035025582894 0.0088698222729567452 0 -0.006695033530030957 0.0093071812331586533 0 -0.0054860493460921929 0.010260669214880627 0 -0.0054860493460921929 0.010260669214880627 0 -0.0047265475135625278 0.0099212762376623582 0 -0.0047470144016745364 0.011115374482863521 0 -0.0067316428948640964 0.007318315295255627 0 -0.0067402487969392792 0.0073254152178706382 0 -0.0067273136908966354 0.0073266282349945524 0 -0.0067316428948640964 0.007318315295255627 0 -0.0067376815360348846 0.0074230212388587263 0 -0.0067402487969392792 0.0073254152178706382 0 -0.0067330607078031493 0.007256582320117156 0 -0.0067376815360348846 0.0074230212388587263 0 -0.0067402487969392792 0.0073254152178706382 0 -0.0067330607078031493 0.007256582320117156 0 -0.0067402487969392792 0.0073254152178706382 0 -0.0067063334183482936 0.0072293317683623697 0 -0.0067402487969392792 0.0073254152178706382 0 -0.0067063334183482936 0.0072293317683623697 0 -0.0067204116048296073 0.0073105166541977415 0 -0.0053091088144676104 0.0088455241522095752 0 -0.0067893631656040943 0.0077590301843195666 0 -0.0067204116048296073 0.0073105166541977415 0 -0.0067273136908966354 0.0073266282349945524 0 -0.0067018976656878192 0.007334911627415972 0 -0.0067316428948640964 0.007318315295255627 0 -0.0067273136908966354 0.0073266282349945524 0 -0.0067207836330772349 0.0073574067780153088 0 -0.0067402487969392792 0.0073254152178706382 0 -0.0067204116048296073 0.0073105166541977415 0 -0.0067273136908966354 0.0073266282349945524 0 -0.0067273136908966354 0.0073266282349945524 0 -0.0067207836330772349 0.0073574067780153088 0 -0.0067018976656878192 0.007334911627415972 0 -0.0053091088144676104 0.0088455241522095752 0 -0.0083325175054603465 0.011313981413518326 0 -0.0058818040626815223 0.0088374688421223261 0 -0.0064375224447732063 0.0084662614801764013 0 -0.0064246217595845386 0.0082431875236751075 0 -0.0064375224447732063 0.0084662614801764013 0 -0.0064246217595845386 0.0082431875236751075 0 -0.0065212424846114066 0.0083107509715222277 0 -0.0083325175054603465 0.011313981413518326 0 -0.0070463819152098497 0.010139291317103453 0 -0.013918510158477955 0.016870473901757485 0 -0.013970135311450967 0.015703306195556103 0 -0.012489997888064755 0.016090297657058446 0 -0.0038324605553174767 0.011323094962251935 0 -0.0050464175289781617 0.011902018321735434 0 -0.0047470144016745364 0.011115374482863521 0 -0.0083325175054603465 0.011313981413518326 0 -0.0089941669662360006 0.014383578460290578 0 -0.0050464175289781617 0.011902018321735434 0 -0.0047470144016745364 0.011115374482863521 0 -0.0056236477243635464 0.011593623287228735 0 -0.0047265475135625278 0.0099212762376623582 0 -0.0038324605553174767 0.011323094962251935 0 -0.0047470144016745364 0.011115374482863521 0 -0.0054860493460921929 0.010260669214880627 0 -0.0047470144016745364 0.011115374482863521 0 -0.0056236477243635464 0.011593623287228735 0 -0.0058952409721777363 0.01049666201461124 0 -0.0056775211537543361 0.011460766101773493 0 -0.0050464175289781617 0.011902018321735434 0 -0.0054436090066794464 0.011789421705612726 0 -0.0055572701966046826 0.01178700329673269 0 -0.0050464175289781617 0.011902018321735434 0 -0.0056236477243635464 0.011593623287228735 0 -0.0054436090066794464 0.011789421705612726 0 -0.0054436090066794464 0.011789421705612726 0 -0.0054555760821220732 0.011790407434786519 0 -0.0055572701966046826 0.01178700329673269 0 -0.0056236477243635464 0.011593623287228735 0 -0.0054436090066794464 0.011789421705612726 0 -0.0054555760821220732 0.011790407434786519 0 -0.0056236477243635464 0.011593623287228735 0 -0.0054555760821220732 0.011790407434786519 0 -0.0053096244309211449 0.011834928697529206 0 -0.0052570253559692829 0.01182445825275163 0 -0.0054555760821220732 0.011790407434786519 0 -0.0053096244309211449 0.011834928697529206 0 -0.0051392511628462348 0.011750247334027788 0 -0.0056236477243635464 0.011593623287228735 0 -0.0052745194830000185 0.011763902467140097 0 -0.0056236477243635464 0.011593623287228735 0 -0.0053096244309211449 0.011834928697529206 0 -0.0052745194830000185 0.011763902467140097 0 -0.0052104176625224546 0.011824044637358698 0 -0.0053096244309211449 0.011834928697529206 0 -0.0052745194830000185 0.011763902467140097 0 -0.0070658647645650517 0.0076541984581022428 0 -0.0071629220653849643 0.0077471254639963081 0 -0.0071782620400424654 0.0077939825701771144 0 -0.0070658647645650517 0.0076541984581022428 0 -0.0071629220653849643 0.0077471254639963081 0 -0.0069983361418979317 0.0074931740460188181 0 -0.0073338978570966131 0.0078979028292859958 0 -0.0071629220653849643 0.0077471254639963081 0 -0.0073428736133932804 0.0079019771593268964 0 -0.0073338978570966131 0.0078979028292859958 0 -0.0071629220653849643 0.0077471254639963081 0 -0.0070924651599276875 0.0075923410651994811 0 -0.0071629220653849643 0.0077471254639963081 0 -0.0070924651599276875 0.0075923410651994811 0 -0.0069983361418979317 0.0074931740460188181 0 -0.0070924651599276875 0.0075923410651994811 0 -0.0069333260088726648 0.0073381377894872124 0 -0.0069983361418979317 0.0074931740460188181 0 -0.0067480954004916528 0.0071691907717378106 0 -0.0069333260088726648 0.0073381377894872124 0 -0.0069983361418979317 0.0074931740460188181 0 -0.0069025600081181011 0.0073306642803474525 0 -0.0070924651599276875 0.0075923410651994811 0 -0.0069333260088726648 0.0073381377894872124 0 -0.0069025600081181011 0.0073306642803474525 0 -0.0068040011640454071 0.0071374349579088102 0 -0.0069333260088726648 0.0073381377894872124 0 -0.0070658647645650517 0.0076541984581022428 0 -0.0069085151812325694 0.0073868073767390015 0 -0.0069983361418979317 0.0074931740460188181 0 -0.0067480954004916528 0.0071691907717378106 0 -0.0069085151812325694 0.0073868073767390015 0 -0.0069983361418979317 0.0074931740460188181 0 -0.0067277373348064032 0.0072342228480802599 0 -0.0068200076407411471 0.0073988234822525379 0 -0.0066956146397639657 0.0071858991246735648 0 -0.0069085151812325694 0.0073868073767390015 0 -0.0070205722373355419 0.007486082450647598 0 -0.0067063334183482936 0.0072293317683623697 0 -0.0067204116048296073 0.0073105166541977415 0 -0.0066503588255004843 0.0072985528924850041 0 -0.0066956146397639657 0.0071858991246735648 0 -0.0067063334183482936 0.0072293317683623697 0 -0.0066503588255004843 0.0072985528924850041 0 -0.0067204116048296073 0.0073105166541977415 0 -0.0067018976656878192 0.007334911627415972 0 -0.0066503588255004843 0.0072985528924850041 0 -0.0067018976656878192 0.007334911627415972 0 -0.0066503588255004843 0.0072985528924850041 0 -0.0066728930998598019 0.0073516324475881283 0 -0.0070658647645650517 0.0076541984581022428 0 -0.0070205722373355419 0.007486082450647598 0 -0.0071196060231917243 0.0077478366695567765 0 -0.0068200076407411471 0.0073988234822525379 0 -0.0068453995436518885 0.0075678423354107946 0 -0.0070658647645650517 0.0076541984581022428 0 -0.0069085151812325694 0.0073868073767390015 0 -0.0070205722373355419 0.007486082450647598 0 -0.0066503588255004843 0.0072985528924850041 0 -0.0066347436849292507 0.0073724490026126355 0 -0.0066728930998598019 0.0073516324475881283 0 -0.0066347436849292507 0.0073724490026126355 0 -0.0066728930998598019 0.0073516324475881283 0 -0.0066706057759480918 0.0074001603539239867 0 -0.0064217878080418738 0.0082480245103930868 0 -0.0065212424846114066 0.0083107509715222277 0 -0.0069139563382744863 0.0080797205228342033 0 -0.0066917302745663531 0.0073604381566517796 0 -0.0066728930998598019 0.0073516324475881283 0 -0.0066706057759480918 0.0074001603539239867 0 -0.0067893631656040943 0.0077590301843195666 0 -0.0067274039586588284 0.0077814627797417367 0 -0.0067207836330772349 0.0073574067780153088 0 -0.0066917302745663531 0.0073604381566517796 0 -0.0066706057759480918 0.0074001603539239867 0 -0.0064375224447732063 0.0084662614801764013 0 -0.0065212424846114066 0.0083107509715222277 0 -0.0069139563382744863 0.0080797205228342033 0 -0.0067018976656878192 0.007334911627415972 0 -0.0066917302745663531 0.0073604381566517796 0 -0.0066728930998598019 0.0073516324475881283 0 -0.0067207836330772349 0.0073574067780153088 0 -0.0067018976656878192 0.007334911627415972 0 -0.0066917302745663531 0.0073604381566517796 0 -0.0064217878080418738 0.0082480245103930868 0 -0.0069139563382744863 0.0080797205228342033 0 -0.006869796464788417 0.0076597588277448033 0 -0.0083325175054603465 0.011313981413518326 0 -0.011285027306985568 0.01169528477481647 0 -0.013918510158477955 0.016870473901757485 0 -0.013970135311450967 0.015703306195556103 0 -0.015091144431810156 0.015526515181898064 0 -0.0067274039586588284 0.0077814627797417367 0 -0.0070914156090130546 0.0075257619543364022 0 -0.0068453995436518885 0.0075678423354107946 0 -0.0070914156090130546 0.0075257619543364022 0 -0.0066347436849292507 0.0073724490026126355 0 -0.0066706057759480918 0.0074001603539239867 0 -0.006622388197245802 0.0074370127255466642 0 -0.0069139563382744863 0.0080797205228342033 0 -0.0073735243804928198 0.0076948047227370026 0 -0.006869796464788417 0.0076597588277448033 0 -0.0071024769871822655 0.0076747565496324624 0 -0.0071782620400424654 0.0077939825701771144 0 -0.0073489827780055658 0.007782992592447204 0 -0.0071196060231917243 0.0077478366695567765 0 -0.0071024769871822655 0.0076747565496324624 0 -0.0071782620400424654 0.0077939825701771144 0 -0.0070658647645650517 0.0076541984581022428 0 -0.0071196060231917243 0.0077478366695567765 0 -0.0071782620400424654 0.0077939825701771144 0 -0.0075306355713375813 0.0079111792416863645 0 -0.0073428736133932804 0.0079019771593268964 0 -0.0073489827780055658 0.007782992592447204 0 -0.0071629220653849643 0.0077471254639963081 0 -0.0071782620400424654 0.0077939825701771144 0 -0.0073428736133932804 0.0079019771593268964 0 -0.0071782620400424654 0.0077939825701771144 0 -0.0073428736133932804 0.0079019771593268964 0 -0.0073489827780055658 0.007782992592447204 0 -0.0075306355713375813 0.0079111792416863645 0 -0.0073489827780055658 0.007782992592447204 0 -0.0075843764272275557 0.0076900780143520728 0 -0.0073489827780055658 0.007782992592447204 0 -0.0075843764272275557 0.0076900780143520728 0 -0.0073210944399963044 0.0074429286998152011 0 -0.0075843764272275557 0.0076900780143520728 0 -0.0073210944399963044 0.0074429286998152011 0 -0.0079977611294485464 0.0074931710807801368 0 -0.0076689641810362167 0.0072001325611105588 0 -0.0076846264614669332 0.0069231446787143243 0 -0.0080287254049636724 0.0069471093082913811 0 -0.0075389680356198517 0.0073038702461706365 0 -0.0079782977842404769 0.0069833968771470063 0 -0.0076846264614669332 0.0069231446787143243 0 -0.0075942399237080233 0.006504683081796447 0 -0.0080287254049636724 0.0069471093082913811 0 -0.0076689641810362167 0.0072001325611105588 0 -0.0076846264614669332 0.0069231446787143243 0 -0.0074567762662321232 0.0070795470129162447 0 -0.0076846264614669332 0.0069231446787143243 0 -0.0074567762662321232 0.0070795470129162447 0 -0.0075942399237080233 0.006504683081796447 0 -0.0074567762662321232 0.0070795470129162447 0 -0.007280890113621992 0.0070491210180713684 0 -0.0075942399237080233 0.006504683081796447 0 -0.011204863923553202 0.010755929171798073 0 -0.014515201443222808 0.010358770061563877 0 -0.0073735243804928198 0.0076948047227370026 0 -0.0074567762662321232 0.0070795470129162447 0 -0.007280890113621992 0.0070491210180713684 0 -0.0070914156090130546 0.0075257619543364022 0 -0.0074953040330558371 0.007116598368114002 0 -0.0070914156090130546 0.0075257619543364022 0 -0.0075389680356198517 0.0073038702461706365 0 -0.0073539311846429617 0.0074146320250299044 0 -0.0076689641810362167 0.0072001325611105588 0 -0.0074567762662321232 0.0070795470129162447 0 -0.0071024769871822655 0.0076747565496324624 0 -0.0073489827780055658 0.007782992592447204 0 -0.0073210944399963044 0.0074429286998152011 0 -0.015091144431810156 0.015526515181898064 0 -0.015071636593256072 0.014557195155218127 0 -0.015963850658168743 0.014372672035811622 0 -0.011285027306985568 0.01169528477481647 0 -0.011204863923553202 0.010755929171798073 0 -0.0073735243804928198 0.0076948047227370026 0 -0.006869796464788417 0.0076597588277448033 0 -0.007280890113621992 0.0070491210180713684 0 -0.014517590590953616 0.015155433481247555 0 -0.015071636593256072 0.014557195155218127 0 -0.014145573367393359 0.014620161745788755 0 -0.013970135311450967 0.015703306195556103 0 -0.014517590590953616 0.015155433481247555 0 -0.015091144431810156 0.015526515181898064 0 -0.014517590590953616 0.015155433481247555 0 -0.015091144431810156 0.015526515181898064 0 -0.015071636593256072 0.014557195155218127 0 -0.015071636593256072 0.014557195155218127 0 -0.014955373008139636 0.013802459273443261 0 -0.014145573367393359 0.014620161745788755 0 -0.015071636593256072 0.014557195155218127 0 -0.01558624338498214 0.013937034734740604 0 -0.014955373008139636 0.013802459273443261 0 -0.015963850658168743 0.014372672035811622 0 -0.01558624338498214 0.013937034734740604 0 -0.015993736491835477 0.013640417247532028 0 -0.015071636593256072 0.014557195155218127 0 -0.015963850658168743 0.014372672035811622 0 -0.01558624338498214 0.013937034734740604 0 -0.01558624338498214 0.013937034734740604 0 -0.014955373008139636 0.013802459273443261 0 -0.015572926282063464 0.013245965504115142 0 -0.01558624338498214 0.013937034734740604 0 -0.015572926282063464 0.013245965504115142 0 -0.015993736491835477 0.013640417247532028 0 -0.015572926282063464 0.013245965504115142 0 -0.016169678644997985 0.013277516487034319 0 -0.015993736491835477 0.013640417247532028 0 -0.014955373008139636 0.013802459273443261 0 -0.014822162674519202 0.013170820390856607 0 -0.015572926282063464 0.013245965504115142 0 -0.014955373008139636 0.013802459273443261 0 -0.014822162674519202 0.013170820390856607 0 -0.014182848434146226 0.013525771904572258 0 -0.014822162674519202 0.013170820390856607 0 -0.015094036288630508 0.012773843722754091 0 -0.015572926282063464 0.013245965504115142 0 -0.014822162674519202 0.013170820390856607 0 -0.015094036288630508 0.012773843722754091 0 -0.014164628052531211 0.0126755340255045 0 -0.015094036288630508 0.012773843722754091 0 -0.015572926282063464 0.013245965504115142 0 -0.015701650805240764 0.012721018525892573 0 -0.015572926282063464 0.013245965504115142 0 -0.016121215041460472 0.012950771157559051 0 -0.015701650805240764 0.012721018525892573 0 -0.015572926282063464 0.013245965504115142 0 -0.016121215041460472 0.012950771157559051 0 -0.016169678644997985 0.013277516487034319 0 -0.016121215041460472 0.012950771157559051 0 -0.016169678644997985 0.013277516487034319 0 -0.01650392006854097 0.013075026455550316 0 -0.016169678644997985 0.013277516487034319 0 -0.01650392006854097 0.013075026455550316 0 -0.016566226961865511 0.013489380153226605 0 -0.016121215041460472 0.012950771157559051 0 -0.01650392006854097 0.013075026455550316 0 -0.016609425820635123 0.012788240938393624 0 -0.01650392006854097 0.013075026455550316 0 -0.016566226961865511 0.013489380153226605 0 -0.016991273941385134 0.012904383442483377 0 -0.014515201443222808 0.010358770061563877 0 -0.017903191947224034 0.010422205941521934 0 -0.01650392006854097 0.013075026455550316 0 -0.016609425820635123 0.012788240938393624 0 -0.016991273941385134 0.012904383442483377 0 -0.014515201443222808 0.010358770061563877 0 -0.012554703215959829 0.0063321117643044709 0 -0.016169678644997985 0.013277516487034319 0 -0.016566226961865511 0.013489380153226605 0 -0.015993736491835477 0.013640417247532028 0 -0.015963850658168743 0.014372672035811622 0 -0.016668532706190481 0.013470283356504105 0 -0.015993736491835477 0.013640417247532028 0 -0.014515201443222808 0.010358770061563877 0 -0.016535215408810526 0.013488455581831699 0 -0.0089255798655925832 0.013936639269452674 0 -0.010781537026740411 0.015090215436452158 0 -0.010793613673775647 0.014076414289859543 0 -0.0074960896061444775 0.0143339926486022 0 -0.0089468812790197989 0.013520158002451182 0 -0.010297573772522184 0.014833178397548536 0 -0.0070696820851928717 0.01324643721282907 0 -0.010780312294566694 0.014492249099718487 0 -0.0089468812790197989 0.013520158002451182 0 -0.010297573772522184 0.014833178397548536 0 -0.010908594260818132 0.013238290451672765 0 -0.0052141084555684869 0.011283366446292355 0 -0.0052570253559692829 0.01182445825275163 0 -0.0055572701966046826 0.01178700329673269 0 -0.0070696820851928717 0.01324643721282907 0 -0.0080414141198165735 0.013272166122608108 0 -0.0052570253559692829 0.01182445825275163 0 -0.0054555760821220732 0.011790407434786519 0 -0.0055572701966046826 0.01178700329673269 0 -0.010781537026740411 0.015090215436452158 0 -0.010793613673775647 0.014076414289859543 0 -0.012533824927984206 0.014285678495178006 0 -0.012489997888064755 0.016090297657058446 0 -0.010781537026740411 0.015090215436452158 0 -0.012533824927984206 0.014285678495178006 0 -0.0089941669662360006 0.014383578460290578 0 -0.0080414141198165735 0.013272166122608108 0 -0.010780312294566694 0.014492249099718487 0 -0.012602816512004013 0.01454986150510214 0 -0.010297573772522184 0.014833178397548536 0 -0.012831286358525488 0.014826195535613195 0 -0.010908594260818132 0.013238290451672765 0 -0.012489997888064755 0.016090297657058446 0 -0.012533824927984206 0.014285678495178006 0 -0.013307281615650316 0.015177346528038467 0 -0.013970135311450967 0.015703306195556103 0 -0.012489997888064755 0.016090297657058446 0 -0.013307281615650316 0.015177346528038467 0 -0.012533824927984206 0.014285678495178006 0 -0.013307281615650316 0.015177346528038467 0 -0.014145573367393359 0.014620161745788755 0 -0.013970135311450967 0.015703306195556103 0 -0.013307281615650316 0.015177346528038467 0 -0.014145573367393359 0.014620161745788755 0 -0.013970135311450967 0.015703306195556103 0 -0.014517590590953616 0.015155433481247555 0 -0.014145573367393359 0.014620161745788755 0 -0.014955373008139636 0.013802459273443261 0 -0.014145573367393359 0.014620161745788755 0 -0.014182848434146226 0.013525771904572258 0 -0.012602816512004013 0.01454986150510214 0 -0.014017376017385393 0.014620642383417313 0 -0.012831286358525488 0.014826195535613195 0 -0.014145573367393359 0.014620161745788755 0 -0.014182848434146226 0.013525771904572258 0 -0.014182848434146226 0.013525771904572258 0 -0.014164628052531211 0.0126755340255045 0 -0.013024536433415239 0.012705880827940502 0 -0.014822162674519202 0.013170820390856607 0 -0.014182848434146226 0.013525771904572258 0 -0.014164628052531211 0.0126755340255045 0 -0.014164628052531211 0.0126755340255045 0 -0.013024536433415239 0.012705880827940502 0 -0.013445341700988864 0.012460969842681731 0 -0.012831286358525488 0.014826195535613195 0 -0.014182848434146226 0.013525771904572258 0 -0.013024536433415239 0.012705880827940502 0 -0.012831286358525488 0.014826195535613195 0 -0.013024536433415239 0.012705880827940502 0 -0.010908594260818132 0.013238290451672765 0 -0.013024536433415239 0.012705880827940502 0 -0.010908594260818132 0.013238290451672765 0 -0.0096033595800876868 0.011145871476161258 0 -0.013024536433415239 0.012705880827940502 0 -0.0096033595800876868 0.011145871476161258 0 -0.010466595584061137 0.0089547765104390897 0 -0.012904485194349263 0.012605136612211595 0 -0.012010718991397707 0.010669637249808763 0 -0.013024536433415239 0.012705880827940502 0 -0.013047894592202808 0.012412184419292717 0 -0.013445341700988864 0.012460969842681731 0 -0.0075782740000189044 0.0092666048278747873 0 -0.0072447505570986392 0.010725294060006406 0 -0.0096033595800876868 0.011145871476161258 0 -0.0072447505570986392 0.010725294060006406 0 -0.0096033595800876868 0.011145871476161258 0 -0.0086075850140352773 0.012124909186851034 0 -0.0075782740000189044 0.0092666048278747873 0 -0.0096033595800876868 0.011145871476161258 0 -0.010466595584061137 0.0089547765104390897 0 -0.0089468812790197989 0.013520158002451182 0 -0.010908594260818132 0.013238290451672765 0 -0.0086075850140352773 0.012124909186851034 0 -0.010908594260818132 0.013238290451672765 0 -0.0096033595800876868 0.011145871476161258 0 -0.0086075850140352773 0.012124909186851034 0 -0.0076442150060222229 0.013073563627959807 0 -0.0089468812790197989 0.013520158002451182 0 -0.0086075850140352773 0.012124909186851034 0 -0.0085722751350383302 0.0091855502717282534 0 -0.012010718991397707 0.010669637249808763 0 -0.012309283479256793 0.011583425021320475 0 -0.013047894592202808 0.012412184419292717 0 -0.012930944455112187 0.011809388728594645 0 -0.012309283479256793 0.011583425021320475 0 -0.012930944455112187 0.011809388728594645 0 -0.012314580911374043 0.011516284278095002 0 -0.01265887953854181 0.011878093556809714 0 -0.012652653101881555 0.011280224811217437 0 -0.011877226637034938 0.011517654419176371 0 -0.0065764905997894984 0.0094567226166888136 0 -0.0085722751350383302 0.0091855502717282534 0 -0.0078925575019366759 0.010116075330185244 0 -0.0081465762238417481 0.010458394538724833 0 -0.0081675147453563867 0.010250728281607883 0 -0.0085722751350383302 0.0091855502717282534 0 -0.0089796354048108911 0.010401233570857999 0 -0.013312054802879468 0.012106643096972616 0 -0.0089796354048108911 0.010401233570857999 0 -0.0075782740000189044 0.0092666048278747873 0 -0.0079991341831717033 0.0056988256151175075 0 -0.010466595584061137 0.0089547765104390897 0 -0.013047894592202808 0.012412184419292717 0 -0.012930944455112187 0.011809388728594645 0 -0.013396825268430793 0.012146492124192084 0 -0.013047894592202808 0.012412184419292717 0 -0.013396825268430793 0.012146492124192084 0 -0.013445341700988864 0.012460969842681731 0 -0.013312054802879468 0.012106643096972616 0 -0.013141400989500287 0.012018167291557856 0 -0.01265887953854181 0.011878093556809714 0 -0.013379881422065918 0.011611503012835131 0 -0.013396825268430793 0.012146492124192084 0 -0.01265887953854181 0.011878093556809714 0 -0.013379881422065918 0.011611503012835131 0 -0.012652653101881555 0.011280224811217437 0 -0.013379881422065918 0.011611503012835131 0 -0.013907488574699969 0.011915183818094789 0 -0.013823183852327319 0.011515716955887566 0 -0.013907488574699969 0.011915183818094789 0 -0.014117242140236727 0.01169217122095334 0 -0.013823183852327319 0.011515716955887566 0 -0.013907488574699969 0.011915183818094789 0 -0.013396825268430793 0.012146492124192084 0 -0.013905850896613819 0.01227467050072872 0 -0.013379881422065918 0.011611503012835131 0 -0.013907488574699969 0.011915183818094789 0 -0.013396825268430793 0.012146492124192084 0 -0.013396825268430793 0.012146492124192084 0 -0.013445341700988864 0.012460969842681731 0 -0.013905850896613819 0.01227467050072872 0 -0.014164628052531211 0.0126755340255045 0 -0.013445341700988864 0.012460969842681731 0 -0.013905850896613819 0.01227467050072872 0 -0.014164628052531211 0.0126755340255045 0 -0.013905850896613819 0.01227467050072872 0 -0.014512209230334423 0.012318474371295513 0 -0.014164628052531211 0.0126755340255045 0 -0.014512209230334423 0.012318474371295513 0 -0.014922507167438285 0.012495349568390645 0 -0.013905850896613819 0.01227467050072872 0 -0.014512209230334423 0.012318474371295513 0 -0.014269561744004467 0.012079393809808655 0 -0.014512209230334423 0.012318474371295513 0 -0.014694623975622496 0.012021919372428101 0 -0.015096061325539607 0.012211374497773621 0 -0.014512209230334423 0.012318474371295513 0 -0.014269561744004467 0.012079393809808655 0 -0.014694623975622496 0.012021919372428101 0 -0.013907488574699969 0.011915183818094789 0 -0.013905850896613819 0.01227467050072872 0 -0.014269561744004467 0.012079393809808655 0 -0.013907488574699969 0.011915183818094789 0 -0.014269561744004467 0.012079393809808655 0 -0.014348354570935008 0.011836200734659168 0 -0.014269561744004467 0.012079393809808655 0 -0.014348354570935008 0.011836200734659168 0 -0.014694623975622496 0.012021919372428101 0 -0.013907488574699969 0.011915183818094789 0 -0.014348354570935008 0.011836200734659168 0 -0.014117242140236727 0.01169217122095334 0 -0.014348354570935008 0.011836200734659168 0 -0.014117242140236727 0.01169217122095334 0 -0.014405720853234888 0.011490801219447259 0 -0.014348354570935008 0.011836200734659168 0 -0.014629893253438555 0.011759395973342473 0 -0.014405720853234888 0.011490801219447259 0 -0.014629893253438555 0.011759395973342473 0 -0.014694623975622496 0.012021919372428101 0 -0.015261110747413443 0.011918951989722306 0 -0.014348354570935008 0.011836200734659168 0 -0.014629893253438555 0.011759395973342473 0 -0.014694623975622496 0.012021919372428101 0 -0.012949402143761699 0.013962718547209617 0 -0.012727571462832798 0.012720482992659194 0 -0.013898412512929337 0.013343478474644789 0 -0.014054178470366873 0.012188808284113379 0 -0.015145587531125432 0.012076946976798866 0 -0.014629893253438555 0.011759395973342473 0 -0.014559567575796498 0.011404117245558322 0 -0.015261110747413443 0.011918951989722306 0 -0.014629893253438555 0.011759395973342473 0 -0.014559567575796498 0.011404117245558322 0 -0.014405720853234888 0.011490801219447259 0 -0.014054178470366873 0.012188808284113379 0 -0.014197011397247467 0.012060042882803405 0 -0.014117242140236727 0.01169217122095334 0 -0.014405720853234888 0.011490801219447259 0 -0.013823183852327319 0.011515716955887566 0 -0.011548211456418121 0.012095562886498497 0 -0.012727571462832798 0.012720482992659194 0 -0.011445678110667266 0.013464973853528503 0 -0.012949402143761699 0.013962718547209617 0 -0.012727571462832798 0.012720482992659194 0 -0.011445678110667266 0.013464973853528503 0 -0.014054178470366873 0.012188808284113379 0 -0.012641229382146783 0.01234699592281248 0 -0.01451863530789417 0.011419906755129865 0 -0.014405720853234888 0.011490801219447259 0 -0.013262947423151837 0.010928423403573818 0 -0.014405720853234888 0.011490801219447259 0 -0.013823183852327319 0.011515716955887566 0 -0.013262947423151837 0.010928423403573818 0 -0.013379881422065918 0.011611503012835131 0 -0.013823183852327319 0.011515716955887566 0 -0.013262947423151837 0.010928423403573818 0 -0.012652653101881555 0.011280224811217437 0 -0.013262947423151837 0.010928423403573818 0 -0.011980510582008826 0.010487925220679165 0 -0.013379881422065918 0.011611503012835131 0 -0.012652653101881555 0.011280224811217437 0 -0.013262947423151837 0.010928423403573818 0 -0.010537807764327797 0.012326561604839531 0 -0.011445678110667266 0.013464973853528503 0 -0.0099377585658783785 0.012957697173310218 0 -0.011548211456418121 0.012095562886498497 0 -0.010537807764327797 0.012326561604839531 0 -0.011445678110667266 0.013464973853528503 0 -0.012641229382146783 0.01234699592281248 0 -0.0093393114880844386 0.011384032745933437 0 -0.0093393114880844386 0.011384032745933437 0 -0.0089796354048108911 0.010401233570857999 0 -0.0067023531025135032 0.011434262277044551 0 -0.0070560709202618635 0.0098824556873914199 0 -0.0068741204730315055 0.011518489145472873 0 -0.012652653101881555 0.011280224811217437 0 -0.011980510582008826 0.010487925220679165 0 -0.011877226637034938 0.011517654419176371 0 -0.0065764905997894984 0.0094567226166888136 0 -0.0089796354048108911 0.010401233570857999 0 -0.016342667002332785 0.012538377832474683 0 -0.016729495022536237 0.012538031455574286 0 -0.016665689812363556 0.012611779671956397 0 -0.016342667002332785 0.012538377832474683 0 -0.016276640436727895 0.0123821878115039 0 -0.016729495022536237 0.012538031455574286 0 -0.016342667002332785 0.012538377832474683 0 -0.016276640436727895 0.0123821878115039 0 -0.016097187344424727 0.012423345780073987 0 -0.017029850836077321 0.012564806314454662 0 -0.016665689812363556 0.012611779671956397 0 -0.016929368015270577 0.01263648227031775 0 -0.016729495022536237 0.012538031455574286 0 -0.017029850836077321 0.012564806314454662 0 -0.016665689812363556 0.012611779671956397 0 -0.016929368015270577 0.01263648227031775 0 -0.016609425820635123 0.012788240938393624 0 -0.016991273941385134 0.012904383442483377 0 -0.016665689812363556 0.012611779671956397 0 -0.016929368015270577 0.01263648227031775 0 -0.016609425820635123 0.012788240938393624 0 -0.016121215041460472 0.012950771157559051 0 -0.016609425820635123 0.012788240938393624 0 -0.016240515081254986 0.012676156720817237 0 -0.016665689812363556 0.012611779671956397 0 -0.016609425820635123 0.012788240938393624 0 -0.016240515081254986 0.012676156720817237 0 -0.016342667002332785 0.012538377832474683 0 -0.016665689812363556 0.012611779671956397 0 -0.016240515081254986 0.012676156720817237 0 -0.016342667002332785 0.012538377832474683 0 -0.016240515081254986 0.012676156720817237 0 -0.015876069651224851 0.012484070556458046 0 -0.016121215041460472 0.012950771157559051 0 -0.016240515081254986 0.012676156720817237 0 -0.015701650805240764 0.012721018525892573 0 -0.015701650805240764 0.012721018525892573 0 -0.015388717855457373 0.012459381333657713 0 -0.015876069651224851 0.012484070556458046 0 -0.016240515081254986 0.012676156720817237 0 -0.015701650805240764 0.012721018525892573 0 -0.015876069651224851 0.012484070556458046 0 -0.015094036288630508 0.012773843722754091 0 -0.014164628052531211 0.0126755340255045 0 -0.014922507167438285 0.012495349568390645 0 -0.015094036288630508 0.012773843722754091 0 -0.015388717855457373 0.012459381333657713 0 -0.014922507167438285 0.012495349568390645 0 -0.015094036288630508 0.012773843722754091 0 -0.015701650805240764 0.012721018525892573 0 -0.015388717855457373 0.012459381333657713 0 -0.014512209230334423 0.012318474371295513 0 -0.014922507167438285 0.012495349568390645 0 -0.015096061325539607 0.012211374497773621 0 -0.015388717855457373 0.012459381333657713 0 -0.014922507167438285 0.012495349568390645 0 -0.015096061325539607 0.012211374497773621 0 -0.015388717855457373 0.012459381333657713 0 -0.015096061325539607 0.012211374497773621 0 -0.015538875363105291 0.012222856455234257 0 -0.015538875363105291 0.012222856455234257 0 -0.015261110747413443 0.011918951989722306 0 -0.015627897821762063 0.012087831300585465 0 -0.014694623975622496 0.012021919372428101 0 -0.015096061325539607 0.012211374497773621 0 -0.015261110747413443 0.011918951989722306 0 -0.015096061325539607 0.012211374497773621 0 -0.015538875363105291 0.012222856455234257 0 -0.015261110747413443 0.011918951989722306 0 -0.015876069651224851 0.012484070556458046 0 -0.016097187344424727 0.012423345780073987 0 -0.015895640364070238 0.01228446996895096 0 -0.016342667002332785 0.012538377832474683 0 -0.015876069651224851 0.012484070556458046 0 -0.016097187344424727 0.012423345780073987 0 -0.015538875363105291 0.012222856455234257 0 -0.015876069651224851 0.012484070556458046 0 -0.015895640364070238 0.01228446996895096 0 -0.015388717855457373 0.012459381333657713 0 -0.015538875363105291 0.012222856455234257 0 -0.015876069651224851 0.012484070556458046 0 -0.015538875363105291 0.012222856455234257 0 -0.015895640364070238 0.01228446996895096 0 -0.015627897821762063 0.012087831300585465 0 -0.016276640436727895 0.0123821878115039 0 -0.016097187344424727 0.012423345780073987 0 -0.015895640364070238 0.01228446996895096 0 -0.016276640436727895 0.0123821878115039 0 -0.015967183791368387 0.012220142768598017 0 -0.01611983793990578 0.012214918064775865 0 -0.016276640436727895 0.0123821878115039 0 -0.015895640364070238 0.01228446996895096 0 -0.015967183791368387 0.012220142768598017 0 -0.015967183791368387 0.012220142768598017 0 -0.01582141769820318 0.012111271460773365 0 -0.01611983793990578 0.012214918064775865 0 -0.015895640364070238 0.01228446996895096 0 -0.015967183791368387 0.012220142768598017 0 -0.015627897821762063 0.012087831300585465 0 -0.015967183791368387 0.012220142768598017 0 -0.01582141769820318 0.012111271460773365 0 -0.015627897821762063 0.012087831300585465 0 -0.01582141769820318 0.012111271460773365 0 -0.01611983793990578 0.012214918064775865 0 -0.015669145686871132 0.011978852858812667 0 -0.014054178470366873 0.012188808284113379 0 -0.01407779710343708 0.0134627008934595 0 -0.015174257445624036 0.011931950443976077 0 -0.015430212660191128 0.011969341858326753 0 -0.015541237037009419 0.01190953697934966 0 -0.015174257445624036 0.011931950443976077 0 -0.015261110747413443 0.011918951989722306 0 -0.015430212660191128 0.011969341858326753 0 -0.015261110747413443 0.011918951989722306 0 -0.015430212660191128 0.011969341858326753 0 -0.015627897821762063 0.012087831300585465 0 -0.015430212660191128 0.011969341858326753 0 -0.015627897821762063 0.012087831300585465 0 -0.015634153478428704 0.012037234319394212 0 -0.01582141769820318 0.012111271460773365 0 -0.015627897821762063 0.012087831300585465 0 -0.015634153478428704 0.012037234319394212 0 -0.015430212660191128 0.011969341858326753 0 -0.015669145686871132 0.011978852858812667 0 -0.015541237037009419 0.01190953697934966 0 -0.01582141769820318 0.012111271460773365 0 -0.015634153478428704 0.012037234319394212 0 -0.015669145686871132 0.011978852858812667 0 -0.014344022003548344 0.013395080197006392 0 -0.01407779710343708 0.0134627008934595 0 -0.015430212660191128 0.011969341858326753 0 -0.015634153478428704 0.012037234319394212 0 -0.015669145686871132 0.011978852858812667 0 -0.012513699416623496 0.015045823283262219 0 -0.011643501230308464 0.0155422358924488 0 -0.01258300530792179 0.016023174377147311 0 -0.012065519836455513 0.01422675905925432 0 -0.01407779710343708 0.0134627008934595 0 -0.015669145686871132 0.011978852858812667 0 -0.015602504567613491 0.011934968756148174 0 -0.01635751736106263 0.012115137413643905 0 -0.012513699416623496 0.015045823283262219 0 -0.01258300530792179 0.016023174377147311 0 -0.013571835824152714 0.015386604649458855 0 -0.01407779710343708 0.0134627008934595 0 -0.014775613923013572 0.013684925786953323 0 -0.01611983793990578 0.012214918064775865 0 -0.015669145686871132 0.011978852858812667 0 -0.01635751736106263 0.012115137413643905 0 -0.01611983793990578 0.012214918064775865 0 -0.01635751736106263 0.012115137413643905 0 -0.016647170809547248 0.012440065601766951 0 -0.01635751736106263 0.012115137413643905 0 -0.016647170809547248 0.012440065601766951 0 -0.017048646178537689 0.012565576069933915 0 -0.016276640436727895 0.0123821878115039 0 -0.016729495022536237 0.012538031455574286 0 -0.016647170809547248 0.012440065601766951 0 -0.016276640436727895 0.0123821878115039 0 -0.01611983793990578 0.012214918064775865 0 -0.016647170809547248 0.012440065601766951 0 -0.016729495022536237 0.012538031455574286 0 -0.017029850836077321 0.012564806314454662 0 -0.017185324333800052 0.012668687194706929 0 -0.016729495022536237 0.012538031455574286 0 -0.016647170809547248 0.012440065601766951 0 -0.017185324333800052 0.012668687194706929 0 -0.016647170809547248 0.012440065601766951 0 -0.017185324333800052 0.012668687194706929 0 -0.017048646178537689 0.012565576069933915 0 -0.017265751149060128 0.011781937066577581 0 -0.017048646178537689 0.012565576069933915 0 -0.017901468857083533 0.013135636878274562 0 -0.017185324333800052 0.012668687194706929 0 -0.017048646178537689 0.012565576069933915 0 -0.017901468857083533 0.013135636878274562 0 -0.017901468857083533 0.013135636878274562 0 -0.016823678667504238 0.013244155033827743 0 -0.017177939915953015 0.012624803803299578 0 -0.017593316799668541 0.015468561025756182 0 -0.017901468857083533 0.013135636878274562 0 -0.016823678667504238 0.013244155033827743 0 -0.017593316799668541 0.015468561025756182 0 -0.016823678667504238 0.013244155033827743 0 -0.015363204998433263 0.013985432712806395 0 -0.016823678667504238 0.013244155033827743 0 -0.017177939915953015 0.012624803803299578 0 -0.016401312411325818 0.012377707555637807 0 -0.017185324333800052 0.012668687194706929 0 -0.017901468857083533 0.013135636878274562 0 -0.017177939915953015 0.012624803803299578 0 -0.017029850836077321 0.012564806314454662 0 -0.017185324333800052 0.012668687194706929 0 -0.017177939915953015 0.012624803803299578 0 -0.017029850836077321 0.012564806314454662 0 -0.017177939915953015 0.012624803803299578 0 -0.017045306974002007 0.012423964226474262 0 -0.017029850836077321 0.012564806314454662 0 -0.016929368015270577 0.01263648227031775 0 -0.017045306974002007 0.012423964226474262 0 -0.017177939915953015 0.012624803803299578 0 -0.017045306974002007 0.012423964226474262 0 -0.016401312411325818 0.012377707555637807 0 -0.016967693183168427 0.011050066513819653 0 -0.016173772254570947 0.011811704737527547 0 -0.017116199185674086 0.0095169930734223581 0 -0.015642248408009058 0.0098017054484126794 0 -0.016071246389044339 0.011143745318431757 0 -0.017116199185674086 0.0095169930734223581 0 -0.017190605862981351 0.0083811531773583699 0 -0.016439271896615117 0.0083648137286101744 0 -0.017116199185674086 0.0095169930734223581 0 -0.015642248408009058 0.0098017054484126794 0 -0.016439271896615117 0.0083648137286101744 0 -0.016929368015270577 0.01263648227031775 0 -0.017045306974002007 0.012423964226474262 0 -0.016991273941385134 0.012904383442483377 0 -0.016967693183168427 0.011050066513819653 0 -0.017903191947224034 0.010422205941521934 0 -0.017116199185674086 0.0095169930734223581 0 -0.017190605862981351 0.0083811531773583699 0 -0.017923014533422293 0.0082315245495341513 0 -0.014276018506718887 0.0095105281018851191 0 -0.014160744434465076 0.0084703869975794027 0 -0.013094257051150667 0.0089310512923236104 0 -0.014276018506718887 0.0095105281018851191 0 -0.014160744434465076 0.0084703869975794027 0 -0.015264799297162505 0.0086837781064163077 0 -0.015264799297162505 0.0086837781064163077 0 -0.015642248408009058 0.0098017054484126794 0 -0.016439271896615117 0.0083648137286101744 0 -0.014276018506718887 0.0095105281018851191 0 -0.015264799297162505 0.0086837781064163077 0 -0.015642248408009058 0.0098017054484126794 0 -0.015642248408009058 0.0098017054484126794 0 -0.014173151216519719 0.01121594208846214 0 -0.016071246389044339 0.011143745318431757 0 -0.014276018506718887 0.0095105281018851191 0 -0.015642248408009058 0.0098017054484126794 0 -0.014173151216519719 0.01121594208846214 0 -0.014276018506718887 0.0095105281018851191 0 -0.014173151216519719 0.01121594208846214 0 -0.012973180701983425 0.010298065543951015 0 -0.014173151216519719 0.01121594208846214 0 -0.016071246389044339 0.011143745318431757 0 -0.014775067547505199 0.013072977044142165 0 -0.014173151216519719 0.01121594208846214 0 -0.014775067547505199 0.013072977044142165 0 -0.012934128120926928 0.012545442216438977 0 -0.016173772254570947 0.011811704737527547 0 -0.014855523025854007 0.013049212043759827 0 -0.016823678667504238 0.013244155033827743 0 -0.016401312411325818 0.012377707555637807 0 -0.016013147481500713 0.013070294233040163 0 -0.016401312411325818 0.012377707555637807 0 -0.016013147481500713 0.013070294233040163 0 -0.014775067547505199 0.013072977044142165 0 -0.016823678667504238 0.013244155033827743 0 -0.016013147481500713 0.013070294233040163 0 -0.015363204998433263 0.013985432712806395 0 -0.016013147481500713 0.013070294233040163 0 -0.015363204998433263 0.013985432712806395 0 -0.014775067547505199 0.013072977044142165 0 -0.016886432942134766 0.015255485583037045 0 -0.015480591913281088 0.014730403925054892 0 -0.015363204998433263 0.013985432712806395 0 -0.014775067547505199 0.013072977044142165 0 -0.012934128120926928 0.012545442216438977 0 -0.018454886727999466 0.016488296320981831 0 -0.018232636948441648 0.016577335877461269 0 -0.01862838113410159 0.016676935322849532 0 -0.018656502718796427 0.016393267823645204 0 -0.018454886727999466 0.016488296320981831 0 -0.01862838113410159 0.016676935322849532 0 -0.018656502718796427 0.016393267823645204 0 -0.018978893239749647 0.016574022212164679 0 -0.01862838113410159 0.016676935322849532 0 -0.019045647545095711 0.015730459399957073 0 -0.019476714601183026 0.015777731139111715 0 -0.019476714601183026 0.015777731139111715 0 -0.01625455207226071 0.012936787658121462 0 -0.012021380874713874 0.011194425900695514 0 -0.012934128120926928 0.012545442216438977 0 -0.010390367929493173 0.011184215746264315 0 -0.015480591913281088 0.014730403925054892 0 -0.01625455207226071 0.012936787658121462 0 -0.018978893239749647 0.016574022212164679 0 -0.01862838113410159 0.016676935322849532 0 -0.019002913302980609 0.016799674178794442 0 -0.012021380874713874 0.011194425900695514 0 -0.013029712802485993 0.011311162383412029 0 -0.012934128120926928 0.012545442216438977 0 -0.014173151216519719 0.01121594208846214 0 -0.013029712802485993 0.011311162383412029 0 -0.012934128120926928 0.012545442216438977 0 -0.018640746977585491 0.01517862134678734 0 -0.018379966934849737 0.013759952377942144 0 -0.018920087274163243 0.013380048707689015 0 -0.018640746977585491 0.01517862134678734 0 -0.019568903307821562 0.014115696670269368 0 -0.018920087274163243 0.013380048707689015 0 -0.019568903307821562 0.014115696670269368 0 -0.019385530229837127 0.012622694374139537 0 -0.018920087274163243 0.013380048707689015 0 -0.019385530229837127 0.012622694374139537 0 -0.018920087274163243 0.013380048707689015 0 -0.01921278310078528 0.012524848270099165 0 -0.018920087274163243 0.013380048707689015 0 -0.018760604885752593 0.012651749530537331 0 -0.01921278310078528 0.012524848270099165 0 -0.018920087274163243 0.013380048707689015 0 -0.01839618644243798 0.01265718390803864 0 -0.018760604885752593 0.012651749530537331 0 -0.018379966934849737 0.013759952377942144 0 -0.018920087274163243 0.013380048707689015 0 -0.01839618644243798 0.01265718390803864 0 -0.01857800093155847 0.01217012001138602 0 -0.01839618644243798 0.01265718390803864 0 -0.018760604885752593 0.012651749530537331 0 -0.01857800093155847 0.01217012001138602 0 -0.018760604885752593 0.012651749530537331 0 -0.018804675372246029 0.012237887203491192 0 -0.01857800093155847 0.01217012001138602 0 -0.018804675372246029 0.012237887203491192 0 -0.01868253735078132 0.012043001614203498 0 -0.018760604885752593 0.012651749530537331 0 -0.018804675372246029 0.012237887203491192 0 -0.018939969352867871 0.012430329760162694 0 -0.01625455207226071 0.012936787658121462 0 -0.014090270753208581 0.010355209011646081 0 -0.010390367929493173 0.011184215746264315 0 -0.0097796999410109074 0.0086174455517335647 0 -0.010678608576626773 0.010264463670422434 0 -0.019298680125729901 0.012550492896105945 0 -0.019009962929744523 0.012222042185357959 0 -0.018918541691649266 0.012000884690619565 0 -0.018804675372246029 0.012237887203491192 0 -0.019009962929744523 0.012222042185357959 0 -0.018876398076643985 0.012120759512617761 0 -0.018804675372246029 0.012237887203491192 0 -0.019009962929744523 0.012222042185357959 0 -0.018939969352867871 0.012430329760162694 0 -0.018760604885752593 0.012651749530537331 0 -0.018939969352867871 0.012430329760162694 0 -0.01921278310078528 0.012524848270099165 0 -0.019009962929744523 0.012222042185357959 0 -0.018939969352867871 0.012430329760162694 0 -0.019113140255338456 0.012414686083372178 0 -0.018939969352867871 0.012430329760162694 0 -0.019113140255338456 0.012414686083372178 0 -0.01921278310078528 0.012524848270099165 0 -0.019298680125729901 0.012550492896105945 0 -0.019009962929744523 0.012222042185357959 0 -0.019113140255338456 0.012414686083372178 0 -0.019298680125729901 0.012550492896105945 0 -0.019113140255338456 0.012414686083372178 0 -0.01921278310078528 0.012524848270099165 0 -0.01625455207226071 0.012936787658121462 0 -0.017021283908744668 0.013161739499309122 0 -0.0097796999410109074 0.0086174455517335647 0 -0.010678608576626773 0.010264463670422434 0 -0.010648333361265087 0.009582088360046823 0 -0.010603633537373378 0.0089017644401169459 0 -0.0097796999410109074 0.0086174455517335647 0 -0.010648333361265087 0.009582088360046823 0 -0.010603633537373378 0.0089017644401169459 0 -0.010341425296733042 0.0084835850744813899 0 -0.0097796999410109074 0.0086174455517335647 0 -0.010341425296733042 0.0084835850744813899 0 -0.0099422900541073882 0.0078318000934565549 0 -0.0097796999410109074 0.0086174455517335647 0 -0.010341425296733042 0.0084835850744813899 0 -0.0099422900541073882 0.0078318000934565549 0 -0.011039652175718784 0.0085902653170629156 0 -0.018918541691649266 0.012000884690619565 0 -0.018785750426861668 0.012044391900540796 0 -0.018774805315836241 0.011975494926041112 0 -0.018918541691649266 0.012000884690619565 0 -0.018876398076643985 0.012120759512617761 0 -0.018785750426861668 0.012044391900540796 0 -0.019009962929744523 0.012222042185357959 0 -0.018918541691649266 0.012000884690619565 0 -0.018876398076643985 0.012120759512617761 0 -0.018804675372246029 0.012237887203491192 0 -0.018785750426861668 0.012044391900540796 0 -0.01868253735078132 0.012043001614203498 0 -0.018804675372246029 0.012237887203491192 0 -0.018876398076643985 0.012120759512617761 0 -0.018785750426861668 0.012044391900540796 0 -0.018785750426861668 0.012044391900540796 0 -0.018711974601516895 0.011993467703929278 0 -0.018774805315836241 0.011975494926041112 0 -0.018785750426861668 0.012044391900540796 0 -0.018711974601516895 0.011993467703929278 0 -0.01868253735078132 0.012043001614203498 0 -0.012973180701983425 0.010298065543951015 0 -0.011915181101790998 0.010307588690665977 0 -0.011999110305855661 0.0094466612436515697 0 -0.014173151216519719 0.01121594208846214 0 -0.013029712802485993 0.011311162383412029 0 -0.012973180701983425 0.010298065543951015 0 -0.012021380874713874 0.011194425900695514 0 -0.013029712802485993 0.011311162383412029 0 -0.012973180701983425 0.010298065543951015 0 -0.012021380874713874 0.011194425900695514 0 -0.012973180701983425 0.010298065543951015 0 -0.011915181101790998 0.010307588690665977 0 -0.012021380874713874 0.011194425900695514 0 -0.010390367929493173 0.011184215746264315 0 -0.011110171577229797 0.01081839760765912 0 -0.012021380874713874 0.011194425900695514 0 -0.011110171577229797 0.01081839760765912 0 -0.011338434885549231 0.010608207903842135 0 -0.012021380874713874 0.011194425900695514 0 -0.011338434885549231 0.010608207903842135 0 -0.011915181101790998 0.010307588690665977 0 -0.010390367929493173 0.011184215746264315 0 -0.011110171577229797 0.01081839760765912 0 -0.010678608576626773 0.010264463670422434 0 -0.011110171577229797 0.01081839760765912 0 -0.011338434885549231 0.010608207903842135 0 -0.010678608576626773 0.010264463670422434 0 -0.010678608576626773 0.010264463670422434 0 -0.011218423766720892 0.0099912532226334484 0 -0.010648333361265087 0.009582088360046823 0 -0.011338434885549231 0.010608207903842135 0 -0.010678608576626773 0.010264463670422434 0 -0.011218423766720892 0.0099912532226334484 0 -0.011218423766720892 0.0099912532226334484 0 -0.010648333361265087 0.009582088360046823 0 -0.0112025596664864 0.0093516138280013063 0 -0.011218423766720892 0.0099912532226334484 0 -0.011999110305855661 0.0094466612436515697 0 -0.0112025596664864 0.0093516138280013063 0 -0.011218423766720892 0.0099912532226334484 0 -0.011915181101790998 0.010307588690665977 0 -0.011999110305855661 0.0094466612436515697 0 -0.011338434885549231 0.010608207903842135 0 -0.011218423766720892 0.0099912532226334484 0 -0.011915181101790998 0.010307588690665977 0 -0.011999110305855661 0.0094466612436515697 0 -0.011039652175718784 0.0085902653170629156 0 -0.012240611273210108 0.0086622658478478949 0 -0.0099422900541073882 0.0078318000934565549 0 -0.011039652175718784 0.0085902653170629156 0 -0.012800739187015672 0.0076928671659288054 0 -0.011999110305855661 0.0094466612436515697 0 -0.0112025596664864 0.0093516138280013063 0 -0.011039652175718784 0.0085902653170629156 0 -0.011039652175718784 0.0085902653170629156 0 -0.012240611273210108 0.0086622658478478949 0 -0.012800739187015672 0.0076928671659288054 0 -0.010603633537373378 0.0089017644401169459 0 -0.010648333361265087 0.009582088360046823 0 -0.0112025596664864 0.0093516138280013063 0 -0.010603633537373378 0.0089017644401169459 0 -0.0112025596664864 0.0093516138280013063 0 -0.011039652175718784 0.0085902653170629156 0 -0.010603633537373378 0.0089017644401169459 0 -0.010341425296733042 0.0084835850744813899 0 -0.011039652175718784 0.0085902653170629156 0 -0.012240611273210108 0.0086622658478478949 0 -0.013094257051150667 0.0089310512923236104 0 -0.012800739187015672 0.0076928671659288054 0 -0.011999110305855661 0.0094466612436515697 0 -0.012240611273210108 0.0086622658478478949 0 -0.013094257051150667 0.0089310512923236104 0 -0.012973180701983425 0.010298065543951015 0 -0.011999110305855661 0.0094466612436515697 0 -0.013094257051150667 0.0089310512923236104 0 -0.014276018506718887 0.0095105281018851191 0 -0.012973180701983425 0.010298065543951015 0 -0.013094257051150667 0.0089310512923236104 0 -0.014160744434465076 0.0084703869975794027 0 -0.013094257051150667 0.0089310512923236104 0 -0.012800739187015672 0.0076928671659288054 0 -0.01069378550087257 0.0066048461940652128 0 -0.01047137795111285 0.0066785700702668531 0 -0.010519118085857539 0.0065354489366245775 0 -0.0099422900541073882 0.0078318000934565549 0 -0.01069378550087257 0.0066048461940652128 0 -0.01047137795111285 0.0066785700702668531 0 -0.0099743604734125243 0.0077766749920826859 0 -0.011629917600415268 0.0071643814659880954 0 -0.013549368673363947 0.0047904699064518514 0 -0.013184219482541788 0.0062539388878115844 0 -0.014920536945116535 0.0058132493227262714 0 -0.013184219482541788 0.0062539388878115844 0 -0.014920536945116535 0.0058132493227262714 0 -0.014688411459397923 0.0068102383868215736 0 -0.013549368673363947 0.0047904699064518514 0 -0.013184219482541788 0.0062539388878115844 0 -0.011297553896175348 0.0052067036703812731 0 -0.013184219482541788 0.0062539388878115844 0 -0.011297553896175348 0.0052067036703812731 0 -0.011567506388598547 0.0064167965333667438 0 -0.011455373161347567 0.0056292849620039765 0 -0.011050479698782293 0.0058731360766292977 0 -0.011297553896175348 0.0052067036703812731 0 -0.011567506388598547 0.0064167965333667438 0 -0.010694833371065684 0.0060566846340617906 0 -0.018748533162220072 0.012104675859497633 0 -0.018723450071998608 0.012016132104783108 0 -0.018728373505525316 0.011906992492609906 0 -0.019768127272726782 0.0084977980221492642 0 -0.015613989217941621 0.0078077510847149693 0 -0.018723450071998608 0.012016132104783108 0 -0.018734151056143223 0.011973971787434028 0 -0.018728373505525316 0.011906992492609906 0 -0.018711974601516895 0.011993467703929278 0 -0.018723450071998608 0.012016132104783108 0 -0.018734151056143223 0.011973971787434028 0 -0.018711974601516895 0.011993467703929278 0 -0.018734151056143223 0.011973971787434028 0 -0.018774805315836241 0.011975494926041112 0 -0.018734151056143223 0.011973971787434028 0 -0.018774805315836241 0.011975494926041112 0 -0.018728373505525316 0.011906992492609906 0 -0.0099422900541073882 0.0078318000934565549 0 -0.0097796999410109074 0.0086174455517335647 0 -0.0094108855472124948 0.0067452089769131068 0 -0.018918541691649266 0.012000884690619565 0 -0.018774805315836241 0.011975494926041112 0 -0.018728373505525316 0.011906992492609906 0 -0.011455373161347567 0.0056292849620039765 0 -0.015613989217941621 0.0078077510847149693 0 -0.014090270753208581 0.010355209011646081 0 -0.015613989217941621 0.0078077510847149693 0 -0.0099422900541073882 0.0078318000934565549 0 -0.01047137795111285 0.0066785700702668531 0 -0.0094108855472124948 0.0067452089769131068 0 -0.013549368673363947 0.0047904699064518514 0 -0.016078124703665916 0.0045687340601977258 0 -0.014920536945116535 0.0058132493227262714 0 -0.014920536945116535 0.0058132493227262714 0 -0.015724096150693905 0.0066032335788308626 0 -0.014688411459397923 0.0068102383868215736 0 -0.014920536945116535 0.0058132493227262714 0 -0.016457169208999155 0.0059365514038726367 0 -0.015724096150693905 0.0066032335788308626 0 -0.015613989217941621 0.0078077510847149693 0 -0.0158514161521114 0.0052781907711269924 0 -0.016078124703665916 0.0045687340601977258 0 -0.014920536945116535 0.0058132493227262714 0 -0.016457169208999155 0.0059365514038726367 0 -0.019196002335315578 0.0061758500739564227 0 -0.020080963493172583 0.0047306203294227708 0 -0.016050806707397246 0.0045518926716759112 0 -0.019196002335315578 0.0061758500739564227 0 -0.016050806707397246 0.0045518926716759112 0 -0.01753132618609227 0.0062648764087813542 0 -0.016050806707397246 0.0045518926716759112 0 -0.016457169208999155 0.0059365514038726367 0 -0.01753132618609227 0.0062648764087813542 0 -0.016457169208999155 0.0059365514038726367 0 -0.01753132618609227 0.0062648764087813542 0 -0.017400287084276597 0.0069365720866047861 0 -0.019196002335315578 0.0061758500739564227 0 -0.01753132618609227 0.0062648764087813542 0 -0.018045059292331602 0.0066735298386844995 0 -0.01753132618609227 0.0062648764087813542 0 -0.018045059292331602 0.0066735298386844995 0 -0.017400287084276597 0.0069365720866047861 0 -0.017925038229304722 0.0086620980532107258 0 -0.017302387887747288 0.008014338465025278 0 -0.018073224915229388 0.0072488480902587827 0 -0.017302387887747288 0.008014338465025278 0 -0.016568392617322961 0.0072548531834330946 0 -0.015431010044662494 0.0080493535806948971 0 -0.017302387887747288 0.008014338465025278 0 -0.018073224915229388 0.0072488480902587827 0 -0.017345025765232346 0.0073614407587657893 0 -0.018045059292331602 0.0066735298386844995 0 -0.018073224915229388 0.0072488480902587827 0 -0.017400287084276597 0.0069365720866047861 0 -0.018073224915229388 0.0072488480902587827 0 -0.017400287084276597 0.0069365720866047861 0 -0.017345025765232346 0.0073614407587657893 0 -0.016457169208999155 0.0059365514038726367 0 -0.017400287084276597 0.0069365720866047861 0 -0.016568392617322961 0.0072548531834330946 0 -0.017400287084276597 0.0069365720866047861 0 -0.017345025765232346 0.0073614407587657893 0 -0.016568392617322961 0.0072548531834330946 0 -0.017302387887747288 0.008014338465025278 0 -0.017345025765232346 0.0073614407587657893 0 -0.016568392617322961 0.0072548531834330946 0 -0.016568392617322961 0.0072548531834330946 0 -0.015724096150693905 0.0066032335788308626 0 -0.015431010044662494 0.0080493535806948971 0 -0.015724096150693905 0.0066032335788308626 0 -0.014688411459397923 0.0068102383868215736 0 -0.015431010044662494 0.0080493535806948971 0 -0.016457169208999155 0.0059365514038726367 0 -0.016568392617322961 0.0072548531834330946 0 -0.015724096150693905 0.0066032335788308626 0 -0.014688411459397923 0.0068102383868215736 0 -0.015431010044662494 0.0080493535806948971 0 -0.014066500543699607 0.0077017071394401273 0 -0.015027727968871966 0.0099103444383411964 0 -0.015431010044662494 0.0080493535806948971 0 -0.016532983890864647 0.0092373050802634464 0 -0.015027727968871966 0.0099103444383411964 0 -0.015431010044662494 0.0080493535806948971 0 -0.013591739510921115 0.0087736072934491253 0 -0.017302387887747288 0.008014338465025278 0 -0.015431010044662494 0.0080493535806948971 0 -0.016532983890864647 0.0092373050802634464 0 -0.017925038229304722 0.0086620980532107258 0 -0.017762345585401608 0.010342772794351989 0 -0.016532983890864647 0.0092373050802634464 0 -0.017925038229304722 0.0086620980532107258 0 -0.017302387887747288 0.008014338465025278 0 -0.016532983890864647 0.0092373050802634464 0 -0.012591607885785743 0.0071342868048819754 0 -0.011409098957286644 0.0072237999505422573 0 -0.011941922219853263 0.0080472531648521795 0 -0.012591607885785743 0.0071342868048819754 0 -0.011409098957286644 0.0072237999505422573 0 -0.011567506388598547 0.0064167965333667438 0 -0.011409098957286644 0.0072237999505422573 0 -0.011567506388598547 0.0064167965333667438 0 -0.010468587029504711 0.0067811455122786446 0 -0.013184219482541788 0.0062539388878115844 0 -0.012591607885785743 0.0071342868048819754 0 -0.011567506388598547 0.0064167965333667438 0 -0.013184219482541788 0.0062539388878115844 0 -0.012591607885785743 0.0071342868048819754 0 -0.014066500543699607 0.0077017071394401273 0 -0.013184219482541788 0.0062539388878115844 0 -0.014688411459397923 0.0068102383868215736 0 -0.014066500543699607 0.0077017071394401273 0 -0.012591607885785743 0.0071342868048819754 0 -0.014066500543699607 0.0077017071394401273 0 -0.013591739510921115 0.0087736072934491253 0 -0.012591607885785743 0.0071342868048819754 0 -0.013591739510921115 0.0087736072934491253 0 -0.011941922219853263 0.0080472531648521795 0 -0.015431010044662494 0.0080493535806948971 0 -0.014066500543699607 0.0077017071394401273 0 -0.013591739510921115 0.0087736072934491253 0 -0.011426431382271602 0.0090196812432358289 0 -0.013591739510921115 0.0087736072934491253 0 -0.011941922219853263 0.0080472531648521795 0 -0.011409098957286644 0.0072237999505422573 0 -0.011941922219853263 0.0080472531648521795 0 -0.010657556251991161 0.0077654846763431425 0 -0.011426431382271602 0.0090196812432358289 0 -0.011941922219853263 0.0080472531648521795 0 -0.010657556251991161 0.0077654846763431425 0 -0.011426431382271602 0.0090196812432358289 0 -0.0097216389342833411 0.0082783442429035202 0 -0.010657556251991161 0.0077654846763431425 0 -0.0097216389342833411 0.0082783442429035202 0 -0.010657556251991161 0.0077654846763431425 0 -0.0094647163624775495 0.007413422805492704 0 -0.011409098957286644 0.0072237999505422573 0 -0.010657556251991161 0.0077654846763431425 0 -0.010468587029504711 0.0067811455122786446 0 -0.010657556251991161 0.0077654846763431425 0 -0.010468587029504711 0.0067811455122786446 0 -0.0094647163624775495 0.007413422805492704 0 -0.010468587029504711 0.0067811455122786446 0 -0.009598739311683523 0.0066388176484279623 0 -0.010126179157522801 0.0063466047829520596 0 -0.0094647163624775495 0.007413422805492704 0 -0.0085611834388698276 0.0074043310281237248 0 -0.0089061442241966746 0.0068272975488075233 0 -0.009598739311683523 0.0066388176484279623 0 -0.0089061442241966746 0.0068272975488075233 0 -0.0093409058951483305 0.0062953760136456377 0 -0.010468587029504711 0.0067811455122786446 0 -0.009598739311683523 0.0066388176484279623 0 -0.0094647163624775495 0.007413422805492704 0 -0.009598739311683523 0.0066388176484279623 0 -0.0094647163624775495 0.007413422805492704 0 -0.0089061442241966746 0.0068272975488075233 0 -0.0087437288653061645 0.007991085467231528 0 -0.0094647163624775495 0.007413422805492704 0 -0.0085611834388698276 0.0074043310281237248 0 -0.0087437288653061645 0.007991085467231528 0 -0.0097216389342833411 0.0082783442429035202 0 -0.0094647163624775495 0.007413422805492704 0 -0.0087437288653061645 0.007991085467231528 0 -0.0082302100326161511 0.0078016372873970794 0 -0.0085611834388698276 0.0074043310281237248 0 -0.0082302100326161511 0.0078016372873970794 0 -0.0085611834388698276 0.0074043310281237248 0 -0.0079977611294485464 0.0074931710807801368 0 -0.0073210944399963044 0.0074429286998152011 0 -0.0079977611294485464 0.0074931710807801368 0 -0.0080287254049636724 0.0069471093082913811 0 -0.0085611834388698276 0.0074043310281237248 0 -0.0079977611294485464 0.0074931710807801368 0 -0.0080287254049636724 0.0069471093082913811 0 -0.0078232175612736165 0.0078734244385143485 0 -0.0075843764272275557 0.0076900780143520728 0 -0.0079977611294485464 0.0074931710807801368 0 -0.0078232175612736165 0.0078734244385143485 0 -0.0082302100326161511 0.0078016372873970794 0 -0.0079977611294485464 0.0074931710807801368 0 -0.0080287254049636724 0.0069471093082913811 0 -0.0089061442241966746 0.0068272975488075233 0 -0.0087999500951437808 0.0063567755096080201 0 -0.0085611834388698276 0.0074043310281237248 0 -0.0080287254049636724 0.0069471093082913811 0 -0.0089061442241966746 0.0068272975488075233 0 -0.0087999500951437808 0.0063567755096080201 0 -0.0083637656586042063 0.0060934412886431595 0 -0.0097308272209821016 0.0057870386379338997 0 -0.0089061442241966746 0.0068272975488075233 0 -0.0087999500951437808 0.0063567755096080201 0 -0.0093409058951483305 0.0062953760136456377 0 -0.0080287254049636724 0.0069471093082913811 0 -0.0087999500951437808 0.0063567755096080201 0 -0.0083637656586042063 0.0060934412886431595 0 -0.0075942399237080233 0.006504683081796447 0 -0.0080287254049636724 0.0069471093082913811 0 -0.0083637656586042063 0.0060934412886431595 0 -0.01864229143152292 0.0073713965998817368 0 -0.017258100353022457 0.0075140622242253598 0 -0.017923014533422293 0.0082315245495341513 0 -0.017258100353022457 0.0075140622242253598 0 -0.017190605862981351 0.0083811531773583699 0 -0.017923014533422293 0.0082315245495341513 0 -0.012554703215959829 0.0063321117643044709 0 -0.012528151603704735 0.0067906729847425984 0 -0.017258100353022457 0.0075140622242253598 0 -0.016439271896615117 0.0083648137286101744 0 -0.015284246142573217 0.0075828416881070426 0 -0.017258100353022457 0.0075140622242253598 0 -0.017190605862981351 0.0083811531773583699 0 -0.016439271896615117 0.0083648137286101744 0 -0.015264799297162505 0.0086837781064163077 0 -0.016439271896615117 0.0083648137286101744 0 -0.015284246142573217 0.0075828416881070426 0 -0.01069378550087257 0.0066048461940652128 0 -0.010519118085857539 0.0065354489366245775 0 -0.0097308272209821016 0.0057870386379338997 0 -0.014160744434465076 0.0084703869975794027 0 -0.015264799297162505 0.0086837781064163077 0 -0.015284246142573217 0.0075828416881070426 0 -0.011629917600415268 0.0071643814659880954 0 -0.012528151603704735 0.0067906729847425984 0 -0.014160744434465076 0.0084703869975794027 0 -0.012800739187015672 0.0076928671659288054 0 -0.015284246142573217 0.0075828416881070426 0 -0.011050479698782293 0.0058731360766292977 0 -0.0098600174935779081 0.0060055143484868323 0 -0.010519118085857539 0.0065354489366245775 0 -0.0097308272209821016 0.0057870386379338997 0 -0.009723059343059972 0.0060354500350100924 0 -0.011297553896175348 0.0052067036703812731 0 -0.010694833371065684 0.0060566846340617906 0 -0.009723059343059972 0.0060354500350100924 0 -0.011567506388598547 0.0064167965333667438 0 -0.010468587029504711 0.0067811455122786446 0 -0.010694833371065684 0.0060566846340617906 0 -0.010694833371065684 0.0060566846340617906 0 -0.010126179157522801 0.0063466047829520596 0 -0.009723059343059972 0.0060354500350100924 0 -0.010468587029504711 0.0067811455122786446 0 -0.010694833371065684 0.0060566846340617906 0 -0.010126179157522801 0.0063466047829520596 0 -0.009598739311683523 0.0066388176484279623 0 -0.0093409058951483305 0.0062953760136456377 0 -0.009723059343059972 0.0060354500350100924 0 -0.009598739311683523 0.0066388176484279623 0 -0.010126179157522801 0.0063466047829520596 0 -0.009723059343059972 0.0060354500350100924 0 -0.0087999500951437808 0.0063567755096080201 0 -0.0097308272209821016 0.0057870386379338997 0 -0.0093409058951483305 0.0062953760136456377 0 -0.0097308272209821016 0.0057870386379338997 0 -0.0093409058951483305 0.0062953760136456377 0 -0.009723059343059972 0.0060354500350100924 0 
</DataArray>
</PointData>
<CellData Scalars="region_id,cross_section_updated," Vectors="" Tensors="stress,">
<DataArray type="Float64" Name="region_id" format="ascii">
6 5 5 5 5 5 5 5 5 6 5 5 5 6 5 5 5 5 5 5 5 5 5 5 5 5 5 5 5 6 5 5 6 5 5 5 6 5 5 5 6 5 5 5 5 5 5 5 5 6 5 5 5 5 5 5 6 5 5 5 5 5 5 5 5 5 6 5 5 6 5 5 5 6 5 6 5 6 6 5 5 5 5 5 5 5 5 5 6 5 6 5 5 6 5 5 5 5 5 5 5 5 5 5 5 5 5 5 5 6 5 5 5 5 6 5 5 6 6 5 5 6 5 5 5 6 6 6 5 6 5 5 5 5 5 5 5 5 5 6 6 5 5 5 5 5 5 6 5 5 5 5 5 6 6 5 5 6 5 5 6 6 5 6 6 5 5 5 5 5 5 5 5 5 5 5 5 6 5 5 6 5 5 5 5 5 5 5 5 5 5 5 5 5 5 5 5 5 5 5 5 6 5 5 5 5 5 5 5 5 5 5 5 5 5 5 5 6 5 5 6 5 5 5 5 6 6 5 5 5 5 5 5 5 5 5 5 5 5 5 5 5 6 5 5 5 6 5 5 5 5 5 5 5 5 6 6 5 5 5 5 5 5 5 5 5 6 5 5 5 5 5 6 5 6 5 5 5 5 5 6 6 5 5 5 6 5 6 5 5 5 6 5 6 5 5 6 5 5 5 6 5 5 5 5 5 6 6 5 5 6 5 6 6 5 5 6 5 6 5 5 5 5 6 5 6 5 5 6 6 6 5 6 5 6 6 5 5 5 5 5 5 5 5 5 6 5 5 5 5 5 5 5 5 5 5 5 5 5 5 5 5 5 5 5 5 5 5 5 5 6 5 6 5 5 5 5 5 6 5 6 5 5 6 5 5 5 5 6 5 6 5 5 5 5 5 5 5 5 5 5 5 5 5 6 5 5 6 5 5 5 5 5 5 5 5 5 5 5 5 5 5 5 5 5 6 5 5 5 5 5 5 5 5 5 5 6 5 5 5 6 6 5 5 5 5 5 5 5 5 5 5 5 5 5 5 5 5 5 5 5 5 5 5 5 6 5 5 6 5 5 6 5 6 5 5 5 6 5 6 6 5 5 5 5 5 5 5 5 5 5 6 5 5 5 5 5 5 5 5 5 5 5 5 5 5 5 5 5 5 5 5 5 5 5 5 5 5 5 5 5 5 5 5 6 5 5 5 5 6 5 5 5 5 5 5 5 6 5 5 5 5 5 5 5 5 5 6 5 6 6 5 5 6 5 6 5 5 5 5 5 5 5 5 6 5 5 5 5 5 6 5 5 5 5 5 5 6 5 5 5 5 5 5 5 5 6 5 6 5 5 5 5 5 6 5 6 5 5 5 5 5 5 6 5 5 5 5 5 5 5 5 5 5 6 6 5 5 5 5 6 5 5 5 5 5 5 5 5 5 5 5 5 6 5 5 6 5 5 5 5 5 5 5 5 5 5 6 6 5 5 5 5 5 5 5 5 5 5 6 5 6 5 5 5 5 5 5 5 5 5 5 5 5 5 5 5 5 5 5 5 5 5 5 5 5 5 5 5 5 5 5 5 5 5 5 5 5 5 5 5 6 5 5 5 6 5 6 5 6 5 5 6 5 6 5 6 5 5 6 5 5 5 5 5 5 5 5 6 5 5 6 5 5 5 5 6 5 5 5 5 5 5 5 5 5 5 6 5 6 5 6 5 6 5 6 5 5 5 6 5 6 5 5 5 5 5 5 5 5 5 5 5 5 6 5 5 6 6 5 5 5 6 5 5 6 5 5 6 5 5 5 6 5 5 5 5 5 6 5 5 6 6 5 5 5 6 6 6 5 5 6 5 5 6 5 5 5 5 5 5 6 5 5 6 5 5 6 5 5 5 5 5 5 5 5 6 5 5 5 5 5 6 6 6 5 5 5 5 5 5 5 5 5 5 5 6 5 5 5 5 6 5 5 5 5 5 5 5 6 5 5 5 6 5 6 5 6 5 6 5 5 5 5 5 5 5 5 5 5 6 5 5 5 5 5 5 5 5 6 5 5 6 5 5 5 5 6 5 5 5 5 5 5 6 5 6 5 5 5 5 5 5 6 6 5 5 5 5 6 5 6 5 5 5 6 5 5 5 5 5 5 5 6 6 5 5 6 5 6 6 6 5 5 5 5 5 5 5 6 5 5 5 5 5 5 5 5 5 5 5 5 5 6 5 5 5 5 5 5 5 5 5 5 6 5 5 6 5 5 5 5 5 6 5 5 5 5 5 5 5 5 6 5 6 5 5 6 5 5 6 5 5 5 5 6 5 5 5 5 5 6 5 5 5 5 5 5 5 5 5 6 5 5 6 6 5 5 5 5 6 5 6 5 5 6 6 5 6 5 6 5 5 5 5 5 6 5 5 5 6 5 5 5 6 5 5 5 5 5 5 5 5 5 5 6 5 5 5 5 5 5 5 5 5 5 5 5 5 5 5 5 5 5 6 5 5 6 5 5 5 5 6 5 5 5 5 5 5 5 5 5 5 5 5 5 5 5 5 5 5 5 5 5 5 5 5 5 5 5 5 5 5 5 5 5 5 5 5 5 5 5 5 5 5 5 5 5 5 5 5 5 5 5 5 5 5 5 5 5 5 6 5 5 5 5 5 5 5 5 5 5 5 5 5 5 5 5 5 5 5 6 5 5 5 5 6 5 5 5 5 5 5 5 5 5 5 5 5 5 5 5 5 5 5 6 5 5 5 5 6 5 5 5 5 5 6 6 5 5 5 5 5 5 5 5 5 5 5 5 5 5 5 5 5 5 6 5 5 5 6 5 6 5 5 5 5 5 5 5 5 5 6 5 5 5 5 6 6 5 5 5 5 5 5 5 5 5 5 5 5 5 5 5 5 5 5 5 6 5 5 5 5 5 5 5 5 5 5 5 5 5 6 5 5 5 5 5 5 5 5 5 5 5 5 5 5 5 5 5 5 5 5 5 5 6 5 5 5 5 5 5 5 6 5 5 5 6 5 5 5 5 5 5 5 5 5 5 5 5 5 5 5 5 5 5 5 5 5 5 5 5 6 5 6 5 5 5 5 6 5 6 5 5 5 5 5 5 5 6 5 5 5 5 6 5 5 5 5 5 5 5 5 5 5 5 6 5 5 5 5 5 5 6 5 6 5 5 5 5 5 6 5 5 6 5 5 6 5 5 5 5 5 5 5 5 5 5 5 5 5 5 5 5 5 5 5 5 5 5 5 5 5 5 5 6 5 5 5 6 5 6 5 5 6 6 5 5 5 6 5 5 5 5 6 5 6 5 5 6 5 5 5 5 5 6 5 5 5 5 5 6 5 5 5 5 5 5 5 5 5 5 5 5 5 5 5 5 5 5 5 5 5 5 5 5 5 5 5 5 5 5 5 5 5 5 5 5 5 5 5 5 5 5 5 6 6 5 5 5 5 5 5 5 5 5 5 5 5 5 5 5 5 5 5 5 5 5 5 5 5 5 5 5 5 6 5 5 5 5 6 5 5 5 5 6 5 5 5 5 5 5 5 6 5 6 5 5 5 5 5 6 5 5 5 5 5 5 5 5 5 5 6 5 5 5 5 5 5 5 5 5 5 5 5 5 5 5 5 5 5 5 5 5 5 5 5 5 6 5 5 5 5 6 5 6 5 5 6 5 6 5 5 5 5 5 5 6 5 5 5 6 5 5 5 5 5 5 5 5 5 5 5 5 5 5 5 5 5 6 5 6 5 5 5 5 5 6 5 6 5 5 5 5 5 5 5 5 6 5 5 5 5 5 5 5 5 5 5 5 5 5 5 5 5 5 5 5 5 5 5 5 6 5 6 5 5 5 5 5 5 5 5 5 5 5 5 6 5 5 5 5 5 5 5 5 5 5 5 5 5 5 5 5 5 5 5 5 5 5 5 5 5 5 5 6 5 5 5 6 5 6 6 5 5 5 5 5 6 5 5 5 5 5 5 5 5 5 5 5 5 5 5 5 5 5 5 5 5 5 5 5 5 6 5 5 6 5 5 5 5 5 5 5 5 6 6 5 5 5 5 5 5 5 5 5 5 6 5 5 6 6 5 6 5 5 5 5 5 6 5 6 6 6 5 5 5 5 5 5 6 5 5 5 5 5 5 5 5 5 6 5 6 5 5 6 5 5 5 5 5 5 5 5 5 5 5 5 5 5 5 5 5 5 5 5 5 5 5 5 5 5 6 6 5 5 5 5 5 5 5 5 5 5 5 5 5 5 5 5 5 5 5 5 5 5 5 5 5 5 5 5 5 5 5 5 5 5 5 5 5 5 5 5 5 5 5 5 5 5 5 5 5 5 5 5 5 5 5 5 6 5 5 5 5 5 5 5 5 5 6 6 5 5 5 6 5 5 5 5 5 5 5 5 5 5 5 5 5 5 5 5 5 5 5 5 5 5 5 5 5 5 5 5 5 5 6 5 5 5 5 5 5 5 6 5 5 5 5 5 5 5 6 5 5 6 5 5 5 5 5 5 5 5 5 6 5 5 6 6 5 5 5 6 5 5 5 5 5 5 5 5 5 5 5 6 5 5 5 5 6 5 6 5 5 6 5 5 6 6 5 5 5 5 5 5 5 5 5 5 6 6 5 5 5 5 5 5 6 5 5 5 5 5 5 6 5 6 5 5 5 5 5 6 6 5 5 5 5 5 5 5 5 5 5 5 5 5 5 5 5 5 5 5 6 6 5 5 6 5 5 5 5 5 5 5 5 5 5 5 6 5 5 5 5 5 5 5 5 5 5 5 5 5 5 5 5 5 5 5 5 5 5 5 5 5 5 5 5 6 5 5 5 5 6 6 5 5 5 5 5 5 5 6 5 6 5 5 5 5 5 5 5 5 5 5 5 5 5 5 5 5 5 5 5 5 6 6 5 6 5 5 5 5 5 6 5 5 5 5 5 5 5 5 5 5 5 5 5 5 5 5 5 6 5 5 5 5 5 5 5 5 5 5 5 6 5 5 5 5 5 5 5 5 5 5 6 5 5 5 5 5 5 5 5 5 6 5 5 5 5 6 5 5 5 6 5 5 5 5 6 5 5 5 5 5 5 5 5 5 6 5 5 5 5 6 5 5 5 5 5 5 5 5 6 5 6 6 5 6 6 5 5 5 6 5 5 5 6 5 6 5 5 5 5 5 6 5 5 5 6 5 5 5 5 5 5 6 6 5 5 5 5 5 5 5 5 5 5 5 6 5 6 6 5 5 5 5 5 6 6 5 5 6 5 5 5 5 6 5 5 5 5 5 6 5 5 5 5 6 6 5 5 6 5 6 6 5 5 5 5 5 5 5 5 5 5 5 5 5 5 5 5 5 5 5 5 5 6 5 5 6 5 6 5 5 5 6 5 5 5 5 5 5 6 6 5 5 5 5 5 5 6 5 5 6 5 5 5 5 5 5 6 5 5 5 6 5 5 5 5 5 5 6 5 5 5 5 5 5 5 5 5 5 5 5 5 6 5 6 5 5 5 5 5 5 5 5 5 6 5 5 5 6 5 5 5 5 5 5 5 5 5 5 6 5 5 5 5 5 5 5 5 5 5 5 5 5 5 5 5 5 5 5 5 5 5 5 5 5 6 5 5 5 6 5 5 6 5 5 5 5 5 6 5 5 5 6 5 5 5 5 5 5 5 6 5 5 5 5 5 5 5 5 5 5 5 5 5 5 5 5 5 6 5 6 5 5 5 5 5 5 5 5 5 6 5 6 5 6 5 6 6 5 5 5 5 6 5 5 5 5 6 5 5 5 5 5 6 5 6 5 5 6 5 5 5 5 5 5 5 5 5 5 5 5 5 5 5 5 5 6 5 5 5 5 5 5 6 5 5 5 5 5 6 5 5 5 5 5 5 5 6 5 5 6 5 5 5 5 5 5 6 5 5 5 6 5 5 5 5 5 5 5 5 5 5 5 5 5 5 5 5 5 6 5 5 5 5 5 6 6 5 5 5 5 5 6 5 6 5 6 5 6 6 5 5 5 6 6 5 5 5 5 5 5 5 5 5 5 5 5 5 5 5 5 5 5 5 5 5 5 5 5 5 5 5 5 5 5 5 5 5 5 5 5 5 5 6 5 5 5 5 5 5 5 6 5 6 5 5 5 5 5 5 6 5 5 5 6 5 5 5 6 6 5 6 5 5 5 5 5 5 6 5 5 6 5 5 5 5 5 5 5 5 5 5 5 5 6 6 6 5 5 5 6 5 5 5 5 5 5 5 5 5 5 5 5 5 5 5 5 5 5 5 5 5 5 6 5 5 5 5 6 5 5 5 5 5 5 5 6 5 5 5 5 5 6 5 5 5 5 5 6 5 5 5 5 5 5 5 5 5 6 5 5 5 5 6 5 5 5 5 5 5 5 5 5 5 6 5 5 6 5 5 5 5 5 5 5 5 5 5 5 5 5 5 5 5 5 5 5 5 6 5 5 5 5 6 5 5 5 5 5 5 5 5 6 5 5 5 5 5 6 5 5 6 5 5 5 5 5 5 5 5 5 5 5 5 6 5 5 5 5 5 5 5 5 5 5 5 5 5 5 5 5 5 5 5 5 5 5 5 5 5 5 5 5 6 5 5 5 5 5 5 5 5 5 5 5 5 5 5 6 5 5 5 5 5 5 5 5 5 5 5 5 5 5 5 5 5 5 5 6 5 5 5 5 5 5 5 6 5 5 5 5 5 5 5 5 5 5 5 5 5 5 5 5 5 5 5 5 5 5 5 5 6 5 5 5 5 5 6 5 5 5 5 5 5 5 5 5 5 6 5 5 6 5 6 5 5 5 5 5 5 5 6 5 6 5 6 5 5 5 5 5 5 5 5 5 5 5 5 5 5 5 5 5 5 5 5 5 5 5 5 5 5 5 5 5 5 5 5 5 5 5 5 6 5 5 5 5 5 5 5 5 5 5 5 5 5 5 5 5 5 5 5 5 5 5 5 5 5 5 5 5 5 5 5 6 5 5 5 5 5 5 6 6 5 5 5 5 5 5 5 5 5 5 5 5 5 6 5 5 5 5 5 5 5 5 5 5 6 6 5 6 5 5 5 6 5 6 6 5 6 5 5 5 5 5 5 5 6 6 5 5 5 5 6 5 5 5 5 6 5 6 5 6 6 5 6 5 5 5 5 5 6 5 6 6 6 6 5 5 5 5 5 6 5 5 6 6 5 5 5 6 5 5 6 5 5 5 5 6 5 5 6 5 5 6 5 5 5 5 5 5 5 5 5 5 5 5 5 5 6 5 6 5 5 5 5 5 6 5 5 6 5 5 5 5 5 6 5 5 5 5 5 5 5 5 5 5 6 5 5 5 5 5 5 5 5 5 5 5 6 5 5 5 5 5 5 6 5 5 5 5 5 5 5 5 5 5 5 5 5 5 6 5 5 5 6 5 5 5 5 5 5 5 6 5 6 5 5 5 5 5 5 5 5 5 5 5 5 5 5 5 5 5 5 5 5 5 5 5 5 5 5 5 5 5 5 5 5 5 5 5 5 6 5 6 5 5 6 5 6 5 5 5 5 5 5 6 5 5 6 6 5 5 5 5 5 5 6 5 5 5 5 5 5 5 6 5 5 5 5 5 5 5 5 5 5 5 5 5 5 5 5 5 5 5 6 5 5 5 6 5 6 5 6 5 5 5 5 6 5 5 5 5 5 5 6 5 5 5 5 5 5 6 5 5 6 5 5 5 5 5 5 6 5 5 5 5 5 5 5 5 5 6 5 6 5 5 5 5 5 6 6 5 5 5 6 6 5 5 5 5 5 5 6 5 5 6 6 5 5 6 5 5 6 5 5 5 5 6 5 5 5 5 5 5 6 5 5 5 5 5 5 5 5 5 5 6 5 5 5 6 6 5 5 5 5 5 5 5 5 5 6 5 5 5 5 5 5 5 5 5 5 5 6 6 5 5 5 5 6 5 5 5 5 6 5 5 5 5 6 5 5 5 6 5 5 5 5 6 5 5 5 5 5 6 5 5 5 5 6 5 5 5 5 5 5 5 5 5 5 5 5 5 5 5 5 5 5 5 5 5 5 5 5 5 5 5 5 5 5 5 5 6 5 5 5 5 6 5 5 5 5 5 5 6 5 5 5 6 5 6 5 5 5 5 5 5 5 5 5 5 5 5 5 5 5 5 5 5 5 5 5 5 5 6 5 6 5 5 5 6 5 5 5 5 5 5 5 5 5 5 5 5 5 6 5 5 6 5 5 6 6 5 6 5 5 5 5 5 5 5 5 5 5 5 5 5 5 5 5 5 6 5 5 5 5 5 6 5 5 5 5 5 5 5 6 5 5 5 5 5 5 5 6 5 5 5 5 5 5 5 5 5 5 5 5 5 5 5 6 5 5 5 6 5 5 5 5 5 5 5 5 5 5 5 6 5 5 5 5 5 5 6 5 5 6 5 6 5 5 5 6 5 5 5 5 5 5 5 5 5 5 5 6 5 5 5 5 5 6 5 5 5 6 5 5 5 6 5 5 5 5 5 6 5 6 5 5 5 5 5 5 5 5 6 5 6 5 5 6 5 6 5 6 5 5 5 5 5 5 5 5 5 5 6 5 6 5 5 5 5 6 5 5 5 6 6 5 5 5 6 5 6 6 5 5 6 6 5 6 6 5 5 6 6 5 5 6 5 5 6 5 6 5 5 6 5 5 6 5 6 5 5 5 6 5 6 5 5 6 6 5 5 5 6 6 5 6 5 5 5 5 5 5 5 5 6 5 5 6 6 5 6 5 6 6 5 5 5 6 5 5 6 5 5 5 5 5 5 6 6 5 5 5 5 5 5 5 6 6 5 5 5 5 6 5 5 5 6 5 5 6 5 5 5 5 5 6 5 5 6 5 5 5 6 6 5 5 6 5 5 5 6 5 5 5 6 6 5 5 6 5 5 5 5 6 6 5 5 6 6 5 6 6 5 5 5 5 5 5 6 5 5 5 5 5 5 5 5 5 5 6 6 5 5 5 5 5 5 5 6 5 5 5 5 5 5 5 5 5 6 5 5 6 5 5 6 5 5 5 5 5 5 5 5 5 5 5 5 5 5 5 5 5 5 6 6 5 5 5 5 6 5 5 6 5 5 5 5 5 5 5 5 5 6 5 5 6 5 5 5 5 5 5 5 5 5 5 5 6 5 6 5 5 5 5 5 5 5 5 5 5 6 5 5 5 5 5 5 5 5 5 5 5 5 5 5 5 5 5 5 5 5 5 5 5 5 5 5 5 5 5 5 5 5 5 5 5 5 5 5 5 6 5 5 5 5 5 5 5 5 5 6 5 5 6 5 5 5 5 5 5 5 5 5 5 5 5 5 5 5 5 6 5 6 5 5 6 5 5 5 6 6 5 6 6 5 6 5 5 6 5 5 6 5 5 5 5 5 5 5 5 5 5 5 5 5 5 5 5 5 5 5 5 5 6 5 5 5 5 5 5 5 5 5 5 5 5 5 5 5 5 5 5 5 6 5 5 5 5 5 6 5 5 5 5 5 5 5 5 5 5 5 5 5 5 5 5 5 5 5 5 5 5 5 5 6 5 5 5 5 5 5 6 5 5 5 5 5 5 5 5 5 5 5 5 5 5 5 6 5 5 5 6 6 5 5 5 6 5 5 5 5 5 5 5 5 6 5 5 5 5 6 5 5 5 5 5 5 5 5 5 5 5 5 5 6 5 5 5 5 5 5 5 5 5 5 5 5 5 5 5 5 5 5 5 5 5 5 5 5 5 5 5 6 5 5 5 5 5 5 5 5 5 5 5 5 5 5 5 6 6 5 5 5 6 5 5 5 5 5 5 5 5 5 5 5 5 5 5 5 5 5 5 5 5 5 5 5 5 5 5 5 5 5 5 6 5 5 5 5 5 5 5 5 5 5 5 5 5 5 5 5 5 5 5 5 5 5 5 5 5 6 5 5 5 5 5 5 5 6 5 5 5 6 5 5 6 5 5 5 5 5 5 5 5 6 6 5 5 5 5 5 6 5 5 5 5 5 5 5 5 5 5 5 5 5 5 5 5 5 5 5 6 5 6 5 6 5 5 5 6 5 6 5 5 5 5 5 5 5 5 5 5 5 5 6 5 5 5 5 6 5 5 6 5 6 5 5 6 5 5 5 6 5 5 5 5 5 5 5 5 5 6 5 5 5 5 6 5 5 5 5 6 5 5 5 5 5 5 6 5 6 5 6 5 5 5 6 5 5 5 5 5 5 6 6 5 5 5 5 5 6 5 5 5 5 5 5 5 5 5 5 5 5 5 5 5 5 5 5 5 6 5 5 5 5 5 5 5 5 5 6 5 6 5 6 5 5 5 5 5 5 5 5 5 5 5 5 6 5 5 6 5 5 5 5 5 5 5 5 5 6 5 6 5 5 5 5 5 5 6 5 5 5 5 5 5 5 5 5 5 5 5 5 5 5 5 5 5 5 5 5 5 5 5 5 5 5 5 5 5 5 5 5 5 5 5 5 5 5 5 5 6 5 5 6 5 6 5 5 5 6 6 5 5 6 5 5 5 5 5 5 5 5 5 5 5 5 6 5 5 5 5 5 5 5 5 5 5 5 5 6 5 5 5 5 5 5 5 5 5 5 5 5 5 5 5 6 5 5 5 5 5 6 5 5 5 5 5 5 5 5 5 6 5 5 5 5 6 5 5 5 5 5 5 5 5 5 5 5 6 5 6 5 6 5 5 5 6 5 5 5 5 5 5 5 5 5 5 5 5 5 5 5 5 5 5 5 5 6 5 5 5 5 5 5 5 5 5 5 5 5 5 5 5 5 5 5 6 5 5 5 5 5 6 5 5 5 5 5 5 5 5 6 5 5 6 5 5 5 5 5 5 5 6 5 5 5 5 5 5 5 5 5 6 5 5 5 5 5 5 5 5 5 5 5 5 5 5 5 5 5 5 5 5 5 5 5 5 6 5 6 5 5 6 5 5 5 5 5 5 5 5 6 5 5 5 5 5 5 6 5 5 5 5 5 5 5 5 5 5 5 5 6 5 5 5 5 5 5 5 5 5 5 5 5 5 5 6 5 5 5 6 5 5 5 5 6 5 5 5 5 5 5 5 5 5 5 5 5 5 5 5 5 5 5 5 5 5 5 5 5 5 5 6 5 5 6 5 5 5 5 5 5 5 5 5 6 5 5 6 5 5 6 5 5 5 5 5 5 5 5 5 5 5 5 5 5 5 5 5 5 5 5 5 5 5 5 5 5 5 5 5 5 5 5 5 5 5 5 5 5 5 5 5 5 5 5 5 5 5 5 5 5 5 5 5 5 5 5 5 5 5 5 5 5 5 6 5 5 5 5 5 5 6 5 5 5 5 5 5 5 5 5 5 5 6 6 5 5 6 5 6 5 5 6 5 5 6 5 5 5 5 5 5 5 5 6 5 5 5 5 5 5 5 5 5 6 5 5 5 5 6 5 5 5 5 5 5 5 5 5 5 5 5 5 5 5 6 5 5 5 5 6 5 6 5 5 5 6 5 5 6 5 5 5 5 5 5 5 5 5 5 5 6 5 5 6 5 5 5 6 5 5 6 6 5 5 6 5 5 5 5 5 5 5 5 6 5 5 5 5 6 5 6 5 6 5 5 5 5 6 5 5 5 6 5 5 5 5 5 5 5 5 5 5 5 5 5 5 5 5 5 5 6 5 5 5 5 5 5 5 5 5 5 5 5 5 5 5 5 5 5 5 5 5 5 5 5 5 5 5 5 5 5 5 5 5 5 5 5 5 5 5 5 6 5 5 5 5 5 6 5 5 5 5 5 5 5 5 5 5 5 5 5 6 5 5 6 5 5 5 6 5 6 5 5 5 5 6 5 5 5 5 5 5 5 5 5 6 5 5 6 6 5 6 5 5 5 5 5 5 5 5 5 5 5 5 5 5 5 5 5 5 5 5 5 5 5 6 5 5 5 6 5 5 5 5 5 5 5 6 5 5 5 5 5 5 5 5 5 5 5 5 5 5 5 5 5 5 5 5 5 5 5 6 5 5 5 5 5 6 5 6 6 5 5 5 6 5 5 6 5 5 5 5 5 5 5 5 5 5 5 6 5 5 5 6 5 6 5 5 5 5 5 6 5 6 5 6 5 5 5 5 5 5 5 5 6 6 6 5 5 6 5 5 5 5 5 5 5 5 5 5 5 5 5 5 5 5 5 5 5 5 5 5 5 5 5 5 5 5 5 5 5 5 5 5 5 5 5 6 5 5 5 5 5 5 5 6 5 5 6 5 5 5 5 5 5 5 5 5 5 5 5 5 5 5 5 5 5 5 5 5 5 5 6 5 5 5 5 5 5 5 5 5 5 6 5 5 5 5 6 5 5 5 5 6 5 6 6 5 5 5 5 6 5 5 6 5 5 6 6 5 5 5 5 5 5 5 6 5 5 5 5 5 5 5 5 5 5 5 5 5 6 5 5 5 5 5 5 5 6 6 5 6 5 6 5 5 5 6 5 5 5 5 5 6 5 5 6 5 5 5 5 5 5 5 6 5 5 5 5 5 5 5 5 6 5 5 5 6 5 5 5 5 5 6 6 5 5 6 5 5 5 5 5 5 5 5 5 5 5 5 5 5 6 5 5 6 5 6 5 5 5 5 6 5 5 5 5 5 6 5 5 6 6 5 5 5 5 6 5 5 5 5 5 5 5 5 6 5 6 5 5 5 5 5 5 5 5 6 5 5 5 5 6 5 5 5 5 5 5 5 5 5 5 5 5 5 5 5 5 5 5 5 5 5 5 5 5 5 5 5 5 5 5 5 5 5 6 5 5 5 5 5 5 5 6 5 5 5 5 5 5 5 5 5 5 5 5 6 5 5 5 5 6 5 5 5 5 5 5 5 5 5 5 5 5 5 6 5 5 6 5 5 5 5 6 5 5 5 5 5 5 5 5 5 5 5 6 5 6 5 5 6 5 5 5 5 6 5 5 5 5 5 5 5 5 5 5 5 5 5 5 5 5 5 5 5 5 5 5 5 5 5 5 5 5 6 5 5 5 5 6 5 5 5 5 5 5 5 5 5 6 5 5 5 6 5 5 5 5 5 5 6 5 6 5 6 5 5 5 5 5 5 5 5 5 5 5 5 5 5 5 5 5 5 5 5 5 5 5 5 5 5 5 5 5 5 5 5 5 5 5 6 5 6 5 5 5 5 5 5 5 5 6 5 5 5 5 5 5 5 5 5 5 5 5 6 5 5 5 5 5 5 5 5 5 5 5 5 5 6 5 5 6 5 5 5 5 6 5 5 5 5 6 5 5 5 5 5 6 6 5 6 5 5 6 5 5 5 5 6 5 6 5 5 5 5 5 5 5 5 6 5 5 5 5 6 5 5 5 5 5 5 5 5 5 5 5 5 5 5 5 5 5 5 5 5 5 5 6 5 5 5 5 5 5 5 5 5 5 5 5 5 5 5 5 5 5 5 5 5 6 5 5 5 5 5 5 5 6 5 6 5 5 5 5 5 5 5 5 5 5 5 5 5 5 5 5 5 5 5 5 5 5 5 5 5 5 6 5 5 5 5 5 6 5 6 5 5 5 5 6 6 6 5 6 5 5 5 6 5 5 5 5 6 5 6 5 5 5 5 6 5 5 5 6 6 6 5 6 5 6 5 5 6 5 5 5 5 5 5 5 5 5 5 6 5 6 5 6 5 5 5 5 6 5 5 5 5 6 5 5 5 5 5 5 5 5 5 5 6 5 6 5 5 6 5 5 6 5 5 5 5 5 6 5 5 5 5 5 5 5 5 5 5 5 5 6 5 5 5 6 5 5 5 5 5 6 5 5 5 5 5 5 5 5 5 5 5 5 5 5 5 5 5 5 5 5 5 6 5 5 5 5 6 5 5 5 6 5 6 5 5 6 5 6 5 5 5 5 5 5 6 5 5 5 5 6 5 6 5 5 5 5 5 5 5 6 5 5 5 5 5 5 5 6 5 5 5 5 5 5 5 5 5 5 5 5 5 5 5 5 5 6 5 5 5 6 5 5 5 5 5 5 5 5 5 5 5 5 5 5 6 5 5 5 5 5 5 5 5 5 5 5 5 5 5 5 5 5 5 5 5 5 5 5 5 5 5 5 6 5 6 5 5 5 6 5 5 5 6 5 5 6 6 5 5 5 5 5 5 5 5 6 5 5 6 5 5 5 5 6 5 6 5 5 5 6 5 5 5 5 5 5 5 5 5 5 6 5 5 6 5 5 6 5 5 5 5 5 5 5 6 5 5 6 6 5 5 5 6 5 5 5 5 5 5 6 5 5 5 5 6 5 5 5 6 5 5 5 5 6 5 5 6 5 5 5 5 5 5 5 5 5 5 5 6 5 5 5 5 6 5 6 5 6 5 6 5 5 5 5 5 5 5 5 5 5 5 6 6 5 5 5 5 5 5 6 5 5 6 5 5 5 5 5 5 6 5 5 5 6 5 6 5 5 5 6 5 5 5 5 5 5 6 5 5 5 5 5 5 6 5 6 5 5 5 6 5 5 5 5 6 5 5 5 5 5 5 5 6 5 6 5 6 5 5 5 6 6 5 5 6 5 5 5 5 5 6 5 6 6 6 6 5 5 5 5 5 6 6 5 5 6 5 5 5 6 5 5 5 5 5 5 5 5 5 6 5 5 5 6 5 5 5 5 5 5 5 6 5 6 5 5 5 5 6 5 6 5 5 5 5 6 5 5 5 5 5 5 5 5 5 6 5 5 5 5 5 5 5 5 5 5 5 5 5 5 5 5 5 5 5 5 5 6 5 5 5 5 6 5 5 5 5 5 6 5 6 5 5 5 5 5 5 5 5 5 5 5 6 5 6 5 6 6 5 6 5 6 5 5 5 6 5 5 5 6 5 5 5 5 6 5 6 5 5 5 5 5 5 5 5 6 5 5 5 5 5 5 5 5 6 5 5 5 5 5 5 5 5 5 6 5 5 6 5 5 5 6 5 5 5 5 5 5 5 5 5 5 5 5 6 5 5 5 5 6 5 5 5 5 5 5 6 5 5 5 5 6 5 6 5 5 5 5 5 5 5 6 5 5 5 6 6 5 5 5 5 6 5 6 5 5 6 5 5 5 5 5 5 5 5 5 5 5 5 5 5 5 5 5 5 5 5 5 5 5 5 5 5 5 5 5 5 5 5 5 5 5 6 5 5 5 6 5 5 5 5 5 5 5 5 5 5 5 5 5 6 5 6 5 5 5 5 5 5 5 5 5 5 5 5 5 6 5 5 6 5 5 5 5 5 6 5 5 5 5 5 5 5 5 5 5 5 5 5 5 5 5 5 5 5 6 6 5 5 6 5 5 6 5 5 5 5 5 5 5 6 5 5 5 5 6 5 5 5 5 5 5 5 5 5 5 5 5 5 5 6 5 5 6 5 5 5 5 5 5 5 6 6 5 5 5 5 5 5 5 5 5 5 5 5 5 5 5 5 6 5 5 5 5 6 5 5 6 5 5 6 5 5 5 5 5 5 5 5 5 5 5 5 6 5 5 5 5 6 5 5 5 5 5 5 5 5 5 6 6 6 5 5 5 6 5 5 6 6 5 6 5 5 5 6 5 5 5 5 5 5 5 5 5 5 5 5 5 5 5 5 5 5 5 5 5 5 5 5 5 5 5 5 5 5 5 5 5 5 5 5 5 5 5 5 5 5 5 5 5 5 5 5 6 5 6 5 5 5 5 5 5 5 5 5 6 5 5 5 5 5 5 6 5 5 5 5 5 6 5 5 5 5 5 5 5 5 5 5 5 5 5 5 5 6 5 5 5 5 5 5 5 6 5 5 5 5 5 6 6 5 5 5 5 6 5 5 5 5 5 5 5 5 5 5 5 5 5 5 5 5 5 5 5 5 5 6 5 5 5 5 5 5 6 5 5 5 6 5 5 5 5 5 5 5 5 5 5 5 5 5 5 5 5 5 5 6 5 6 5 5 5 5 5 6 6 5 5 5 6 5 5 5 5 5 5 6 5 5 5 5 5 6 5 6 5 5 6 5 5 5 5 6 5 5 5 5 6 5 5 5 5 6 5 5 5 5 5 5 5 5 5 5 5 5 5 6 5 5 5 5 5 5 5 5 5 5 5 5 5 5 5 5 6 5 5 5 5 6 5 5 5 5 6 5 5 5 5 5 5 5 5 5 5 6 5 5 5 5 6 5 5 5 5 5 5 5 5 5 5 5 5 5 5 5 6 5 5 5 6 5 5 5 5 5 5 5 5 5 5 5 5 5 5 6 5 5 5 5 5 5 5 5 5 5 5 6 5 5 6 5 5 5 5 5 5 6 6 5 5 5 5 6 5 6 5 5 5 6 5 5 6 5 5 5 5 5 5 5 5 5 5 5 5 5 5 5 5 6 5 5 5 5 5 5 5 5 6 6 5 5 5 6 6 5 6 5 6 5 5 5 5 6 5 5 5 5 5 5 5 5 5 5 5 5 5 6 5 6 5 5 5 5 5 5 5 5 6 6 5 5 6 6 6 5 5 5 5 5 5 6 5 5 6 5 5 6 6 6 6 5 5 5 5 5 5 5 5 5 5 5 5 5 6 5 5 6 5 6 5 5 5 5 5 5 5 6 6 5 5 6 5 5 6 5 5 5 5 6 6 6 6 5 5 5 5 5 5 5 5 5 5 5 5 5 5 6 5 5 6 5 5 5 5 6 5 5 5 6 5 5 6 5 5 6 5 5 6 6 5 6 5 5 5 5 5 5 6 5 5 5 5 6 5 5 5 5 5 6 5 5 6 5 6 6 5 5 5 6 5 5 5 5 5 6 5 5 5 6 5 5 5 6 5 5 5 5 5 5 5 6 5 5 5 5 5 6 5 5 5 5 5 5 5 6 5 6 6 5 5 6 5 5 5 5 5 5 6 5 5 5 5 5 5 6 5 5 5 5 5 5 6 5 6 5 6 5 5 6 5 5 5 5 6 6 6 6 5 5 5 5 5 5 5 5 6 5 5 5 6 5 6 5 5 5 5 5 5 5 5 5 5 5 5 5 5 5 5 6 5 6 5 5 5 5 5 5 5 5 6 5 5 5 5 5 6 5 5 6 5 5 5 5 5 5 6 6 5 5 6 5 5 5 5 5 5 5 5 5 5 5 6 6 5 5 5 5 6 5 5 5 5 5 5 5 5 6 5 5 5 5 6 5 5 5 5 5 5 6 5 6 5 6 5 5 5 5 5 5 5 5 5 5 5 5 5 5 5 5 5 5 6 5 5 5 5 5 5 5 5 5 5 5 5 5 5 5 5 5 6 6 5 5 5 5 5 5 5 5 5 5 5 5 5 5 5 5 5 5 5 5 5 5 5 5 5 5 5 5 5 5 5 5 5 5 5 5 5 5 5 5 5 5 5 5 5 6 5 6 5 5 5 5 5 5 5 6 5 5 5 6 5 6 6 6 5 6 6 5 5 6 6 6 5 5 5 5 5 6 5 6 6 5 5 5 5 5 5 5 6 5 5 6 5 5 6 6 5 5 5 5 5 5 6 5 5 6 6 5 5 6 5 5 5 6 5 5 5 5 6 5 5 5 6 5 5 6 5 5 5 5 5 5 5 5 5 5 5 5 5 5 5 5 5 5 5 6 6 5 5 5 6 5 5 5 5 6 5 5 5 5 5 6 6 5 5 5 5 5 5 5 5 5 6 5 5 5 5 5 5 5 5 5 5 5 5 5 5 5 5 5 5 5 5 5 5 5 5 5 5 5 6 5 6 6 5 5 5 5 5 5 5 5 5 5 5 5 5 5 5 5 5 5 5 5 5 5 5 5 5 5 5 6 5 5 6 5 5 6 5 5 6 5 6 5 5 5 5 5 5 5 6 5 5 5 5 5 5 5 5 5 5 5 5 6 5 6 5 6 5 5 5 5 5 6 5 5 5 5 6 5 5 6 5 5 5 5 5 5 5 5 6 5 5 5 5 5 5 6 5 5 5 5 6 5 5 5 6 5 5 5 5 5 5 5 5 5 5 5 5 5 5 5 5 5 5 6 5 6 5 5 5 6 5 5 5 5 5 5 5 5 5 5 5 5 5 5 5 5 5 5 5 6 5 5 5 6 5 5 5 6 5 5 5 5 5 5 5 5 5 5 5 5 5 5 5 6 5 5 5 5 6 5 5 6 5 5 5 5 5 5 6 5 6 5 6 6 6 5 5 5 6 6 5 5 5 5 5 5 5 6 5 5 5 6 5 6 5 5 5 5 5 5 5 5 5 6 5 5 5 5 5 5 5 5 6 5 5 5 5 6 5 5 5 5 5 5 5 5 5 5 5 5 5 5 5 5 5 5 5 5 5 6 6 5 5 5 5 5 5 5 5 6 5 5 5 5 5 5 5 5 5 5 6 5 5 5 5 5 5 6 5 5 5 5 5 6 5 6 5 5 6 6 5 5 5 5 5 5 5 5 5 5 5 5 5 5 5 5 5 5 5 5 5 5 5 5 5 5 5 5 5 5 5 5 5 5 5 5 5 5 5 5 5 5 5 5 5 5 5 5 6 6 5 5 6 5 5 5 5 5 6 6 5 5 6 6 5 5 5 5 5 5 5 5 5 5 6 5 5 5 5 5 5 5 5 5 5 5 5 5 5 5 6 5 5 5 5 5 5 5 5 5 5 5 5 5 6 5 6 6 6 5 5 5 5 5 5 5 5 6 6 5 5 5 5 6 5 5 5 5 5 5 5 5 6 5 5 5 5 5 5 5 5 5 5 5 5 5 5 5 5 5 6 5 5 5 5 5 5 6 5 5 6 5 5 5 5 5 5 5 5 5 5 5 5 5 5 5 5 5 5 6 5 5 5 6 5 5 6 5 6 6 5 5 6 5 5 5 6 5 5 6 5 6 6 5 5 5 5 6 5 5 5 5 5 5 6 5 6 5 5 5 6 5 5 5 5 6 5 6 6 5 5 5 5 5 6 5 6 5 6 5 6 6 5 5 5 5 5 5 5 6 5 6 5 5 6 5 5 6 5 5 5 5 5 5 5 5 5 5 5 5 5 5 5 5 5 5 5 5 5 5 5 5 5 5 5 5 5 5 5 6 5 5 5 5 5 5 5 5 5 5 5 5 5 5 5 5 5 5 5 5 5 5 5 6 5 5 5 5 5 6 6 5 5 5 5 5 5 5 5 5 5 5 5 5 5 5 5 5 5 5 5 5 6 5 5 5 5 5 5 5 5 5 5 5 5 5 6 5 6 5 5 5 6 5 5 5 5 5 5 5 5 6 5 6 5 5 5 5 5 6 5 5 5 5 5 5 5 5 5 5 5 6 5 5 5 5 5 5 5 5 5 5 5 6 5 5 5 5 5 5 5 5 6 5 5 5 5 5 5 5 5 5 5 5 5 5 5 5 5 5 5 5 5 5 5 5 5 5 5 6 5 5 6 5 5 5 5 5 5 5 5 5 5 5 5 5 5 5 5 5 5 5 5 5 5 5 5 5 5 5 5 6 5 6 5 6 5 5 5 5 5 6 5 5 5 5 6 5 5 5 6 5 5 5 5 5 5 5 5 5 5 5 5 5 5 5 5 5 5 6 6 6 5 5 5 5 5 5 5 5 5 5 5 5 5 6 5 5 5 5 5 5 5 5 5 5 5 5 6 5 5 6 5 5 5 5 5 5 5 5 5 5 5 5 5 5 5 5 5 5 5 5 5 6 6 5 5 5 5 5 5 5 5 5 5 5 5 5 5 6 5 5 6 5 5 5 5 6 5 5 5 5 5 5 6 5 5 5 5 5 5 5 5 5 5 5 5 5 5 5 5 5 5 6 5 5 5 5 5 6 5 5 5 5 5 5 5 5 5 5 5 5 5 5 5 5 5 5 5 5 5 5 5 5 5 5 5 5 6 5 6 5 5 5 5 6 6 5 5 5 5 5 5 5 5 5 5 5 5 5 5 5 5 5 5 5 5 5 5 5 5 5 5 5 5 5 5 5 5 5 5 5 6 5 5 5 5 6 5 5 5 5 5 5 5 5 5 5 5 6 5 5 5 5 5 5 5 5 5 5 5 5 5 5 5 5 5 6 6 5 6 5 5 5 5 5 5 5 5 5 5 6 5 5 5 5 5 5 5 5 5 5 5 5 5 5 5 5 5 6 5 5 5 5 6 5 5 5 5 5 5 5 5 5 5 5 5 5 5 5 5 5 5 5 5 5 5 5 5 5 5 5 5 5 5 5 5 5 5 5 5 5 5 5 5 5 5 5 5 5 5 5 5 5 5 5 5 5 5 5 5 5 5 5 5 5 5 5 5 5 5 5 5 5 5 5 5 5 5 5 5 5 5 5 5 5 6 5 5 5 5 5 5 5 6 5 5 6 5 5 5 5 5 5 5 5 5 5 5 5 6 5 6 5 6 5 5 5 5 5 5 5 5 6 5 5 5 5 5 5 5 5 5 6 5 5 5 5 5 5 5 5 5 5 5 5 5 5 5 5 5 5 5 5 5 6 5 5 5 5 5 5 5 5 5 5 5 5 6 5 5 5 5 5 6 5 5 6 5 5 5 5 6 6 5 5 6 5 5 5 5 5 5 5 6 6 5 5 5 5 5 5 5 5 5 5 5 5 6 5 5 5 5 6 5 5 5 5 5 5 5 5 6 5 5 5 5 6 5 5 5 5 6 5 5 5 5 5 5 5 6 5 5 5 5 5 6 5 5 5 6 5 5 5 5 5 6 5 5 5 5 5 5 5 5 5 5 5 5 5 5 6 5 5 6 5 5 5 5 5 5 5 5 5 5 5 5 5 5 5 5 5 5 5 5 5 6 5 5 6 5 5 6 5 5 5 5 5 5 5 5 5 5 5 5 5 5 5 5 5 5 5 5 5 5 5 5 5 5 5 5 5 5 6 5 5 5 5 6 5 5 6 5 6 5 5 5 5 6 5 6 5 5 6 5 6 5 6 6 5 5 6 5 6 5 6 5 5 6 5 5 5 5 5 5 6 5 6 5 5 6 6 5 5 6 5 6 5 5 6 5 5 6 5 5 6 6 6 5 6 5 5 5 5 5 5 5 5 6 5 5 5 5 5 5 5 6 5 5 5 5 5 5 5 5 5 5 5 5 5 5 6 5 5 5 5 5 5 5 5 5 5 5 5 5 5 5 5 5 5 5 6 5 5 5 5 5 5 5 5 5 5 5 5 5 5 5 5 5 5 5 5 5 5 5 5 5 5 5 5 5 5 5 6 5 5 5 6 5 6 6 5 6 5 5 5 6 5 5 5 5 6 6 6 5 5 5 5 5 5 5 5 5 5 5 5 5 5 5 5 5 6 5 5 5 5 5 5 5 5 5 6 5 5 5 6 5 5 5 5 5 5 5 5 5 5 5 5 6 5 5 6 5 5 5 5 5 5 5 5 5 5 5 5 5 5 5 5 5 5 5 5 5 5 6 5 5 5 5 5 5 5 5 5 5 5 5 5 5 5 5 5 5 6 5 5 5 5 5 5 5 6 5 5 5 5 6 5 5 5 5 5 5 5 5 5 5 5 5 5 5 5 5 5 5 5 5 5 5 5 5 5 5 5 5 5 5 5 5 5 5 5 6 6 5 5 5 5 6 5 6 5 5 5 5 5 6 5 5 5 5 5 5 5 5 6 6 5 5 5 5 6 5 5 5 5 5 5 5 5 5 5 5 5 5 5 5 5 5 5 5 5 5 6 5 5 5 5 5 5 6 5 5 6 5 5 5 5 5 5 5 5 5 6 5 5 5 5 5 5 5 5 6 5 5 5 5 5 5 5 5 5 5 5 5 5 5 5 5 5 6 5 5 6 5 5 5 5 5 5 5 5 5 5 5 5 5 5 5 5 5 5 5 5 5 5 5 5 5 5 5 5 5 6 5 6 5 5 5 5 5 5 5 5 5 5 5 5 5 5 5 5 5 5 5 5 5 5 6 5 5 5 6 5 5 5 5 5 5 5 5 5 5 5 5 6 5 5 5 6 6 5 5 6 5 5 5 5 5 5 5 5 5 6 5 5 5 5 5 5 5 5 5 5 5 5 5 6 5 6 5 5 5 5 5 5 5 5 5 5 5 5 5 5 5 5 5 5 5 5 5 5 5 5 5 5 5 5 5 6 5 5 5 5 5 5 6 5 5 5 5 5 5 5 5 5 5 5 5 5 5 5 5 6 5 6 5 5 5 5 5 5 5 6 5 5 5 6 5 5 5 5 6 5 5 5 5 5 5 6 5 5 5 5 6 5 6 5 5 5 5 5 5 5 5 6 6 5 5 5 6 6 5 5 5 5 5 5 5 6 6 5 6 6 5 5 5 5 6 5 6 5 5 5 5 5 5 6 5 5 5 5 6 5 5 5 5 6 5 5 5 5 5 6 5 5 6 5 5 5 5 6 5 5 5 5 5 5 5 5 5 6 6 5 5 5 5 5 5 5 5 5 5 5 5 5 6 5 6 5 5 5 5 5 5 5 5 5 5 5 5 5 5 5 5 5 5 5 5 5 6 5 5 5 5 5 5 5 5 5 5 5 5 5 5 5 5 5 5 5 5 5 5 5 5 5 5 6 5 5 5 5 5 5 5 5 6 5 6 5 5 5 5 5 5 6 5 5 5 5 5 5 5 5 5 5 5 5 5 5 5 5 5 5 5 5 5 5 5 5 5 5 6 5 5 5 5 5 5 5 5 6 5 5 6 5 5 6 5 5 5 5 5 6 5 5 5 5 5 5 5 5 5 6 5 5 5 5 5 5 5 5 5 5 5 5 5 5 5 6 5 5 5 5 5 5 5 5 6 5 5 5 5 5 5 5 5 5 5 5 5 5 5 5 5 5 5 6 5 6 5 6 5 5 6 6 5 5 5 5 5 5 5 5 5 5 5 5 5 5 6 5 5 5 5 5 5 6 5 5 5 6 5 5 5 5 5 5 5 5 5 5 5 5 6 5 5 5 5 6 6 6 5 5 5 5 5 5 5 6 5 5 6 5 6 5 6 5 5 5 5 5 6 5 5 5 5 5 5 5 5 5 5 5 5 5 5 5 5 5 5 5 5 6 5 5 5 6 5 6 6 6 5 5 5 5 5 6 5 5 5 5 5 5 5 5 5 5 5 5 5 5 5 5 5 5 5 5 5 5 5 5 5 5 6 5 5 6 5 5 5 5 5 5 5 5 6 5 6 5 5 5 5 5 5 5 5 6 5 5 5 5 6 5 5 6 5 5 6 5 5 5 6 5 5 5 5 5 5 5 5 5 5 5 5 5 5 5 5 5 5 5 5 6 5 5 5 5 5 5 6 5 5 5 5 5 6 5 5 5 5 5 6 5 6 6 5 5 5 5 5 5 5 5 5 5 5 5 6 5 5 5 5 6 5 6 6 5 5 5 6 5 5 5 5 5 5 5 5 5 5 5 5 5 5 5 5 5 5 5 5 5 5 6 5 6 5 5 6 5 5 6 5 5 6 5 5 5 6 6 5 5 5 5 5 5 5 6 5 5 5 5 5 5 5 5 6 5 5 5 5 5 5 5 6 5 5 5 6 5 6 6 5 5 5 6 5 5 5 5 5 5 5 5 5 5 5 5 5 5 5 5 5 5 5 5 5 5 6 5 5 6 5 5 5 6 5 5 5 5 5 5 5 6 6 5 5 6 5 5 5 5 5 5 5 5 5 5 5 5 5 5 5 5 5 5 5 5 5 5 5 5 5 5 5 5 5 5 5 5 5 5 5 6 5 5 5 5 5 5 5 6 5 5 6 5 5 6 5 5 5 5 5 5 5 5 5 5 5 5 5 5 5 5 5 5 5 6 5 5 5 5 6 5 5 5 5 5 5 5 5 5 5 6 5 5 5 5 6 5 5 5 5 6 6 5 6 5 5 5 5 5 5 5 5 5 5 5 5 5 5 6 5 5 5 5 5 5 5 5 5 6 5 5 5 5 5 5 5 5 5 5 5 5 5 5 5 5 5 5 5 5 5 5 5 5 5 5 5 5 5 5 5 5 5 5 5 5 5 5 5 5 5 6 5 5 5 5 6 5 5 6 5 5 5 5 5 5 6 6 5 5 5 5 6 5 5 5 5 5 5 5 5 5 5 5 5 5 5 5 5 5 5 5 5 5 5 5 5 5 5 5 5 5 5 5 5 5 5 5 5 5 5 5 5 5 5 5 5 5 5 5 5 5 5 5 5 5 5 5 5 5 5 5 5 5 6 5 5 5 5 5 6 5 6 5 5 5 5 5 5 5 5 5 
</DataArray>
<DataArray type="Float64" Name="stress" NumberOfComponents="9" format="ascii">
-9.7788796617643925 3.8215911087193746 0 3.8215911087193746 0.37554444669094322 0 0 0 0 8.4574272422702457 2449.4424599981548 0 2449.4424599981548 -1008.4558475581216 0 0 0 0 -256.56609915048466 101.19858462552656 0 101.19858462552656 -2.7068218715539842 0 0 0 0 -401.71443997132883 104.61795033919771 0 104.61795033919771 1318.9689818551967 0 0 0 0 0.5591203408514851 473.30720179457529 0 473.30720179457529 511.65712220374553 0 0 0 0 -142.82177078573841 -295.53097262725987 0 -295.53097262725987 591.85136403173965 0 0 0 0 180.86384704741067 -125.08575240010396 0 -125.08575240010396 -288.11180693891583 0 0 0 0 -38.220218688831665 473.16878159093176 0 473.16878159093176 -769.92253453614103 0 0 0 0 -0.23895767077920027 550.69622189931761 0 550.69622189931761 -602.84503472546203 0 0 0 0 2.7505256936363196 0.79640789032907833 0 0.79640789032907833 -2.1795126717895243 0 0 0 0 49.147536888092873 461.66756575897671 0 461.66756575897671 -1183.510100942367 0 0 0 0 272.63362938218415 401.42110700565172 0 401.42110700565172 -1183.9458864025873 0 0 0 0 281.77824213202985 551.96312206183939 0 551.96312206183939 -1864.4435984533193 0 0 0 0 -2.3451200448183442 1.6411898947998083 0 1.6411898947998083 -2.0068058610098305 0 0 0 0 -0.99753793375558719 995.29307062745909 0 995.29307062745909 -1204.7910877636605 0 0 0 0 -1030.7850346086489 1090.4342972975428 0 1090.4342972975428 -1098.0898360701249 0 0 0 0 -1416.1885292347288 1643.8731251068384 0 1643.8731251068384 -1446.6934488796542 0 0 0 0 -402.50426630675793 295.93101307092002 0 295.93101307092002 -1133.4479076529751 0 0 0 0 -654.44145757093793 1299.8437818915008 0 1299.8437818915008 -1546.7225653165988 0 0 0 0 -351.64418862025923 556.47546362070716 0 556.47546362070716 192.125233634084 0 0 0 0 28.48205267337471 393.0290847671713 0 393.0290847671713 -861.14863243732543 0 0 0 0 -52.316335786948912 202.4915110189977 0 202.4915110189977 -1280.4791928636405 0 0 0 0 -530.78634775019236 1220.8438355968428 0 1220.8438355968428 -3199.152384939327 0 0 0 0 -855.23807413394388 538.13190512760775 0 538.13190512760775 -1078.3636479633569 0 0 0 0 -324.54874918925634 663.05143655260872 0 663.05143655260872 -1345.9959043306735 0 0 0 0 -24.998751121747773 4.9304154690471478 0 4.9304154690471478 -43.594383222713077 0 0 0 0 -611.70401740662419 1041.0873906353681 0 1041.0873906353681 -561.33406318057678 0 0 0 0 -852.03168410406215 429.11844794762146 0 429.11844794762146 -101.57450281782076 0 0 0 0 232.69610100441787 45.593406525928003 0 45.593406525928003 -1469.3067279766428 0 0 0 0 1.8783791332597843 1.2035176222315158 0 1.2035176222315158 -0.26749595557328121 0 0 0 0 27.872829589603498 564.82666486272592 0 564.82666486272592 -29.250088601387688 0 0 0 0 -70.953766187405563 -198.64021516425419 0 -198.64021516425419 -660.46927615110326 0 0 0 0 -23.968623368092437 9.1194052527837357 0 9.1194052527837357 0.924669260416771 0 0 0 0 -243.19202010700246 -297.28773923613335 0 -297.28773923613335 973.06024698257534 0 0 0 0 348.97775477655523 250.8985778028291 0 250.8985778028291 -204.36620493458031 0 0 0 0 177.39849645612412 10.445792334598082 0 10.445792334598082 3.9896253755359794 0 0 0 0 -25.472433317383519 12.297454584422539 0 12.297454584422539 0.13669637547355684 0 0 0 0 -718.6683177788218 418.86601885389246 0 418.86601885389246 99.534581830812385 0 0 0 0 -18.726358539126522 32.554656706441165 0 32.554656706441165 5.5373300265418948 0 0 0 0 -562.95344678678885 670.65675014309454 0 670.65675014309454 316.8410441421729 0 0 0 0 -11.293443307235975 8.68191282564608 0 8.68191282564608 -1.6245729192294509 0 0 0 0 -719.23664161360648 2132.8136041559883 0 2132.8136041559883 -3082.3094525263223 0 0 0 0 -539.4589409850596 1585.7569402095687 0 1585.7569402095687 -2322.1461824039288 0 0 0 0 -1397.345891779165 1775.3925869460472 0 1775.3925869460472 -1163.4830386875401 0 0 0 0 -279.23827491463453 851.05971658697672 0 851.05971658697672 -1284.0201006777243 0 0 0 0 -426.25740146208955 367.92879263365285 0 367.92879263365285 -538.11830299897701 0 0 0 0 -1674.2616097676146 2344.3677092693943 0 2344.3677092693943 -2106.899220991836 0 0 0 0 -1159.2968023174326 1157.3339120249148 0 1157.3339120249148 589.05603188602981 0 0 0 0 -1656.5559531351828 2412.0203012665152 0 2412.0203012665152 -1996.3260341353453 0 0 0 0 -3.2151382712478664 4.3680079673824537 0 4.3680079673824537 1.3956559563435249 0 0 0 0 -1742.4360208943297 1232.7932664654136 0 1232.7932664654136 -820.60817677407613 0 0 0 0 -94.297327503845736 44.113737468229374 0 44.113737468229374 223.89913071232877 0 0 0 0 65.589653926304891 246.36322143860889 0 246.36322143860889 -493.9474702625339 0 0 0 0 -1333.1077075177309 767.14253206192734 0 767.14253206192734 -188.39869754121173 0 0 0 0 -119.8289893264141 -146.63073986164864 0 -146.63073986164864 14.60828347014467 0 0 0 0 -479.7966131416033 274.16129192203516 0 274.16129192203516 319.45121476462373 0 0 0 0 0.095667877774701537 26.125083530326464 0 26.125083530326464 16.181922106783929 0 0 0 0 -2673.2872431778815 936.40189377412753 0 936.40189377412753 -1216.1927906948767 0 0 0 0 -161.44726485018327 1364.0186417307123 0 1364.0186417307123 -1243.6738179166987 0 0 0 0 -1040.3778722692587 2208.5006286555399 0 2208.5006286555399 -2045.5444945682539 0 0 0 0 392.51524058767245 281.3263519965767 0 281.3263519965767 -2160.665940367473 0 0 0 0 -256.41669576236291 715.73031631367712 0 715.73031631367712 -384.20448436109291 0 0 0 0 -387.86895577610994 -228.75343969972164 0 -228.75343969972164 287.82452643827128 0 0 0 0 -2983.6752723961545 2333.1024289825582 0 2333.1024289825582 -1732.9818820740256 0 0 0 0 -4073.3974923012211 1509.358014243473 0 1509.358014243473 -527.84797725229873 0 0 0 0 214.66011564592191 -152.71759800567452 0 -152.71759800567452 -614.05449112226779 0 0 0 0 1.5674686819790229 8.24329392961792 0 8.24329392961792 -29.708245936331906 0 0 0 0 -2919.5571998802479 1430.8171417534377 0 1430.8171417534377 -531.53434651208227 0 0 0 0 -2632.4167475062095 272.94182217698835 0 272.94182217698835 -255.71285172685748 0 0 0 0 -5.6451266817565511 9.181242268388047 0 9.181242268388047 -3.5299688690403599 0 0 0 0 -1702.225804018075 402.83724160984275 0 402.83724160984275 230.832653524325 0 0 0 0 -191.70523311870056 -114.64086160786974 0 -114.64086160786974 -159.02268029170227 0 0 0 0 125.09998954560433 21.886306571446767 0 21.886306571446767 19.345036823942792 0 0 0 0 -0.38376235811871595 38.462955891826141 0 38.462955891826141 2.9729765383434312 0 0 0 0 -35.172020086640259 32.255621095449897 0 32.255621095449897 -2.111449898337014 0 0 0 0 0.67962755097664829 31.890204869080591 0 31.890204869080591 -6.4810516307376531 0 0 0 0 219.23278570390539 242.80264900976908 0 242.80264900976908 307.49864584696479 0 0 0 0 -13.184230425421845 45.785157984200865 0 45.785157984200865 26.733781869536145 0 0 0 0 22.525629804665698 38.377291506319011 0 38.377291506319011 10.511247862418372 0 0 0 0 94.515922223610687 -117.44019076857512 0 -117.44019076857512 132.16732310703082 0 0 0 0 279.06221485059359 -128.61795784268907 0 -128.61795784268907 -183.33142145772581 0 0 0 0 73.808119919660385 51.691924955011928 0 51.691924955011928 -6.5336034517531516 0 0 0 0 24.773401790262142 172.54523246380631 0 172.54523246380631 -134.01072062563617 0 0 0 0 81.86002182905213 60.378469965056865 0 60.378469965056865 2.351991285882832 0 0 0 0 -21.617488749106997 99.210494528524578 0 99.210494528524578 -22.157224506921921 0 0 0 0 -23.962153913082147 93.604252918488783 0 93.604252918488783 -12.877349119298742 0 0 0 0 77.34676064447558 80.659752422841848 0 80.659752422841848 -45.692893982923124 0 0 0 0 -1019.0728454595228 237.65436671605858 0 237.65436671605858 -153.3663883098634 0 0 0 0 -11.344647563084948 6.1112336417637039 0 6.1112336417637039 9.7103362752755515 0 0 0 0 -119.40048374742764 76.994204450114921 0 76.994204450114921 -21.650310320779681 0 0 0 0 6.2731241583407478 41.979382739060881 0 41.979382739060881 -11.063442196904447 0 0 0 0 101.04997410662327 59.794819872320659 0 59.794819872320659 -45.78861011936533 0 0 0 0 73.18888589546259 62.229786646268622 0 62.229786646268622 0.0091027586240670644 0 0 0 0 1.5928360385493363 7.1686966124560101 0 7.1686966124560101 -7.3974127596372483 0 0 0 0 -134.16881422656297 53.823012150551222 0 53.823012150551222 1.0166769040952204 0 0 0 0 46.650333730358398 -15.473546253684617 0 -15.473546253684617 -184.71646689851309 0 0 0 0 61.293094214293205 45.92406071381447 0 45.92406071381447 -186.7106489370708 0 0 0 0 17.009372772852657 8.1912659386398445 0 8.1912659386398445 -103.56163521374401 0 0 0 0 58.765835227145999 86.564406980555987 0 86.564406980555987 -81.671481276818668 0 0 0 0 -213.09948879684816 120.92136345657127 0 120.92136345657127 -0.057788705351413228 0 0 0 0 327.93834009319835 177.76283926999167 0 177.76283926999167 -903.18254318408435 0 0 0 0 -181.27233099286968 271.41194567587809 0 271.41194567587809 -80.431338912138017 0 0 0 0 -39.528894645380205 126.81000798111927 0 126.81000798111927 -33.108762822579592 0 0 0 0 -155.06012503801321 57.931934801936222 0 57.931934801936222 22.917915338592138 0 0 0 0 -110.71737685086555 127.3440936465704 0 127.3440936465704 -6.831412038372946 0 0 0 0 -68.662900094495853 125.96706533349789 0 125.96706533349789 -9.8888714606073336 0 0 0 0 -87.931120509441826 84.761047019557736 0 84.761047019557736 -1.1767529145727167 0 0 0 0 -118.73749869773746 106.55656981542779 0 106.55656981542779 1.828158241143683 0 0 0 0 -103.69677143604349 105.21276715268323 0 105.21276715268323 -3.6458483433380025 0 0 0 0 6.9619406703497901 4.948209003973318 0 4.948209003973318 2.1267164207843336 0 0 0 0 59.549974290086539 27.064213318204565 0 27.064213318204565 0.095548323311959393 0 0 0 0 78.741840335191227 23.906800628144993 0 23.906800628144993 -5.0104791294506867 0 0 0 0 66.50735275662737 36.004159620992141 0 36.004159620992141 -9.3988270046247635 0 0 0 0 41.914144919719547 34.586375219514593 0 34.586375219514593 -0.61810959861031733 0 0 0 0 13.517881531237379 33.110260118556553 0 33.110260118556553 6.0936414245634012 0 0 0 0 81.683435575396288 47.487446710088989 0 47.487446710088989 -5.5349251233274117 0 0 0 0 27.175941314406373 27.528022364616845 0 27.528022364616845 2.6627307841772563 0 0 0 0 6.3745458254943532 2.2089502482332364 0 2.2089502482332364 -0.027675165287774917 0 0 0 0 19.130659275330885 35.209257600509531 0 35.209257600509531 -14.933050073133245 0 0 0 0 85.134332739718957 9.8241308458673302 0 9.8241308458673302 -26.855604718992254 0 0 0 0 66.21653826412512 48.74883319917717 0 48.74883319917717 3.9866398776648566 0 0 0 0 12.880831037652882 3.4169046462031432 0 3.4169046462031432 -7.2042062298995688 0 0 0 0 28.452522645106228 19.084849655502467 0 19.084849655502467 8.6250377255200874 0 0 0 0 -0.40028760132190655 27.934699626461224 0 27.934699626461224 6.5455436870179255 0 0 0 0 16.25267266895446 35.31324323276047 0 35.31324323276047 -2.6266209912864724 0 0 0 0 10.715613001164236 17.251349653296131 0 17.251349653296131 0.77109589605888118 0 0 0 0 6.2534130247226187 21.638791400154702 0 21.638791400154702 4.9106549216855058 0 0 0 0 20.998393459078102 21.289591768682456 0 21.289591768682456 8.3442102937935374 0 0 0 0 3.3261749719968066 30.842722599743865 0 30.842722599743865 -14.46756969809212 0 0 0 0 11.471518908518419 17.511973041836711 0 17.511973041836711 11.817172670651416 0 0 0 0 -61.754095047217561 90.937638725605211 0 90.937638725605211 0.21276760546606965 0 0 0 0 -74.594310189771932 37.303926096348732 0 37.303926096348732 21.801993731256516 0 0 0 0 -65.107182722829748 99.787464383342012 0 99.787464383342012 -20.400267864402849 0 0 0 0 -67.073344780041225 95.899323708437805 0 95.899323708437805 -6.2272057626978494 0 0 0 0 -40.975141543603968 121.25027997898724 0 121.25027997898724 -58.906227696279529 0 0 0 0 -12.460563988395734 67.314917545481876 0 67.314917545481876 -8.6435619093463174 0 0 0 0 -154.09579996360117 -48.353490230816533 0 -48.353490230816533 103.64275206150342 0 0 0 0 -112.46854010288371 -66.102374216818134 0 -66.102374216818134 37.989790565268777 0 0 0 0 11.114346901034878 75.417361613839603 0 75.417361613839603 -32.931294212467037 0 0 0 0 2.1138520535709233 7.2113875209297262 0 7.2113875209297262 9.8959403082461392 0 0 0 0 5.2044385791130736 24.495296489255253 0 24.495296489255253 24.159742660734878 0 0 0 0 -69.756779589835787 63.250457209011074 0 63.250457209011074 59.410124831600115 0 0 0 0 -69.898346469388343 58.393787159497151 0 58.393787159497151 118.17304618830531 0 0 0 0 -27.815135402332089 61.983204940364885 0 61.983204940364885 60.439985028235242 0 0 0 0 -53.162901197065366 50.51199876969622 0 50.51199876969622 64.050032856001053 0 0 0 0 -64.779063675145153 62.43526811360789 0 62.43526811360789 52.519781896960922 0 0 0 0 -66.011443188763224 59.659658068267163 0 59.659658068267163 46.690594170009717 0 0 0 0 -7.0557393842074703 2.2487240498771257 0 2.2487240498771257 8.6050479611106283 0 0 0 0 -23.709296693501528 50.514974150719354 0 50.514974150719354 -50.892656583688222 0 0 0 0 -75.07416990303318 26.110179423936643 0 26.110179423936643 46.985906957124826 0 0 0 0 -5.9396379272366175 22.485555809696962 0 22.485555809696962 12.113933015338262 0 0 0 0 -10.146928929432761 37.78844263020801 0 37.78844263020801 15.575701809073507 0 0 0 0 -6.8456652206950821 30.278137869812781 0 30.278137869812781 32.029239828305435 0 0 0 0 15.164682932945141 27.28273546900499 0 27.28273546900499 10.012529861178109 0 0 0 0 3.6443714103046432 30.85293827694807 0 30.85293827694807 30.259893741516692 0 0 0 0 0.94554420880740508 72.140960725002515 0 72.140960725002515 -37.321384040580597 0 0 0 0 51.325856142386328 1.3396584126749076 0 1.3396584126749076 61.761658032075502 0 0 0 0 3.6836209344989754 20.554282290197563 0 20.554282290197563 19.015678011669223 0 0 0 0 -2.1614055616082624 55.034128447499825 0 55.034128447499825 20.344710315352131 0 0 0 0 -7.4380735541635659 48.213176899167593 0 48.213176899167593 15.418799770268379 0 0 0 0 -6.8748714139276217 25.30062704874878 0 25.30062704874878 29.184806352049478 0 0 0 0 -2.5917539324402341 21.169079631614061 0 21.169079631614061 25.468521660269488 0 0 0 0 -107.78073982895148 -152.99428761188392 0 -152.99428761188392 576.10567022040777 0 0 0 0 29.551753246374997 40.303250228571358 0 40.303250228571358 -3.7322604021504162 0 0 0 0 30.31514926347587 34.195020504567793 0 34.195020504567793 -8.6081326224135637 0 0 0 0 -136.47096883918857 5.5225704783088077 0 5.5225704783088077 13.292011180848931 0 0 0 0 43.995415272358514 36.095110270922305 0 36.095110270922305 -11.487101817969233 0 0 0 0 -0.34916116647946183 89.07546581767383 0 89.07546581767383 -18.545184531541054 0 0 0 0 -19.193470299302135 48.414436386203306 0 48.414436386203306 -103.60621349648864 0 0 0 0 -91.043181478642509 98.146558217333222 0 98.146558217333222 -3.5344218158061267 0 0 0 0 -181.12047904452629 14.589314216875209 0 14.589314216875209 200.43585519262706 0 0 0 0 30.585650660737883 182.33002955444681 0 182.33002955444681 -56.386627631560259 0 0 0 0 -36.963178456915557 137.95230898088175 0 137.95230898088175 149.45330282775103 0 0 0 0 -46.873404152502189 102.89895775158948 0 102.89895775158948 119.01638943070429 0 0 0 0 -50.8809877733147 58.695694188980269 0 58.695694188980269 -6.2454650465442683 0 0 0 0 -95.12294361077511 80.664909084258397 0 80.664909084258397 -41.467185385619814 0 0 0 0 6.9713946977135492 81.196488854337076 0 81.196488854337076 -10.427497787910397 0 0 0 0 0.0074210798180911475 39.692936762675032 0 39.692936762675032 -9.6950799347146699 0 0 0 0 -58.181224561660201 47.902133309460623 0 47.902133309460623 -43.843460330353992 0 0 0 0 -96.864517953436007 19.872855670255376 0 19.872855670255376 -12.46807807343248 0 0 0 0 1.1068180768530311 2.8128517232497643 0 2.8128517232497643 5.6815705871272542 0 0 0 0 -798.10426540162734 414.08978787636806 0 414.08978787636806 -164.1467428922042 0 0 0 0 -820.09155351469963 476.21393261802586 0 476.21393261802586 -231.97371974079579 0 0 0 0 -151.50662334652407 77.696316437094538 0 77.696316437094538 -8.2744946939783404 0 0 0 0 -910.25675515766852 635.16650713498348 0 635.16650713498348 -301.59370728585054 0 0 0 0 -962.10577822630876 462.42128507421876 0 462.42128507421876 -93.942837951777619 0 0 0 0 -637.11727407750732 721.63352577819751 0 721.63352577819751 -459.36346764066548 0 0 0 0 -748.54901526359026 512.60541838887002 0 512.60541838887002 -213.96484206336027 0 0 0 0 -540.98398057282611 348.36525871783306 0 348.36525871783306 -181.28625195320637 0 0 0 0 -428.9627492668078 578.44564994098982 0 578.44564994098982 -369.93020353510292 0 0 0 0 -266.08105250349763 422.51541783049925 0 422.51541783049925 -221.39248980290722 0 0 0 0 -246.25002040802065 586.72853365016272 0 586.72853365016272 -452.96425087783837 0 0 0 0 0.26184883409587201 636.15965194371893 0 636.15965194371893 -655.817906066266 0 0 0 0 -243.55211980798049 610.67037712275487 0 610.67037712275487 -451.1418998396457 0 0 0 0 -452.93378801079234 580.0094438864835 0 580.0094438864835 -367.19081998809634 0 0 0 0 -312.64140371265239 694.71445988854975 0 694.71445988854975 -531.25407316783094 0 0 0 0 -451.72400544797711 718.65495863069373 0 718.65495863069373 -532.40664871539798 0 0 0 0 -186.91789000127756 760.23558210083502 0 760.23558210083502 -733.71357600402553 0 0 0 0 -0.11160876090434613 651.65409439686118 0 651.65409439686118 -117.14538662787891 0 0 0 0 133.62897614780377 399.67406400988148 0 399.67406400988148 -777.1531126502523 0 0 0 0 -131.43224376771104 985.66127094290277 0 985.66127094290277 -1807.9729912275143 0 0 0 0 -2.3896669264998991 1.6155348191207821 0 1.6155348191207821 -1.3841821010845692 0 0 0 0 -1120.4600734188716 1063.46125441599 0 1063.46125441599 -623.56621592978627 0 0 0 0 -1501.3364944877103 1331.6489750394467 0 1331.6489750394467 -940.8229695818809 0 0 0 0 -1700.6883093326614 771.67735834384075 0 771.67735834384075 -230.84503390060854 0 0 0 0 -1420.285646725657 695.87549605772801 0 695.87549605772801 -329.78643214932526 0 0 0 0 -1034.8153660040116 902.43167159902805 0 902.43167159902805 -626.63931227645662 0 0 0 0 -995.28653770784149 639.8396702856262 0 639.8396702856262 -315.30738583159837 0 0 0 0 -1015.9426872704998 509.62111983563557 0 509.62111983563557 -273.58786239707842 0 0 0 0 -1379.8031474100717 884.09588813753362 0 884.09588813753362 -407.55746119043033 0 0 0 0 -1337.2650503369805 536.31713188728463 0 536.31713188728463 -103.12799555182573 0 0 0 0 -1105.3254246369033 593.85191794848288 0 593.85191794848288 -187.74684633394645 0 0 0 0 -1039.4417807947393 679.57553856528466 0 679.57553856528466 -271.03428039328719 0 0 0 0 -764.93094983698393 921.28352012463438 0 921.28352012463438 -663.05277199345255 0 0 0 0 -447.71811893500126 695.77083702076379 0 695.77083702076379 -502.73513514744991 0 0 0 0 -43.548590578655421 64.189294196456103 0 64.189294196456103 34.902981287334114 0 0 0 0 -6.3749819410804776 47.316260011706618 0 47.316260011706618 26.936995048075914 0 0 0 0 11.178477554024667 22.031124401544034 0 22.031124401544034 26.68291643484261 0 0 0 0 -41.947108768420776 131.39651117032508 0 131.39651117032508 -28.770903595592245 0 0 0 0 -24.403891364607261 60.130653189698933 0 60.130653189698933 -103.76360391805065 0 0 0 0 3.0455423862652395 24.706861287288476 0 24.706861287288476 27.006348007553399 0 0 0 0 -36.435206118738279 -22.076301112068904 0 -22.076301112068904 129.01342890490196 0 0 0 0 -104.21874614453191 146.72415808831647 0 146.72415808831647 -40.815707853238564 0 0 0 0 30.790407315682387 219.17221468611024 0 219.17221468611024 -276.81500633805263 0 0 0 0 -33.91106345073149 53.659251607699844 0 53.659251607699844 -142.97686539228744 0 0 0 0 2.6468115153383138 20.937915566306614 0 20.937915566306614 12.830871316547316 0 0 0 0 -3.6663766608727855 17.479975688355637 0 17.479975688355637 34.09206889754212 0 0 0 0 -117.94117098262086 221.86767896796255 0 221.86767896796255 -70.995693166085402 0 0 0 0 -138.48469840019243 168.46334551589462 0 168.46334551589462 6.2522887854720466 0 0 0 0 -88.053823433247089 181.56619822222092 0 181.56619822222092 7.2846857512631686 0 0 0 0 -94.410620675254904 219.9055669768386 0 219.9055669768386 0.098932541208341718 0 0 0 0 -171.56695222555572 191.63992320368561 0 191.63992320368561 13.601693930453621 0 0 0 0 49.243999990696466 121.46842682904753 0 121.46842682904753 38.111604686724604 0 0 0 0 -60.278418137757399 223.2057581864774 0 223.2057581864774 -11.784580130792165 0 0 0 0 -2.0289973353028472 215.93414810307149 0 215.93414810307149 -18.333244723231473 0 0 0 0 103.9787007737541 94.603593477673712 0 94.603593477673712 80.498806803130719 0 0 0 0 155.40757278149977 146.35915099315025 0 146.35915099315025 -26.575035090121673 0 0 0 0 384.2681661915849 67.415174773777835 0 67.415174773777835 0.064578270837955642 0 0 0 0 122.5544328832184 196.61354094147464 0 196.61354094147464 57.662193720127107 0 0 0 0 288.77102650787856 169.83318619918282 0 169.83318619918282 -22.454545679342118 0 0 0 0 165.39207596149208 -63.965101698018771 0 -63.965101698018771 34.717911852349062 0 0 0 0 325.24303072458133 88.335304827785876 0 88.335304827785876 -64.087768050609156 0 0 0 0 0.93476725667710525 1.9386178605592193 0 1.9386178605592193 1.0771748586677319 0 0 0 0 154.34778506781731 86.567008117497608 0 86.567008117497608 40.272062342541176 0 0 0 0 107.79869642581616 91.405351204659382 0 91.405351204659382 -62.755224826862104 0 0 0 0 212.07742631473229 58.531297143716074 0 58.531297143716074 -71.119240946107311 0 0 0 0 2.981027351083867 1.826528643229409 0 1.826528643229409 0.7845141863869145 0 0 0 0 -397.6200597095667 -289.08959854593195 0 -289.08959854593195 143.79692304968194 0 0 0 0 117.94597608318873 181.32229893621843 0 181.32229893621843 -383.22546499819873 0 0 0 0 16.960130997067608 196.34585725871875 0 196.34585725871875 -224.97711406237067 0 0 0 0 147.12552746053552 363.35555309629126 0 363.35555309629126 -44.130736573850299 0 0 0 0 374.89203823309072 226.18482022645549 0 226.18482022645549 -408.75535669251985 0 0 0 0 -15.621217380812595 -49.025801620464335 0 -49.025801620464335 -209.91171007526282 0 0 0 0 -27.89796163177175 104.23041510785106 0 104.23041510785106 -13.255138501866895 0 0 0 0 161.11680173914647 51.761535471734533 0 51.761535471734533 -431.09074145824343 0 0 0 0 8.3129884671073171 28.906946129947499 0 28.906946129947499 27.533807714487978 0 0 0 0 2.6518812513677341 8.3118579072789913 0 8.3118579072789913 -5.5730418553027903 0 0 0 0 -398.95545417879839 166.67018902281052 0 166.67018902281052 -63.515281883250282 0 0 0 0 165.99609366140066 9.9814301563819754 0 9.9814301563819754 -230.28773131278831 0 0 0 0 212.89247422575863 141.09655840446794 0 141.09655840446794 -211.08434656049121 0 0 0 0 -24.204992933482572 62.040850513079931 0 62.040850513079931 -80.243567025041557 0 0 0 0 50.524849588298821 115.6031397949555 0 115.6031397949555 -51.626590279622178 0 0 0 0 5.4839894816104788 0.1357762502038895 0 0.1357762502038895 -8.7470141866215272 0 0 0 0 3.1467029677951359 8.9825531498099735 0 8.9825531498099735 -14.178422464377945 0 0 0 0 139.62139834332265 9.8123409005056601 0 9.8123409005056601 -173.56728216593183 0 0 0 0 12.469573645765195 1.0285870852312655 0 1.0285870852312655 -79.307747097765969 0 0 0 0 12.219019360845095 2.5107990972323933 0 2.5107990972323933 1.076760406842979 0 0 0 0 0.80371119117626222 1.2628502712650516 0 1.2628502712650516 0.60733530863944907 0 0 0 0 -13.603734684867959 -15.024315581955307 0 -15.024315581955307 13.148638986254809 0 0 0 0 -8.9648892996374343 -25.823299646717714 0 -25.823299646717714 -10.428962844438502 0 0 0 0 -4.7254683350693085 11.562859055338777 0 11.562859055338777 25.456832025003678 0 0 0 0 -28.569415840407601 -3.2343447612583986 0 -3.2343447612583986 0.1028192902522278 0 0 0 0 3.3757665659418024 3.8842171754850767 0 3.8842171754850767 -0.79698651465819381 0 0 0 0 6.7633721967868041 2.4615025145976688 0 2.4615025145976688 -20.151246075620293 0 0 0 0 -1.7211492155117725 -0.060957264665603361 0 -0.060957264665603361 0.10993102070096938 0 0 0 0 16.25098558801983 2.5708706645164057 0 2.5708706645164057 -17.915275565246702 0 0 0 0 -7.3455723024817416 -5.2721701979826321 0 -5.2721701979826321 10.625655122199532 0 0 0 0 18.445396811868704 -5.3694309957245423 0 -5.3694309957245423 -14.36497387822601 0 0 0 0 -156.97223696776564 263.84035361609858 0 263.84035361609858 -429.45634984905337 0 0 0 0 15.461608010009513 32.423640211796737 0 32.423640211796737 8.6621962123899721 0 0 0 0 3.0987769256489628 1.1372462745426617 0 1.1372462745426617 -6.0957285465798918 0 0 0 0 -4.6851341916098193 7.5748600420540697 0 7.5748600420540697 1.9694799940532732 0 0 0 0 -627.28699118898658 482.06669537867128 0 482.06669537867128 -2.6328554820787931 0 0 0 0 28.210526380578813 70.12903187260963 0 70.12903187260963 -51.793629679988953 0 0 0 0 92.071810109511716 -19.852600095829985 0 -19.852600095829985 -87.108431634798762 0 0 0 0 17.785237793103903 11.69630195294576 0 11.69630195294576 -4.0735609834564883 0 0 0 0 10.43343905290385 18.363014778577053 0 18.363014778577053 -44.373968782048905 0 0 0 0 4.2906219037658673 6.9662647485745026 0 6.9662647485745026 -5.945273058152253 0 0 0 0 3.8333929100353998 91.866325399738344 0 91.866325399738344 -107.12867658212053 0 0 0 0 -12.459418253914919 57.627717090210353 0 57.627717090210353 -46.494448839570396 0 0 0 0 -11.691480742119893 56.81432004790986 0 56.81432004790986 -53.073390342236962 0 0 0 0 28.750322520597251 19.911505420005994 0 19.911505420005994 -39.791268753095039 0 0 0 0 -23.099393304772093 81.933402533381013 0 81.933402533381013 -34.009434619543754 0 0 0 0 -16.912415000990478 28.076826310361426 0 28.076826310361426 10.265781477815494 0 0 0 0 -97.563350865884786 -80.739326932466611 0 -80.739326932466611 113.09962827376148 0 0 0 0 -27.530636686307844 49.908672565936286 0 49.908672565936286 -46.949193559616106 0 0 0 0 22.571713841026181 21.705939353537417 0 21.705939353537417 -37.905904740935227 0 0 0 0 -11.757591778310598 49.473478266605525 0 49.473478266605525 -56.075798302219482 0 0 0 0 -26.667282326037821 42.997669763924932 0 42.997669763924932 -41.297993471802329 0 0 0 0 -12.276770194046549 50.481862267981342 0 50.481862267981342 -48.425484041763411 0 0 0 0 8.1399510513818427 7.5325244611073856 0 7.5325244611073856 -6.9083202505277086 0 0 0 0 -10.526316137377762 32.375718297144886 0 32.375718297144886 -36.980736253535724 0 0 0 0 -35.654078317893436 41.888448793732096 0 41.888448793732096 -61.041912049418897 0 0 0 0 24.088674807717325 38.405105161073152 0 38.405105161073152 -11.634598642987839 0 0 0 0 24.640813577207155 35.297474659058935 0 35.297474659058935 -2.872668913747475 0 0 0 0 -5.6345459798321826 51.048690092851757 0 51.048690092851757 -47.707651307337073 0 0 0 0 -3.206497321644548 31.587556588729214 0 31.587556588729214 -24.815094809902476 0 0 0 0 10.990138865305099 22.438745035742883 0 22.438745035742883 -10.232743478292377 0 0 0 0 3.5836402375699095 52.271392527687198 0 52.271392527687198 -8.9391536131879548 0 0 0 0 1.9131150624452857 46.866345146161621 0 46.866345146161621 -11.26583980522264 0 0 0 0 11.213486383424041 33.004219774553093 0 33.004219774553093 -17.416476937482372 0 0 0 0 9.6604612454539165 38.730532111316279 0 38.730532111316279 -11.816173766666907 0 0 0 0 7.7994353262648133 41.337467799866857 0 41.337467799866857 10.654166096609231 0 0 0 0 12.48668078133997 26.510457124122951 0 26.510457124122951 8.6584481125876209 0 0 0 0 -0.5637686510553408 50.746272022399964 0 50.746272022399964 -9.496973633300513 0 0 0 0 150.56935872168833 65.470332763645274 0 65.470332763645274 -167.77193476549292 0 0 0 0 5.2304246052537167 2.3466310516212019 0 2.3466310516212019 -4.7315207818156821 0 0 0 0 8.3631354588505928 9.6890199227273115 0 9.6890199227273115 -22.57011062491074 0 0 0 0 23.855009625361248 37.025855125224496 0 37.025855125224496 18.997232940996881 0 0 0 0 -31.097939690560452 34.783097616105806 0 34.783097616105806 274.8467078764188 0 0 0 0 18.812007280409944 29.439909827524843 0 29.439909827524843 92.892076218719012 0 0 0 0 20.766685521782165 17.917908000760008 0 17.917908000760008 53.336264256271534 0 0 0 0 -2.8076911697353353 9.9372343261966307 0 9.9372343261966307 28.257438761656886 0 0 0 0 -3.1389284444447583 4.205845410818398 0 4.205845410818398 5.44368385171434 0 0 0 0 13.23653905212268 31.956811550222483 0 31.956811550222483 18.423637004991178 0 0 0 0 9.2543359110235031 28.136171299017136 0 28.136171299017136 2.8488363542475668 0 0 0 0 5.7585053007533133 33.840332477884658 0 33.840332477884658 -4.1583846995927161 0 0 0 0 5.0193281536412542 32.740751567776897 0 32.740751567776897 -4.0842041621144745 0 0 0 0 3.0613308978673075 32.509930968827426 0 32.509930968827426 4.1593096237670437 0 0 0 0 0.24581315306542706 37.058324891101563 0 37.058324891101563 2.2924929413411945 0 0 0 0 11.386196678101925 27.512908812696935 0 27.512908812696935 -10.551689782703932 0 0 0 0 7.2530416622757912 33.225959549581603 0 33.225959549581603 -13.146168521940126 0 0 0 0 -0.74393061470574651 34.895406841919538 0 34.895406841919538 25.004035747053393 0 0 0 0 1.8217909751983825 41.898359704093309 0 41.898359704093309 11.643263012723764 0 0 0 0 9.5328690245248282 23.423393093529313 0 23.423393093529313 16.845137195298804 0 0 0 0 -7.9253818755092169 20.929806127837089 0 20.929806127837089 -2.1133736081255492 0 0 0 0 -6.8743490357301198 46.165144740200049 0 46.165144740200049 10.238931660755497 0 0 0 0 -7.6565612872727797 45.731618892805272 0 45.731618892805272 -19.131620532578381 0 0 0 0 0.056343454751186073 44.565777780269855 0 44.565777780269855 10.102659800853871 0 0 0 0 14.530022224456388 45.386389914632218 0 45.386389914632218 41.004272802929336 0 0 0 0 -9.5384551362731145 50.636054533548304 0 50.636054533548304 90.024888942418329 0 0 0 0 -10.097953284581308 20.584653581816383 0 20.584653581816383 53.101320045607281 0 0 0 0 -1.76983558361826 3.1411640294172685 0 3.1411640294172685 78.504233980012941 0 0 0 0 -3.7249448526054039 16.292247628871337 0 16.292247628871337 14.24841891926917 0 0 0 0 -28.332633227051701 12.66348960709729 0 12.66348960709729 75.28575155454746 0 0 0 0 -2.863064927767212 0.35908814744602324 0 0.35908814744602324 7.0330845715828758 0 0 0 0 16.680350436363369 102.24222149017442 0 102.24222149017442 25.479586991859833 0 0 0 0 26.292189884894469 97.801405423560936 0 97.801405423560936 25.785263753539766 0 0 0 0 -12.434290180157404 112.14981629088288 0 112.14981629088288 20.517739091472322 0 0 0 0 -11.145574819674948 73.825380470843811 0 73.825380470843811 24.938237476659197 0 0 0 0 17.884163739392534 51.600498873387551 0 51.600498873387551 25.154747606600722 0 0 0 0 -5.7407805536931846 51.612981312915508 0 51.612981312915508 31.057277611398604 0 0 0 0 62.650785712728975 60.07609288484673 0 60.07609288484673 27.402243905999057 0 0 0 0 61.80382912150526 19.700384232288343 0 19.700384232288343 45.898916524958622 0 0 0 0 11.722455056580657 31.590224388404749 0 31.590224388404749 18.385554279157077 0 0 0 0 1.7399688611913007 26.582020197995007 0 26.582020197995007 29.47527353651094 0 0 0 0 -3.4231418210547417 37.327955535409274 0 37.327955535409274 25.434038280131062 0 0 0 0 1.1234615852226852 26.187976174485811 0 26.187976174485811 36.489628148032352 0 0 0 0 -1.836908710480202 29.768412040724797 0 29.768412040724797 28.065813619061373 0 0 0 0 -3.7660717036815186 32.318194686466086 0 32.318194686466086 21.855014413304161 0 0 0 0 -3.3432698908873135 33.618539249200694 0 33.618539249200694 21.542933073389577 0 0 0 0 -2.6852788324904395 29.413492110124935 0 29.413492110124935 19.139251858316129 0 0 0 0 3.7392347952263663 33.48971343330777 0 33.48971343330777 14.853153604053659 0 0 0 0 7.637985556240892 35.444474335949053 0 35.444474335949053 14.956299471174134 0 0 0 0 -3.4077225094370078 38.133975202770671 0 38.133975202770671 14.866001356245761 0 0 0 0 -13.660671524979989 36.388186351869081 0 36.388186351869081 14.40166872570353 0 0 0 0 -8.2660099387976516 26.599696453506112 0 26.599696453506112 11.556218697980512 0 0 0 0 -43.456226435060671 69.401834391963348 0 69.401834391963348 -7.8181427759518556 0 0 0 0 18.69346250675153 47.339843509900675 0 47.339843509900675 -48.778190579090733 0 0 0 0 63.323865062222467 105.31328702623432 0 105.31328702623432 -141.71315733369556 0 0 0 0 9.4527627062793442 28.645602917868999 0 28.645602917868999 19.137529931663266 0 0 0 0 -93.965834727699985 -128.90170707568905 0 -128.90170707568905 -48.423091733087858 0 0 0 0 2.3718625098457835 1.2010018591459755 0 1.2010018591459755 1.6388961328308653 0 0 0 0 -6.1759410589838808 64.167750355431053 0 64.167750355431053 94.740984056232264 0 0 0 0 -24.100016749100178 28.286935317646567 0 28.286935317646567 24.818894983371138 0 0 0 0 81.677542861038091 176.97593309928925 0 176.97593309928925 69.247057492146268 0 0 0 0 104.56530434651904 304.52303312247932 0 304.52303312247932 -38.585309761612734 0 0 0 0 -61.597356232687162 -27.103600093330897 0 -27.103600093330897 -21.339419234718662 0 0 0 0 5.7634392309751092 26.374895311513257 0 26.374895311513257 26.308283648304212 0 0 0 0 -19.157238595827948 59.462469376419904 0 59.462469376419904 -19.127505748183466 0 0 0 0 15.046968139377956 63.73422000699339 0 63.73422000699339 -5.6764021015057722 0 0 0 0 -4.0203175698952691 -37.19988686832221 0 -37.19988686832221 158.0289489720526 0 0 0 0 -25.39230610782397 74.508578067208873 0 74.508578067208873 -37.671075994876446 0 0 0 0 15.665100779863138 32.246016337737743 0 32.246016337737743 27.623399401686683 0 0 0 0 275.27598078450319 -73.394053916901612 0 -73.394053916901612 -174.03027518803719 0 0 0 0 129.11469515963108 85.334202950583858 0 85.334202950583858 -93.176669970402145 0 0 0 0 -99.450745249367174 28.786888983788231 0 28.786888983788231 2.7282781752874143 0 0 0 0 -11.857480811177084 127.37344336904971 0 127.37344336904971 -267.00785077262844 0 0 0 0 2.7641092118354873 29.95661342631675 0 29.95661342631675 9.3664285764920976 0 0 0 0 -14.235306743012188 39.539296468725297 0 39.539296468725297 -6.4607577773858793 0 0 0 0 0.69309773329304392 17.841912392841493 0 17.841912392841493 22.943544734009279 0 0 0 0 -0.21875622391962679 25.420230193896714 0 25.420230193896714 3.8656812553599593 0 0 0 0 4.5986136361279932 36.004568399506752 0 36.004568399506752 17.212746869961848 0 0 0 0 4.3086146381101571 32.969495696321246 0 32.969495696321246 7.2000094182985777 0 0 0 0 -0.41257683275034651 32.682108077031444 0 32.682108077031444 14.081292050650518 0 0 0 0 -1.4579977954708738 31.332090437099396 0 31.332090437099396 16.688469403539784 0 0 0 0 -0.021807007375173271 30.397528736881213 0 30.397528736881213 15.282967301551253 0 0 0 0 0.58112134516704828 34.41924871361698 0 34.41924871361698 18.492833338277705 0 0 0 0 1.4975182493217289 33.145193199568894 0 33.145193199568894 13.402600266541413 0 0 0 0 -0.78238601136399666 33.162350119768234 0 33.162350119768234 20.886718256981112 0 0 0 0 -1.9658633320068475 34.694505026534898 0 34.694505026534898 22.273274362916709 0 0 0 0 -1.4008956277684774 38.72738297468095 0 38.72738297468095 28.390561259107017 0 0 0 0 -3.1041629744486272 35.719233887869905 0 35.719233887869905 33.175983484477911 0 0 0 0 3.0330624018424714 37.637154663490946 0 37.637154663490946 23.187179157968785 0 0 0 0 -7.9034360875730991 27.99012858781051 0 27.99012858781051 12.425512501079254 0 0 0 0 -3.775372344738571 36.262941162058269 0 36.262941162058269 32.792254821397364 0 0 0 0 -52.073205399501603 78.868092272692593 0 78.868092272692593 63.026842935782042 0 0 0 0 -2.9505073687918184 15.642515402095949 0 15.642515402095949 -13.055026877832439 0 0 0 0 0.96934102347586304 38.440521665121196 0 38.440521665121196 26.48489823991622 0 0 0 0 83.883904665508908 148.87965129272834 0 148.87965129272834 70.651096344896359 0 0 0 0 -28.520477726124227 -38.290508174915885 0 -38.290508174915885 -14.816338939372145 0 0 0 0 -6.6737089735470363 64.394050917733693 0 64.394050917733693 34.628806275097304 0 0 0 0 -40.830707565291959 68.284836647340853 0 68.284836647340853 220.14787799296755 0 0 0 0 -78.714754806504061 29.538247551357927 0 29.538247551357927 223.16403823805013 0 0 0 0 -95.48153823625762 19.100472543461365 0 19.100472543461365 367.70328716156291 0 0 0 0 -110.45223229961994 172.11263639043318 0 172.11263639043318 395.62632800207939 0 0 0 0 -33.110397920710966 119.12841811283579 0 119.12841811283579 310.49250339287391 0 0 0 0 -72.727560262399493 318.80176812117134 0 318.80176812117134 18.693881318933563 0 0 0 0 -92.109176699479576 265.41694252179877 0 265.41694252179877 192.11544602487993 0 0 0 0 -262.00535704057256 253.04459561580006 0 253.04459561580006 -221.65026720459718 0 0 0 0 -339.82249153336306 -189.02873327497218 0 -189.02873327497218 336.93448777463345 0 0 0 0 -167.7051699879521 528.58909951103851 0 528.58909951103851 -312.6796813160181 0 0 0 0 -112.87873340308579 304.74264157330254 0 304.74264157330254 -353.32160324795404 0 0 0 0 -160.24157531374658 174.17574433118716 0 174.17574433118716 -407.51905941612495 0 0 0 0 -35.952379190086504 208.84201889051474 0 208.84201889051474 -449.07772818790545 0 0 0 0 -4.837750605437293 -2.3773016693162106 0 -2.3773016693162106 0.34847649445424356 0 0 0 0 -161.88490596602787 50.880167502516997 0 50.880167502516997 508.78151788644027 0 0 0 0 -65.249239904071146 -85.95266462077052 0 -85.95266462077052 381.12648369638191 0 0 0 0 -76.371743596746455 37.609064794391998 0 37.609064794391998 272.28252920199884 0 0 0 0 -52.170200223845313 -26.751890719162475 0 -26.751890719162475 255.84718847014483 0 0 0 0 44.357234565730323 -23.536904069009324 0 -23.536904069009324 13.001833898531913 0 0 0 0 -67.767642081278609 40.270799998375878 0 40.270799998375878 71.208958206329044 0 0 0 0 -21.828968694964715 14.25673381956949 0 14.25673381956949 78.335064282895473 0 0 0 0 163.91020951207611 54.394911031395168 0 54.394911031395168 -14.677994484896772 0 0 0 0 4.0253585848695366 39.383369328494155 0 39.383369328494155 -12.397258683507971 0 0 0 0 4.0371239774831338 -134.54844751487144 0 -134.54844751487144 335.86326398724123 0 0 0 0 3.9697709578520062 2.8222676729445482 0 2.8222676729445482 -2.2271369948036011 0 0 0 0 148.39413507735298 14.994222896355495 0 14.994222896355495 457.16602019103084 0 0 0 0 36.478705145738786 -100.53569231258007 0 -100.53569231258007 -41.165103219962475 0 0 0 0 -36.651101930183358 1.4958897858377895 0 1.4958897858377895 25.337433510725532 0 0 0 0 -2.2443351869006989 -1.1355359665697549 0 -1.1355359665697549 0.48865783147353881 0 0 0 0 -12.657799701531701 -0.2721447428868089 0 -0.2721447428868089 -0.2986012672267595 0 0 0 0 -5.8113412010861794 30.285747282199736 0 30.285747282199736 464.4441372989495 0 0 0 0 -9.6999271038803272 49.443222302088543 0 49.443222302088543 -407.74230470062321 0 0 0 0 -19.239519211056177 6.7542066740079463 0 6.7542066740079463 -136.01104724604374 0 0 0 0 -47.104567872509506 126.30281708342227 0 126.30281708342227 -134.98617861868115 0 0 0 0 -79.655055237031775 56.978776481031673 0 56.978776481031673 -75.842894920991967 0 0 0 0 -118.14697679325036 3.1819936890315148 0 3.1819936890315148 -207.56091632681637 0 0 0 0 -25.029669789873878 111.40967498063401 0 111.40967498063401 -430.82581078531803 0 0 0 0 -43.249044481453893 163.64678128872401 0 163.64678128872401 -199.59199863558752 0 0 0 0 -149.51476369787997 31.541589467207814 0 31.541589467207814 -39.481307488887978 0 0 0 0 -139.42011198346154 162.87849565762008 0 162.87849565762008 -179.71335184590862 0 0 0 0 -80.836061395642901 74.694497672284342 0 74.694497672284342 95.465288998719188 0 0 0 0 23.472470110605173 39.317929907300822 0 39.317929907300822 -60.419653975593974 0 0 0 0 -66.405103754113952 64.565346072959073 0 64.565346072959073 49.626631495291804 0 0 0 0 -48.163736461245207 110.72690585907367 0 110.72690585907367 -39.365689575322904 0 0 0 0 -172.35958553981254 84.550686525572928 0 84.550686525572928 157.54217234711905 0 0 0 0 -65.480109644333425 84.180636141572904 0 84.180636141572904 74.713355540612611 0 0 0 0 -150.32739933909033 115.92608364662919 0 115.92608364662919 137.84248787939032 0 0 0 0 -47.262744286555971 133.64155859613265 0 133.64155859613265 149.81299685972408 0 0 0 0 -40.761477448802907 48.231877292641002 0 48.231877292641002 -45.193486419622786 0 0 0 0 -94.560847834211017 90.097410936858068 0 90.097410936858068 73.881920662030097 0 0 0 0 -112.83507387680402 173.56386118556202 0 173.56386118556202 -125.39843561176895 0 0 0 0 -4.5786139370175079 37.155402747212065 0 37.155402747212065 -110.48955208365805 0 0 0 0 -45.184875585950067 39.977049467231154 0 39.977049467231154 -42.021604613975796 0 0 0 0 -22.444613829160232 6.9801368962316204 0 6.9801368962316204 -0.18996979598087194 0 0 0 0 16.542152964255365 27.159189155670902 0 27.159189155670902 -0.65538525031661266 0 0 0 0 9.9707993818665273 58.257128323719371 0 58.257128323719371 18.141929874425841 0 0 0 0 -2.5479356794320864 7.8985005973023021 0 7.8985005973023021 -2.6242405272609801 0 0 0 0 -29.196054556050512 29.534014935334199 0 29.534014935334199 0.051570120307587786 0 0 0 0 3.989268903987977 -6.03802666323827 0 -6.03802666323827 -44.855007332269452 0 0 0 0 -32.896586088720142 9.7954473848809442 0 9.7954473848809442 -0.40688644752965075 0 0 0 0 -46.615919357165694 41.819583703465469 0 41.819583703465469 29.26728466215809 0 0 0 0 -2.8964475555399787 6.3288739400385197 0 6.3288739400385197 0.24283968069850914 0 0 0 0 -32.241130330861779 19.756485936424269 0 19.756485936424269 -35.291181967724697 0 0 0 0 -117.13679377431254 32.590951436190153 0 32.590951436190153 7.5846134532857832 0 0 0 0 -28.189385465040687 26.947974358269221 0 26.947974358269221 -10.175881102655694 0 0 0 0 0.27709859153620009 1.5968043987119103 0 1.5968043987119103 -0.20641176013393192 0 0 0 0 -54.270651354905567 25.636360890302967 0 25.636360890302967 21.706050867084741 0 0 0 0 -35.338226867983252 17.265215061357186 0 17.265215061357186 0.4350005413191127 0 0 0 0 -4.232759674003912 7.9514035314437024 0 7.9514035314437024 -0.25613123937935711 0 0 0 0 103.95403740659094 51.767168650567328 0 51.767168650567328 -12.235523903185822 0 0 0 0 47.708391308966384 75.504895948757621 0 75.504895948757621 -6.8838235450239154 0 0 0 0 17.60237209610932 91.383648707822431 0 91.383648707822431 29.947432467160979 0 0 0 0 -15.516762980907515 2.4195912305585807 0 2.4195912305585807 39.770985823129195 0 0 0 0 27.68487827230274 26.307549067400032 0 26.307549067400032 35.669775841890441 0 0 0 0 191.44149808425209 56.937997926765092 0 56.937997926765092 25.19814812977711 0 0 0 0 252.34388791671518 113.25932079715676 0 113.25932079715676 8.2859956356405746 0 0 0 0 46.046979508595541 56.660011840702282 0 56.660011840702282 76.1766622252253 0 0 0 0 136.14247199978126 148.13460187263081 0 148.13460187263081 91.977280633713235 0 0 0 0 1.7921205145976273 118.77918113731721 0 118.77918113731721 88.743179582086668 0 0 0 0 2.6118830894652518 1.5683235903179025 0 1.5683235903179025 -0.40397926729900746 0 0 0 0 130.50798560144904 122.16052329304512 0 122.16052329304512 -0.21175194744500914 0 0 0 0 -49.016345636966435 35.265181525679054 0 35.265181525679054 101.77867720609356 0 0 0 0 -23.20551282390079 101.76101039994319 0 101.76101039994319 207.43742641233985 0 0 0 0 49.735895421701571 8.8398969856989424 0 8.8398969856989424 179.29347327180585 0 0 0 0 108.55117209398304 93.024026776211031 0 93.024026776211031 91.445915595624683 0 0 0 0 11.40156108069641 42.510858690100576 0 42.510858690100576 106.49018549123139 0 0 0 0 18.789504081600171 38.40693267171082 0 38.40693267171082 72.101358847059601 0 0 0 0 -9.174093160268967 27.958685033154325 0 27.958685033154325 85.925630772440854 0 0 0 0 33.3049370025401 57.56598879349167 0 57.56598879349167 71.485032491054881 0 0 0 0 18.727508329724515 79.408450835494477 0 79.408450835494477 134.6537138407366 0 0 0 0 19.565306601551129 58.82774359911491 0 58.82774359911491 96.735502588924646 0 0 0 0 -11.56880808547794 35.261173596790286 0 35.261173596790286 69.382997741708095 0 0 0 0 -25.749203537452559 15.154454202560373 0 15.154454202560373 52.621077394768236 0 0 0 0 -15.913358351615898 54.715319975801322 0 54.715319975801322 62.137175862412278 0 0 0 0 -28.709126573998219 12.167169616779574 0 12.167169616779574 28.823244407243692 0 0 0 0 -12.863643810549547 50.643179433617661 0 50.643179433617661 -23.596474767182372 0 0 0 0 -14.333978353335624 46.046779500101366 0 46.046779500101366 24.705737525502627 0 0 0 0 -27.254241898261171 97.095073053445503 0 97.095073053445503 -6.1953834059931978 0 0 0 0 -31.452007309132114 96.817592767527913 0 96.817592767527913 45.642384669976309 0 0 0 0 -28.204295261937659 92.689138108311454 0 92.689138108311454 49.368258931461241 0 0 0 0 32.556099584333424 83.965083632599999 0 83.965083632599999 58.681007648282502 0 0 0 0 -7.8544798867005738 42.30598797238963 0 42.30598797238963 77.466424196434673 0 0 0 0 -27.736812022951199 55.534822327559596 0 55.534822327559596 56.602712679075921 0 0 0 0 -56.709644276976178 23.968468681301601 0 23.968468681301601 -16.140019495938759 0 0 0 0 50.956407885888439 101.7203434690432 0 101.7203434690432 39.210567967373208 0 0 0 0 25.34087669911969 116.84147705192663 0 116.84147705192663 -27.875649683959637 0 0 0 0 -108.63295515984282 61.516024053060391 0 61.516024053060391 31.116197980605648 0 0 0 0 -42.562914073663705 121.13403923592523 0 121.13403923592523 2.3522862116806209 0 0 0 0 19.695209550496656 97.825311712753319 0 97.825311712753319 6.4051801061068545 0 0 0 0 23.93256489331543 73.071865390402309 0 73.071865390402309 -0.7133949116578151 0 0 0 0 25.921059000169862 50.353662331785472 0 50.353662331785472 54.082341731664201 0 0 0 0 -64.63919871932012 -26.367501712971716 0 -26.367501712971716 5.7341697651590948 0 0 0 0 -2.6754417060252536 0.32045898814318008 0 0.32045898814318008 1.4028284028235447 0 0 0 0 -45.048906592369804 130.52620255501483 0 130.52620255501483 37.162043672680738 0 0 0 0 -16.18526364419813 109.13587759678012 0 109.13587759678012 52.999647698547051 0 0 0 0 17.156038165288919 99.147146705421619 0 99.147146705421619 34.667697312699147 0 0 0 0 39.880338547319298 11.899307288221735 0 11.899307288221735 4.9534019103230094 0 0 0 0 -0.88725734743015039 0.64037045077874666 0 0.64037045077874666 1.3925378287232917 0 0 0 0 59.077142535781604 84.07735886336377 0 84.07735886336377 56.35448318982526 0 0 0 0 -18.464040422116341 88.825163100489135 0 88.825163100489135 73.961184774641879 0 0 0 0 51.602493405720452 47.614118693527416 0 47.614118693527416 43.348879724428116 0 0 0 0 73.07241727030123 73.173638466474586 0 73.173638466474586 44.142718877206789 0 0 0 0 29.781131560052017 69.54972506575541 0 69.54972506575541 44.224532675754745 0 0 0 0 38.427473860374448 98.335538250285026 0 98.335538250285026 124.67622001995187 0 0 0 0 35.884143133691396 59.221791863325052 0 59.221791863325052 61.260028753386905 0 0 0 0 -13.370394885919765 14.080657413436008 0 14.080657413436008 17.939171638161625 0 0 0 0 -42.947094491195458 -11.169003431818965 0 -11.169003431818965 -11.446961000132433 0 0 0 0 45.364842437533298 53.261735656536075 0 53.261735656536075 -144.54710598157544 0 0 0 0 37.477098056522664 344.1770736423241 0 344.1770736423241 78.95638208678065 0 0 0 0 21.452843879029388 25.207167673332151 0 25.207167673332151 -30.313114303662587 0 0 0 0 66.053275349411706 113.28454605645129 0 113.28454605645129 22.146354940770834 0 0 0 0 -7.254994730661565 4.7346365021148813 0 4.7346365021148813 73.704649941128991 0 0 0 0 -21.141701211061445 30.208752866665236 0 30.208752866665236 50.737895203317748 0 0 0 0 -9.5510435187461553 -8.0277820179544506 0 -8.0277820179544506 6.2622843441822624 0 0 0 0 1.4167417296557687 36.820854349389265 0 36.820854349389265 -9.7429998605803121 0 0 0 0 -1.6532951962517899 12.992674019674084 0 12.992674019674084 16.438799782205173 0 0 0 0 17.703319449799892 25.185087788984674 0 25.185087788984674 15.635352869474445 0 0 0 0 -1.6382589517452217 11.876810373821165 0 11.876810373821165 12.109628052634392 0 0 0 0 0.72611322984290894 12.407773447016545 0 12.407773447016545 12.922623673466276 0 0 0 0 5.9045510019932408 9.6135665655019693 0 9.6135665655019693 8.8971732292120578 0 0 0 0 16.962383038971893 29.022281540888116 0 29.022281540888116 49.504536716354778 0 0 0 0 21.147635885831221 26.266845188383201 0 26.266845188383201 11.370509204884783 0 0 0 0 11.87713834013266 28.039979997392948 0 28.039979997392948 14.256655095421593 0 0 0 0 -17.473632076959774 16.880071170988245 0 16.880071170988245 3.931323619617487 0 0 0 0 16.469902112308773 55.965079101342781 0 55.965079101342781 65.245340860616125 0 0 0 0 55.974638904808671 104.91169367314615 0 104.91169367314615 33.032556791127718 0 0 0 0 83.155768034310313 89.020971249810827 0 89.020971249810827 -28.808782938272998 0 0 0 0 31.455921646949719 44.591638948200853 0 44.591638948200853 12.825184572113358 0 0 0 0 -4.8022408636170439 24.435333850549796 0 24.435333850549796 18.60880868131062 0 0 0 0 -2.5053265175956767 19.150090966475545 0 19.150090966475545 28.803359170116892 0 0 0 0 32.479182602204673 40.385933161127468 0 40.385933161127468 3.5202725174749503 0 0 0 0 15.973026861074686 18.748612944870729 0 18.748612944870729 12.580895655817585 0 0 0 0 -0.67667249912622651 2.7104384454433657 0 2.7104384454433657 3.2884078921265996 0 0 0 0 -42.375027965099434 2.773244044969033 0 2.773244044969033 10.646846326316336 0 0 0 0 14.937670234172401 -7.7214119604004736 0 -7.7214119604004736 -27.497852822452842 0 0 0 0 -70.3414822260238 82.192192651831647 0 82.192192651831647 34.281590141975755 0 0 0 0 54.235345506844169 17.548784780135975 0 17.548784780135975 -63.140418946662976 0 0 0 0 -69.246424372289766 89.200821761732186 0 89.200821761732186 99.993899332064757 0 0 0 0 -24.024123504579904 10.688117112874927 0 10.688117112874927 -0.31264069075550083 0 0 0 0 85.248272290140449 60.06511477624008 0 60.06511477624008 -70.25900617562047 0 0 0 0 3.7893506244072341 37.860095748539607 0 37.860095748539607 50.828302948803866 0 0 0 0 10.296459091259749 53.586935233630356 0 53.586935233630356 41.145119920916841 0 0 0 0 6.5452680808593868 39.167084135266123 0 39.167084135266123 21.13830913494894 0 0 0 0 -9.4394532380465535 34.87583371747678 0 34.87583371747678 44.285869414752597 0 0 0 0 16.00781699851359 37.43416707401957 0 37.43416707401957 30.099591969148605 0 0 0 0 -0.40345594185671985 11.341579170145955 0 11.341579170145955 0.0081727744107240596 0 0 0 0 -8.5275362954569118 16.228579489649235 0 16.228579489649235 28.356042176121264 0 0 0 0 -0.88066132920357632 19.537045286204375 0 19.537045286204375 0.053898447058600141 0 0 0 0 7.3161590767158486 70.884969160655601 0 70.884969160655601 69.761873646752065 0 0 0 0 -22.188090968109464 26.051219676790424 0 26.051219676790424 68.736608151666587 0 0 0 0 -53.533578364956611 56.7180130129791 0 56.7180130129791 12.256862966743938 0 0 0 0 -58.204282970960776 -12.961211996157544 0 -12.961211996157544 10.453115997617715 0 0 0 0 15.975864367086615 31.17820390822726 0 31.17820390822726 12.698135429935064 0 0 0 0 63.839219768239673 121.44722853245048 0 121.44722853245048 90.130801011720905 0 0 0 0 -6.0537084785414521 3.5906928263980404 0 3.5906928263980404 -1.5018632435674775 0 0 0 0 70.482440340453195 66.010707666711937 0 66.010707666711937 42.913147532006406 0 0 0 0 -27.484751178173397 16.02377515419267 0 16.02377515419267 12.817133371781015 0 0 0 0 13.391966562970993 18.409900235370742 0 18.409900235370742 49.196492672612294 0 0 0 0 -7.5582138412155473 77.803209703801485 0 77.803209703801485 120.68121340113066 0 0 0 0 -20.630699279841792 13.61016051752631 0 13.61016051752631 16.979212270739481 0 0 0 0 99.593298407449765 148.38738058875924 0 148.38738058875924 135.99917235882094 0 0 0 0 132.83433209528448 95.439728876381196 0 95.439728876381196 58.657365979284805 0 0 0 0 -37.881512363962742 9.158548587116389 0 9.158548587116389 11.381656659013053 0 0 0 0 -20.342359254282201 36.321431114204643 0 36.321431114204643 39.449897492664604 0 0 0 0 -2.3711154514464852 1.488369727239828 0 1.488369727239828 0.22970177857320095 0 0 0 0 -358.86103791811911 -169.98674403002587 0 -169.98674403002587 92.499161067409659 0 0 0 0 -71.199536458916555 -28.04882184705275 0 -28.04882184705275 -100.80211179175967 0 0 0 0 -77.310268227214692 83.547666217715232 0 83.547666217715232 37.34932602689878 0 0 0 0 119.8484062048301 225.23891096275474 0 225.23891096275474 91.843811947044742 0 0 0 0 14.611004502541618 113.29284887567337 0 113.29284887567337 42.961396962473373 0 0 0 0 -172.31560080917552 6.8815503394398547 0 6.8815503394398547 115.48058435920757 0 0 0 0 -7.5306079684472707 9.6315801233020935 0 9.6315801233020935 -2.2335268655356053 0 0 0 0 -268.59220086026471 -84.020544635117403 0 -84.020544635117403 -9.2236803890264127 0 0 0 0 -452.3671069562406 54.435170809136253 0 54.435170809136253 337.02684280365793 0 0 0 0 -149.58251296088565 222.37653481430061 0 222.37653481430061 154.50646003642032 0 0 0 0 -148.98995697255668 206.61403919782015 0 206.61403919782015 338.24917642963555 0 0 0 0 343.49540545343189 -19.571909227219294 0 -19.571909227219294 265.59150647841307 0 0 0 0 66.472084438762977 121.30753294612805 0 121.30753294612805 -43.134061013939572 0 0 0 0 75.015656604096876 85.453323285384613 0 85.453323285384613 21.798806324142163 0 0 0 0 316.51813993716496 196.72996672170098 0 196.72996672170098 17.733896732745052 0 0 0 0 13.94056435739185 68.075174911405156 0 68.075174911405156 172.25149699596568 0 0 0 0 45.082815091904195 26.331650830534727 0 26.331650830534727 -3.5130069231654488 0 0 0 0 1.1003010722423028 2.8173057331527644 0 2.8173057331527644 -0.25515823988576258 0 0 0 0 -20.977845909629892 8.420434257317261 0 8.420434257317261 1.6945295014802539 0 0 0 0 148.75000767588517 24.069070256855071 0 24.069070256855071 -5.0094863100548537 0 0 0 0 -16.116876366064389 -11.41989584069961 0 -11.41989584069961 3.5124086168361828 0 0 0 0 2.6443324671636219 103.20564104123241 0 103.20564104123241 47.273121443772652 0 0 0 0 59.452000877234241 52.177033311423202 0 52.177033311423202 10.232699412852526 0 0 0 0 -21.875458064581807 10.142263731798202 0 10.142263731798202 0.67261529688704513 0 0 0 0 -29.430404913113307 18.991426359926663 0 18.991426359926663 52.396944319683826 0 0 0 0 -29.557573653612053 8.3557869378073519 0 8.3557869378073519 50.701934234311921 0 0 0 0 -8.4609729072253685 9.6580118532820052 0 9.6580118532820052 49.581744729837737 0 0 0 0 -29.597544581909744 27.665534174096216 0 27.665534174096216 35.964359976132982 0 0 0 0 9.7056484551576432 47.385557390514805 0 47.385557390514805 69.33420645903243 0 0 0 0 -17.953268468241731 24.486630933835841 0 24.486630933835841 82.296927223636885 0 0 0 0 17.869823944558448 94.972908706537055 0 94.972908706537055 91.583811806789754 0 0 0 0 38.760497686896997 36.114374169252187 0 36.114374169252187 72.494525038749998 0 0 0 0 -24.331136125183548 79.398010834651359 0 79.398010834651359 99.364212249442062 0 0 0 0 -10.525262197295206 4.6046868663038083 0 4.6046868663038083 39.877259209712065 0 0 0 0 -12.560279030271431 39.376338220513389 0 39.376338220513389 103.59216835043844 0 0 0 0 -13.019705203685589 22.598106083572929 0 22.598106083572929 12.310149285833177 0 0 0 0 -12.975866158118322 -2.05935133306523 0 -2.05935133306523 -0.75693840500326459 0 0 0 0 -205.69348264416476 11.276084088660355 0 11.276084088660355 -0.6056090184911227 0 0 0 0 -6.6917810061613636 42.328963226374526 0 42.328963226374526 -124.21287726714581 0 0 0 0 -3.2936800909534725 0.42876736889839862 0 0.42876736889839862 0.37413471591598224 0 0 0 0 -90.152407599511207 204.92189193356535 0 204.92189193356535 -57.335026072778419 0 0 0 0 -3.4256003495975165 17.393816178848283 0 17.393816178848283 64.205694872203821 0 0 0 0 -178.16960316513041 170.25636260939496 0 170.25636260939496 -73.8268092241251 0 0 0 0 -226.50022344131867 225.44938810972963 0 225.44938810972963 -130.16396647195143 0 0 0 0 -221.68989810027415 123.74018387126489 0 123.74018387126489 -103.11716647968933 0 0 0 0 -264.67738178735817 114.80167608165129 0 114.80167608165129 76.111637288688144 0 0 0 0 -257.14318233546874 97.582403416668058 0 97.582403416668058 114.27839988680898 0 0 0 0 -276.33767512510531 249.14594051699669 0 249.14594051699669 25.802130895781374 0 0 0 0 -219.6198628256825 167.93800813586859 0 167.93800813586859 -135.45778497107131 0 0 0 0 -437.51188336488121 501.33034928469078 0 501.33034928469078 -398.62140936053584 0 0 0 0 -2.1236829729395481 -0.92579427523419611 0 -0.92579427523419611 -0.75768858304230946 0 0 0 0 -7.1783306500816479 -2.1569687133862345 0 -2.1569687133862345 -0.71431172867146131 0 0 0 0 -15.849495838425355 42.878305659140096 0 42.878305659140096 123.13488010988294 0 0 0 0 -11.282026475200837 39.120217905447134 0 39.120217905447134 120.82997309720668 0 0 0 0 -24.566585672423685 69.343931550481614 0 69.343931550481614 151.4059253500709 0 0 0 0 -142.44072977608448 -73.525534211314607 0 -73.525534211314607 373.32065723325286 0 0 0 0 -413.47188782588637 123.22818461901807 0 123.22818461901807 232.25722756870346 0 0 0 0 -173.02577176124032 43.830124994390644 0 43.830124994390644 58.604744480184308 0 0 0 0 -270.30716828725417 137.66123662451355 0 137.66123662451355 1.1517724746227032 0 0 0 0 -140.82190634246581 180.2639288853743 0 180.2639288853743 -75.601618911736296 0 0 0 0 -230.50775730462919 204.91913254874817 0 204.91913254874817 -40.443792185295024 0 0 0 0 122.46145045450248 109.5926164754128 0 109.5926164754128 -98.955297364867874 0 0 0 0 -3.6579817262381482 1.6824500957573747 0 1.6824500957573747 -0.66218031205906414 0 0 0 0 87.00785024439574 -13.25140713897008 0 -13.25140713897008 30.06838548451924 0 0 0 0 4.150321154914451 10.431938198878612 0 10.431938198878612 1.5056003742551241 0 0 0 0 55.965380766043381 28.387637949141208 0 28.387637949141208 -12.895700516630313 0 0 0 0 55.493228063278366 47.104213472543051 0 47.104213472543051 27.347057586885057 0 0 0 0 -67.573613385255157 114.42464115938128 0 114.42464115938128 -66.414052445077687 0 0 0 0 -102.95783791363647 124.92761100076677 0 124.92761100076677 -19.524000675119169 0 0 0 0 11.281090085671167 -9.2115687275218079 0 -9.2115687275218079 -6.2158124615962151 0 0 0 0 -88.361604040052043 215.19359879472177 0 215.19359879472177 -137.4245556028327 0 0 0 0 -106.57139168375579 220.34926297203856 0 220.34926297203856 -131.97413855719788 0 0 0 0 -105.19653374209156 211.7786844818711 0 211.7786844818711 -161.5857559046708 0 0 0 0 -0.11553006324538728 155.04451141212849 0 155.04451141212849 -281.49860642135172 0 0 0 0 -0.077851711328548845 282.15487678135287 0 282.15487678135287 -211.52217420590023 0 0 0 0 -116.93497765919892 266.44346205589682 0 266.44346205589682 -189.54207488078828 0 0 0 0 -197.89004772911721 288.7564361446457 0 288.7564361446457 -122.36582568335871 0 0 0 0 -170.15408957133332 256.03937530364783 0 256.03937530364783 -144.61816670380358 0 0 0 0 -109.99709732326664 240.00824327227565 0 240.00824327227565 -98.945277716120472 0 0 0 0 -220.86136489359706 312.47739498391741 0 312.47739498391741 -115.37372252097703 0 0 0 0 -270.25482597530936 273.55437644309495 0 273.55437644309495 -145.34805487321864 0 0 0 0 -74.714658498465724 341.17416495833277 0 341.17416495833277 -228.94149932693472 0 0 0 0 -219.73306583162048 425.21001934178639 0 425.21001934178639 -270.39444466276109 0 0 0 0 -0.40686854517304061 401.15429620119392 0 401.15429620119392 -317.4942955986844 0 0 0 0 -405.89982418865839 416.64843015401129 0 416.64843015401129 -173.68025075187325 0 0 0 0 -434.77117710115272 414.2596760156448 0 414.2596760156448 -145.0309850847334 0 0 0 0 -435.92005644946767 334.02121896269819 0 334.02121896269819 75.922342426827527 0 0 0 0 -262.98617291182745 186.41745131067364 0 186.41745131067364 -215.89901405910496 0 0 0 0 -119.24243851672509 386.00388223123082 0 386.00388223123082 -122.88742080784868 0 0 0 0 -398.71167355403304 95.058276127347199 0 95.058276127347199 46.234113058902949 0 0 0 0 -243.47009946006074 246.0407906115588 0 246.0407906115588 -128.57791428841301 0 0 0 0 46.47579121842864 51.797550160415994 0 51.797550160415994 -11.017539470252814 0 0 0 0 89.188100285362452 128.28252597615938 0 128.28252597615938 -74.827943192067323 0 0 0 0 88.654713974829065 71.251132141362177 0 71.251132141362177 -38.13568235974526 0 0 0 0 42.635948538314551 91.630179639949347 0 91.630179639949347 -44.615320500510279 0 0 0 0 52.44415991436108 186.86742765725648 0 186.86742765725648 -167.87845297556487 0 0 0 0 -61.237104414904024 266.57740122244286 0 266.57740122244286 98.066532602446387 0 0 0 0 -34.022133833321277 227.00253029412124 0 227.00253029412124 -59.585278243015637 0 0 0 0 -5.8705103092070203 172.32794447445485 0 172.32794447445485 31.537886702921242 0 0 0 0 41.417580146109685 167.03047892420727 0 167.03047892420727 -99.230014573353401 0 0 0 0 25.573889781204343 118.11208738512505 0 118.11208738512505 -28.696128066309029 0 0 0 0 -34.734321754833218 124.37251077777182 0 124.37251077777182 -14.653548107045935 0 0 0 0 -84.120077959029004 124.22387628481374 0 124.22387628481374 52.03101969887939 0 0 0 0 -147.75198307706887 71.928465812852664 0 71.928465812852664 103.32414703593531 0 0 0 0 0.61354004934875661 2.1002422294479004 0 2.1002422294479004 1.2395313748327794 0 0 0 0 -94.813926238566637 170.9491787324805 0 170.9491787324805 144.23154511025496 0 0 0 0 -62.27435171588877 37.34788746639606 0 37.34788746639606 13.003589111796828 0 0 0 0 -66.287551271736447 54.158678213625535 0 54.158678213625535 24.760822719385033 0 0 0 0 5.4292309282314122 42.960610257164888 0 42.960610257164888 -7.6290675475509602 0 0 0 0 -78.143881387273723 78.354216933385032 0 78.354216933385032 14.288549203658476 0 0 0 0 6.1974282677305723 18.340373483365894 0 18.340373483365894 20.022353957386386 0 0 0 0 -57.958599595196574 35.241674797123778 0 35.241674797123778 -8.7889030381629709 0 0 0 0 -2.3138451239801121 8.8666528812500331 0 8.8666528812500331 0.37589519624762602 0 0 0 0 106.42777599053079 106.06937616247524 0 106.06937616247524 13.068856623292959 0 0 0 0 -81.731198023029719 39.658997824950347 0 39.658997824950347 23.405038571014302 0 0 0 0 -22.611260190191047 11.368347818635144 0 11.368347818635144 15.982563361160047 0 0 0 0 -23.338132787353061 27.446720773015386 0 27.446720773015386 8.3044359463820001 0 0 0 0 -2.3595635011283775 14.741043053420697 0 14.741043053420697 26.653665510538247 0 0 0 0 -26.758635429680453 35.459885680465277 0 35.459885680465277 16.339404714264674 0 0 0 0 4.4608633472653985 23.17503648823461 0 23.17503648823461 5.2957802430576066 0 0 0 0 -36.125234948660363 32.730155527919123 0 32.730155527919123 20.499053000763524 0 0 0 0 -11.00602754051215 56.34363207698334 0 56.34363207698334 0.40818204586685169 0 0 0 0 -10.684869922850321 30.308753163232097 0 30.308753163232097 22.899380621702477 0 0 0 0 4.9812675083376234 59.716545138449874 0 59.716545138449874 -12.367637122457381 0 0 0 0 -7.8404700785758905 66.934651803865563 0 66.934651803865563 -4.4828486646583769 0 0 0 0 -9.6433204275199387 56.544734389641235 0 56.544734389641235 -1.8283402825763915 0 0 0 0 -45.991604553943034 57.183186095149722 0 57.183186095149722 2.6767168642836623 0 0 0 0 -20.22118101273611 57.694001477301072 0 57.694001477301072 1.7536698720941786 0 0 0 0 -20.157845055917278 70.813575512933312 0 70.813575512933312 -4.5658881622375702 0 0 0 0 -15.029020328889601 78.808452663692151 0 78.808452663692151 4.8913384421612136 0 0 0 0 6.9823000814675424 27.509634506328041 0 27.509634506328041 26.54177835000155 0 0 0 0 -8.3256211365721189 15.75266516835579 0 15.75266516835579 16.170444152177595 0 0 0 0 29.466633018455468 24.574757587703061 0 24.574757587703061 11.792758989533468 0 0 0 0 -16.442001687151787 27.297099162915401 0 27.297099162915401 27.99504597737905 0 0 0 0 -8.9506156958777865 22.621769146035447 0 22.621769146035447 11.280258665580106 0 0 0 0 -1.2301232394820545 44.960372018831549 0 44.960372018831549 24.660122063141898 0 0 0 0 -5.4528862318111351 42.146719612101151 0 42.146719612101151 25.952797666874176 0 0 0 0 -9.9760128528869245 38.266383866033721 0 38.266383866033721 25.400356198311783 0 0 0 0 1.1704282295722805 37.784774744573042 0 37.784774744573042 19.534094712187652 0 0 0 0 0.52748875960864439 17.114839449365903 0 17.114839449365903 22.006262745519749 0 0 0 0 45.344682149865548 51.147989753117145 0 51.147989753117145 0.33050718915183097 0 0 0 0 -68.414912770705996 58.091331641640863 0 58.091331641640863 65.077591568553544 0 0 0 0 -13.712899657301023 47.023336590345934 0 47.023336590345934 25.764357595304318 0 0 0 0 -22.340433898338233 30.863893590219959 0 30.863893590219959 19.283182886769282 0 0 0 0 -9.2050942501955433 41.411168598671793 0 41.411168598671793 17.998902004562296 0 0 0 0 -9.0551233493729342 50.16895759358593 0 50.16895759358593 30.768022261909209 0 0 0 0 -10.46415103651816 39.763767976342933 0 39.763767976342933 33.363984586303559 0 0 0 0 12.542986747044779 42.333764596478431 0 42.333764596478431 23.171211115175538 0 0 0 0 14.421212374298193 26.970744177713641 0 26.970744177713641 18.814769415490446 0 0 0 0 12.948431650103885 28.174885649783391 0 28.174885649783391 22.988953303531162 0 0 0 0 -3.3875839885105301 24.6984259123562 0 24.6984259123562 19.73357134199135 0 0 0 0 13.443485168012558 43.427362042286404 0 43.427362042286404 21.605013956184848 0 0 0 0 7.126352771803198 13.430643582795224 0 13.430643582795224 9.1431121445821191 0 0 0 0 25.351124415145023 36.398309385349421 0 36.398309385349421 25.158476426579 0 0 0 0 -1.4366930197957402 27.394785136570469 0 27.394785136570469 18.899073732994246 0 0 0 0 0.96966347866691649 22.880672873619915 0 22.880672873619915 12.573885258032533 0 0 0 0 5.1588671956191812 23.05225541486449 0 23.05225541486449 22.608895655630391 0 0 0 0 9.7411719160954817 20.27693328411624 0 20.27693328411624 10.000343425665051 0 0 0 0 14.309809235206927 30.526812303833356 0 30.526812303833356 17.928960556287336 0 0 0 0 1.1653168732300401 44.294218485603778 0 44.294218485603778 39.984647786797723 0 0 0 0 -0.63253170161624439 39.338248681066034 0 39.338248681066034 28.822297209815588 0 0 0 0 16.581074000701619 35.113064422298606 0 35.113064422298606 31.892844509056886 0 0 0 0 10.187493725342904 7.1518042925615788 0 7.1518042925615788 3.6764018571878552 0 0 0 0 -0.90288322567357682 40.510927846400591 0 40.510927846400591 32.819198250668705 0 0 0 0 3.2604090949510294 21.771294877983721 0 21.771294877983721 19.315707708198325 0 0 0 0 -2.4418931664840784 30.855637566819496 0 30.855637566819496 31.927172653484376 0 0 0 0 -18.133528405815014 32.040865323207981 0 32.040865323207981 16.031430109564099 0 0 0 0 -1.8435907071107067 37.382520937280788 0 37.382520937280788 19.134109994745813 0 0 0 0 -20.136992332190857 31.147769805913413 0 31.147769805913413 31.684736036419054 0 0 0 0 -6.7890287023910787 31.65295321434678 0 31.65295321434678 27.752576507649792 0 0 0 0 -11.907778811524622 38.76643049287668 0 38.76643049287668 33.600609184402856 0 0 0 0 -11.661967162370274 42.575992949779902 0 42.575992949779902 26.943938515803893 0 0 0 0 -16.700845303188544 30.650232936710381 0 30.650232936710381 22.52196260067285 0 0 0 0 -23.854245683251065 31.771785947414173 0 31.771785947414173 27.461016946654127 0 0 0 0 -24.099957714040102 28.860904746710503 0 28.860904746710503 4.3087898924786714 0 0 0 0 -29.792056636797497 17.747301820123539 0 17.747301820123539 6.631275076606471 0 0 0 0 -81.01369683232042 -18.71618754552037 0 -18.71618754552037 219.94948521260812 0 0 0 0 -16.398183724121878 1.9634510421025766 0 1.9634510421025766 10.988190842031543 0 0 0 0 5.9832718009529344 -6.3838492672712164 0 -6.3838492672712164 92.124659771878214 0 0 0 0 -22.56331722784671 10.244770306147984 0 10.244770306147984 9.3309898169791268 0 0 0 0 -5.4738506166238778 2.9579467174165046 0 2.9579467174165046 7.9300953387438966 0 0 0 0 0.63913050705246333 22.113108341900613 0 22.113108341900613 20.273516775381765 0 0 0 0 -1.1646217076558969 41.864138872237163 0 41.864138872237163 38.665059844999632 0 0 0 0 1.7415662339844857 23.722800048284626 0 23.722800048284626 16.342933927709964 0 0 0 0 10.290016248858592 0.65672488983000221 0 0.65672488983000221 28.485899764833448 0 0 0 0 -6.1424006425378366 22.308606541911324 0 22.308606541911324 16.207174864419137 0 0 0 0 -0.087135839581605978 45.127126984996721 0 45.127126984996721 -8.6666442993409873 0 0 0 0 -35.584812483350106 33.081611077477646 0 33.081611077477646 23.13189070631779 0 0 0 0 2.7631326402163978 14.142856924794671 0 14.142856924794671 22.343291273437671 0 0 0 0 -46.589426723730867 30.458628855201823 0 30.458628855201823 23.291014736016223 0 0 0 0 -23.353542455099159 32.034731495456526 0 32.034731495456526 2.3053479523950955 0 0 0 0 5.0774271923822951 17.84352257788241 0 17.84352257788241 6.0973685029765647 0 0 0 0 -41.768988721873029 15.144694997070474 0 15.144694997070474 26.935026507442672 0 0 0 0 -38.403442686321796 10.863041660297313 0 10.863041660297313 5.6833955462989252 0 0 0 0 50.208149917205446 40.932319459170685 0 40.932319459170685 -49.058307938517828 0 0 0 0 -0.29653938030017812 15.476700753499927 0 15.476700753499927 -1.8374177127593612 0 0 0 0 18.985978973694728 27.8371482505936 0 27.8371482505936 11.182884820082108 0 0 0 0 97.981413406057982 73.416800946266449 0 73.416800946266449 26.112836074084044 0 0 0 0 29.927253414920415 85.709902372254874 0 85.709902372254874 76.277276135799184 0 0 0 0 -158.80691331972776 141.40755085062847 0 141.40755085062847 -6.009744494998813 0 0 0 0 20.740857503808456 88.26197151457734 0 88.26197151457734 9.082647483504843 0 0 0 0 7.445908304490219 34.112716875528662 0 34.112716875528662 21.618824706021741 0 0 0 0 -37.851719221814164 74.310018905290235 0 74.310018905290235 26.320035982629634 0 0 0 0 -63.894888887152774 43.061967943602212 0 43.061967943602212 15.591515128704486 0 0 0 0 -2.2902001577935351 17.805202149047929 0 17.805202149047929 29.915083071978017 0 0 0 0 -15.820411651791801 25.357939540188823 0 25.357939540188823 29.30507834247237 0 0 0 0 -9.2872701352098375 31.596837049190071 0 31.596837049190071 35.829007550317328 0 0 0 0 -36.593119557859609 15.429429287141829 0 15.429429287141829 15.728856955451192 0 0 0 0 188.63541735742183 -4.0166796357443673 0 -4.0166796357443673 50.564525947815127 0 0 0 0 18.519682798875905 36.478179347989297 0 36.478179347989297 17.496364517747466 0 0 0 0 10.391367407858624 24.903166369429442 0 24.903166369429442 28.192309013043825 0 0 0 0 -7.3889742013729212 30.174811297383343 0 30.174811297383343 29.586223715679736 0 0 0 0 177.17331852115876 181.27013308459243 0 181.27013308459243 -165.26032574215787 0 0 0 0 164.72519329665556 -60.660503385615698 0 -60.660503385615698 40.509851656868705 0 0 0 0 -4.03638998819725 3.7803006926404237 0 3.7803006926404237 3.1800571537782645 0 0 0 0 117.22090772759111 74.485786667773937 0 74.485786667773937 34.215660740665044 0 0 0 0 255.15440228302032 241.06388460825474 0 241.06388460825474 -603.82914052876004 0 0 0 0 -2.1364825795874651 2.0608060081621034 0 2.0608060081621034 -0.41210801799875441 0 0 0 0 -504.37278706052894 270.66223519179039 0 270.66223519179039 349.84027284411059 0 0 0 0 -140.50756720619393 -363.04037365255681 0 -363.04037365255681 330.64220031072909 0 0 0 0 118.35989002484712 -97.488809304268216 0 -97.488809304268216 386.16288675923715 0 0 0 0 -57.38122936077707 142.49704598479548 0 142.49704598479548 -109.46588004963996 0 0 0 0 -187.30994418251794 -90.89640695729031 0 -90.89640695729031 558.67249827673004 0 0 0 0 -100.52137659702566 456.42278846330737 0 456.42278846330737 333.63845498354203 0 0 0 0 -3.6981852788623257 2.3811542761201281 0 2.3811542761201281 0.95491933334369605 0 0 0 0 -35.084586180724727 11.049702901898854 0 11.049702901898854 74.420781680069922 0 0 0 0 81.225625213592593 56.363468547473815 0 56.363468547473815 -26.481848581643135 0 0 0 0 -21.095821611881789 19.877758426078351 0 19.877758426078351 21.80026708998713 0 0 0 0 36.153809161398385 72.886366546460522 0 72.886366546460522 53.194553260353132 0 0 0 0 -51.426927873094201 26.89078516617738 0 26.89078516617738 59.015847219408897 0 0 0 0 -7.129687895844846 24.947181229564777 0 24.947181229564777 39.907205277790936 0 0 0 0 -3.3924924111488508 51.486555045463319 0 51.486555045463319 52.16941636147385 0 0 0 0 15.67233271090663 21.525772937682632 0 21.525772937682632 45.49370722484673 0 0 0 0 52.323551538269385 45.985833253882447 0 45.985833253882447 31.256132380796771 0 0 0 0 4.7343206330333487 42.74669856192304 0 42.74669856192304 34.509115047294472 0 0 0 0 6.2007708320161328 67.078245500357298 0 67.078245500357298 86.591590620605075 0 0 0 0 -22.060221243038541 117.56511284663065 0 117.56511284663065 16.672916749041178 0 0 0 0 -119.97278998122056 -324.88704702898394 0 -324.88704702898394 37.167827104487515 0 0 0 0 30.831309757995768 87.347460860164574 0 87.347460860164574 22.24702602644993 0 0 0 0 -4.2258596674180922 1.7406179077313908 0 1.7406179077313908 -1.1016603310189907 0 0 0 0 -80.870188621716807 38.082578932015167 0 38.082578932015167 12.071789638288465 0 0 0 0 -181.5108518339257 -4.3284544792213637 0 -4.3284544792213637 -69.711172964169236 0 0 0 0 -65.848904025595402 109.53782832839897 0 109.53782832839897 -1.9827651624018472 0 0 0 0 -29.296869330239133 32.942238699512927 0 32.942238699512927 68.311787834166807 0 0 0 0 -1.1637874487496447 56.803591138688716 0 56.803591138688716 65.229036993772752 0 0 0 0 -9.986511815990454 26.169321267863609 0 26.169321267863609 44.267242183751861 0 0 0 0 -4.88107858055875 13.296246999467169 0 13.296246999467169 3.7528189987883422 0 0 0 0 -6.1051091381731286 13.245992978827118 0 13.245992978827118 22.779524689288195 0 0 0 0 -41.372134864650434 -0.39105724333603575 0 -0.39105724333603575 27.895566587845678 0 0 0 0 -31.055388176981069 34.539857350125203 0 34.539857350125203 36.197958796932653 0 0 0 0 -23.304245473402261 1.0025349238367198 0 1.0025349238367198 2.4012608301854925 0 0 0 0 -14.313890308585542 -11.616046142928099 0 -11.616046142928099 19.407432998683362 0 0 0 0 -6.671058908199484 45.695273593823003 0 45.695273593823003 -51.092288126397762 0 0 0 0 -34.706029365406721 -10.649028095809626 0 -10.649028095809626 43.05374532683345 0 0 0 0 68.585941614568583 -35.093490322182333 0 -35.093490322182333 -29.156139355767664 0 0 0 0 -30.472721081037889 37.574012501696416 0 37.574012501696416 37.382393120556799 0 0 0 0 10.629740894331007 -36.365529256727655 0 -36.365529256727655 34.166986597021605 0 0 0 0 20.708648248039026 46.82480038296103 0 46.82480038296103 10.729581103412784 0 0 0 0 4.3192810267210007 30.142867972877866 0 30.142867972877866 71.331998608246522 0 0 0 0 -25.63206604786042 12.222655622136728 0 12.222655622136728 22.048978589158267 0 0 0 0 31.669439315650379 128.73853403153407 0 128.73853403153407 30.537524229664996 0 0 0 0 -59.590881992597133 -24.64926728096907 0 -24.64926728096907 -2.9494079076066555 0 0 0 0 -48.925296674569836 84.758684218715644 0 84.758684218715644 1.6047370710020914 0 0 0 0 -113.92639473339659 125.10623152542394 0 125.10623152542394 84.063442358205066 0 0 0 0 -2.3802073589093595 0.02019052994319992 0 0.02019052994319992 0.29275038395020658 0 0 0 0 16.18195649793779 50.692264997753227 0 50.692264997753227 -10.816858276848507 0 0 0 0 18.315917961298055 15.692497776740765 0 15.692497776740765 31.161121887176705 0 0 0 0 15.002565645423601 26.495099789448432 0 26.495099789448432 13.032034023334631 0 0 0 0 -14.805903172644321 38.883235476499976 0 38.883235476499976 13.124697638704504 0 0 0 0 7.5033740624639904 16.04162666801858 0 16.04162666801858 28.964863239278202 0 0 0 0 11.535427685681498 15.248338830751891 0 15.248338830751891 21.418751821400292 0 0 0 0 24.991792321579851 30.7776485833283 0 30.7776485833283 20.16270873645044 0 0 0 0 11.887375399590809 17.679757330088847 0 17.679757330088847 21.798110765281066 0 0 0 0 25.541897897470335 18.777835911962029 0 18.777835911962029 25.038564960792428 0 0 0 0 1.6320142504046089 30.316262866754187 0 30.316262866754187 37.626078381603293 0 0 0 0 14.018467213201802 34.902032130561565 0 34.902032130561565 41.23950664732638 0 0 0 0 0.24205017285470376 7.2938575951748277 0 7.2938575951748277 6.8361769252083135 0 0 0 0 20.965504306077491 25.813259913971706 0 25.813259913971706 26.751763766377735 0 0 0 0 12.565387399373606 20.631568820406955 0 20.631568820406955 25.133404249894042 0 0 0 0 -50.658439728882513 79.512781723478838 0 79.512781723478838 91.305405470813639 0 0 0 0 13.605746881942551 22.593510875578204 0 22.593510875578204 27.8871992769852 0 0 0 0 23.176740496768616 19.577779728839232 0 19.577779728839232 34.670988979720278 0 0 0 0 -1.4592899470537191 5.6342467055940268 0 5.6342467055940268 6.0618907373585245 0 0 0 0 14.491802487807945 36.195255697302855 0 36.195255697302855 65.40103913967323 0 0 0 0 25.878323899160023 29.483585014957498 0 29.483585014957498 37.525158570187841 0 0 0 0 -11.56453378130027 10.792173825646387 0 10.792173825646387 60.688873959785269 0 0 0 0 33.340498161531286 -0.94882765849251882 0 -0.94882765849251882 -23.563658508508524 0 0 0 0 11.162524449420744 -12.467641827006446 0 -12.467641827006446 12.709024715833948 0 0 0 0 29.433455599362787 11.856664175178594 0 11.856664175178594 16.597208615057752 0 0 0 0 28.129794132721145 9.2257701032503974 0 9.2257701032503974 39.815939222811721 0 0 0 0 -132.85724640836997 153.69088850494518 0 153.69088850494518 -41.266517095500603 0 0 0 0 -65.417752805326018 43.068143517988574 0 43.068143517988574 32.903264224456507 0 0 0 0 -5.1589247850643005 113.4239966214227 0 113.4239966214227 -152.72710865917225 0 0 0 0 -3.6714074823850922 -0.33213108302411598 0 -0.33213108302411598 0.76854892281599518 0 0 0 0 31.091214226940792 19.349874912335508 0 19.349874912335508 38.195935856201686 0 0 0 0 18.95168419458787 7.6266817972536955 0 7.6266817972536955 33.416783470957739 0 0 0 0 36.408609368692851 51.972171123547014 0 51.972171123547014 54.386495851425934 0 0 0 0 -50.553396041199449 42.804311087846145 0 42.804311087846145 69.516669166550855 0 0 0 0 -0.10333135238033719 41.531179926041659 0 41.531179926041659 22.423924784136034 0 0 0 0 -12.009951997606549 56.948528739019821 0 56.948528739019821 2.6175628559831239 0 0 0 0 -36.285356945987587 10.017442910622776 0 10.017442910622776 13.720411694237555 0 0 0 0 8.4528298065561103 19.756371213290549 0 19.756371213290549 11.354927255176335 0 0 0 0 -2.5115239029560144 0.24649424424901412 0 0.24649424424901412 2.0120473467484743 0 0 0 0 38.012330990110058 27.13151102728807 0 27.13151102728807 30.33699423877988 0 0 0 0 5.6685079457383836 15.409979458076123 0 15.409979458076123 19.698105965493596 0 0 0 0 1.3792830677110146 4.4064747357727327 0 4.4064747357727327 6.5025125668027783 0 0 0 0 -8.6875267930445261 7.3967504918891791 0 7.3967504918891791 25.93403318712808 0 0 0 0 12.994857100056834 11.212760582293413 0 11.212760582293413 22.456500304437213 0 0 0 0 0.010524623365199659 32.095442013049251 0 32.095442013049251 41.810570875386475 0 0 0 0 1.4251971100748051 26.288524268293259 0 26.288524268293259 45.24698388676552 0 0 0 0 -1.1197899039274049 1.8639361370714909 0 1.8639361370714909 1.1714276145836493 0 0 0 0 52.765489767640247 39.651510272100495 0 39.651510272100495 20.959225645936385 0 0 0 0 -22.333650121632672 11.161028994827575 0 11.161028994827575 22.544693077579723 0 0 0 0 18.837510193319758 7.3988723652510089 0 7.3988723652510089 6.8395651430691942 0 0 0 0 -6.6856791340978816 25.997996928359498 0 25.997996928359498 30.373372276197188 0 0 0 0 13.114844470685057 21.181221138918772 0 21.181221138918772 7.5736121373248579 0 0 0 0 -9.0897284916609351 21.298977494044721 0 21.298977494044721 11.661780009086215 0 0 0 0 7.0429879640387298 10.561526278262221 0 10.561526278262221 11.535323333994214 0 0 0 0 -0.024320573778823018 5.4806739912382909 0 5.4806739912382909 -1.4830635214530048 0 0 0 0 0.76519775759734898 3.6645492702280364 0 3.6645492702280364 2.3782867206458604 0 0 0 0 0.75779910627170466 8.2537198281443125 0 8.2537198281443125 4.1255235372118477 0 0 0 0 8.6638676903385203 23.322228182063554 0 23.322228182063554 22.293388933245069 0 0 0 0 8.6215182082160027 22.264539315006914 0 22.264539315006914 14.611199755949201 0 0 0 0 -27.757633420915226 14.85317404725356 0 14.85317404725356 18.57604144965444 0 0 0 0 13.863242240331601 28.737778811722819 0 28.737778811722819 28.649044094618148 0 0 0 0 14.003173234727001 27.895998739679271 0 27.895998739679271 12.580677855694375 0 0 0 0 9.824436850427162 14.711523328044223 0 14.711523328044223 18.389088968362643 0 0 0 0 2.8160758861847341 6.0738562107458733 0 6.0738562107458733 3.9395435813924706 0 0 0 0 12.602104497498658 25.74560115548411 0 25.74560115548411 5.5885020017703937 0 0 0 0 -5.4274523302301532 12.709511324204868 0 12.709511324204868 13.184366364238144 0 0 0 0 32.993462536353036 16.384447265001654 0 16.384447265001654 7.0640637555479771 0 0 0 0 -124.7574592953315 98.589199875197664 0 98.589199875197664 13.472013277119913 0 0 0 0 -0.68348387065927341 1.0182426808220608 0 1.0182426808220608 10.793865227307542 0 0 0 0 37.796856531625963 47.943875849111237 0 47.943875849111237 23.000787973920524 0 0 0 0 -1.0301184887788963 0.41232223069492591 0 0.41232223069492591 -0.10054687385751038 0 0 0 0 -90.615890746354125 8.0077203666951391 0 8.0077203666951391 23.357599029644916 0 0 0 0 -17.257060055417242 12.462073211657753 0 12.462073211657753 48.309174585338042 0 0 0 0 52.011260812854744 140.66768743232387 0 140.66768743232387 -38.470334671009368 0 0 0 0 -1.9110660367813637 14.203424007903678 0 14.203424007903678 13.137163185819858 0 0 0 0 -4.7083021385260508 24.141734474147597 0 24.141734474147597 7.0406735302058223 0 0 0 0 143.90577880800993 132.68655186123578 0 132.68655186123578 -196.87202605217772 0 0 0 0 -138.22176345517073 -59.375406714576457 0 -59.375406714576457 827.64741336239604 0 0 0 0 -30.451421873804065 -118.39848435432987 0 -118.39848435432987 261.00973251049072 0 0 0 0 -0.052148597897030413 5.6874158911632549 0 5.6874158911632549 6.6872667160005221 0 0 0 0 -6.028966215912078 20.922042968471942 0 20.922042968471942 12.229489796336566 0 0 0 0 -11.170068407227518 14.867393422944588 0 14.867393422944588 6.4371925517280033 0 0 0 0 -0.7169243548067783 10.219934125497701 0 10.219934125497701 3.317519854218105 0 0 0 0 -8.7813506267146977 11.890563816207305 0 11.890563816207305 13.629811657865417 0 0 0 0 0.0066228053838131018 6.0530527840419381 0 6.0530527840419381 3.3313125412387308 0 0 0 0 -2.8138582736355602 7.638691630291305 0 7.638691630291305 7.9827905425554491 0 0 0 0 2.2443534240107397 4.8590697815889428 0 4.8590697815889428 4.9671510251793904 0 0 0 0 257.92488593125017 94.594926140551252 0 94.594926140551252 -363.7717600648557 0 0 0 0 -1.5711669399082382 -1.5662845141452095 0 -1.5662845141452095 6.7182003179194041 0 0 0 0 1.2756849016832916 -1.8978654604261038 0 -1.8978654604261038 1.7522785432826851 0 0 0 0 2.0205786161239843 2.0495211994153806 0 2.0495211994153806 1.6868771799199465 0 0 0 0 -0.015774436731589958 5.1813599517226976 0 5.1813599517226976 6.8580512779444689 0 0 0 0 -255.11313674827397 9.0656250184956662 0 9.0656250184956662 2098.1157947881184 0 0 0 0 -335.78509726197808 355.45394529514488 0 355.45394529514488 2239.2039548738903 0 0 0 0 -0.56268281854863744 449.04762000223036 0 449.04762000223036 1737.3025155756368 0 0 0 0 -77.92792604152055 619.80579264707922 0 619.80579264707922 1071.4439265683777 0 0 0 0 843.04041910186061 -119.9084215908988 0 -119.9084215908988 1578.2021059015569 0 0 0 0 698.5348649116786 639.9035553931551 0 639.9035553931551 1729.7754257884699 0 0 0 0 -2.328776670880103 -0.83706224125367612 0 -0.83706224125367612 15.143741580519134 0 0 0 0 171.29791654079963 -464.81868722985701 0 -464.81868722985701 692.95664960668 0 0 0 0 382.40081093624394 622.30076177600222 0 622.30076177600222 1498.7505836038472 0 0 0 0 -328.21501141942599 239.91280503583971 0 239.91280503583971 2355.5226716683574 0 0 0 0 -261.21470826055884 -188.59068700068201 0 -188.59068700068201 2175.8167503347577 0 0 0 0 -227.31155758984096 -126.25246397917908 0 -126.25246397917908 848.17144416289011 0 0 0 0 -471.48359826918795 142.61775112338677 0 142.61775112338677 1690.2764448104026 0 0 0 0 -464.5457718645315 465.73999406840466 0 465.73999406840466 1434.9826890928362 0 0 0 0 -300.61308386841847 396.06368411815492 0 396.06368411815492 1334.1133990083636 0 0 0 0 -210.3312597823533 135.71464442904835 0 135.71464442904835 1530.3173169993606 0 0 0 0 186.62498050925933 739.37123386642816 0 739.37123386642816 1071.677528031385 0 0 0 0 53.896753870048997 298.63052678452141 0 298.63052678452141 -302.86331627719483 0 0 0 0 -700.81193460641225 -66.246873697070441 0 -66.246873697070441 855.91849239696785 0 0 0 0 -965.38523292367245 381.3707944090595 0 381.3707944090595 1428.7494473478 0 0 0 0 6.7137038251025842 10.557443046002902 0 10.557443046002902 10.374775299816982 0 0 0 0 -570.84050322861003 475.94083666104416 0 475.94083666104416 -219.5968804993845 0 0 0 0 -436.02702171418787 965.15238572085491 0 965.15238572085491 -314.36683081436138 0 0 0 0 -14.968675847718259 95.737552971648256 0 95.737552971648256 -295.38552874261586 0 0 0 0 23.950819332225365 295.93563226910192 0 295.93563226910192 -229.25162479537721 0 0 0 0 -70.28411864375812 98.793499386601979 0 98.793499386601979 -31.451254518922724 0 0 0 0 -145.84574120861362 -54.464622431225507 0 -54.464622431225507 -343.05231823025406 0 0 0 0 0.075314098951793362 358.51365216925177 0 358.51365216925177 565.69266361108021 0 0 0 0 -139.38669463318365 -50.489684652968208 0 -50.489684652968208 975.85510520734533 0 0 0 0 1104.4484344933917 236.8473401369929 0 236.8473401369929 -133.9604875168643 0 0 0 0 -574.5841966348089 347.38381146669326 0 347.38381146669326 942.44667943727836 0 0 0 0 2.7987897400191741 4.3807470098387569 0 4.3807470098387569 2.0947610556104621 0 0 0 0 1485.7394854890781 1057.1742362780551 0 1057.1742362780551 390.9055894569774 0 0 0 0 142.88241582080082 573.38690451682305 0 573.38690451682305 232.76302369729638 0 0 0 0 0.28708398945068181 2.8472024883673157 0 2.8472024883673157 10.785449461092092 0 0 0 0 -1015.570464623912 314.4827713753856 0 314.4827713753856 439.31239556004584 0 0 0 0 -12.185132547165267 935.18183493904689 0 935.18183493904689 974.10882638513431 0 0 0 0 245.40479928211425 503.14820692180001 0 503.14820692180001 106.89727049302564 0 0 0 0 -471.02116827830469 150.43511771892736 0 150.43511771892736 98.024528073467081 0 0 0 0 266.09178711791901 605.04603900789425 0 605.04603900789425 -350.18935634408263 0 0 0 0 3.2300322418207372 5.6433103302901628 0 5.6433103302901628 6.5590785468562629 0 0 0 0 205.90442316539702 789.78733198521331 0 789.78733198521331 875.90585553059282 0 0 0 0 157.90601595933549 984.16430459130061 0 984.16430459130061 560.52636138925118 0 0 0 0 5.0380642346281093 239.7102936552501 0 239.7102936552501 866.39817441867308 0 0 0 0 140.54406153328455 442.5423158834401 0 442.5423158834401 852.28657116372415 0 0 0 0 196.23441131626896 70.077586730823896 0 70.077586730823896 362.491410044644 0 0 0 0 140.22798784949191 208.10945889561481 0 208.10945889561481 166.97396414030663 0 0 0 0 -105.94493987022724 -24.483046721421488 0 -24.483046721421488 245.78685698426307 0 0 0 0 178.91741020541667 386.88014434631168 0 386.88014434631168 410.55478680560282 0 0 0 0 0.15519048631749355 6.5407262397504979 0 6.5407262397504979 29.024597936420939 0 0 0 0 -96.320686013413024 17.957083967732729 0 17.957083967732729 140.66138235099061 0 0 0 0 -1.7492076749472407 6.5268304941228195 0 6.5268304941228195 42.801227986454677 0 0 0 0 2.6742244872730225 -52.108371718879425 0 -52.108371718879425 -41.690391840013035 0 0 0 0 2.2527251175051788 -99.845113138690976 0 -99.845113138690976 98.97885904884788 0 0 0 0 -3.1177271655758716 0.14274219792948628 0 0.14274219792948628 10.459711104825029 0 0 0 0 -3.9514825630548103 21.084217358270976 0 21.084217358270976 56.261678887050948 0 0 0 0 -7.6243680649640737 9.1769232715196267 0 9.1769232715196267 49.389919320047738 0 0 0 0 -1.3875133974853935 4.887833022667067 0 4.887833022667067 42.432441201191111 0 0 0 0 -2.2920416656590987 -1.4677759687660021 0 -1.4677759687660021 21.717591670655565 0 0 0 0 3.02700280881254 1.7315605291867087 0 1.7315605291867087 20.477003571297246 0 0 0 0 28.151616587674653 161.5165785169329 0 161.5165785169329 312.93758057256309 0 0 0 0 9.1628437890030909 12.702525943990622 0 12.702525943990622 59.694049358648044 0 0 0 0 -0.96972325315587682 -2.5231255969317452 0 -2.5231255969317452 8.076750601075787 0 0 0 0 98.262623856666323 -103.4338363826264 0 -103.4338363826264 -81.197859809270085 0 0 0 0 8.9860999323900614 -16.844909391660622 0 -16.844909391660622 63.638884948926716 0 0 0 0 -74.696946320327697 70.03927936204127 0 70.03927936204127 17.764180471844156 0 0 0 0 98.780836885343888 66.660751228364461 0 66.660751228364461 -84.312574366045737 0 0 0 0 -26.653879683392006 38.486569454213168 0 38.486569454213168 46.287015040164988 0 0 0 0 3.3833723731495979 18.697863427436616 0 18.697863427436616 15.297922183056762 0 0 0 0 18.717518282312085 -3.710962362927603 0 -3.710962362927603 47.583674773071834 0 0 0 0 -83.595238727684773 14.371749676450236 0 14.371749676450236 49.859179901177413 0 0 0 0 -2.4700239969679387 43.399111509352224 0 43.399111509352224 22.588582701042469 0 0 0 0 -10.092861599565367 54.225188854612497 0 54.225188854612497 25.287822013458936 0 0 0 0 -8.8302708952542162 47.067884076936025 0 47.067884076936025 23.967473037140735 0 0 0 0 -6.0974614449223736 56.786103427156377 0 56.786103427156377 13.163128621745273 0 0 0 0 -43.932978756231023 49.516757878671342 0 49.516757878671342 25.672771249312063 0 0 0 0 -29.258676945360548 8.1737951104897562 0 8.1737951104897562 123.74973819536535 0 0 0 0 -19.946670668676234 14.380886869658127 0 14.380886869658127 48.370666350194369 0 0 0 0 -3.1841343924742427 7.0000723263708124 0 7.0000723263708124 45.686769726161401 0 0 0 0 -14.313525839097565 10.052259991509345 0 10.052259991509345 38.881480922471383 0 0 0 0 -3.6136584385822061 -2.559418307135843 0 -2.559418307135843 67.357260467189917 0 0 0 0 -4.0386659938433809 9.181635493294948 0 9.181635493294948 13.29426368326671 0 0 0 0 5.8082948677755155 24.123303709234492 0 24.123303709234492 19.598379333767525 0 0 0 0 -9.151698179266532 15.222316198794942 0 15.222316198794942 42.489559719370845 0 0 0 0 8.951286338783575 14.814016449752671 0 14.814016449752671 42.071413847774238 0 0 0 0 24.84717976079628 8.8405160572137902 0 8.8405160572137902 71.943218314423575 0 0 0 0 92.776385840024886 52.067799027005321 0 52.067799027005321 30.592991614117636 0 0 0 0 -22.855933712118642 13.45701434493138 0 13.45701434493138 29.200599920166482 0 0 0 0 -37.28333189006662 11.233993625505718 0 11.233993625505718 30.146244597824989 0 0 0 0 -4.4449042013624283 16.310836667323031 0 16.310836667323031 16.347506272276185 0 0 0 0 -48.775329147651064 21.70957904227717 0 21.70957904227717 21.979981394841161 0 0 0 0 -33.740620182506973 28.899831436741806 0 28.899831436741806 32.065624329436105 0 0 0 0 -5.3416815429044817 36.623563797127119 0 36.623563797127119 35.284845267291004 0 0 0 0 -31.857534830048195 18.171711569823174 0 18.171711569823174 53.876733766621484 0 0 0 0 -7.4840872447521178 14.944691930785774 0 14.944691930785774 70.778857187878202 0 0 0 0 -29.094051962923967 15.07992889771009 0 15.07992889771009 49.378690035488759 0 0 0 0 -41.782064143666503 15.27613873194548 0 15.27613873194548 82.472855033352971 0 0 0 0 -32.092589655646634 15.52619638141713 0 15.52619638141713 30.868928343562377 0 0 0 0 -48.439259841761668 8.372826966036655 0 8.372826966036655 81.841456261216763 0 0 0 0 -45.10545388036553 -15.200424953802667 0 -15.200424953802667 104.9008912698564 0 0 0 0 -96.259516869686195 27.273410272158003 0 27.273410272158003 88.325595858683528 0 0 0 0 -36.597061026783194 32.950554919521437 0 32.950554919521437 98.749681665946014 0 0 0 0 -79.293794386583613 38.085892455262183 0 38.085892455262183 91.127001240258238 0 0 0 0 -30.085337272555023 27.962928943321153 0 27.962928943321153 15.558331182674237 0 0 0 0 -68.23111208602495 49.33384377781374 0 49.33384377781374 48.447572422520466 0 0 0 0 65.353271035986836 93.179586398308857 0 93.179586398308857 -12.997542778420211 0 0 0 0 -52.246354760827671 81.443571758139868 0 81.443571758139868 88.84998453701121 0 0 0 0 -49.186796654762958 37.883077556959449 0 37.883077556959449 -21.236533219146459 0 0 0 0 60.357694572006949 110.74982684594374 0 110.74982684594374 -12.187812131087412 0 0 0 0 27.705573024293699 97.058968991769234 0 97.058968991769234 32.707550396535225 0 0 0 0 -14.303465427524316 158.60498342667088 0 158.60498342667088 92.714378616047952 0 0 0 0 -40.829341254148005 30.636071766129803 0 30.636071766129803 -23.2010496150188 0 0 0 0 -96.761251543846811 69.069235267310475 0 69.069235267310475 89.756275580756324 0 0 0 0 -30.907994223765854 72.882041886605975 0 72.882041886605975 64.595216737467126 0 0 0 0 -148.83388617472519 115.15964076853402 0 115.15964076853402 50.701783155284375 0 0 0 0 -15.646627502124829 66.313356836920917 0 66.313356836920917 39.717683220273329 0 0 0 0 -13.885573249186564 81.183158895161228 0 81.183158895161228 -89.089994350998495 0 0 0 0 -80.70112601191795 105.1524315470183 0 105.1524315470183 -96.761830540373012 0 0 0 0 -274.11280210946279 148.18538447236938 0 148.18538447236938 -3.6183975573121643 0 0 0 0 -76.681372491584625 85.600831698788625 0 85.600831698788625 -201.47235390849255 0 0 0 0 -151.14187544681772 -43.329354771622775 0 -43.329354771622775 23.342299178726535 0 0 0 0 -54.631282556359167 111.93355520424555 0 111.93355520424555 -111.58236820277989 0 0 0 0 -0.57451128408044383 4.8818994057468927 0 4.8818994057468927 8.2203144854649359 0 0 0 0 -16.184442332931212 -10.97775317365813 0 -10.97775317365813 26.430909439576226 0 0 0 0 -118.09442297025817 -25.534806857426474 0 -25.534806857426474 58.835376606346472 0 0 0 0 -146.63299481627473 59.572603582399552 0 59.572603582399552 86.172527903755736 0 0 0 0 -118.07969898996816 51.572088342597169 0 51.572088342597169 52.751462320511564 0 0 0 0 -332.85087625875622 5.3334822722832769 0 5.3334822722832769 217.16982247728083 0 0 0 0 -272.34660346840064 82.504145564138526 0 82.504145564138526 193.57577135924839 0 0 0 0 -282.82473854028649 45.580583995617417 0 45.580583995617417 67.13069463131842 0 0 0 0 -257.82274138783032 1.4889360815664077 0 1.4889360815664077 135.95985614713936 0 0 0 0 -314.32321888458682 -28.698379199781812 0 -28.698379199781812 121.8610839246594 0 0 0 0 -195.19665503166289 93.618633720201615 0 93.618633720201615 64.155951710326917 0 0 0 0 -291.19015407431289 48.93437106156307 0 48.93437106156307 46.663572796195695 0 0 0 0 -50.604115227659349 140.97454531585663 0 140.97454531585663 8.08107099384506 0 0 0 0 -50.809152655303478 29.788347058061845 0 29.788347058061845 66.242671537382193 0 0 0 0 -14.307065357206739 186.08177849214189 0 186.08177849214189 71.999517642494538 0 0 0 0 20.825384704854514 111.0600235835841 0 111.0600235835841 64.884256994813768 0 0 0 0 40.730545772425103 65.228394755024283 0 65.228394755024283 -105.8189689837709 0 0 0 0 38.146303848790012 21.303395925340737 0 21.303395925340737 -138.49544181465535 0 0 0 0 -151.05280334642157 61.942988942136253 0 61.942988942136253 106.407015349223 0 0 0 0 -32.746130526117952 23.869547715111764 0 23.869547715111764 -16.766524800992791 0 0 0 0 -136.85291556334641 -22.764623017874044 0 -22.764623017874044 41.903143835186711 0 0 0 0 -319.29215309739448 -129.88818680495251 0 -129.88818680495251 -17.656329168164575 0 0 0 0 -21.849917418564416 15.524744303091325 0 15.524744303091325 -11.368823583572487 0 0 0 0 25.132585444844153 118.75387351510653 0 118.75387351510653 -128.77935639248062 0 0 0 0 -319.25126465855357 -64.484742650753518 0 -64.484742650753518 50.120514433379867 0 0 0 0 -210.07656498779033 441.5304188028399 0 441.5304188028399 -981.03334024571268 0 0 0 0 -31.443969654847024 7.6265485221490508 0 7.6265485221490508 -452.94462847838895 0 0 0 0 -7.7969123606341668 5.3655909592356679 0 5.3655909592356679 -4.9892598178125258 0 0 0 0 -45.811761265726091 66.452823035163419 0 66.452823035163419 -154.23747309931059 0 0 0 0 24.0827018065429 9.2935742468364424 0 9.2935742468364424 -344.80800104476657 0 0 0 0 37.866664576227777 97.348349226093433 0 97.348349226093433 -198.31436217716555 0 0 0 0 35.878266654161621 40.018439938573998 0 40.018439938573998 -211.0146159766764 0 0 0 0 26.570225154358923 170.51216203730792 0 170.51216203730792 -221.89755645410969 0 0 0 0 -58.764463261919445 326.40757244465567 0 326.40757244465567 -186.01397531907287 0 0 0 0 35.330463206351851 181.69859202942325 0 181.69859202942325 -325.91937656617483 0 0 0 0 -7.4677659421504359 241.45661097849279 0 241.45661097849279 -409.14793583332971 0 0 0 0 -37.644968216016423 229.06355273283316 0 229.06355273283316 -359.33976534554495 0 0 0 0 -68.214054036179732 378.88487557758526 0 378.88487557758526 -469.22046324204393 0 0 0 0 -427.8773296110885 568.65308369206559 0 568.65308369206559 -405.6818671080764 0 0 0 0 -397.58140826170347 297.16247989365274 0 297.16247989365274 -450.47882237478916 0 0 0 0 -174.88244013670919 473.14808535923248 0 473.14808535923248 -758.29843800271556 0 0 0 0 -334.99741841519693 237.94323218087888 0 237.94323218087888 -46.153311367223068 0 0 0 0 -195.10049131672713 169.70707640858836 0 169.70707640858836 -13.170543472644567 0 0 0 0 -195.23520254677942 79.885139130211584 0 79.885139130211584 -108.14162611477514 0 0 0 0 14.004050868403283 81.75250499178901 0 81.75250499178901 -166.78508726093014 0 0 0 0 14.791747511859285 88.390747798663597 0 88.390747798663597 -114.86639553025748 0 0 0 0 -97.264707254100358 119.95902439892461 0 119.95902439892461 -143.60668432642433 0 0 0 0 0.23127288779505761 157.8087954475393 0 157.8087954475393 -109.20792506395082 0 0 0 0 49.662003931887739 278.83122091631139 0 278.83122091631139 -153.22058607544113 0 0 0 0 21.673274529086484 170.02062672096963 0 170.02062672096963 -137.59392553264814 0 0 0 0 175.52938688309223 383.55590322926037 0 383.55590322926037 29.950911128573921 0 0 0 0 -139.3802845906248 229.09711304820758 0 229.09711304820758 10.976146093161333 0 0 0 0 -151.46772838398465 193.12994735482289 0 193.12994735482289 -93.714226481657079 0 0 0 0 208.05904788139742 1138.3070353457215 0 1138.3070353457215 898.33593974204359 0 0 0 0 -137.47137930207464 582.82346519285056 0 582.82346519285056 138.81651009302368 0 0 0 0 695.74773086625646 845.98393994009848 0 845.98393994009848 181.0581558712056 0 0 0 0 538.67373813052836 1125.0033609466573 0 1125.0033609466573 -312.02163050714626 0 0 0 0 1393.9837818470696 890.80329905490044 0 890.80329905490044 -329.50079511695185 0 0 0 0 836.51908515226387 479.44340865563299 0 479.44340865563299 124.8300858089242 0 0 0 0 268.28500860513304 513.20396452899968 0 513.20396452899968 20.831784128630261 0 0 0 0 408.91122987688141 352.99402825566995 0 352.99402825566995 19.32227484507348 0 0 0 0 756.16195859423897 588.9380085638586 0 588.9380085638586 8.2263063319774119 0 0 0 0 340.42738709086188 358.63225666159997 0 358.63225666159997 -40.460922598331308 0 0 0 0 15.915132642614481 299.23499113330581 0 299.23499113330581 52.312206007180976 0 0 0 0 -133.30260960571286 442.89179100228625 0 442.89179100228625 -92.139474275390057 0 0 0 0 11.544341261243972 226.96566329880443 0 226.96566329880443 18.740879722623504 0 0 0 0 262.99551993212663 434.37000017849732 0 434.37000017849732 20.534072128803018 0 0 0 0 388.59296133527823 402.94906494826137 0 402.94906494826137 -136.26600074731505 0 0 0 0 -71.126333237225481 208.45200961333467 0 208.45200961333467 -83.301662623051016 0 0 0 0 419.96873138112278 312.31875630092509 0 312.31875630092509 89.020189605433188 0 0 0 0 129.73837832482241 521.72375614842622 0 521.72375614842622 63.456141975242645 0 0 0 0 606.42799310455302 608.74476670653348 0 608.74476670653348 153.44795665210677 0 0 0 0 1032.3007827655601 543.45584910306752 0 543.45584910306752 66.048227479528578 0 0 0 0 715.22414992989798 487.36437869534166 0 487.36437869534166 150.68179580474316 0 0 0 0 1016.4738882996571 684.1027583907694 0 684.1027583907694 63.683591870027158 0 0 0 0 655.70322457701695 592.00970110739263 0 592.00970110739263 57.307094061472526 0 0 0 0 394.66478538971023 371.27177232224039 0 371.27177232224039 28.761785812048402 0 0 0 0 -490.75937397232701 510.92127271593063 0 510.92127271593063 -30.80781050888254 0 0 0 0 -435.37967501668027 405.51388644078088 0 405.51388644078088 157.46351769235298 0 0 0 0 -322.9243135312754 457.84093639010985 0 457.84093639010985 -297.74672028628265 0 0 0 0 -333.47201448990927 480.81001407180941 0 480.81001407180941 -155.49268990644487 0 0 0 0 -176.43225906904263 434.41022363045613 0 434.41022363045613 -144.78555993561531 0 0 0 0 -46.561628991636098 302.32511948018373 0 302.32511948018373 -27.832868864787997 0 0 0 0 -196.79557437635594 444.00065123970262 0 444.00065123970262 87.125528179431967 0 0 0 0 -61.409807277137588 355.77382640995347 0 355.77382640995347 -218.03172959574295 0 0 0 0 -1037.6002876215789 260.38306915311841 0 260.38306915311841 156.5581072395571 0 0 0 0 -0.27499321878033656 1.9601728968281122 0 1.9601728968281122 0.41113313189654122 0 0 0 0 -360.67825853165414 387.67851511767731 0 387.67851511767731 81.018319246883493 0 0 0 0 677.86922975386392 423.89622338424056 0 423.89622338424056 -79.359197839447006 0 0 0 0 -298.74868406127098 489.60253022891334 0 489.60253022891334 86.489373230564524 0 0 0 0 -201.49398227389611 222.3534953559074 0 222.3534953559074 126.87624511836566 0 0 0 0 -478.50301808114455 383.55119231414028 0 383.55119231414028 46.13780994128274 0 0 0 0 -497.47517452290049 504.22543292637965 0 504.22543292637965 180.17155659094283 0 0 0 0 -546.80852841269734 440.28385931169532 0 440.28385931169532 160.70280818851097 0 0 0 0 -612.87389624013304 489.82788025139416 0 489.82788025139416 -491.51483788185942 0 0 0 0 -584.85437866889697 590.88122442636632 0 590.88122442636632 -422.20915133885626 0 0 0 0 -503.22554867538111 429.45920996582674 0 429.45920996582674 -415.5143381596572 0 0 0 0 -517.68857658529032 564.53636318700774 0 564.53636318700774 -445.7160492031835 0 0 0 0 -569.72056594748574 466.42111863823629 0 466.42111863823629 -187.27839201681354 0 0 0 0 -540.44213090324047 462.58572404898223 0 462.58572404898223 19.524937645356658 0 0 0 0 -501.87238641666045 435.35349410435265 0 435.35349410435265 -192.09917921192391 0 0 0 0 -350.73997518283431 341.12213582360573 0 341.12213582360573 -125.09838510048939 0 0 0 0 -457.12047286150482 518.00493436830948 0 518.00493436830948 -402.97414437666521 0 0 0 0 -550.51092061724921 499.94645870853674 0 499.94645870853674 -126.2654744348111 0 0 0 0 -582.05940337442735 278.6348233101462 0 278.6348233101462 -25.524311457946169 0 0 0 0 24.488983023889887 264.17711425087828 0 264.17711425087828 -138.51754944576896 0 0 0 0 -0.29502975786127195 5.8826355378323001 0 5.8826355378323001 0.34238795662995614 0 0 0 0 -415.82589922640284 279.88820771612222 0 279.88820771612222 228.55717720483335 0 0 0 0 170.79439891571383 312.60582912396148 0 312.60582912396148 41.782766564460871 0 0 0 0 360.36565474331292 872.36179058470225 0 872.36179058470225 -141.79754389748814 0 0 0 0 955.48089966486054 542.79869449698492 0 542.79869449698492 -117.55414329119412 0 0 0 0 -0.16261042997644903 3.6359153426657969 0 3.6359153426657969 -0.063525083300497442 0 0 0 0 -87.660771840455709 552.10750089018438 0 552.10750089018438 -288.86524785958545 0 0 0 0 -106.55278788058968 521.10636240009148 0 521.10636240009148 -108.90562791468437 0 0 0 0 -321.61133572632389 695.74270538020846 0 695.74270538020846 -165.67655560133937 0 0 0 0 -456.60456367379811 540.47670779968939 0 540.47670779968939 248.60614460386205 0 0 0 0 -605.97210607150919 878.60152160081088 0 878.60152160081088 -179.28423728781968 0 0 0 0 -1196.6781330460076 591.82911721937865 0 591.82911721937865 -92.303098912283531 0 0 0 0 -565.41103618022044 591.4650359221838 0 591.4650359221838 -354.77228090545759 0 0 0 0 -478.44506506172183 560.78118736936085 0 560.78118736936085 -357.83614575151842 0 0 0 0 -469.80965973506682 539.85401380088479 0 539.85401380088479 -577.59464309463874 0 0 0 0 -726.11632142905 725.20392253589307 0 725.20392253589307 -356.77620469325484 0 0 0 0 -492.45350476711974 520.36170574139624 0 520.36170574139624 -201.27892253187747 0 0 0 0 -514.89052586657635 762.67513318990132 0 762.67513318990132 -26.074729053831106 0 0 0 0 -384.2736484552297 588.70876523679181 0 588.70876523679181 8.1146608113454022 0 0 0 0 -192.63291704273433 224.98928797572808 0 224.98928797572808 418.56450035035436 0 0 0 0 55.81315332421218 660.40229615750468 0 660.40229615750468 477.85299451604078 0 0 0 0 -382.41619799814271 437.39528046755902 0 437.39528046755902 593.04510586635297 0 0 0 0 -256.12256573834748 754.90330481846468 0 754.90330481846468 -89.720174425729056 0 0 0 0 -223.5292287794291 786.53878682333334 0 786.53878682333334 -250.67563760869234 0 0 0 0 -0.85445360587635832 5.0873479633832588 0 5.0873479633832588 1.3704906026372985 0 0 0 0 -123.75946818463854 -120.51509342350801 0 -120.51509342350801 1171.9164241021963 0 0 0 0 -222.11795412753418 546.49403107642684 0 546.49403107642684 879.80370280986608 0 0 0 0 -129.79262343625305 408.04770866882609 0 408.04770866882609 795.19936506321392 0 0 0 0 -12.695569750969298 123.10461985876918 0 123.10461985876918 423.84446251828194 0 0 0 0 -1.9747138252939465 1.3964896947196053 0 1.3964896947196053 1.8122074201103295 0 0 0 0 -644.07826925762674 896.445465174731 0 896.445465174731 -788.88493422769898 0 0 0 0 -144.91107463178923 -134.74338990387878 0 -134.74338990387878 46.372520412759513 0 0 0 0 -518.25198988867487 543.65716503440217 0 543.65716503440217 -765.38614728189714 0 0 0 0 619.37404130451614 767.62200199576455 0 767.62200199576455 830.07644528725996 0 0 0 0 1120.6628264932951 127.15826113336789 0 127.15826113336789 -161.87000921302661 0 0 0 0 3.0878687885730187 6.2047275851486745 0 6.2047275851486745 -7.5987310795731275 0 0 0 0 -3.4337961160825614 13.364318851750838 0 13.364318851750838 -15.206113453781882 0 0 0 0 15.461115611506102 15.573873134587757 0 15.573873134587757 -8.9461729269296484 0 0 0 0 770.1957086728944 585.33659741583506 0 585.33659741583506 211.61127992629736 0 0 0 0 460.00371206892305 467.78621818776082 0 467.78621818776082 361.93411805317373 0 0 0 0 994.0203974957949 664.97151115366978 0 664.97151115366978 182.50472301043192 0 0 0 0 747.07694716249534 509.04444626484928 0 509.04444626484928 106.99951101154875 0 0 0 0 250.10553244213952 538.86351619736251 0 538.86351619736251 316.73803244945248 0 0 0 0 -59.447457596063032 475.84067572337062 0 475.84067572337062 93.173497545288228 0 0 0 0 207.34657530351978 366.39450556612792 0 366.39450556612792 94.646490358709343 0 0 0 0 157.54564055801893 755.19487270166519 0 755.19487270166519 176.94564007541703 0 0 0 0 177.0438834887027 592.03621286750331 0 592.03621286750331 373.42306988531072 0 0 0 0 412.09842996922089 870.39314298403769 0 870.39314298403769 630.83550162385018 0 0 0 0 698.58556736357059 204.57497412100042 0 204.57497412100042 494.01434315372353 0 0 0 0 247.48707992373966 553.87203252616382 0 553.87203252616382 112.81115747892181 0 0 0 0 24.623572854485246 788.61557519258076 0 788.61557519258076 21.382525162873662 0 0 0 0 319.17395058987313 562.27084382647536 0 562.27084382647536 -123.00504831895614 0 0 0 0 327.90181058090093 791.80864132497118 0 791.80864132497118 -660.41885254828048 0 0 0 0 213.647827446257 255.58982068377372 0 255.58982068377372 -698.87149018534376 0 0 0 0 -269.35872039738024 -956.00541974488874 0 -956.00541974488874 -1609.0286224157835 0 0 0 0 -0.19947026932956646 2.4655972370176329 0 2.4655972370176329 -13.340066828847796 0 0 0 0 -350.40452794829616 974.00753781233288 0 974.00753781233288 -628.00160396867705 0 0 0 0 495.37242332343158 271.26660008713361 0 271.26660008713361 -160.54093508367441 0 0 0 0 211.83765437596594 231.39410605407102 0 231.39410605407102 -99.674934086882786 0 0 0 0 1.8101376216311564 13.374086664541707 0 13.374086664541707 -31.208765150205103 0 0 0 0 -87.216041067862534 -19.535845026393304 0 -19.535845026393304 -179.94801071406891 0 0 0 0 5.0508601415135104 17.533357244323632 0 17.533357244323632 1.6516349813340465 0 0 0 0 80.295847149369365 11.954531101276075 0 11.954531101276075 -557.97772924095807 0 0 0 0 187.58685843121202 -218.57957130975228 0 -218.57957130975228 -539.26227008614137 0 0 0 0 431.14445050843642 -324.1983199501351 0 -324.1983199501351 -1287.6652079440344 0 0 0 0 217.70354896663048 -199.16396719729607 0 -199.16396719729607 -1359.0258775013062 0 0 0 0 436.14461123284127 -163.9182676125638 0 -163.9182676125638 -1061.1746087835127 0 0 0 0 37.741057851810183 267.89487194616231 0 267.89487194616231 -1486.5540499564704 0 0 0 0 512.25050992060278 -158.67591741499064 0 -158.67591741499064 -2305.1301037216144 0 0 0 0 310.07606074938667 1442.4370684589976 0 1442.4370684589976 -1912.9502512130657 0 0 0 0 -259.35054685251089 200.70434756975919 0 200.70434756975919 -125.22992371565851 0 0 0 0 8.5907448205173296 10.500395677761084 0 10.500395677761084 0.95234841256668012 0 0 0 0 35.885775439746794 364.8719108573585 0 364.8719108573585 64.286363043793926 0 0 0 0 -212.22472451376234 246.51621503387378 0 246.51621503387378 -143.64774859114186 0 0 0 0 -110.87090509184054 535.01649335412412 0 535.01649335412412 -726.5818044831708 0 0 0 0 310.77479195644264 129.92124488993079 0 129.92124488993079 -1587.0110105483195 0 0 0 0 2.7172084034860333 2.8002100016745999 0 2.8002100016745999 -2.7603312900535766 0 0 0 0 2.9761847275684694 14.508153762282234 0 14.508153762282234 -9.1324625277790723 0 0 0 0 7.9249246855833917 21.441283456927977 0 21.441283456927977 -13.296118752267375 0 0 0 0 -326.0476087598945 193.54242299171801 0 193.54242299171801 -68.995067072480197 0 0 0 0 -290.12812839819526 208.27820382885875 0 208.27820382885875 -127.00150680409479 0 0 0 0 -308.24014922298011 270.44463429994664 0 270.44463429994664 -149.53847488371503 0 0 0 0 -793.83504836607608 222.10865016146818 0 222.10865016146818 0.9012279419494007 0 0 0 0 -366.75970347283874 208.45793448551467 0 208.45793448551467 -15.17159894924589 0 0 0 0 -91.481301293424622 484.54421664109623 0 484.54421664109623 -103.97316139542454 0 0 0 0 -422.65449891619573 319.91895595085612 0 319.91895595085612 -13.58411335418441 0 0 0 0 -67.95232441432745 441.48345242288951 0 441.48345242288951 -166.37384586553253 0 0 0 0 -238.86009536625352 364.62640422899494 0 364.62640422899494 -22.835082836576362 0 0 0 0 -75.997392241231864 389.32616843009873 0 389.32616843009873 -177.90199430797202 0 0 0 0 216.00697892536846 569.92416405489962 0 569.92416405489962 -68.205649629475374 0 0 0 0 442.86534629933885 480.05792940599122 0 480.05792940599122 -177.60519400443127 0 0 0 0 -35.872287807418616 311.25835550288161 0 311.25835550288161 -129.83544133443684 0 0 0 0 312.84737920160842 451.86758848164823 0 451.86758848164823 -97.807361538680652 0 0 0 0 22.673996981859091 659.42843352239288 0 659.42843352239288 -111.06034924738985 0 0 0 0 17.505888427549507 548.71485340257095 0 548.71485340257095 -655.29486932962459 0 0 0 0 -174.32394782340998 240.28432560366809 0 240.28432560366809 -336.43785153407862 0 0 0 0 471.87295210591401 1332.0597485479686 0 1332.0597485479686 -939.34210929528376 0 0 0 0 1.4603607811505697 0.60935586922356322 0 0.60935586922356322 0.1876401022125469 0 0 0 0 -899.38705499081152 -1126.7490466219831 0 -1126.7490466219831 -24.431596368654027 0 0 0 0 58.621867649757405 1634.0232539756942 0 1634.0232539756942 382.29671805718499 0 0 0 0 516.11152702807158 995.05440532879163 0 995.05440532879163 -52.287745447884205 0 0 0 0 512.7571381224916 1063.5984398523526 0 1063.5984398523526 242.63850867658431 0 0 0 0 877.41274971165694 563.83234943575553 0 563.83234943575553 100.26633729626451 0 0 0 0 572.00024270758149 947.59408196166726 0 947.59408196166726 453.55430514553825 0 0 0 0 548.24414405720745 850.44603576223733 0 850.44603576223733 229.45045778264375 0 0 0 0 1955.268954579602 1164.8795011433604 0 1164.8795011433604 195.47864644391319 0 0 0 0 987.17700140224042 860.84632229913529 0 860.84632229913529 426.88849661191261 0 0 0 0 2658.5153223164598 1036.4122201762032 0 1036.4122201762032 -207.06319316513873 0 0 0 0 338.07632399440627 405.17734997214484 0 405.17734997214484 68.245460256675869 0 0 0 0 672.32029803888145 765.91101801599439 0 765.91101801599439 -23.314910957002212 0 0 0 0 -1.2842812064627651 379.87265905010599 0 379.87265905010599 -188.28087860568246 0 0 0 0 -2.4403831318740643 7.7511383538116263 0 7.7511383538116263 -0.7145285698516588 0 0 0 0 -1900.4339385253552 883.82978934543962 0 883.82978934543962 -285.0501023309057 0 0 0 0 0.51989164017868461 1331.1706826552077 0 1331.1706826552077 -428.24013905420998 0 0 0 0 180.65070395538351 1061.5556922439055 0 1061.5556922439055 79.957227806346054 0 0 0 0 18.962160402675181 1174.0429941989896 0 1174.0429941989896 2.2507821072076695 0 0 0 0 35.467124399903696 1061.0523827110369 0 1061.0523827110369 -17.786524465074763 0 0 0 0 546.81478167020396 363.98419165825771 0 363.98419165825771 -115.38214653272189 0 0 0 0 392.823165408161 1240.0891324849194 0 1240.0891324849194 -158.0178075788458 0 0 0 0 808.73358816668042 946.57238020263958 0 946.57238020263958 -217.66596237772501 0 0 0 0 168.33623211587837 901.35022222542466 0 901.35022222542466 -211.24587875019415 0 0 0 0 135.41866866274177 805.10104413651345 0 805.10104413651345 -35.305449969728215 0 0 0 0 172.49389473041265 659.2777460006788 0 659.2777460006788 -151.25167333143872 0 0 0 0 72.951821618713439 598.53908801632679 0 598.53908801632679 -177.81839996543749 0 0 0 0 -82.194120181840844 718.26163826144602 0 718.26163826144602 -56.243408860752425 0 0 0 0 -42.371726994017081 833.07820645098809 0 833.07820645098809 261.17292592897684 0 0 0 0 -213.7097371082491 430.98376451538888 0 430.98376451538888 21.132020496080258 0 0 0 0 -142.90706921247329 1115.7660597458002 0 1115.7660597458002 793.81766964755661 0 0 0 0 -1.7942944906462799 1307.2360992215872 0 1307.2360992215872 198.28692326464397 0 0 0 0 -163.9777259566763 991.20835465398386 0 991.20835465398386 69.21820853975214 0 0 0 0 92.081874416602659 593.82957819002058 0 593.82957819002058 172.34968135693157 0 0 0 0 -65.206519059618586 278.84350081985076 0 278.84350081985076 522.09925031865532 0 0 0 0 -1187.293896165429 497.54445589338593 0 497.54445589338593 894.58139800864592 0 0 0 0 -709.56151577696437 658.84023909439202 0 658.84023909439202 886.02823717355318 0 0 0 0 1.4271774620204383 4.7945254915947118 0 4.7945254915947118 3.4699410066650174 0 0 0 0 -0.031873003656984741 47.263535348224288 0 47.263535348224288 -77.878611426946009 0 0 0 0 -810.45008741708807 38.678111250970687 0 38.678111250970687 480.53777758679098 0 0 0 0 266.07646005446441 642.77264311848558 0 642.77264311848558 -444.92656687478666 0 0 0 0 354.80782710671519 321.3284037386843 0 321.3284037386843 -547.89730969532684 0 0 0 0 -178.90611554890347 584.38167388890088 0 584.38167388890088 -350.1291584856408 0 0 0 0 -157.10504357704485 276.91830049250257 0 276.91830049250257 -221.74307948319802 0 0 0 0 -0.18245854580163723 47.399385037356296 0 47.399385037356296 -77.824020908599778 0 0 0 0 4.2743263247581496 8.6133210378807377 0 8.6133210378807377 5.9284784574975049 0 0 0 0 -292.94989235760295 248.99435688200083 0 248.99435688200083 -34.000880017290456 0 0 0 0 -275.77825049041712 338.7902705077895 0 338.7902705077895 -93.600849977727194 0 0 0 0 -206.68118318756024 656.1579681361136 0 656.1579681361136 270.06047640717588 0 0 0 0 3.9947116825637465 5.0091173176016923 0 5.0091173176016923 3.4340437784089488 0 0 0 0 -562.45793091687665 366.89949483351847 0 366.89949483351847 137.93939205741344 0 0 0 0 75.638482269197993 256.95830156726242 0 256.95830156726242 -561.78042154670038 0 0 0 0 -364.65602493484766 138.69971564776415 0 138.69971564776415 -192.3627446605733 0 0 0 0 -45.546516282476659 258.35456578022695 0 258.35456578022695 -130.55507326394581 0 0 0 0 -272.38626432588444 146.2193892998846 0 146.2193892998846 -108.1181653881431 0 0 0 0 -178.55582273473556 123.86039232612347 0 123.86039232612347 -213.6842842069027 0 0 0 0 -171.3807611982636 290.00893812755783 0 290.00893812755783 -228.33319542112622 0 0 0 0 -321.70327094003733 147.92883527457161 0 147.92883527457161 -359.50007410680337 0 0 0 0 -155.75843931057898 100.47451111654391 0 100.47451111654391 2.2083003269590336 0 0 0 0 -225.59493335679872 347.21843399206591 0 347.21843399206591 307.22826179985714 0 0 0 0 93.544272562867263 267.23280506102856 0 267.23280506102856 626.96720678295696 0 0 0 0 -80.403518461200292 614.03045652380388 0 614.03045652380388 172.89234815775126 0 0 0 0 896.67724418287253 1071.5888769102712 0 1071.5888769102712 13.360153989806349 0 0 0 0 132.8898606737057 908.60131870649093 0 908.60131870649093 -21.416740355325146 0 0 0 0 -1977.0867637629854 1130.6431884431495 0 1130.6431884431495 -627.88388393931382 0 0 0 0 54.328346020920435 1102.6734347549018 0 1102.6734347549018 -447.70354653065806 0 0 0 0 -1956.2815180297039 1206.2688616318937 0 1206.2688616318937 -424.45541496850637 0 0 0 0 -525.8887946975301 203.97763849838702 0 203.97763849838702 -111.81750714488226 0 0 0 0 -710.62737480429496 278.91623119140604 0 278.91623119140604 -875.32650243081844 0 0 0 0 -423.61189765906602 591.22898663543674 0 591.22898663543674 -535.76289919629198 0 0 0 0 -519.32274642927223 418.10929673300416 0 418.10929673300416 -451.67472292935599 0 0 0 0 -1061.6839615077479 940.96409006785871 0 940.96409006785871 -826.56914549327814 0 0 0 0 -974.17143852141453 155.16380908569045 0 155.16380908569045 -4.8863159779425587 0 0 0 0 -954.93803066188048 584.49137699912274 0 584.49137699912274 -240.26440484765953 0 0 0 0 0.25046529533971551 4.3414859915855999 0 4.3414859915855999 -2.4885696176697891 0 0 0 0 2154.7966280210967 436.59309785244568 0 436.59309785244568 -256.46265471678635 0 0 0 0 3.811029382913361 1.8726853913738353 0 1.8726853913738353 -2.9278582745701058 0 0 0 0 -2388.6111603830359 394.1298941946834 0 394.1298941946834 -35.767422376484319 0 0 0 0 1154.3380493567493 409.01297416979696 0 409.01297416979696 252.90955085849055 0 0 0 0 1063.8373616910794 603.47805930043 0 603.47805930043 93.544317347437755 0 0 0 0 25.17292335005186 16.49793364369134 0 16.49793364369134 -9.5691809516979447 0 0 0 0 -1.1028830486670191 12.099993223215805 0 12.099993223215805 -5.1549774578920875 0 0 0 0 -796.025374616308 230.32872862986994 0 230.32872862986994 -20.632937093980217 0 0 0 0 0.9414624616501186 5.6661888758001311 0 5.6661888758001311 -10.406074808095603 0 0 0 0 -437.98123433792352 358.09565625813093 0 358.09565625813093 -150.37183399138303 0 0 0 0 -451.12457960023312 510.9567028424708 0 510.9567028424708 -133.49827264651321 0 0 0 0 -162.64288519931142 376.49807135389074 0 376.49807135389074 -247.53777348543929 0 0 0 0 -223.85324235037842 304.03782696456665 0 304.03782696456665 -304.16947159794108 0 0 0 0 -404.06752308587602 531.39703613486199 0 531.39703613486199 -514.26670277471794 0 0 0 0 -300.01581771441124 904.07017528391361 0 904.07017528391361 -975.69050356320145 0 0 0 0 -829.43635207152693 688.2005042206265 0 688.2005042206265 -238.0554250624204 0 0 0 0 2.9167483022453027 -0.68991073310544593 0 -0.68991073310544593 -1.0933461948897087 0 0 0 0 -222.78023677155397 336.39086620527132 0 336.39086620527132 -388.98285664456125 0 0 0 0 -610.74177064766991 328.61925305526063 0 328.61925305526063 -119.59534407703951 0 0 0 0 -257.43328466807361 27.468542098361468 0 27.468542098361468 1489.5552360823949 0 0 0 0 -351.60424944604256 459.59340639152504 0 459.59340639152504 -486.05199176973383 0 0 0 0 4.3339290467215719 0.42859153367807501 0 0.42859153367807501 0.49309385512093229 0 0 0 0 -222.6242985181816 702.36424761985108 0 702.36424761985108 -262.98364117743404 0 0 0 0 -630.34606021779837 479.36139015818253 0 479.36139015818253 536.5230542074105 0 0 0 0 -388.73977428865692 121.79214737777511 0 121.79214737777511 340.73813384668074 0 0 0 0 -464.80430095845259 213.19150766732309 0 213.19150766732309 206.73758678169133 0 0 0 0 -494.26043346370261 400.11254292919421 0 400.11254292919421 107.04018754200297 0 0 0 0 -344.49827879688746 217.64385128529057 0 217.64385128529057 -133.58445927695993 0 0 0 0 -499.63953710117312 474.07968804484426 0 474.07968804484426 -192.81500355115713 0 0 0 0 -339.64757834356897 241.04559835708096 0 241.04559835708096 -41.757025168897485 0 0 0 0 -203.18129760001466 189.49593978688154 0 189.49593978688154 -23.814175919618719 0 0 0 0 -461.79753582870035 173.26302929204394 0 173.26302929204394 44.980045415774839 0 0 0 0 -65.94236053187069 123.3353278552227 0 123.3353278552227 281.08513570135347 0 0 0 0 -4.3342587730184334 16.438439401617821 0 16.438439401617821 10.722351572326632 0 0 0 0 -227.14690837427406 241.29680989700319 0 241.29680989700319 -121.05640766969464 0 0 0 0 -156.99239582519294 9.6442451215485221 0 9.6442451215485221 142.88706671902787 0 0 0 0 -342.8941713776203 266.87376249417593 0 266.87376249417593 -391.45018782640182 0 0 0 0 532.35031605695167 -103.3568992349247 0 -103.3568992349247 -108.88001867676155 0 0 0 0 175.75923696583595 -89.309017176195709 0 -89.309017176195709 -108.42105838134569 0 0 0 0 -137.4388390298227 -22.8418483749806 0 -22.8418483749806 -1.0910161269372338 0 0 0 0 -5.7010278396083649 7.6967769406565196 0 7.6967769406565196 5.4524661661620888 0 0 0 0 -120.05421192881113 217.48941364135572 0 217.48941364135572 20.033459330470805 0 0 0 0 37.054180936366286 71.129855702686513 0 71.129855702686513 30.279289696784609 0 0 0 0 13.434301218832161 272.00993230391373 0 272.00993230391373 2.4293667080867181 0 0 0 0 327.41220952506774 239.52255842960835 0 239.52255842960835 31.794350829343443 0 0 0 0 37.586825188733201 99.363081601558633 0 99.363081601558633 16.815925700665957 0 0 0 0 -82.767341323531582 148.20639833637324 0 148.20639833637324 -1.8367708199530171 0 0 0 0 -88.756710811621815 115.09739792261985 0 115.09739792261985 -60.796992087580293 0 0 0 0 59.528524082614958 74.557591101223082 0 74.557591101223082 11.168038551972819 0 0 0 0 36.442370784385275 83.693497924579788 0 83.693497924579788 26.594994551038326 0 0 0 0 33.335355865614474 51.464546596202126 0 51.464546596202126 4.3779653334677278 0 0 0 0 -4.1930706576095353 49.998988478221783 0 49.998988478221783 42.33190901704458 0 0 0 0 -22.524965993739897 41.755582063851762 0 41.755582063851762 59.74597534359782 0 0 0 0 -75.336987840513757 124.5400925700942 0 124.5400925700942 130.41810561379179 0 0 0 0 3.7278440370035142 6.3594796810201561 0 6.3594796810201561 6.3389365938699571 0 0 0 0 -99.333836504129067 186.44128219075287 0 186.44128219075287 -19.606521049230651 0 0 0 0 -250.9771086154451 257.85863253318485 0 257.85863253318485 259.8851383253218 0 0 0 0 -256.41034055435011 380.32759477070795 0 380.32759477070795 3.7243705394189419 0 0 0 0 -317.29183261385151 490.76269147196672 0 490.76269147196672 9.38883686972531 0 0 0 0 -363.37863253836622 435.16933983785566 0 435.16933983785566 -17.595900563265786 0 0 0 0 -1092.6160265316212 -336.48258394201548 0 -336.48258394201548 930.64018475098089 0 0 0 0 -881.74268531176494 297.11045310628037 0 297.11045310628037 260.4129954311054 0 0 0 0 -139.17689247958151 706.93869643463836 0 706.93869643463836 104.35251395233354 0 0 0 0 -424.29623934620213 747.12254886213964 0 747.12254886213964 597.40109427972777 0 0 0 0 -382.43323917344969 376.69149517780602 0 376.69149517780602 -183.96733705537235 0 0 0 0 -211.66085265928268 509.68429323414375 0 509.68429323414375 -80.817975765660776 0 0 0 0 -410.490550774437 447.93271962934705 0 447.93271962934705 -0.33737110745141763 0 0 0 0 -309.71499047781253 541.87282296527974 0 541.87282296527974 -89.784289283589715 0 0 0 0 -240.67296247320701 445.9725601625405 0 445.9725601625405 -194.5446696185636 0 0 0 0 -460.07979662296384 535.9089717625809 0 535.9089717625809 -99.070273101342536 0 0 0 0 -477.1331950025633 255.89520292530665 0 255.89520292530665 91.151307646195875 0 0 0 0 -584.3732452607419 425.07041310934403 0 425.07041310934403 25.945955196306841 0 0 0 0 -1014.3978092560719 392.48172300067108 0 392.48172300067108 67.926770499856502 0 0 0 0 -315.89134441181614 33.398114726517178 0 33.398114726517178 -92.156482014092944 0 0 0 0 89.435194326499186 23.842572335893237 0 23.842572335893237 -93.083844161702018 0 0 0 0 -421.1175832236213 283.50448748505715 0 283.50448748505715 36.669550776395681 0 0 0 0 -114.34745336061314 140.03451087188091 0 140.03451087188091 28.200638446233597 0 0 0 0 -152.01823223720203 208.00518373548351 0 208.00518373548351 -39.912493268368962 0 0 0 0 -292.36495428825947 338.17517145918202 0 338.17517145918202 -192.50106650489647 0 0 0 0 -183.89283250604785 168.45200657419468 0 168.45200657419468 -3.6338790186438246 0 0 0 0 -384.68094365520301 364.75918329887554 0 364.75918329887554 43.930726944935031 0 0 0 0 -19.465636942151832 61.88662288292403 0 61.88662288292403 -6.3515611929369697 0 0 0 0 5.736487988695373 46.717451562656237 0 46.717451562656237 -13.706939315416511 0 0 0 0 28.529145503329346 124.63081639563279 0 124.63081639563279 -195.51780817821236 0 0 0 0 -22.644287344868644 62.637736173142684 0 62.637736173142684 -59.924355582234966 0 0 0 0 -34.848006241751136 4.6701528733028681 0 4.6701528733028681 137.10615121467958 0 0 0 0 0.11679677226848639 3.302527713711001 0 3.302527713711001 3.392628560246111 0 0 0 0 -82.570832915153005 64.725035039634918 0 64.725035039634918 126.42794146154483 0 0 0 0 19.912034475122965 35.134110494606063 0 35.134110494606063 33.328039839296807 0 0 0 0 6.384717443765112 62.367933714201172 0 62.367933714201172 31.998769367433852 0 0 0 0 -32.169612197103561 93.034659493017898 0 93.034659493017898 3.0598389953156584 0 0 0 0 -14.557202788630946 2.3257222654942353 0 2.3257222654942353 8.8524843351322584 0 0 0 0 -12.301132185593076 48.192072442650783 0 48.192072442650783 13.61003535578643 0 0 0 0 8.8348165721654368 67.273225631771311 0 67.273225631771311 38.861050711879216 0 0 0 0 6.3649895300823118 61.387505172384181 0 61.387505172384181 54.004086580818694 0 0 0 0 -38.593224906455362 30.595972467125648 0 30.595972467125648 204.26133609343742 0 0 0 0 -1.6718754285033839 2.9875666955186624 0 2.9875666955186624 0.84406815735177254 0 0 0 0 -98.797523673477372 129.989327657182 0 129.989327657182 -634.45863083657059 0 0 0 0 13.185943983411562 32.850433214674013 0 32.850433214674013 44.389254753963087 0 0 0 0 -253.61206413917535 260.74887475316973 0 260.74887475316973 -383.38230784049119 0 0 0 0 -13.643332765412197 28.902025869031149 0 28.902025869031149 53.096221308735949 0 0 0 0 -2.528963182574067 6.5143992969363822 0 6.5143992969363822 4.8938247268599788 0 0 0 0 13.18354565253685 34.446003887944244 0 34.446003887944244 20.680297932425674 0 0 0 0 15.344552587213336 18.313965452379087 0 18.313965452379087 20.752922205808815 0 0 0 0 216.45257716012566 427.75939057661344 0 427.75939057661344 -1411.9219234936845 0 0 0 0 -381.02257046071463 607.87461150511808 0 607.87461150511808 1767.000291674754 0 0 0 0 -9.1988186793093618 6.8757054853994219 0 6.8757054853994219 -0.88492031570606855 0 0 0 0 92.874441462334289 -8.4925412442107699 0 -8.4925412442107699 -1003.6724710660374 0 0 0 0 -111.80189539646017 135.10191652699132 0 135.10191652699132 -126.64072445020952 0 0 0 0 -127.85290392502611 130.3517670356573 0 130.3517670356573 -82.816453255285069 0 0 0 0 -30.193861709540215 93.367311425984553 0 93.367311425984553 -89.473832207594796 0 0 0 0 0.043359154580684844 20.063616265859764 0 20.063616265859764 0.7943349516666558 0 0 0 0 13.058489505318704 7.0466567872010488 0 7.0466567872010488 3.69073278820815 0 0 0 0 -7.8951744865917135 -445.1072503776395 0 -445.1072503776395 304.83621307907015 0 0 0 0 -70.658863320026285 38.605066690116473 0 38.605066690116473 805.2880922378954 0 0 0 0 107.61890910894726 10.610128392370825 0 10.610128392370825 678.32936880180932 0 0 0 0 -538.97579742275411 1364.7421346533611 0 1364.7421346533611 -302.05075144889747 0 0 0 0 74.495662476423604 59.222353446557463 0 59.222353446557463 -262.63777007406316 0 0 0 0 5.4875788396572958 3.1769427308350657 0 3.1769427308350657 -3.5144679114849566 0 0 0 0 175.55174107209314 794.26703956544407 0 794.26703956544407 795.45898040115208 0 0 0 0 62.103517041890882 487.15233666790846 0 487.15233666790846 97.383430875846443 0 0 0 0 21.521712764253607 295.10619146591216 0 295.10619146591216 527.32798475586969 0 0 0 0 -14.988294137045159 244.95912312794371 0 244.95912312794371 633.89493858438163 0 0 0 0 101.59064869342728 131.56381607272624 0 131.56381607272624 598.80127425777573 0 0 0 0 -175.23888893518415 217.72803716161343 0 217.72803716161343 640.16412090692938 0 0 0 0 -72.51038570801029 307.9707770923269 0 307.9707770923269 414.26905740471193 0 0 0 0 -152.99365318958007 292.02335613799369 0 292.02335613799369 661.43540289829343 0 0 0 0 -103.8718309939868 386.0379144415765 0 386.0379144415765 608.13190650794422 0 0 0 0 -150.5316827391016 487.88419667541416 0 487.88419667541416 960.02400248257618 0 0 0 0 -90.806018676001258 283.3522112631008 0 283.3522112631008 472.4146431004192 0 0 0 0 -181.84474521541779 302.19395492258263 0 302.19395492258263 782.95033845031139 0 0 0 0 -96.943538387551598 133.3963959634184 0 133.3963959634184 280.47234998428576 0 0 0 0 -96.450857377312786 292.8473959929488 0 292.8473959929488 313.25480294251247 0 0 0 0 -215.05989987835346 216.20700460236367 0 216.20700460236367 518.77676650819831 0 0 0 0 -150.23915384078282 255.80745495332485 0 255.80745495332485 -7.0834674143279699 0 0 0 0 -106.03377761288721 306.05709007383575 0 306.05709007383575 149.06705621211495 0 0 0 0 -62.134189747654091 161.2854736052808 0 161.2854736052808 -80.860946314684043 0 0 0 0 -223.16933275850533 16.54312079733154 0 16.54312079733154 1449.7906908837449 0 0 0 0 184.57937633425354 132.58191853564176 0 132.58191853564176 657.56489851300466 0 0 0 0 -217.23585001667379 260.12316035824915 0 260.12316035824915 861.29291811637984 0 0 0 0 -65.102533690856944 481.63375704742066 0 481.63375704742066 867.55580181825644 0 0 0 0 -121.73903271881136 259.87133039056607 0 259.87133039056607 808.45074132668378 0 0 0 0 -92.671864109863236 187.4559618994881 0 187.4559618994881 439.95377989764165 0 0 0 0 -165.90586123695357 88.020260416829842 0 88.020260416829842 -45.445900732243899 0 0 0 0 -325.42586796233081 394.13302650729656 0 394.13302650729656 204.35046691469688 0 0 0 0 22.304772780658823 172.6704455210056 0 172.6704455210056 336.23488051328422 0 0 0 0 -231.43892235388194 116.91386809767937 0 116.91386809767937 242.71630108619047 0 0 0 0 -49.861284135884034 514.58169023234086 0 514.58169023234086 239.98783017400274 0 0 0 0 -141.97831098745064 340.81394217607613 0 340.81394217607613 123.25064854875927 0 0 0 0 -83.760707678962717 350.97502386765791 0 350.97502386765791 -335.43384338609394 0 0 0 0 -367.29995061167574 526.23547357697498 0 526.23547357697498 -439.01185110472397 0 0 0 0 -470.24531942950807 767.41841218331695 0 767.41841218331695 -969.89310058633782 0 0 0 0 -74.494612794485874 209.94583811133271 0 209.94583811133271 -275.73769599279876 0 0 0 0 -561.62581841366386 70.753135024022072 0 70.753135024022072 -301.20818628522284 0 0 0 0 -24.375972513706074 254.8353018302123 0 254.8353018302123 -984.59598248405382 0 0 0 0 -518.37630821286075 670.87487447770036 0 670.87487447770036 -449.33587389713466 0 0 0 0 -588.24602110512205 180.71465076233835 0 180.71465076233835 3.7518816378214979 0 0 0 0 -175.12136991179432 257.6524117395893 0 257.6524117395893 -307.88130839377118 0 0 0 0 38.198470941876622 236.44379975717243 0 236.44379975717243 -461.00925188601468 0 0 0 0 41.032940054930805 178.42378472187556 0 178.42378472187556 -1063.6641713720328 0 0 0 0 28.40370503248414 230.17124805592539 0 230.17124805592539 -1253.4710657062178 0 0 0 0 -199.99721966162906 -246.43695929887326 0 -246.43695929887326 -327.91687759986962 0 0 0 0 -0.5447300700206128 6.5313598867815799 0 6.5313598867815799 -0.52708807037414118 0 0 0 0 1.3886788550972078 4.6227509993946967 0 4.6227509993946967 -0.61604542311092558 0 0 0 0 -213.04370093417128 238.27033077973465 0 238.27033077973465 -78.036465309443884 0 0 0 0 -31.015697248390097 253.14603610494623 0 253.14603610494623 -330.06012440991981 0 0 0 0 -55.142458974471083 297.04621361032514 0 297.04621361032514 -319.48527104649565 0 0 0 0 -90.220907992417779 56.342952599537057 0 56.342952599537057 -142.34860698487137 0 0 0 0 -22.843952609135158 336.16916313942602 0 336.16916313942602 -508.80766638093746 0 0 0 0 -24.796253981080326 264.1403821881064 0 264.1403821881064 -378.89742770697194 0 0 0 0 -67.989634334318907 318.33911507013863 0 318.33911507013863 -337.09287474688063 0 0 0 0 -187.37505525983579 428.09194028512229 0 428.09194028512229 -385.74089505230222 0 0 0 0 -439.37528602818566 261.56809081421216 0 261.56809081421216 -199.97214557913276 0 0 0 0 -489.76242546747289 360.45081566677118 0 360.45081566677118 -356.10537437572566 0 0 0 0 -469.23985482518265 56.264798715159259 0 56.264798715159259 0.6858413652080344 0 0 0 0 -540.95116160918587 255.2963924550786 0 255.2963924550786 9.1761890496836713 0 0 0 0 -870.4487608971167 133.47920544006911 0 133.47920544006911 13.086766277963761 0 0 0 0 -178.50850192318467 218.91881384289627 0 218.91881384289627 -195.20298508222913 0 0 0 0 -272.84380415438864 203.94421812230303 0 203.94421812230303 236.00937021413301 0 0 0 0 -202.67100750523605 91.488168146619955 0 91.488168146619955 88.344895849253589 0 0 0 0 -434.91810665770754 227.25684148662094 0 227.25684148662094 287.15799331897233 0 0 0 0 -452.76143203879053 47.274296415476385 0 47.274296415476385 209.33510200023375 0 0 0 0 -562.73209997052072 203.90336895367591 0 203.90336895367591 381.8173627787728 0 0 0 0 -132.41338425227696 436.93051722598693 0 436.93051722598693 565.95724808888554 0 0 0 0 -289.78749441126638 67.98146448247644 0 67.98146448247644 448.39022658353315 0 0 0 0 47.55676825532646 258.75370256774295 0 258.75370256774295 241.43154785834906 0 0 0 0 -523.35387530818844 -17.845534449849396 0 -17.845534449849396 64.161672285428722 0 0 0 0 -221.9400436793585 54.475736869780121 0 54.475736869780121 79.566803935109419 0 0 0 0 -570.85933293959533 163.83158525239287 0 163.83158525239287 184.92218859453351 0 0 0 0 -529.20792091032308 122.98812491232093 0 122.98812491232093 222.99357021720789 0 0 0 0 -631.76842512171424 -13.907135869024387 0 -13.907135869024387 125.37545662959747 0 0 0 0 -622.880502587519 132.62398950061288 0 132.62398950061288 176.52350435448352 0 0 0 0 -13.110528455343239 16.188549214344526 0 16.188549214344526 -6.334814531956809 0 0 0 0 -616.05642765090215 -24.264483638113234 0 -24.264483638113234 113.25400559872287 0 0 0 0 -568.53196470854436 -3.3576057797008616 0 -3.3576057797008616 -5.8011991222974757 0 0 0 0 842.91944949132267 271.88902595408399 0 271.88902595408399 -17.748558535506163 0 0 0 0 -972.55566676263879 -177.75218873826816 0 -177.75218873826816 -2.9501516183488405 0 0 0 0 -7.803428492015394 13.292175030820211 0 13.292175030820211 -5.7176380329638619 0 0 0 0 -793.10549466921475 20.765666564011099 0 20.765666564011099 -40.760916860399448 0 0 0 0 717.39231175294208 472.09318722882745 0 472.09318722882745 -64.482598584319931 0 0 0 0 -178.16192727532689 6.009575632432643 0 6.009575632432643 38.584302779181598 0 0 0 0 -215.91369404921534 31.697021016906547 0 31.697021016906547 67.323580408829002 0 0 0 0 -0.34842717716907368 5.1636839110111765 0 5.1636839110111765 8.5354437819288407 0 0 0 0 85.062295823547174 147.83013509094326 0 147.83013509094326 322.52801085004467 0 0 0 0 -233.66642727832186 47.730595225059005 0 47.730595225059005 41.64005101052021 0 0 0 0 -97.739113951971376 110.61099535187896 0 110.61099535187896 59.097715324988258 0 0 0 0 -28.284857803417253 178.53249083485662 0 178.53249083485662 190.79328807877391 0 0 0 0 -61.009839138667303 33.34055551601341 0 33.34055551601341 28.44301771860728 0 0 0 0 -6.420793309709552 78.096799371544876 0 78.096799371544876 -0.40626370388417854 0 0 0 0 135.31490823062632 92.094684207811952 0 92.094684207811952 16.803776957644004 0 0 0 0 23.872802754398975 14.200067583664421 0 14.200067583664421 14.02861648973721 0 0 0 0 54.460926312036463 136.89184481384018 0 136.89184481384018 95.670841673991163 0 0 0 0 33.261613464524871 68.54907954966599 0 68.54907954966599 82.940705339208137 0 0 0 0 60.049990792307653 17.669889796161442 0 17.669889796161442 -31.508556077798261 0 0 0 0 -126.76235083668871 70.067809166373081 0 70.067809166373081 63.645978789665605 0 0 0 0 -9.4022592751280172 169.84829314901617 0 169.84829314901617 -468.28790234311691 0 0 0 0 -154.23926780046895 215.14228147708582 0 215.14228147708582 -36.500050240480277 0 0 0 0 -137.43380397059536 707.10804638954392 0 707.10804638954392 -479.40325293797378 0 0 0 0 1.036088909110866 -1.4118717819421391 0 -1.4118717819421391 1.0551544658715457 0 0 0 0 359.45176371847629 268.4226577817235 0 268.4226577817235 -15.731603874770371 0 0 0 0 258.36704855803691 123.35219257866993 0 123.35219257866993 -22.490887629648569 0 0 0 0 43.21829066783539 284.07803844380032 0 284.07803844380032 97.377091562397254 0 0 0 0 125.00681015518785 51.025198878300216 0 51.025198878300216 -12.715002449230269 0 0 0 0 -124.83739106743451 149.91113192396824 0 149.91113192396824 -4.1468652999865299 0 0 0 0 51.08475973361783 255.64707614846384 0 255.64707614846384 -13.090517034364893 0 0 0 0 26.062600362893136 334.23895015017297 0 334.23895015017297 -238.78728266196413 0 0 0 0 33.125068560882937 115.71180791868937 0 115.71180791868937 -70.421043093609114 0 0 0 0 -67.327019870106596 265.25966518544556 0 265.25966518544556 -11.512655212532991 0 0 0 0 39.303456929621461 287.82249282418525 0 287.82249282418525 139.35031693505516 0 0 0 0 -3.2391156459158879 1.0680418684025526 0 1.0680418684025526 0.50169957090553652 0 0 0 0 8.5437325195671292 54.685313426893117 0 54.685313426893117 431.61431532690449 0 0 0 0 -4.2444281068019336 352.97222675304147 0 352.97222675304147 48.659118300431146 0 0 0 0 34.053029824426631 262.11227261002205 0 262.11227261002205 85.273459868561986 0 0 0 0 204.83848969756218 159.94109031778862 0 159.94109031778862 50.914171299005829 0 0 0 0 121.24055618695274 192.51149271696977 0 192.51149271696977 143.86501250262882 0 0 0 0 196.38366000095266 215.30788153637695 0 215.30788153637695 5.2329738551088667 0 0 0 0 61.414122103000409 297.50711813395901 0 297.50711813395901 54.452529694564873 0 0 0 0 105.5594664804521 241.79103124311223 0 241.79103124311223 71.259132401198258 0 0 0 0 57.325883076438913 271.32119527865325 0 271.32119527865325 62.241728714539931 0 0 0 0 126.99938772410678 332.14476007293251 0 332.14476007293251 120.05013119221621 0 0 0 0 26.552450879404205 258.90442706541762 0 258.90442706541762 80.725944104058726 0 0 0 0 217.58967890619533 274.88427343262629 0 274.88427343262629 37.310719697222339 0 0 0 0 166.72635827104386 264.34579800478423 0 264.34579800478423 40.919088297727285 0 0 0 0 215.02773079207691 266.09624379673369 0 266.09624379673369 12.536834772330621 0 0 0 0 267.39567759535566 249.90224331392346 0 249.90224331392346 13.885380995914602 0 0 0 0 -92.284051513590384 303.66784904824272 0 303.66784904824272 70.939164739123953 0 0 0 0 -118.19193039403035 279.21835926681342 0 279.21835926681342 47.900021343990375 0 0 0 0 -26.357305692217778 297.62790648093505 0 297.62790648093505 13.101502201085168 0 0 0 0 -26.488419166198582 301.62408886043886 0 301.62408886043886 86.978995014069369 0 0 0 0 -46.097772318578791 320.37036875330341 0 320.37036875330341 105.15914708188211 0 0 0 0 -105.6939244283858 247.48751714641912 0 247.48751714641912 65.896037626798602 0 0 0 0 -389.84032171766739 156.31006173799688 0 156.31006173799688 143.3923288817241 0 0 0 0 -137.89280002366104 210.03791572885075 0 210.03791572885075 19.610568175165099 0 0 0 0 -280.72950792672054 165.7069661020023 0 165.7069661020023 95.841886627645181 0 0 0 0 -253.60621497563625 86.277005815522671 0 86.277005815522671 110.54336475033233 0 0 0 0 32.747090983170345 67.952218012927204 0 67.952218012927204 70.96593824077101 0 0 0 0 -350.68375124953491 74.232373500518406 0 74.232373500518406 -24.411814479934037 0 0 0 0 859.02652491017398 228.66312653117075 0 228.66312653117075 -394.38196998383864 0 0 0 0 -7.6349869172408944 343.87803593405988 0 343.87803593405988 937.80138712970802 0 0 0 0 -21.997698732426215 456.80299938193639 0 456.80299938193639 420.86845288976474 0 0 0 0 0.14286385212604991 3.4087753454474807 0 3.4087753454474807 3.4036400865269911 0 0 0 0 -216.13114431485974 -1.5736807096345728 0 -1.5736807096345728 -35.071371777270542 0 0 0 0 39.016470597684773 68.558018394139708 0 68.558018394139708 77.228455161871437 0 0 0 0 -170.15366685929257 225.33086551692304 0 225.33086551692304 44.885912821217062 0 0 0 0 -23.393369959521806 54.880162327592188 0 54.880162327592188 -9.6267729593100739 0 0 0 0 13.337977108372826 10.908652574186121 0 10.908652574186121 3.1371619478626798 0 0 0 0 -55.553979764914402 130.45723441673726 0 130.45723441673726 21.615888108823128 0 0 0 0 -23.11640901171387 1.8833363605634688 0 1.8833363605634688 4.3952694885558135 0 0 0 0 -75.564582043378323 86.642585076424439 0 86.642585076424439 411.69991513982131 0 0 0 0 -75.656057955722645 126.83537637726567 0 126.83537637726567 51.366626976316184 0 0 0 0 -56.223153303202707 158.54981680517994 0 158.54981680517994 18.917170067344159 0 0 0 0 -73.45617352827685 166.66393467431453 0 166.66393467431453 48.057688570052051 0 0 0 0 -84.986630022409372 149.78395850492052 0 149.78395850492052 109.71806372067658 0 0 0 0 -4.7537171656385908 74.023260026140406 0 74.023260026140406 -51.563797027773035 0 0 0 0 -17.123147889397501 0.66522250248096526 0 0.66522250248096526 1.8575257016924329 0 0 0 0 -79.546574178741139 10.188929704892871 0 10.188929704892871 75.987095090293678 0 0 0 0 -67.043882336434763 210.57828639520903 0 210.57828639520903 -285.83309806812122 0 0 0 0 -51.053215857718897 -14.277596175141298 0 -14.277596175141298 170.32842819153348 0 0 0 0 -10.116128373636514 1.6662502224701683 0 1.6662502224701683 1.4540651984123034 0 0 0 0 -98.235738948616927 117.20986935971337 0 117.20986935971337 -19.942218469755971 0 0 0 0 -183.48362709680805 116.22151997711262 0 116.22151997711262 -84.331790698102395 0 0 0 0 -65.313399494218174 186.4016341601091 0 186.4016341601091 -53.712961852813351 0 0 0 0 29.495274076001806 9.1910159170870429 0 9.1910159170870429 85.468474846222307 0 0 0 0 170.37444823650003 126.02857454427885 0 126.02857454427885 9.394240234294557 0 0 0 0 186.45475272469776 116.74204331180408 0 116.74204331180408 -26.623145070061582 0 0 0 0 285.37226949256728 184.63270257052864 0 184.63270257052864 -43.785702780227439 0 0 0 0 262.31515885771023 179.14770424049584 0 179.14770424049584 -33.7278878705838 0 0 0 0 77.729513307378511 -73.106588767321227 0 -73.106588767321227 -186.29632736204076 0 0 0 0 156.29370496576303 77.099643707140785 0 77.099643707140785 -114.77911455293361 0 0 0 0 267.93052680018991 115.52287115747254 0 115.52287115747254 -121.55866639829401 0 0 0 0 33.444746748675243 46.970263196590167 0 46.970263196590167 -30.713417154487615 0 0 0 0 36.670748585956972 61.444944510432606 0 61.444944510432606 -69.381055103214749 0 0 0 0 -357.14908340858892 306.75560610941102 0 306.75560610941102 -243.29577081993557 0 0 0 0 -84.442321346788958 15.785375305358684 0 15.785375305358684 55.07070613322503 0 0 0 0 -215.67919941509899 35.402639209140034 0 35.402639209140034 -22.207983063866777 0 0 0 0 -155.53786216031585 204.35936138520628 0 204.35936138520628 -104.57672222902988 0 0 0 0 0.22350578430399537 2.6330672560525414 0 2.6330672560525414 -1.0801017432075142 0 0 0 0 22.285203360515879 60.306932425235573 0 60.306932425235573 -47.059905926194915 0 0 0 0 3.3070128327032648 7.6455640381053342 0 7.6455640381053342 5.4992745093893092 0 0 0 0 -48.526123222563911 58.60562875457299 0 58.60562875457299 -113.17011875615208 0 0 0 0 16.307761704425502 43.308322759456814 0 43.308322759456814 31.771359343616496 0 0 0 0 8.1124648696713848 4.5698660137786646 0 4.5698660137786646 2.8103938486165134 0 0 0 0 -112.49004717726348 57.669965205208428 0 57.669965205208428 36.459680485803347 0 0 0 0 -89.43962255178667 121.48771116699709 0 121.48771116699709 -11.36419187703541 0 0 0 0 14.029618553529602 9.3313236691584081 0 9.3313236691584081 -0.54481632687542003 0 0 0 0 -43.923628974589519 90.963527278297988 0 90.963527278297988 -32.684032864497567 0 0 0 0 -8.8522711404337144 3.9962875074490114 0 3.9962875074490114 7.8351332710743762 0 0 0 0 -423.80725176158739 346.33751478407157 0 346.33751478407157 -285.76212847561192 0 0 0 0 -456.67583600821672 465.37454298422927 0 465.37454298422927 -316.7518935574567 0 0 0 0 -469.31578463075857 322.71579748057138 0 322.71579748057138 -34.859985598199273 0 0 0 0 -479.9401185355091 413.24704819437102 0 413.24704819437102 -279.91272193121586 0 0 0 0 -486.18294067672105 418.91164228056641 0 418.91164228056641 -277.66238691009494 0 0 0 0 -572.25010013875726 449.24715458043283 0 449.24715458043283 -5.2571663655817247 0 0 0 0 -571.67066088375213 655.17994511091729 0 655.17994511091729 -572.5999692266123 0 0 0 0 -80.490808879258111 -11.089701820737901 0 -11.089701820737901 -85.532333600411221 0 0 0 0 -4.4297254307469132 2.5977713787045928 0 2.5977713787045928 5.1270204479424315 0 0 0 0 -465.65926243480135 507.5048528194452 0 507.5048528194452 -558.92532400345954 0 0 0 0 -634.48748437458562 456.61210897879118 0 456.61210897879118 304.29436453097878 0 0 0 0 -628.62425694475678 478.91956150211536 0 478.91956150211536 184.05991579411784 0 0 0 0 -575.8255757054576 404.79945389893874 0 404.79945389893874 117.95674146588863 0 0 0 0 -572.38835856319201 394.28611060992444 0 394.28611060992444 19.120773427472614 0 0 0 0 -576.81678322324296 457.87984419009672 0 457.87984419009672 158.61626341188094 0 0 0 0 -393.61137311634957 234.08042578853019 0 234.08042578853019 49.673410965682706 0 0 0 0 -607.14496381783829 383.96301139968273 0 383.96301139968273 168.07339682645033 0 0 0 0 -474.40347032975842 318.36075282540514 0 318.36075282540514 58.072621976658411 0 0 0 0 -639.71946782097075 507.53009741969527 0 507.53009741969527 294.78863030647972 0 0 0 0 -576.35328160558856 368.45638359630811 0 368.45638359630811 547.02269408931534 0 0 0 0 -595.71057098550955 326.53699203154702 0 326.53699203154702 398.99745406685179 0 0 0 0 -623.24915760172007 503.84775394919325 0 503.84775394919325 198.08032494194049 0 0 0 0 -480.92104853542696 434.25004964812342 0 434.25004964812342 478.6250615947647 0 0 0 0 -63.955927423616231 218.25023579970639 0 218.25023579970639 483.14508881203983 0 0 0 0 -125.84027455454634 458.4417144601066 0 458.4417144601066 585.39542761621487 0 0 0 0 -299.86375656926248 233.52791009329485 0 233.52791009329485 404.51118087546911 0 0 0 0 -463.71215449373994 252.70051601850719 0 252.70051601850719 459.94785158765444 0 0 0 0 -299.3572547644726 251.07739653332828 0 251.07739653332828 242.18475757257511 0 0 0 0 -262.80196060068556 25.788785813068898 0 25.788785813068898 105.34852353516908 0 0 0 0 -37.229237595951417 -55.279575566836684 0 -55.279575566836684 5.7397750819759494 0 0 0 0 -256.04753145136328 81.269708005370489 0 81.269708005370489 439.63407144532175 0 0 0 0 -317.06368273489352 235.71639070010542 0 235.71639070010542 601.07116234587738 0 0 0 0 -1.2868109555910223 0.30463614460636279 0 0.30463614460636279 1.9550690984061632 0 0 0 0 89.882274241645064 245.11236114935127 0 245.11236114935127 686.8495062817492 0 0 0 0 2.5939897308964817 2.3477276359002417 0 2.3477276359002417 2.0874293880431587 0 0 0 0 408.77699218134512 197.85576258560468 0 197.85576258560468 -128.26510140851678 0 0 0 0 231.02797666861443 35.259158634180494 0 35.259158634180494 -212.92963935736043 0 0 0 0 425.56933346889855 179.14488490521035 0 179.14488490521035 -161.99259278652607 0 0 0 0 390.56166911753826 230.09283969393982 0 230.09283969393982 -84.360990781582586 0 0 0 0 362.85007218569808 251.01232200753748 0 251.01232200753748 -9.6874718158760516 0 0 0 0 579.64271428916254 436.11734802102001 0 436.11734802102001 30.57543654372148 0 0 0 0 265.83611912395281 538.51919712776908 0 538.51919712776908 663.83641267313942 0 0 0 0 410.04142830328783 477.17172510496312 0 477.17172510496312 571.45236004064736 0 0 0 0 487.2197679119472 52.239492836648651 0 52.239492836648651 412.00443342404469 0 0 0 0 252.66539615565853 292.08932961386836 0 292.08932961386836 408.57802953200735 0 0 0 0 67.393610493440065 369.26123570004711 0 369.26123570004711 433.37254038533956 0 0 0 0 239.77047152524756 243.67028673780442 0 243.67028673780442 517.88867530536299 0 0 0 0 1.352002883356306 1.4647611098566102 0 1.4647611098566102 2.7245447606719431 0 0 0 0 -230.39513938194432 103.45502791068611 0 103.45502791068611 14.30192617450848 0 0 0 0 19.555333313626761 -23.776425679406202 0 -23.776425679406202 489.51562772127807 0 0 0 0 -91.725485242408467 42.63072716606257 0 42.63072716606257 -111.32873681034835 0 0 0 0 -640.90780396116315 196.95394461496107 0 196.95394461496107 -62.642515785774776 0 0 0 0 -589.29704482013767 166.11974308560093 0 166.11974308560093 12.000988278543446 0 0 0 0 -492.23510076870298 325.49590980941593 0 325.49590980941593 -128.80829811808871 0 0 0 0 -805.90998287300317 433.29074365049655 0 433.29074365049655 58.760164807230467 0 0 0 0 -1011.0749735043646 337.21558571903915 0 337.21558571903915 -36.242263971251305 0 0 0 0 -956.55478320104885 829.79097955251382 0 829.79097955251382 -425.50815871341911 0 0 0 0 -642.72323706839234 496.78313714713295 0 496.78313714713295 -168.73413317193445 0 0 0 0 -550.01535602093645 449.65772545621985 0 449.65772545621985 611.02287819284766 0 0 0 0 -569.84474763730395 641.8979056439922 0 641.8979056439922 206.2338798695564 0 0 0 0 -286.76650094721754 537.47012623271905 0 537.47012623271905 77.848658132592391 0 0 0 0 -667.87036995328162 684.31324307160185 0 684.31324307160185 32.358710846236136 0 0 0 0 -639.57097185809107 501.37431574636321 0 501.37431574636321 198.2758418532303 0 0 0 0 -604.34981606959627 543.18119406300048 0 543.18119406300048 42.519614507891674 0 0 0 0 -582.14753602963174 632.87086583871951 0 632.87086583871951 -293.64951797023696 0 0 0 0 -745.05015021199688 773.15801852151571 0 773.15801852151571 -139.7688871063001 0 0 0 0 -580.00707765052357 522.67263531454591 0 522.67263531454591 -555.25123961301324 0 0 0 0 -564.27304755565274 557.32652588460951 0 557.32652588460951 -43.09682347758644 0 0 0 0 -515.36015748519276 529.25813051462319 0 529.25813051462319 -243.20671024077092 0 0 0 0 -652.26147601283446 538.80039452982783 0 538.80039452982783 187.88459212622547 0 0 0 0 -220.8744807848052 73.151259853082593 0 73.151259853082593 183.96026015833195 0 0 0 0 -134.60103742057981 159.83740485474482 0 159.83740485474482 104.20824476171902 0 0 0 0 -391.38308830591996 252.75651632658264 0 252.75651632658264 73.462795057082985 0 0 0 0 -203.71045826592308 83.59455517176184 0 83.59455517176184 109.81719008639811 0 0 0 0 -123.74215609493331 163.53478011481275 0 163.53478011481275 39.457853599742521 0 0 0 0 54.715733757288262 72.732321464734724 0 72.732321464734724 33.833599238910935 0 0 0 0 -14.755766399171989 219.66305649282958 0 219.66305649282958 13.02815813424786 0 0 0 0 -170.27856052438437 186.8546594179079 0 186.8546594179079 -66.954362231132109 0 0 0 0 190.5482524408435 24.264449943450018 0 24.264449943450018 -51.222125700500328 0 0 0 0 32.866511267702244 16.36166685628497 0 16.36166685628497 7.2585750399629347 0 0 0 0 -119.82755938482342 181.83004256726235 0 181.83004256726235 -57.865180559869259 0 0 0 0 14.564542491700141 32.469969572655842 0 32.469969572655842 -1.201619233190474 0 0 0 0 -97.555850672325647 81.635682375641011 0 81.635682375641011 73.81197372247658 0 0 0 0 207.86523986708198 -98.75903480161287 0 -98.75903480161287 96.700052265654449 0 0 0 0 -213.06332667100287 211.68579585044654 0 211.68579585044654 -32.870446481107138 0 0 0 0 -252.53140853958757 322.258136726045 0 322.258136726045 101.05366393308577 0 0 0 0 -319.7941854747769 75.811279298838599 0 75.811279298838599 170.10163411953909 0 0 0 0 -271.18863599799806 367.56656031869352 0 367.56656031869352 -182.75896966288019 0 0 0 0 -17.567060464643475 21.672618692581139 0 21.672618692581139 21.927049903772755 0 0 0 0 -505.80101037223358 199.17378224094819 0 199.17378224094819 115.34084176477882 0 0 0 0 37.587602676983806 261.74363804696623 0 261.74363804696623 69.11329976104571 0 0 0 0 -133.31755555385462 216.95006417402965 0 216.95006417402965 213.45303875071295 0 0 0 0 -41.569674367576226 220.66503575315642 0 220.66503575315642 173.82692020850118 0 0 0 0 -144.76606165332487 160.10882910710916 0 160.10882910710916 -54.154319748477064 0 0 0 0 362.82727591020557 389.49531121907421 0 389.49531121907421 112.14563725694097 0 0 0 0 154.37251112345257 289.40875239174056 0 289.40875239174056 263.61425253458037 0 0 0 0 35.949203941775522 255.58576574657957 0 255.58576574657957 171.92916016058734 0 0 0 0 154.74756099730439 320.05767150767679 0 320.05767150767679 206.88211768214205 0 0 0 0 -40.602997687354218 202.37507167863259 0 202.37507167863259 395.27146321879627 0 0 0 0 243.80926111302688 9.2194201860729663 0 9.2194201860729663 608.0143996328527 0 0 0 0 17.958116269408492 -45.085799391577893 0 -45.085799391577893 205.53710194510768 0 0 0 0 57.793799232858873 140.96275524162411 0 140.96275524162411 540.72014877998117 0 0 0 0 303.84174171662016 151.88523028796044 0 151.88523028796044 372.02119209587181 0 0 0 0 37.914519588841358 59.478928391930822 0 59.478928391930822 273.03933659633185 0 0 0 0 61.688411121620447 59.519287992426143 0 59.519287992426143 362.51503222890096 0 0 0 0 -62.857949416858901 94.679345977558114 0 94.679345977558114 318.61547446742043 0 0 0 0 -132.38249189151247 0.51035964514994703 0 0.51035964514994703 194.03283691522927 0 0 0 0 -176.98359163481655 110.12532547001956 0 110.12532547001956 135.46402588222372 0 0 0 0 -48.379435999791895 -77.845117306545944 0 -77.845117306545944 238.1351536861348 0 0 0 0 -95.592228212757618 -3.5846893909983919 0 -3.5846893909983919 122.71996927105829 0 0 0 0 59.177328041769215 -75.300161771598141 0 -75.300161771598141 64.424534371535628 0 0 0 0 45.5493746924476 63.812099767841573 0 63.812099767841573 370.23455384375302 0 0 0 0 34.700073925580909 -134.89668986135064 0 -134.89668986135064 226.18119992176071 0 0 0 0 -1.9249741624349781 8.3812443290189975 0 8.3812443290189975 5.6124065365317009 0 0 0 0 -51.700370918017143 -28.9500514737706 0 -28.9500514737706 -30.978401120801209 0 0 0 0 -17.699863066307444 7.8392057870069038 0 7.8392057870069038 39.095533244410262 0 0 0 0 -29.676029655177274 11.535656641984904 0 11.535656641984904 -2.7510629405647835 0 0 0 0 -43.656851534979069 1.4075059805129513 0 1.4075059805129513 88.851281360896792 0 0 0 0 -3.3365097013738705 -36.472827724806848 0 -36.472827724806848 124.09340069802792 0 0 0 0 -83.259174594866636 91.687766704298383 0 91.687766704298383 74.869661762611941 0 0 0 0 -58.535867113994755 3.8957684009442346 0 3.8957684009442346 130.54206810312098 0 0 0 0 -80.698722149158129 13.298980342646246 0 13.298980342646246 127.65350792687605 0 0 0 0 -107.63230793699768 81.753933186393624 0 81.753933186393624 75.229311591736405 0 0 0 0 -128.66151118948619 93.337099565756034 0 93.337099565756034 88.447630514458069 0 0 0 0 -10.073370734840864 76.475616497933515 0 76.475616497933515 57.007859546087275 0 0 0 0 -20.500138459767797 20.798043496829713 0 20.798043496829713 0.79282155234736251 0 0 0 0 -46.586859704536067 26.766150315150259 0 26.766150315150259 1.2846516322860246 0 0 0 0 -106.52902202794212 97.657431674762847 0 97.657431674762847 86.640903391475149 0 0 0 0 -2.2560630572552327 71.174459491023299 0 71.174459491023299 86.400383229577528 0 0 0 0 -25.834768813121627 64.712134278157464 0 64.712134278157464 61.448798405246635 0 0 0 0 -6.938615951607062 42.663426710689237 0 42.663426710689237 37.911009723280586 0 0 0 0 1.7353072502592113 63.373374861443153 0 63.373374861443153 -20.485140912911447 0 0 0 0 -1.3533664120768663 99.625056057518123 0 99.625056057518123 -60.682078138539509 0 0 0 0 -22.341054593229273 69.00629296319994 0 69.00629296319994 -21.204770611413551 0 0 0 0 12.549177223184415 60.501868487942374 0 60.501868487942374 -41.566624024188059 0 0 0 0 -17.928093595048267 65.097660851104592 0 65.097660851104592 11.214254713286209 0 0 0 0 -43.6840013406254 29.616477928492714 0 29.616477928492714 46.67390037831774 0 0 0 0 -29.994613750073654 25.104304063605127 0 25.104304063605127 -16.177061964229956 0 0 0 0 -26.557412292873778 27.919239671493415 0 27.919239671493415 20.913537214872122 0 0 0 0 -15.828397671168204 18.740892723313664 0 18.740892723313664 -9.808140818568063 0 0 0 0 -14.467619390666897 10.884638384055222 0 10.884638384055222 5.9636541680842114 0 0 0 0 -10.493560350942033 7.5209149885696291 0 7.5209149885696291 2.8521283702109201 0 0 0 0 -19.111796073982987 15.866511279776205 0 15.866511279776205 -6.4243200210275972 0 0 0 0 -18.081200373753376 8.6464433952914916 0 8.6464433952914916 1.3107455297241373 0 0 0 0 -108.20543108174752 94.148195581405162 0 94.148195581405162 47.968624523048675 0 0 0 0 -161.26656236169947 1283.2015351456039 0 1283.2015351456039 -1529.2085055701991 0 0 0 0 -750.65562418275294 1074.8123687197458 0 1074.8123687197458 -1535.0666815509794 0 0 0 0 -1562.1541915699636 1499.9062825955261 0 1499.9062825955261 -1519.9750756227695 0 0 0 0 869.63889348820157 1077.7424406979844 0 1077.7424406979844 -1792.2081089763451 0 0 0 0 12.718327990943664 15.311847189559451 0 15.311847189559451 -9.2698502017299589 0 0 0 0 -8.3780316256015794 17.480269230098202 0 17.480269230098202 -14.011472539721581 0 0 0 0 0.26981477342039284 9.8425627991114553 0 9.8425627991114553 -3.8128960619285941 0 0 0 0 -4.7871480011918095 18.234287700378282 0 18.234287700378282 -4.4173838852529848 0 0 0 0 0.57838176307092226 0.75305254320528903 0 0.75305254320528903 0.40070001647471543 0 0 0 0 155.33784557857143 1107.6888033053947 0 1107.6888033053947 -1306.6971572003058 0 0 0 0 -1483.2715353715757 402.32871948620596 0 402.32871948620596 -1392.8319313801803 0 0 0 0 -746.58907762836316 -135.57768820951969 0 -135.57768820951969 -539.11722016930071 0 0 0 0 -808.87833709443657 1377.6238232938667 0 1377.6238232938667 -1096.1040971276498 0 0 0 0 -1923.7124637923625 2201.1772759355463 0 2201.1772759355463 -1528.2835837773418 0 0 0 0 -337.84605897922302 1207.9200995947922 0 1207.9200995947922 -2777.0903954595524 0 0 0 0 -2.7662375985846168 11.177347380830795 0 11.177347380830795 -17.729444477768403 0 0 0 0 2982.0257245378561 944.30402148957728 0 944.30402148957728 -1450.9009228411524 0 0 0 0 395.76059374147007 1908.4011852226213 0 1908.4011852226213 -1670.9150324867351 0 0 0 0 1242.7589792319122 -214.98500371781392 0 -214.98500371781392 45.046346458415428 0 0 0 0 -3418.9528066458925 972.11346544049093 0 972.11346544049093 -271.63658413427765 0 0 0 0 -1129.5464844640046 39.665630691484694 0 39.665630691484694 102.01242465363975 0 0 0 0 -992.46503947005112 1162.8548496966541 0 1162.8548496966541 -1136.292772692088 0 0 0 0 -951.68545077901217 889.43364353495417 0 889.43364353495417 -830.61978174701744 0 0 0 0 216.05116951488594 191.48613261371281 0 191.48613261371281 -686.03236660118273 0 0 0 0 -1109.6046147476736 1262.5011714363609 0 1262.5011714363609 -1076.1607948880501 0 0 0 0 0.53810486995104156 0.030023055358128659 0 0.030023055358128659 -4.2266591613947497 0 0 0 0 201.7897417637264 -135.24430532123893 0 -135.24430532123893 -20.904366962724453 0 0 0 0 29.220621710633381 14.343907100612775 0 14.343907100612775 4.6681058544386929 0 0 0 0 67.373687097031507 49.117319358123495 0 49.117319358123495 -90.469202132597275 0 0 0 0 -478.69688842690994 651.33625926314699 0 651.33625926314699 -1265.6077974682412 0 0 0 0 7.8210311081932815 -1.8283485149286776 0 -1.8283485149286776 -11.891040061150683 0 0 0 0 -1131.0690278676047 1270.7228189146863 0 1270.7228189146863 -1041.4108370423928 0 0 0 0 -1459.9272557660515 1108.6288745411484 0 1108.6288745411484 -894.17858463767334 0 0 0 0 -501.32770841757883 427.28861158606742 0 427.28861158606742 -588.11253502816908 0 0 0 0 -443.62980075807945 431.08382804719002 0 431.08382804719002 -662.30600320331723 0 0 0 0 -642.2962946945845 224.1931429713768 0 224.1931429713768 -582.15520103548079 0 0 0 0 -582.72146166481252 772.3554266895826 0 772.3554266895826 -997.06282826606912 0 0 0 0 -455.96125210310493 138.7270677761594 0 138.7270677761594 -1289.8504356140438 0 0 0 0 -457.50218323389709 195.3450360124607 0 195.3450360124607 -962.27958404755009 0 0 0 0 -480.10073283338716 -139.41301029811621 0 -139.41301029811621 -858.97798562471871 0 0 0 0 -472.33679721024964 -31.460592346033081 0 -31.460592346033081 -1118.9335521971218 0 0 0 0 -649.48032034977223 -74.810178639061633 0 -74.810178639061633 -1688.8682409952635 0 0 0 0 -886.73759765224167 603.70272707564254 0 603.70272707564254 -1574.1836067675686 0 0 0 0 -649.73008207313251 123.97157605364191 0 123.97157605364191 -1063.5803446043806 0 0 0 0 -592.67713670013472 501.49604239639666 0 501.49604239639666 -917.17628116526612 0 0 0 0 -591.35131220497624 501.19563455819059 0 501.19563455819059 -1833.6109325946236 0 0 0 0 -762.59474156742363 634.96903295728589 0 634.96903295728589 -664.68996209350007 0 0 0 0 -1507.2143491818133 807.59822433523368 0 807.59822433523368 -447.6799322866209 0 0 0 0 -1021.9576298517932 1083.4060877090851 0 1083.4060877090851 -1131.4892772144667 0 0 0 0 -1120.6883538005932 740.3325462491739 0 740.3325462491739 -581.7663764447243 0 0 0 0 -1809.6976615687308 2028.9714747108846 0 2028.9714747108846 -2543.7144848057214 0 0 0 0 -900.70846903754864 463.73699645961642 0 463.73699645961642 -1546.4423396297025 0 0 0 0 -1056.2217325531165 18.715428851504839 0 18.715428851504839 -2819.2398581705493 0 0 0 0 -1936.3479521359695 361.13002181593038 0 361.13002181593038 -1596.8735158595591 0 0 0 0 -983.23717464748188 1565.295716329354 0 1565.295716329354 -3209.6557301533303 0 0 0 0 -3050.9083294288866 1175.6158285418132 0 1175.6158285418132 419.94903279005666 0 0 0 0 -979.69544450723333 -498.88295235096484 0 -498.88295235096484 -281.13716709429718 0 0 0 0 -8.1385561212557604 3.3822525526758103 0 3.3822525526758103 -0.90462632189239756 0 0 0 0 -0.72902258294510602 3.7190113333250991 0 3.7190113333250991 -0.23116964553073771 0 0 0 0 -849.73658156051533 -223.77723710286227 0 -223.77723710286227 149.20855180755461 0 0 0 0 -35.268710510616074 -178.91872649974357 0 -178.91872649974357 85.642989605279581 0 0 0 0 -338.49812920207478 612.00786553847047 0 612.00786553847047 -2108.365635825041 0 0 0 0 -38.532552094649873 572.54606124368183 0 572.54606124368183 -1236.3377592469574 0 0 0 0 -1085.4692708239163 491.43860420472902 0 491.43860420472902 -1240.0458793961188 0 0 0 0 -208.3105360774498 1162.5915587076888 0 1162.5915587076888 -1798.6220320232242 0 0 0 0 129.66407159205482 261.5789245515648 0 261.5789245515648 -696.32134514338759 0 0 0 0 552.02214748028928 542.71542841378778 0 542.71542841378778 -725.4805139652201 0 0 0 0 350.23277539110131 579.04890641224256 0 579.04890641224256 -106.16849238404131 0 0 0 0 324.35636056000658 503.8294518886787 0 503.8294518886787 518.90661964966603 0 0 0 0 -87.008968251822807 83.382872822648096 0 83.382872822648096 -41.980792593896695 0 0 0 0 -430.88755152426165 337.86135230375476 0 337.86135230375476 -88.436545444639705 0 0 0 0 -26.422020928253914 281.90159277217253 0 281.90159277217253 -785.63178057782352 0 0 0 0 -515.00659142509176 -157.09109922931634 0 -157.09109922931634 -764.10432936925645 0 0 0 0 -1028.1179071526612 244.22667151282405 0 244.22667151282405 49.763877179600968 0 0 0 0 -907.7551368796012 -462.08349114180419 0 -462.08349114180419 -211.0426959526003 0 0 0 0 -879.08921942830784 -372.66263763958705 0 -372.66263763958705 -919.74272603955069 0 0 0 0 -421.19660595096502 248.03220484915619 0 248.03220484915619 -995.95368873200346 0 0 0 0 -994.67271156643983 209.94898519942672 0 209.94898519942672 -479.44471994834021 0 0 0 0 -424.02613191374621 166.65332975049387 0 166.65332975049387 266.70628964172192 0 0 0 0 -422.31842668247191 -87.284258575126387 0 -87.284258575126387 121.63588961974165 0 0 0 0 -306.47194224756822 97.706875722407858 0 97.706875722407858 50.394650803257264 0 0 0 0 -379.376483765991 193.24581038153133 0 193.24581038153133 247.26074779918235 0 0 0 0 1.8441429029771825 348.22539194876026 0 348.22539194876026 234.59427172228527 0 0 0 0 362.70684518977214 327.63492146874432 0 327.63492146874432 100.594685456761 0 0 0 0 332.59156441496452 445.58987514360797 0 445.58987514360797 146.2868150704262 0 0 0 0 -39.543499466555659 537.70808717164527 0 537.70808717164527 224.48087914788266 0 0 0 0 -49.488389091882709 136.27108876069451 0 136.27108876069451 -53.051685625884602 0 0 0 0 643.01006382361084 558.92702024771415 0 558.92702024771415 167.98955340285102 0 0 0 0 417.87767059729049 442.63903804140864 0 442.63903804140864 201.52541121422837 0 0 0 0 441.65872650755045 353.71551250913126 0 353.71551250913126 112.70212186562458 0 0 0 0 567.67209194182942 427.4722539174245 0 427.4722539174245 105.17572601108441 0 0 0 0 712.41747965596005 318.44641274058358 0 318.44641274058358 -6.6484142244826216 0 0 0 0 620.4791667465106 257.90344283273498 0 257.90344283273498 -31.954121980755644 0 0 0 0 636.92452672599757 189.7247624471147 0 189.7247624471147 118.50401238511949 0 0 0 0 271.26672148836769 119.3954122814921 0 119.3954122814921 400.84951972521958 0 0 0 0 245.89826741629804 207.81225949960026 0 207.81225949960026 200.59509584670195 0 0 0 0 308.3545100764095 309.55697418505042 0 309.55697418505042 170.14193227204851 0 0 0 0 97.135744304519903 262.87538652873855 0 262.87538652873855 183.6266240538971 0 0 0 0 365.86702824903477 257.80139429894462 0 257.80139429894462 101.7716777373771 0 0 0 0 -273.57708030115828 89.172225757029537 0 89.172225757029537 236.30575294020673 0 0 0 0 -33.114877102032551 199.86959742560771 0 199.86959742560771 217.2561489233176 0 0 0 0 -18.600651505323185 166.26861130208908 0 166.26861130208908 267.2972495450831 0 0 0 0 -242.15980845629747 140.8694747263703 0 140.8694747263703 275.98305983331829 0 0 0 0 -240.52733126048042 102.35554077719053 0 102.35554077719053 114.24999206533721 0 0 0 0 -721.5892950826892 587.950641805126 0 587.950641805126 -213.78442579350121 0 0 0 0 -684.60944238165393 558.53686954215846 0 558.53686954215846 -290.28951268785022 0 0 0 0 -804.96799422505137 686.59935125481206 0 686.59935125481206 -275.31299372982267 0 0 0 0 -737.43367961020886 770.75003907807695 0 770.75003907807695 -430.10649057375122 0 0 0 0 -695.28057720050674 676.09195124929101 0 676.09195124929101 -416.8755139158784 0 0 0 0 -698.41062476383195 739.25646620905309 0 739.25646620905309 -810.91921215191178 0 0 0 0 -640.1400079997984 749.33870762457445 0 749.33870762457445 -484.93082781648263 0 0 0 0 -905.27040624885194 428.9969899240582 0 428.9969899240582 -99.917975853826647 0 0 0 0 -1073.5277502829995 811.55692954362348 0 811.55692954362348 -316.828881192464 0 0 0 0 -1371.7196734941754 874.51739373465807 0 874.51739373465807 -470.36258586348595 0 0 0 0 1525.0570189354185 648.48037321941729 0 648.48037321941729 45.797110726035498 0 0 0 0 -6.2392662046701659 27.403386105742648 0 27.403386105742648 -39.571082978180222 0 0 0 0 -494.55779338590582 268.05119166583245 0 268.05119166583245 -269.99756918259482 0 0 0 0 -642.3658213148592 147.62312162006128 0 147.62312162006128 67.257318854382902 0 0 0 0 -666.76712003849752 452.04084116674858 0 452.04084116674858 -226.89949969093141 0 0 0 0 -705.86738081510703 361.65680397232609 0 361.65680397232609 -42.366147262615414 0 0 0 0 -259.08596411404869 88.411268994019338 0 88.411268994019338 -119.31800252997346 0 0 0 0 -243.60048444735594 266.24581251180518 0 266.24581251180518 -213.45391808131535 0 0 0 0 -11.751740714476909 115.6161356103662 0 115.6161356103662 -159.33063585897617 0 0 0 0 926.37858735760528 500.16017745006411 0 500.16017745006411 -16.488645603756595 0 0 0 0 -57.84891814128423 -58.269700443026522 0 -58.269700443026522 -116.31550969405453 0 0 0 0 -7.6205736365740435 32.413247965787946 0 32.413247965787946 -44.164081382515448 0 0 0 0 0.48000538418664718 0.97386170751659051 0 0.97386170751659051 -1.8141339263792275 0 0 0 0 63.592135517879797 -9.3918447514552099 0 -9.3918447514552099 -4.0090753388631128 0 0 0 0 108.80987341641912 -118.41309892848608 0 -118.41309892848608 -38.393483617590391 0 0 0 0 -211.68290767176586 78.236310682248586 0 78.236310682248586 46.42602974802503 0 0 0 0 1.689912918363305 1.8157608470988009 0 1.8157608470988009 -0.43122885040476433 0 0 0 0 78.467017424380174 128.2375518994304 0 128.2375518994304 -149.00616578726476 0 0 0 0 -400.53779813740402 291.75387064941606 0 291.75387064941606 -276.46140159562606 0 0 0 0 -479.11807656878955 385.50461712304877 0 385.50461712304877 -290.75219903082325 0 0 0 0 -590.91267823442149 418.77726747710437 0 418.77726747710437 -145.13320687350642 0 0 0 0 -517.3804172283053 408.05533270333399 0 408.05533270333399 -261.69244856499517 0 0 0 0 -589.44120098271378 544.47071905418306 0 544.47071905418306 -361.50782136769612 0 0 0 0 -643.16168924502927 587.11427224779254 0 587.11427224779254 -388.68914747203235 0 0 0 0 -441.31732579098025 364.71536329199807 0 364.71536329199807 -390.37467194887472 0 0 0 0 -515.28756515900022 325.56230891467749 0 325.56230891467749 -442.44500576607243 0 0 0 0 -505.13216380760787 534.24497111138589 0 534.24497111138589 -668.63342416539672 0 0 0 0 -371.53268554550596 499.0063547688078 0 499.0063547688078 -956.68373092808542 0 0 0 0 -791.88954629664659 731.60840667553202 0 731.60840667553202 -1177.7235757882572 0 0 0 0 -1818.9664249239722 1817.964676863503 0 1817.964676863503 -1113.7398589837103 0 0 0 0 -1526.5125220001355 1121.7076693156559 0 1121.7076693156559 -992.71046182987629 0 0 0 0 -1509.4047600089543 875.95458018696081 0 875.95458018696081 -657.84624360814632 0 0 0 0 -2047.3607438412473 571.13286241235619 0 571.13286241235619 -853.02236661942152 0 0 0 0 -1494.4693376588616 771.5673428746793 0 771.5673428746793 -813.75952583926119 0 0 0 0 -912.46137651239405 764.9322221901748 0 764.9322221901748 -886.03977269803727 0 0 0 0 -906.6778015968448 806.85372213909432 0 806.85372213909432 -734.66721302310543 0 0 0 0 -922.06567362988426 661.42800796769552 0 661.42800796769552 -580.76561795497764 0 0 0 0 -1482.7313884175746 743.665765467038 0 743.665765467038 -380.7601160228478 0 0 0 0 -698.19016034595552 807.04854400789009 0 807.04854400789009 -800.96278080804041 0 0 0 0 -595.48466947525958 640.55771666318105 0 640.55771666318105 -535.03142877498613 0 0 0 0 -641.69020675529464 618.09731817267129 0 618.09731817267129 -489.18279020577756 0 0 0 0 -335.94621573519271 1292.4381333351521 0 1292.4381333351521 -1103.8540066381538 0 0 0 0 -1305.2378818653328 1491.5664776395352 0 1491.5664776395352 -825.81199094315525 0 0 0 0 -1273.1315274300496 1682.6963433435521 0 1682.6963433435521 -1166.8368301351948 0 0 0 0 -1525.4729192746299 1433.8706911788468 0 1433.8706911788468 -822.08810092967906 0 0 0 0 -1094.1049487008797 1668.0223973955435 0 1668.0223973955435 -1041.2154653460602 0 0 0 0 10859.776228758521 -5305.3715734362695 0 -5305.3715734362695 3327.8332328128963 0 0 0 0 12.626610266952341 6.6088384824509916 0 6.6088384824509916 -22.818681167864185 0 0 0 0 -3170.8218756690867 2347.7246192988241 0 2347.7246192988241 -576.19035632067244 0 0 0 0 -1524.1715522642162 2818.5212125743083 0 2818.5212125743083 -2249.8747920123133 0 0 0 0 -4258.0811081691991 1942.2116974813125 0 1942.2116974813125 -372.60897267813561 0 0 0 0 -3437.326618770996 723.74983541550318 0 723.74983541550318 -453.42812650039559 0 0 0 0 -1551.12056447543 884.81396320281965 0 884.81396320281965 -551.4993519097734 0 0 0 0 1493.7448510444258 -1551.3627480424884 0 -1551.3627480424884 1412.6768047977384 0 0 0 0 1070.8906597962814 757.45463959188419 0 757.45463959188419 -2763.8146322705288 0 0 0 0 22.521137565363873 23.69343099156103 0 23.69343099156103 -81.444700969132015 0 0 0 0 7327.0774744368719 2907.5608336083333 0 2907.5608336083333 -5792.700591036948 0 0 0 0 -435.24902330637087 1404.5945058166108 0 1404.5945058166108 -2820.5418580252917 0 0 0 0 -439.82086108008866 474.9546862389434 0 474.9546862389434 -210.71190914603358 0 0 0 0 -722.8200958398852 715.12769748022947 0 715.12769748022947 -468.09333060904464 0 0 0 0 25.600547891448514 605.5210104674552 0 605.5210104674552 -458.76927413407248 0 0 0 0 -174.68051487685352 432.88952893051101 0 432.88952893051101 -689.15961296332534 0 0 0 0 -99.754142088982917 94.010838735288417 0 94.010838735288417 243.80006431128413 0 0 0 0 -0.40600771185133078 9.3089024389466495 0 9.3089024389466495 -6.5134566547096426 0 0 0 0 33.916183031271203 23.306563731759525 0 23.306563731759525 227.13472789412481 0 0 0 0 323.74712909347909 246.00323120500616 0 246.00323120500616 -95.628969910700107 0 0 0 0 -36.372663602646575 52.19637087919115 0 52.19637087919115 95.968534807837585 0 0 0 0 -191.80612029300323 127.64071874268484 0 127.64071874268484 213.88704164091905 0 0 0 0 -1515.0822842410412 278.88031251161374 0 278.88031251161374 1714.3895295392576 0 0 0 0 -686.41324694028162 -93.633462987228995 0 -93.633462987228995 -287.10139598534442 0 0 0 0 -252.88742846512741 874.41283717834631 0 874.41283717834631 1183.7700481866486 0 0 0 0 -143.64510194740615 420.23107274701033 0 420.23107274701033 -62.989267849739008 0 0 0 0 -365.37050565895606 190.02979478037378 0 190.02979478037378 138.3512755455522 0 0 0 0 126.7897313096064 -177.46734934417873 0 -177.46734934417873 -209.87910315280897 0 0 0 0 -613.72638644434301 966.32333744933567 0 966.32333744933567 -1202.7512711556483 0 0 0 0 -82.555925264672624 -3.5721627827006159 0 -3.5721627827006159 196.73012895260763 0 0 0 0 -10.870807937262262 0.8162489360049392 0 0.8162489360049392 22.975107771948942 0 0 0 0 -41.475467334978646 -53.631773749744298 0 -53.631773749744298 273.58472895821615 0 0 0 0 -36.964797023176288 -51.094585871993331 0 -51.094585871993331 90.642251883273275 0 0 0 0 -1.2126193199414175 3.1153049049805972 0 3.1153049049805972 15.913669152577008 0 0 0 0 -25.914997351600174 20.068410931082393 0 20.068410931082393 147.83239028228522 0 0 0 0 -862.75885925479815 693.57637743872147 0 693.57637743872147 -380.26323767144277 0 0 0 0 -744.66890123640769 777.53205933727077 0 777.53205933727077 -436.44634767573189 0 0 0 0 -634.44367771669931 600.28042945146444 0 600.28042945146444 -351.79286282878002 0 0 0 0 23.888913417304735 27.975315919810463 0 27.975315919810463 -111.32101407856504 0 0 0 0 1106.586269218159 46.746433651398547 0 46.746433651398547 -577.15024520175939 0 0 0 0 -836.91076637725928 533.09238091226689 0 533.09238091226689 -336.6741406295987 0 0 0 0 -804.10989617562882 551.86583681368757 0 551.86583681368757 -326.59460033674259 0 0 0 0 -571.45973427942954 290.0296004375341 0 290.0296004375341 -125.25219681168528 0 0 0 0 -516.96396915083642 611.30508664716695 0 611.30508664716695 -457.95572281315981 0 0 0 0 -393.51411480939714 448.62734131683283 0 448.62734131683283 -288.74722367809591 0 0 0 0 -457.22964393615985 809.5916824775577 0 809.5916824775577 -653.11775737188145 0 0 0 0 -141.47171704922584 69.674986907685707 0 69.674986907685707 -140.19446602184325 0 0 0 0 -222.07264262669923 455.28273349412484 0 455.28273349412484 -418.7947666906839 0 0 0 0 -0.92612436284980504 97.421225262371081 0 97.421225262371081 -132.3919734508554 0 0 0 0 2.5836379136599135 111.01792464364917 0 111.01792464364917 -128.91842124415052 0 0 0 0 31.526188390431983 24.963835861933148 0 24.963835861933148 -7.1952271553596141 0 0 0 0 -33.692467719421984 62.121411675440868 0 62.121411675440868 -22.596509975926892 0 0 0 0 -11.46709683669178 67.372472227774779 0 67.372472227774779 -96.621985796406079 0 0 0 0 -73.377815872067004 87.708651116461624 0 87.708651116461624 -47.166065706496738 0 0 0 0 -110.64755066429643 144.27003197075828 0 144.27003197075828 -65.32290661713796 0 0 0 0 1.4835559403838303 22.848728333472373 0 22.848728333472373 -12.784172415743654 0 0 0 0 -80.464433508612274 280.96574886001326 0 280.96574886001326 -436.58846672765503 0 0 0 0 27.134114183571693 38.839974414024553 0 38.839974414024553 -124.54917922424333 0 0 0 0 -31.007983007515577 92.169217774481695 0 92.169217774481695 -34.646255822566673 0 0 0 0 167.71455462577069 197.68336587288104 0 197.68336587288104 -213.95999891647079 0 0 0 0 -50.355792332190866 61.128884778325585 0 61.128884778325585 50.533074718525867 0 0 0 0 -43.001454685910176 82.642772195196812 0 82.642772195196812 -9.0663117480307847 0 0 0 0 0.73434211080711975 67.373105225772633 0 67.373105225772633 -24.442573908081613 0 0 0 0 -43.406757551107304 48.472346524470368 0 48.472346524470368 89.12392215005913 0 0 0 0 -3.171469968619216 25.248984594715882 0 25.248984594715882 11.242676789787531 0 0 0 0 79.194730617940877 51.035631449866742 0 51.035631449866742 -19.293552104583796 0 0 0 0 3.5221454202928726 56.154148793837521 0 56.154148793837521 56.734183685784956 0 0 0 0 10.675417304119037 31.103485176984577 0 31.103485176984577 6.3315544007491553 0 0 0 0 6.0364716099356883 62.727229111103952 0 62.727229111103952 0.030306206550449133 0 0 0 0 20.726193389615219 16.760211607144811 0 16.760211607144811 -0.24520596489219315 0 0 0 0 20.640504942124608 24.25063550767436 0 24.25063550767436 30.517772672406863 0 0 0 0 57.792082517302333 26.40957776988671 0 26.40957776988671 -7.0167109386438824 0 0 0 0 27.243301993090427 -6.3043610284548777 0 -6.3043610284548777 42.382334378787164 0 0 0 0 -474.29335058042125 -377.80051279872532 0 -377.80051279872532 -297.41180297798928 0 0 0 0 -10.393013787574091 35.232304846195802 0 35.232304846195802 69.917918125463984 0 0 0 0 -0.66117195413826169 16.750662112895483 0 16.750662112895483 17.934548278698344 0 0 0 0 -18.179659557519855 -2.3161957701611513 0 -2.3161957701611513 3.8288721001984243 0 0 0 0 -32.43429805460255 38.454162517719851 0 38.454162517719851 129.17503686552118 0 0 0 0 -154.30367714167551 679.37950654116139 0 679.37950654116139 -462.21501511217139 0 0 0 0 -7.3873061022022739 790.25730145287707 0 790.25730145287707 -624.18050940411376 0 0 0 0 -488.5284634575728 776.03087350093665 0 776.03087350093665 -482.75410125958115 0 0 0 0 -174.74030381062767 591.86738920853713 0 591.86738920853713 -665.50249922855073 0 0 0 0 511.63782551491749 613.15254447854204 0 613.15254447854204 -685.43586291014435 0 0 0 0 0.68758251282944238 9.2378145819882 0 9.2378145819882 0.2858827842364704 0 0 0 0 -344.45438963603192 578.80909797099389 0 578.80909797099389 -283.68762340631838 0 0 0 0 -1.5004665145388572 373.65898949555776 0 373.65898949555776 -425.33601073856971 0 0 0 0 -731.82082745502703 794.87250540524292 0 794.87250540524292 -305.46667278808309 0 0 0 0 -387.56191077407129 516.31569809333268 0 516.31569809333268 -94.444743627509979 0 0 0 0 -113.65168923376041 336.44052889660861 0 336.44052889660861 -323.61363455320679 0 0 0 0 15.765737349716176 47.600423165317324 0 47.600423165317324 -356.59259108456172 0 0 0 0 27.704646415655773 21.336189430189521 0 21.336189430189521 11.619297125038754 0 0 0 0 -64.35299691464752 235.89728621746508 0 235.89728621746508 -236.24194305007131 0 0 0 0 45.106227846985895 30.04269939123829 0 30.04269939123829 15.826340418784488 0 0 0 0 4.2590690319339046 29.304101338540931 0 29.304101338540931 42.833233698793265 0 0 0 0 49.638049798566499 46.432439135984168 0 46.432439135984168 46.240093090797018 0 0 0 0 -21.708881284297604 133.94487081905891 0 133.94487081905891 -49.917117442510062 0 0 0 0 -32.409066363867169 140.50577708159653 0 140.50577708159653 -11.656188454139283 0 0 0 0 -14.042724973303848 61.32856742702279 0 61.32856742702279 -3.6188528969832987 0 0 0 0 -6.1668080323528898 5.6001026795253139 0 5.6001026795253139 8.3607344340637901 0 0 0 0 14.726851997550799 10.182316253738577 0 10.182316253738577 -8.7259944456574061 0 0 0 0 -25.024312453086168 55.134214132694979 0 55.134214132694979 53.89270653409767 0 0 0 0 -16.621657656927709 62.367249674833147 0 62.367249674833147 55.500957572512561 0 0 0 0 -10.138215509301517 82.877481106050254 0 82.877481106050254 31.845020427530471 0 0 0 0 37.738045559613965 42.861910980520406 0 42.861910980520406 11.882529686445196 0 0 0 0 -9.8152610517427092 90.048271439674863 0 90.048271439674863 70.040945748687591 0 0 0 0 10.974600475019543 63.07625193734566 0 63.07625193734566 -0.69720614793732238 0 0 0 0 1.5922843570733676 75.964845788359526 0 75.964845788359526 -96.68612103027408 0 0 0 0 -17.259539607837723 46.211318824967748 0 46.211318824967748 -8.8985636776415049 0 0 0 0 2.137212370907946 66.030489599699649 0 66.030489599699649 -54.19017805249041 0 0 0 0 23.232495263204328 15.50639583335942 0 15.50639583335942 -13.616165384671149 0 0 0 0 -28.765031796443509 42.2903540346706 0 42.2903540346706 5.7920412898965878 0 0 0 0 35.128364086318015 25.096623482717405 0 25.096623482717405 9.0905570542709029 0 0 0 0 -3.4765839597384911 39.20853937918946 0 39.20853937918946 35.981288786550067 0 0 0 0 231.87562758085005 -147.59851286923094 0 -147.59851286923094 -406.16871443316722 0 0 0 0 -1410.0777907310694 639.5083839947456 0 639.5083839947456 -583.25442477656134 0 0 0 0 -58.557027545508845 102.26003814325327 0 102.26003814325327 -176.04788005833689 0 0 0 0 90.514005286060637 155.03307968689842 0 155.03307968689842 -197.35312374824753 0 0 0 0 200.84800618941699 -227.75122921302409 0 -227.75122921302409 -116.39027264723154 0 0 0 0 -34.589332297065994 -155.21863431054226 0 -155.21863431054226 122.88474555268476 0 0 0 0 21.232478920897492 44.046550360897484 0 44.046550360897484 -45.803342510061938 0 0 0 0 -42.49457068861858 32.678108059512525 0 32.678108059512525 -17.137369609541977 0 0 0 0 43.545955891691847 212.85026596714397 0 212.85026596714397 10.202060496351351 0 0 0 0 -179.458884512042 116.80019518546464 0 116.80019518546464 155.94619476034495 0 0 0 0 -22.372328825083002 6.3980391436250503 0 6.3980391436250503 -2.1018270826596748 0 0 0 0 -477.78243768274478 -156.14379057156111 0 -156.14379057156111 99.091805587106137 0 0 0 0 -1304.3318000564141 143.80912412172438 0 143.80912412172438 170.82121313275093 0 0 0 0 -693.11399070405969 533.14960535398313 0 533.14960535398313 -33.683206277746649 0 0 0 0 -1647.1624438163853 1167.3884802470893 0 1167.3884802470893 -499.9081787342584 0 0 0 0 -1445.058655992063 902.39927860783064 0 902.39927860783064 -164.41429279839576 0 0 0 0 -497.91085554465826 859.82583974893168 0 859.82583974893168 -943.12281300021277 0 0 0 0 -155.84955172144691 -1001.7814647185587 0 -1001.7814647185587 -2915.8314387231212 0 0 0 0 -1056.4903476183536 1407.0064949368589 0 1407.0064949368589 -1452.7253158933854 0 0 0 0 -849.08938654844405 1854.1599733360986 0 1854.1599733360986 -1003.581617331567 0 0 0 0 -705.40225335350624 1281.4221840564333 0 1281.4221840564333 -740.69512208880997 0 0 0 0 -686.8335057981385 1022.0258889911129 0 1022.0258889911129 -1621.5936471319783 0 0 0 0 -10.685439168475348 -1.7655427683290199 0 -1.7655427683290199 -0.90952822933268962 0 0 0 0 -245.64028836965372 -234.34449393325485 0 -234.34449393325485 124.47410522017708 0 0 0 0 -1214.1527817046826 392.7727757451471 0 392.7727757451471 88.759207554361637 0 0 0 0 -775.00300986160983 -182.05498190291473 0 -182.05498190291473 154.64778855143959 0 0 0 0 -12.852746061606013 87.097055156000351 0 87.097055156000351 91.970596551543167 0 0 0 0 51.160678729629581 45.133853732421812 0 45.133853732421812 -9.5651598691947584 0 0 0 0 -185.14102613985233 -45.799248327932219 0 -45.799248327932219 -28.984868789086704 0 0 0 0 -12.938130038270174 68.406354355741769 0 68.406354355741769 -43.262772716716427 0 0 0 0 -205.58430644205509 67.879369654635411 0 67.879369654635411 -6.4894849792672176 0 0 0 0 -25.925435470424418 -6.1428458545797184 0 -6.1428458545797184 -38.863484786900244 0 0 0 0 -284.97625497010995 67.654170474054808 0 67.654170474054808 -19.95866871180624 0 0 0 0 -256.10348799757776 -28.931959959711094 0 -28.931959959711094 -31.393030898108236 0 0 0 0 -545.75547003598513 102.2518713197187 0 102.2518713197187 87.705908958227155 0 0 0 0 -507.49452076515627 170.52394710996487 0 170.52394710996487 83.365191539621605 0 0 0 0 -408.82014640997659 421.96546077324638 0 421.96546077324638 -130.92572309021853 0 0 0 0 -647.97521765533202 775.55553003677915 0 775.55553003677915 -557.67752580404704 0 0 0 0 -21.817086790602843 214.46698998628199 0 214.46698998628199 -866.49568989772342 0 0 0 0 94.89514151170988 195.73510948353305 0 195.73510948353305 -478.34254319254796 0 0 0 0 -163.39428555502627 374.03346389464468 0 374.03346389464468 -318.62174134175802 0 0 0 0 -171.03330687652306 370.1974568044925 0 370.1974568044925 -213.66838006840044 0 0 0 0 -236.67531789112581 246.2492932465434 0 246.2492932465434 42.495330676912999 0 0 0 0 -457.33359880030366 246.31440491559079 0 246.31440491559079 118.65435881555277 0 0 0 0 -548.62145499755161 195.64457927615695 0 195.64457927615695 93.930251576923183 0 0 0 0 -355.60746897656099 123.67353720172468 0 123.67353720172468 260.80922003525848 0 0 0 0 -217.52096718763278 272.69743336907413 0 272.69743336907413 51.466141871117543 0 0 0 0 19.687009431840124 -32.018145898466173 0 -32.018145898466173 -31.89270693105118 0 0 0 0 -221.66117310432855 183.4784334097867 0 183.4784334097867 -57.128810861158854 0 0 0 0 -466.42820413982008 195.31836472045779 0 195.31836472045779 21.586160786762775 0 0 0 0 -351.70841718456722 112.44882546854751 0 112.44882546854751 81.141066538992163 0 0 0 0 0.49269932317981358 0.51915853114758193 0 0.51915853114758193 -0.73118832876918205 0 0 0 0 -349.42458851899755 238.98287847707979 0 238.98287847707979 -73.366100523342084 0 0 0 0 -312.30392827751893 183.4621560120122 0 183.4621560120122 332.17262358935795 0 0 0 0 28.52914212766882 -282.45155820940636 0 -282.45155820940636 443.15681424935974 0 0 0 0 -142.98842922026301 -107.12040171281933 0 -107.12040171281933 76.505959234928014 0 0 0 0 2.2456996908383609 -1.4167226224403464 0 -1.4167226224403464 14.129143536338773 0 0 0 0 -60.335921354470237 53.694679933257653 0 53.694679933257653 60.099693976381531 0 0 0 0 331.83680573082347 39.828150596824344 0 39.828150596824344 467.93751264754974 0 0 0 0 -263.612840927859 252.15776186145013 0 252.15776186145013 -204.43373962743499 0 0 0 0 -970.96409903689346 855.04562288898887 0 855.04562288898887 215.19715533685121 0 0 0 0 -665.6093598821144 840.23196436039871 0 840.23196436039871 482.16654496953561 0 0 0 0 -1045.7926357003753 1411.9055673036928 0 1411.9055673036928 -545.93267375831783 0 0 0 0 -432.27622502216127 486.89401863749299 0 486.89401863749299 -2.2783661084831692 0 0 0 0 -395.58061622123705 81.550535270390355 0 81.550535270390355 671.50135102045169 0 0 0 0 -4.6844869630068047 10.714466707370349 0 10.714466707370349 -5.1677415422045243 0 0 0 0 -258.16848019878535 107.74531132072389 0 107.74531132072389 239.50924805376417 0 0 0 0 -69.459908357174243 65.019259704389171 0 65.019259704389171 -15.230586662021921 0 0 0 0 -536.23839594254241 400.68170861404724 0 400.68170861404724 -44.376268049876671 0 0 0 0 -224.6997730664234 -120.61957743397215 0 -120.61957743397215 53.20540168358275 0 0 0 0 -720.86473804537491 259.03862288912933 0 259.03862288912933 1191.5991320440462 0 0 0 0 -337.52786019358155 -800.87071540144461 0 -800.87071540144461 1566.0604615349803 0 0 0 0 -255.11741778636224 68.207786829661927 0 68.207786829661927 672.73465839189157 0 0 0 0 -391.01571057167484 43.810826199634903 0 43.810826199634903 261.88771222523064 0 0 0 0 -763.65547593321025 588.18496489095196 0 588.18496489095196 -70.557912382121685 0 0 0 0 -478.27866115761935 704.98843056455735 0 704.98843056455735 -1534.6276928725856 0 0 0 0 -1809.7237561106685 382.28324732288092 0 382.28324732288092 -1488.6762459202819 0 0 0 0 -22.299339034485456 1328.9720507300553 0 1328.9720507300553 -1171.6042394437864 0 0 0 0 -411.98663362452135 1023.5461012302299 0 1023.5461012302299 -1409.7135212506109 0 0 0 0 -1491.3977459249963 2123.7389268784245 0 2123.7389268784245 -2265.5853466260378 0 0 0 0 -421.31681088886944 980.42686718733239 0 980.42686718733239 -1173.6692059090055 0 0 0 0 -837.66027024192863 543.6537097774135 0 543.6537097774135 -274.36967942619958 0 0 0 0 -1478.8124869257499 1140.1731709380038 0 1140.1731709380038 -826.5911241724607 0 0 0 0 -238.77632425205502 771.5416948579732 0 771.5416948579732 -1268.9808702323789 0 0 0 0 -714.76718689672452 873.50736905698432 0 873.50736905698432 -938.41783227321139 0 0 0 0 178.59407856817347 135.14280985287223 0 135.14280985287223 42.80012209918641 0 0 0 0 81.552075301377499 8.1021957496832329 0 8.1021957496832329 -25.476933823236322 0 0 0 0 84.601576339021335 -20.018100849729308 0 -20.018100849729308 124.55741027834301 0 0 0 0 19.35636807362685 26.265876608461831 0 26.265876608461831 -33.790303034366872 0 0 0 0 13.859478026598817 -6.5773877831933447 0 -6.5773877831933447 -38.547374876689929 0 0 0 0 -1122.8718738329026 309.89572962432794 0 309.89572962432794 -178.40221530315307 0 0 0 0 7.9078362764044741 0.72673378401959354 0 0.72673378401959354 -12.630727426198007 0 0 0 0 -3439.3615377760161 1011.2078747429841 0 1011.2078747429841 -233.64463881801976 0 0 0 0 -49.609895187153597 97.788676393007336 0 97.788676393007336 46.754712987246876 0 0 0 0 398.30521837328291 270.66294815933907 0 270.66294815933907 -1761.111370663697 0 0 0 0 353.26889460088114 -188.35770796284123 0 -188.35770796284123 -525.68394870772318 0 0 0 0 -1551.6910958757517 2018.1130808195303 0 2018.1130808195303 -2612.4193514367944 0 0 0 0 2.2669381780328006 -1.8983533909096995 0 -1.8983533909096995 -16.633235251859844 0 0 0 0 -1692.2933833566494 2157.2518898370799 0 2157.2518898370799 -2308.2216136727438 0 0 0 0 -1432.1141200495258 743.15202781077824 0 743.15202781077824 -1579.5727706160978 0 0 0 0 -738.94414101061466 675.00170818790866 0 675.00170818790866 -459.64217264277977 0 0 0 0 -1087.4960503164107 1396.1430848587179 0 1396.1430848587179 -923.82967706318595 0 0 0 0 -1533.1355962015114 519.01899481900546 0 519.01899481900546 -127.08070408921049 0 0 0 0 -508.13515187560296 1492.8529959462721 0 1492.8529959462721 -1819.9670762667156 0 0 0 0 -1285.607607354028 1715.5198634026456 0 1715.5198634026456 -1053.5350335202893 0 0 0 0 -673.44076889414328 1280.1537892357233 0 1280.1537892357233 -931.40156466099143 0 0 0 0 -706.22087425815403 1537.846517958455 0 1537.846517958455 -1070.5495381528599 0 0 0 0 -986.18082380519968 1440.7751196107711 0 1440.7751196107711 -1087.2815880226417 0 0 0 0 -258.09960664175594 1048.2597400843006 0 1048.2597400843006 -1049.6883996800625 0 0 0 0 -670.49017985022795 208.66811712068738 0 208.66811712068738 -385.67338388104974 0 0 0 0 -2625.3301875096658 904.07018316511312 0 904.07018316511312 -296.72184658673359 0 0 0 0 -1903.4107902725164 609.49865029949433 0 609.49865029949433 -374.98008200540789 0 0 0 0 -931.38116063025166 1151.1419360248838 0 1151.1419360248838 -726.77937287956593 0 0 0 0 -2272.0050270682482 1392.548354612547 0 1392.548354612547 -737.53859030565945 0 0 0 0 -4273.3953622394492 2852.7664770885676 0 2852.7664770885676 -511.89664791301766 0 0 0 0 11.431971996885792 6.9001359059188943 0 6.9001359059188943 -27.135319414504394 0 0 0 0 11555.505541531431 -4609.823312318902 0 -4609.823312318902 3172.2567184572981 0 0 0 0 -1679.6829335914008 2008.223745947158 0 2008.223745947158 -1212.9284697571275 0 0 0 0 -1836.3095529184811 1322.1245156373834 0 1322.1245156373834 -955.11695694798254 0 0 0 0 -618.54073368301033 1446.8186913825339 0 1446.8186913825339 -3105.5102622820596 0 0 0 0 -1171.4509715995973 437.45417747604006 0 437.45417747604006 -349.24548490133748 0 0 0 0 -2678.0579665234436 3455.5061083225355 0 3455.5061083225355 -2058.3187884799772 0 0 0 0 811.51887504855404 5592.4904401047388 0 5592.4904401047388 -4714.6401347456558 0 0 0 0 -1188.8216358225982 368.95576828841513 0 368.95576828841513 -127.55649444523624 0 0 0 0 1135.9128858907388 -343.63212520565571 0 -343.63212520565571 -1336.291803556458 0 0 0 0 74.802383887279575 -826.22204926415543 0 -826.22204926415543 606.32930248180128 0 0 0 0 -1185.1691046094675 370.44060092094696 0 370.44060092094696 -420.05757687623918 0 0 0 0 23.20349755418497 24.538586258136363 0 24.538586258136363 -59.313367323692532 0 0 0 0 -92.084935593652688 253.06270027343999 0 253.06270027343999 -886.97207348704251 0 0 0 0 3363.7018984503266 -196.30105483109355 0 -196.30105483109355 -2283.9856741468357 0 0 0 0 -286.90565832571275 651.57920581831786 0 651.57920581831786 -330.0467813649957 0 0 0 0 -386.46092874602436 266.29546366854811 0 266.29546366854811 -500.4894407932552 0 0 0 0 -391.66396815874032 60.878894684366969 0 60.878894684366969 -158.27924108666048 0 0 0 0 -340.63621939985023 400.80343459082542 0 400.80343459082542 -102.20149338947158 0 0 0 0 -34.867713239829754 -3.7508306115560117 0 -3.7508306115560117 -742.50157725836107 0 0 0 0 -815.36837602021842 760.50626881847893 0 760.50626881847893 -942.65180849591707 0 0 0 0 -144.09681185150839 1974.6610338561368 0 1974.6610338561368 -1209.2166169115226 0 0 0 0 787.26571278764823 141.21407634772368 0 141.21407634772368 -199.55440257184637 0 0 0 0 1.0632559913739641 4.2732642895685586 0 4.2732642895685586 10.600258280057915 0 0 0 0 -48.669581211952391 -4.0593810289051362 0 -4.0593810289051362 63.053117297233257 0 0 0 0 -262.28359885271493 345.0943676807783 0 345.0943676807783 16.582657007282251 0 0 0 0 -287.35761742397881 70.197536641946499 0 70.197536641946499 -18.089960398559924 0 0 0 0 -254.32846960954976 222.52378079733285 0 222.52378079733285 -127.50246592049007 0 0 0 0 -64.428059512734762 234.46416891629997 0 234.46416891629997 73.906556546284264 0 0 0 0 -37.125219838075282 194.63066932375477 0 194.63066932375477 -244.62610139484241 0 0 0 0 -336.39227277058671 247.59524802892338 0 247.59524802892338 50.569829976604524 0 0 0 0 77.906956120932591 39.9834704266068 0 39.9834704266068 -18.718317514383671 0 0 0 0 -304.44114917870502 331.68158774303447 0 331.68158774303447 -296.78577410589787 0 0 0 0 8.8500625229760672 15.52414672331841 0 15.52414672331841 13.399863821206509 0 0 0 0 -424.59679504491942 112.15133157021046 0 112.15133157021046 -156.80739341193839 0 0 0 0 -306.61291491299926 362.19208497355066 0 362.19208497355066 -366.66322196651163 0 0 0 0 -461.46775703838875 338.67240679403608 0 338.67240679403608 -129.49174904957545 0 0 0 0 149.13989447990184 -64.074144191545201 0 -64.074144191545201 7.1101707671987242 0 0 0 0 23.563233903084477 30.115634962867631 0 30.115634962867631 -58.87378288877683 0 0 0 0 -69.630046229731263 -157.04275738727995 0 -157.04275738727995 -20.093074096505006 0 0 0 0 -514.11715081914008 887.86971696397814 0 887.86971696397814 349.96455786746628 0 0 0 0 336.77432289527496 -68.082827963531599 0 -68.082827963531599 -103.72659828914402 0 0 0 0 6.9898251937367064 14.910719119004455 0 14.910719119004455 24.616227139725659 0 0 0 0 -73.265596354707668 99.891809762313642 0 99.891809762313642 56.492611738851338 0 0 0 0 597.52359349408471 -223.97401999230033 0 -223.97401999230033 -218.52182171128152 0 0 0 0 255.30308238142425 -12.48893044241413 0 -12.48893044241413 -167.21760025168624 0 0 0 0 -228.74223217630424 521.18931366900142 0 521.18931366900142 -130.56187886649093 0 0 0 0 10.401828390198254 21.044291621202717 0 21.044291621202717 33.267960148096492 0 0 0 0 117.13605814350376 40.262202352971144 0 40.262202352971144 -32.84573442209512 0 0 0 0 35.00104073865441 208.96043926006951 0 208.96043926006951 -131.90746572219359 0 0 0 0 -164.71143168595881 228.11454966974634 0 228.11454966974634 18.015371014662378 0 0 0 0 -149.38093149209453 171.8691564464898 0 171.8691564464898 79.056981736966918 0 0 0 0 -81.855789211287629 218.77559240264236 0 218.77559240264236 -53.460294515993155 0 0 0 0 -128.22743281220301 269.45878754267733 0 269.45878754267733 -78.15917467228428 0 0 0 0 -175.88381377078622 340.4827392176303 0 340.4827392176303 -223.16462439440147 0 0 0 0 -165.63325456947496 241.34383437435099 0 241.34383437435099 -98.998159844377369 0 0 0 0 -233.36439889234316 207.61998716937887 0 207.61998716937887 -45.12938856681285 0 0 0 0 17.220237865675927 26.929943742775201 0 26.929943742775201 37.197468054662764 0 0 0 0 18.133002216456589 187.22983439618019 0 187.22983439618019 -73.692588107893243 0 0 0 0 -43.229500679773082 -73.533599143427637 0 -73.533599143427637 -19.450383901763416 0 0 0 0 -38.303812338836906 5.2700995399341082 0 5.2700995399341082 83.85848858247482 0 0 0 0 -924.44700307975108 335.10689597297005 0 335.10689597297005 -103.82552488406509 0 0 0 0 2.46130156309599 5.0169100305104664 0 5.0169100305104664 0.35247028014629223 0 0 0 0 -344.66656403852539 288.84221689660626 0 288.84221689660626 -66.238494608513065 0 0 0 0 -407.02983380152727 219.779841298885 0 219.779841298885 -109.74718949278758 0 0 0 0 -297.8410601203359 364.36874788919704 0 364.36874788919704 -145.50470773886627 0 0 0 0 -254.36221838079473 159.631928900395 0 159.631928900395 -137.31039296207018 0 0 0 0 -154.89658572890039 270.30336632274702 0 270.30336632274702 -125.84798437694553 0 0 0 0 -103.53465842542937 196.60178385452309 0 196.60178385452309 25.668741695130848 0 0 0 0 -146.61442384436668 172.6943744092714 0 172.6943744092714 23.413054866770835 0 0 0 0 -339.54402090821532 264.9473885164407 0 264.9473885164407 -15.569759987403813 0 0 0 0 -3.4845755638494964 0.42711370941863436 0 0.42711370941863436 1.291531311821231 0 0 0 0 -33.583591902115586 -22.629422786718351 0 -22.629422786718351 45.543500539570232 0 0 0 0 -0.96050293649663843 16.943614783092592 0 16.943614783092592 17.471744684614762 0 0 0 0 -4.3475395654964046 2.1249708405816676 0 2.1249708405816676 2.8801235632678299 0 0 0 0 -9.8277567443074076 22.200327521628424 0 22.200327521628424 7.0031144696913543 0 0 0 0 -5.7058987965863679 19.076422024793246 0 19.076422024793246 0.48115435099811066 0 0 0 0 2.372446568674377 15.455693256275637 0 15.455693256275637 13.256956946148165 0 0 0 0 -34.710948908767023 62.625751594881876 0 62.625751594881876 -86.221039999649292 0 0 0 0 -10.110961154697179 47.825431024362842 0 47.825431024362842 56.317566393852758 0 0 0 0 -17.889454331154411 64.605310287751308 0 64.605310287751308 66.041749894611712 0 0 0 0 -8.9848334669811294 28.219141984010946 0 28.219141984010946 -5.0795783683734612 0 0 0 0 -54.792604114256392 83.163524206887814 0 83.163524206887814 87.985764148903399 0 0 0 0 -382.02724837344431 562.35972409617534 0 562.35972409617534 -370.66180450178945 0 0 0 0 96.777417324046837 -36.155205340422981 0 -36.155205340422981 -18.899503270105924 0 0 0 0 7.8209886848231847 8.3024310693250527 0 8.3024310693250527 -8.5574874129697207 0 0 0 0 20.450556998246611 50.325845120931262 0 50.325845120931262 -638.15182976250071 0 0 0 0 1.5107175490262179 9.336230316604528 0 9.336230316604528 4.3684065402190413 0 0 0 0 -464.86530697136186 -154.5751342266376 0 -154.5751342266376 193.73150532472937 0 0 0 0 -276.92019259686094 291.29136331772497 0 291.29136331772497 -146.69652169368783 0 0 0 0 -676.0167944001596 524.56263989088166 0 524.56263989088166 -147.51254490005522 0 0 0 0 -776.3172006043751 28.579963172036514 0 28.579963172036514 302.23343873218255 0 0 0 0 -83.024048647028394 293.81608920743747 0 293.81608920743747 -575.25340113687344 0 0 0 0 -6.0183964568272472 1.6549373822823057 0 1.6549373822823057 10.483405512360452 0 0 0 0 -35.195804079896163 98.294675978638054 0 98.294675978638054 -286.31608050283103 0 0 0 0 126.21004108731722 -120.07915171780041 0 -120.07915171780041 -64.200782866038935 0 0 0 0 -249.34614081003383 142.13301289915034 0 142.13301289915034 114.83908096821688 0 0 0 0 0.43886514283443034 27.182164535928052 0 27.182164535928052 42.365031687805498 0 0 0 0 -331.69746697707888 110.14395126397721 0 110.14395126397721 173.4542584075898 0 0 0 0 -178.57921757822623 136.51753497684695 0 136.51753497684695 -28.30096910483735 0 0 0 0 -802.71340738092113 206.61244522877314 0 206.61244522877314 32.572940622536407 0 0 0 0 -391.19377323017397 501.45117398009825 0 501.45117398009825 -692.04276122388546 0 0 0 0 -112.90533406869508 476.96786208290359 0 476.96786208290359 -634.80609177551378 0 0 0 0 -235.82581038019998 243.10878223541295 0 243.10878223541295 95.779555470275227 0 0 0 0 9.1946446218516975 26.177477339356841 0 26.177477339356841 -77.422380558754099 0 0 0 0 10.918064088438232 41.10950766907397 0 41.10950766907397 -81.185844192100276 0 0 0 0 165.42762727270019 116.00957853371438 0 116.00957853371438 -171.38594685890712 0 0 0 0 41.650505908702144 46.019390785933865 0 46.019390785933865 -75.01356043452688 0 0 0 0 469.75961769311652 280.03808666764326 0 280.03808666764326 -320.24827560682024 0 0 0 0 481.98528768450888 312.96922311146409 0 312.96922311146409 -531.54637947534502 0 0 0 0 248.10156798946628 -59.371036425960483 0 -59.371036425960483 -31.454759107521568 0 0 0 0 300.15896606164097 58.025203861001501 0 58.025203861001501 -94.110899700714981 0 0 0 0 235.18270506696717 7.1789460088330088 0 7.1789460088330088 -29.804398366755777 0 0 0 0 146.84360655155615 -121.69140314938704 0 -121.69140314938704 -273.97054122156624 0 0 0 0 277.28011068236083 73.22069971547171 0 73.22069971547171 17.005430119970697 0 0 0 0 25.706344990849004 33.02775060508975 0 33.02775060508975 -18.861477992875734 0 0 0 0 667.75665427619242 -240.72358656747383 0 -240.72358656747383 188.01084116526181 0 0 0 0 -22.40145470875413 23.110391390619398 0 23.110391390619398 -4.851409600250193 0 0 0 0 -249.60982912546024 181.4237484872574 0 181.4237484872574 -113.23324688788853 0 0 0 0 54.302669554845039 84.460450647317941 0 84.460450647317941 -94.893481147421994 0 0 0 0 24.101355370138787 3.9225378128027337 0 3.9225378128027337 -9.6495795882097184 0 0 0 0 -27.602913538080429 68.141050480910053 0 68.141050480910053 -37.321863530742121 0 0 0 0 -29.418156081477264 70.886967971673585 0 70.886967971673585 -28.440649155250867 0 0 0 0 -22.137114170896439 94.629819850470085 0 94.629819850470085 -48.499157507900236 0 0 0 0 -71.687352045586636 84.446314327131404 0 84.446314327131404 -22.26019775210807 0 0 0 0 14.301293546816396 122.36690518679097 0 122.36690518679097 -234.04589433073852 0 0 0 0 -7.3906660173127543 45.298367426318592 0 45.298367426318592 13.930746859152521 0 0 0 0 -16.281836521122738 26.495544562134427 0 26.495544562134427 28.460688544008136 0 0 0 0 -23.846244868946087 80.024541186208808 0 80.024541186208808 -75.77926976611343 0 0 0 0 -289.7319482946441 424.46403507239484 0 424.46403507239484 -431.3339913469099 0 0 0 0 27.246328888156516 30.79572965694782 0 30.79572965694782 -42.88687725047248 0 0 0 0 228.14867456434695 835.35219807007525 0 835.35219807007525 -105.38150656033758 0 0 0 0 -449.30732659145997 100.59633221009426 0 100.59633221009426 147.22661532674101 0 0 0 0 89.031896139496894 63.792070426381542 0 63.792070426381542 -66.015014347325632 0 0 0 0 -34.286410208634152 68.664822450097745 0 68.664822450097745 -47.611036434929701 0 0 0 0 22.013408546810378 26.728156246103214 0 26.728156246103214 -37.159058909383702 0 0 0 0 -764.28375111550213 429.42743602729206 0 429.42743602729206 -128.05563115207769 0 0 0 0 -647.73617499981447 218.07404145924011 0 218.07404145924011 -128.53315408928574 0 0 0 0 -352.54928705015936 472.24633480024931 0 472.24633480024931 -554.03489933493256 0 0 0 0 -422.47168677108039 525.84215111736921 0 525.84215111736921 -532.04787191631476 0 0 0 0 -896.53865778428917 442.91827918106719 0 442.91827918106719 -313.29435190235381 0 0 0 0 20.454292276668681 24.450693593851472 0 24.450693593851472 -35.623061709921785 0 0 0 0 -84.648849885847198 -94.774581677578681 0 -94.774581677578681 111.05372911917129 0 0 0 0 157.93532729130868 -92.121935754657898 0 -92.121935754657898 -72.652205283156945 0 0 0 0 64.827869348393733 141.17364931729389 0 141.17364931729389 -442.72941565801739 0 0 0 0 202.91703824241392 330.13578453859554 0 330.13578453859554 -451.48946496391 0 0 0 0 32.363750469399513 46.300033567069605 0 46.300033567069605 -43.600380607441004 0 0 0 0 34.436237138839608 7.8722017040974706 0 7.8722017040974706 -70.694939060480806 0 0 0 0 164.22389811620906 67.125005835945558 0 67.125005835945558 1.3606944630282669 0 0 0 0 10.460575776410451 -85.529569815338618 0 -85.529569815338618 49.11872325380682 0 0 0 0 44.763328223674208 -1.8258691925427115 0 -1.8258691925427115 -50.9784795971145 0 0 0 0 229.83830618488577 -45.89398983758656 0 -45.89398983758656 -52.528643308760365 0 0 0 0 31.642269356495358 69.557698441190723 0 69.557698441190723 -69.967646974940735 0 0 0 0 -0.49526935565712482 3.8596811822635857 0 3.8596811822635857 -1.923562921704189 0 0 0 0 -21.845862052841312 169.48213532779846 0 169.48213532779846 -96.363632263586624 0 0 0 0 -49.384889642191069 53.86960306011315 0 53.86960306011315 -4.8713044194155373 0 0 0 0 -269.72689051414824 52.50017868235409 0 52.50017868235409 47.882717016575043 0 0 0 0 -332.05468853294587 301.96853081333211 0 301.96853081333211 64.066425160852305 0 0 0 0 -59.487188210143358 141.70716138416901 0 141.70716138416901 -128.63260228465333 0 0 0 0 141.57770532804352 40.070138525627954 0 40.070138525627954 72.950655641496269 0 0 0 0 47.019037242796912 187.11518915382112 0 187.11518915382112 58.293628277459902 0 0 0 0 -22.14214500442904 209.34559108899612 0 209.34559108899612 -60.485848711898143 0 0 0 0 217.7269701455989 199.03916028539152 0 199.03916028539152 -170.12687654395813 0 0 0 0 77.608232873877569 76.904479869821444 0 76.904479869821444 -84.719873109178025 0 0 0 0 -78.467373802108341 217.63000496021868 0 217.63000496021868 -68.945709179735786 0 0 0 0 -380.25072129524688 119.70559395182227 0 119.70559395182227 -24.607661795456806 0 0 0 0 -164.42051813353646 95.795389849292405 0 95.795389849292405 -31.508096681562165 0 0 0 0 6.2787926852106466 180.94188276295063 0 180.94188276295063 93.064195065417152 0 0 0 0 25.372675707043527 248.65854412099725 0 248.65854412099725 319.6574015779006 0 0 0 0 155.72467885948572 234.67511173976436 0 234.67511173976436 -159.29007912861198 0 0 0 0 -18.832007692471961 261.38509823922323 0 261.38509823922323 129.94467483462586 0 0 0 0 159.46525173875125 333.29907754121996 0 333.29907754121996 101.47525306789794 0 0 0 0 293.97698253572162 180.00117161963681 0 180.00117161963681 83.62285778247292 0 0 0 0 462.28219469655596 388.80102431432169 0 388.80102431432169 308.79197185545854 0 0 0 0 882.40365358135386 -68.27163677178396 0 -68.27163677178396 3.8386459075318271 0 0 0 0 -13.007243702534964 12.924545875611457 0 12.924545875611457 -5.5667748304126405 0 0 0 0 78.376113366299251 253.49478054727388 0 253.49478054727388 213.76379250511673 0 0 0 0 540.67354531658202 86.264834757469544 0 86.264834757469544 -331.48588258177369 0 0 0 0 -12.410688582596478 45.936421854621145 0 45.936421854621145 -37.699922568407203 0 0 0 0 290.58641711563996 -89.241425727945398 0 -89.241425727945398 17.185699852127073 0 0 0 0 -0.65403317247412929 3.3791095997887055 0 3.3791095997887055 -3.0797814374014791 0 0 0 0 -154.8337575517362 182.37437415304703 0 182.37437415304703 116.89852045881526 0 0 0 0 463.91054552884452 111.53569361163318 0 111.53569361163318 -176.10174891531824 0 0 0 0 328.12295891992107 140.24124438840045 0 140.24124438840045 -56.008268617968497 0 0 0 0 -13.336025557478553 47.941046452190037 0 47.941046452190037 -38.132727123714261 0 0 0 0 -43.371563553137094 50.13319117473111 0 50.13319117473111 -42.618516194679614 0 0 0 0 -63.774431801015453 57.75970614517064 0 57.75970614517064 -31.274848566885339 0 0 0 0 -100.62061370450829 54.023667570854741 0 54.023667570854741 -29.90329120041315 0 0 0 0 -65.983966762043565 54.668745545079219 0 54.668745545079219 -32.145327692000137 0 0 0 0 -87.140927944026771 66.817889251226006 0 66.817889251226006 -29.513853097151696 0 0 0 0 -84.659770184895024 69.13346597783675 0 69.13346597783675 -40.149894968666558 0 0 0 0 0.8902259584126142 1.0273153806485453 0 1.0273153806485453 4.2168377900749476 0 0 0 0 0.91849325892306766 1.4181423244748146 0 1.4181423244748146 -10.36914426759347 0 0 0 0 -147.31157285586596 40.944600727551915 0 40.944600727551915 14.652750969296903 0 0 0 0 -95.850445246542222 72.081306792722899 0 72.081306792722899 -31.033249285836064 0 0 0 0 20.198199746851969 45.685757321360143 0 45.685757321360143 -46.800426604495442 0 0 0 0 -59.798623646944179 -46.848270126580246 0 -46.848270126580246 45.567128868506188 0 0 0 0 -73.016220271172642 42.786305542962509 0 42.786305542962509 -38.293249379908957 0 0 0 0 -91.621607777316967 58.251863511454985 0 58.251863511454985 -41.808338350780105 0 0 0 0 -15.086977391345727 4.2175458740362757 0 4.2175458740362757 -6.4791945092350005 0 0 0 0 -43.274061864722171 68.414143356505519 0 68.414143356505519 -26.077868689877505 0 0 0 0 43.826174515859748 49.55596046014216 0 49.55596046014216 -65.001759003998814 0 0 0 0 -10.200530691942021 34.134708852663579 0 34.134708852663579 -44.934497395199827 0 0 0 0 29.893741497710835 -30.81156910163304 0 -30.81156910163304 5.3250688765619998 0 0 0 0 35.140278143502655 80.304231062424151 0 80.304231062424151 -60.068205138257326 0 0 0 0 -100.09503779067018 -85.814546703362794 0 -85.814546703362794 75.264709613846208 0 0 0 0 -184.5840732146462 69.754579436154927 0 69.754579436154927 47.313069175630517 0 0 0 0 73.017885515240778 -16.377995222939717 0 -16.377995222939717 -52.830681323186582 0 0 0 0 -65.659268160630745 -49.592520081099792 0 -49.592520081099792 -11.559269177720125 0 0 0 0 0.80936867226926523 1.0765803879658904 0 1.0765803879658904 -5.4071070697536214 0 0 0 0 -39.830106349447306 -2.1149646395151649 0 -2.1149646395151649 73.060048787920095 0 0 0 0 116.26162938002199 -88.025421007345813 0 -88.025421007345813 -1.4634833722702751 0 0 0 0 -401.6029302720417 168.52039135971063 0 168.52039135971063 -166.63190672863129 0 0 0 0 4.5101864119651722 5.2112394452205706 0 5.2112394452205706 2.2532475819262316 0 0 0 0 -487.65978574012843 189.22720492150984 0 189.22720492150984 -136.34004687084234 0 0 0 0 -437.81598711165134 151.29302273492067 0 151.29302273492067 -174.79555695323324 0 0 0 0 -415.26802224508538 166.99355040568207 0 166.99355040568207 -66.25431855748684 0 0 0 0 -424.85590429939475 214.58231730936313 0 214.58231730936313 -126.32091291778124 0 0 0 0 114.88579245555047 -55.588757315677867 0 -55.588757315677867 -13.851220396620192 0 0 0 0 -503.6508070931086 288.05925058842695 0 288.05925058842695 20.317503742170629 0 0 0 0 8.6531873118797975 10.127951963719781 0 10.127951963719781 7.2526664359781989 0 0 0 0 -62.37837554426369 73.59775613970487 0 73.59775613970487 -21.789233906620211 0 0 0 0 17.904793301968311 16.79850527823146 0 16.79850527823146 -76.873844365542027 0 0 0 0 42.511640087453998 59.000929863701458 0 59.000929863701458 -6.1236057442183665 0 0 0 0 4.347101689370902 -21.478131029862197 0 -21.478131029862197 -24.891116633974889 0 0 0 0 -36.785344300358702 0.49291061100484512 0 0.49291061100484512 -44.975908274613175 0 0 0 0 -13.416511135226756 28.869551314575801 0 28.869551314575801 -12.347867338768083 0 0 0 0 9.4926630097907037 -2.1478696236554242 0 -2.1478696236554242 25.443652148693218 0 0 0 0 10.737975183219532 -23.156982127435185 0 -23.156982127435185 -29.138596698277979 0 0 0 0 86.765014136170066 18.705325733983045 0 18.705325733983045 -21.283738575482857 0 0 0 0 -46.780056773735851 -62.194770991874975 0 -62.194770991874975 51.112942779465811 0 0 0 0 134.70075767194794 82.137286887209484 0 82.137286887209484 10.307589908457885 0 0 0 0 136.1771621308161 -6.5023153234250799 0 -6.5023153234250799 -42.798845501616597 0 0 0 0 -24.052047533594305 42.865854729016064 0 42.865854729016064 -56.704949908526032 0 0 0 0 1.7288829497816494 1.8033118085302675 0 1.8033118085302675 -3.407130168264942 0 0 0 0 -135.85437369233841 91.078228275091533 0 91.078228275091533 -17.602574407383145 0 0 0 0 0.49491407469249182 3.4971199536013131 0 3.4971199536013131 -1.9878255574133306 0 0 0 0 -89.918627251487123 31.383745671021643 0 31.383745671021643 -4.4908232713787584 0 0 0 0 -83.970586112598539 53.122770951369603 0 53.122770951369603 -26.176808270385663 0 0 0 0 -54.790297019286299 24.733217972478087 0 24.733217972478087 38.334546429054171 0 0 0 0 -55.496679753181525 31.328222516873211 0 31.328222516873211 -12.250846127983095 0 0 0 0 -59.632260732478244 38.156315268241997 0 38.156315268241997 27.245079831380281 0 0 0 0 -88.056913218388218 28.372721745436138 0 28.372721745436138 30.479926879350387 0 0 0 0 -62.963297512455028 54.822504715331888 0 54.822504715331888 66.463137244401878 0 0 0 0 58.327137820015196 181.10528231811259 0 181.10528231811259 -42.4500389835448 0 0 0 0 108.87832350206372 32.123933299551936 0 32.123933299551936 -7.9193943991267588 0 0 0 0 2.1207095769885029 0.93911209267953666 0 0.93911209267953666 -1.8432265450247911 0 0 0 0 2.6720700691748789 28.163322665508986 0 28.163322665508986 8.0287204101186944 0 0 0 0 33.922331317109638 59.636932582488953 0 59.636932582488953 12.725344424441573 0 0 0 0 -10.633549767349905 -35.018658184424567 0 -35.018658184424567 23.552875185245284 0 0 0 0 -11.587422596232301 3.5702430765872748 0 3.5702430765872748 -5.2324814360915539 0 0 0 0 14.934305172180757 57.322830335866456 0 57.322830335866456 14.506775543290132 0 0 0 0 22.461024098738562 49.240870794588773 0 49.240870794588773 19.568279780265584 0 0 0 0 -58.439674670240493 40.111951331553428 0 40.111951331553428 39.706030989480496 0 0 0 0 -50.004800606533536 37.662342548122979 0 37.662342548122979 21.442300522046025 0 0 0 0 12.404176113832364 81.152860850583238 0 81.152860850583238 39.74859985733201 0 0 0 0 -96.644116282972391 22.377693390779314 0 22.377693390779314 40.953827003198967 0 0 0 0 -113.24207845407363 56.116853484651074 0 56.116853484651074 49.967672754672094 0 0 0 0 -159.87076041056571 70.239893932826817 0 70.239893932826817 62.869513460685994 0 0 0 0 -238.22298534362926 88.769481993092995 0 88.769481993092995 64.224402753505274 0 0 0 0 -166.03889093193357 -13.392584907982382 0 -13.392584907982382 57.023408525994455 0 0 0 0 -6.0309871078609234 -0.98919079173563063 0 -0.98919079173563063 1.3175214128583121 0 0 0 0 -46.840337319506943 -15.166330305773954 0 -15.166330305773954 45.336839421695913 0 0 0 0 -238.53460617412929 -16.690972362048342 0 -16.690972362048342 77.383096566038148 0 0 0 0 -44.187649562612933 157.48251590905784 0 157.48251590905784 10.828142995091184 0 0 0 0 -475.54041353597131 373.03238184943621 0 373.03238184943621 -96.88353118903251 0 0 0 0 -170.93415361766529 146.3247062192313 0 146.3247062192313 17.799352108297171 0 0 0 0 -91.42549351870548 128.9988148227967 0 128.9988148227967 16.52521365321445 0 0 0 0 -63.896217436675215 92.670071666507283 0 92.670071666507283 19.231781986920396 0 0 0 0 -39.481713795255928 100.77302224432424 0 100.77302224432424 11.306197906837042 0 0 0 0 -59.549852750074933 73.601512932651531 0 73.601512932651531 3.6890822904151719 0 0 0 0 -87.70681155926286 65.925731334975353 0 65.925731334975353 28.570298326216289 0 0 0 0 -88.412289107443939 69.845740862623643 0 69.845740862623643 6.7964540259927162 0 0 0 0 -121.36498255823244 42.80211252758636 0 42.80211252758636 35.081204378177063 0 0 0 0 -91.036110002591158 38.739324186853992 0 38.739324186853992 -1.3395501996346866 0 0 0 0 -99.784077552081726 40.883725142426556 0 40.883725142426556 34.762447059483748 0 0 0 0 -96.923762365586299 47.670733922674117 0 47.670733922674117 1.6517517384781968 0 0 0 0 -89.801115599133482 56.979962442288524 0 56.979962442288524 -1.0156070555176484 0 0 0 0 -80.868677290207415 52.314411654078867 0 52.314411654078867 -42.145364875374071 0 0 0 0 -126.77688853663494 69.633876169577889 0 69.633876169577889 -30.367773626894632 0 0 0 0 -82.148882595443865 61.309869002478081 0 61.309869002478081 -41.281836819583987 0 0 0 0 -82.664306638995185 57.743822903452383 0 57.743822903452383 -30.774143000954609 0 0 0 0 -67.358687857988116 67.708057428277243 0 67.708057428277243 -25.550984224741114 0 0 0 0 -57.729695315411846 49.152929251705245 0 49.152929251705245 -26.14729049566813 0 0 0 0 -77.271606715490634 52.625203752282687 0 52.625203752282687 -18.855519036151236 0 0 0 0 -29.010463784474268 53.746979193019797 0 53.746979193019797 -26.618349939195468 0 0 0 0 365.21159001733758 44.322579422811941 0 44.322579422811941 20.344632074426045 0 0 0 0 -1.0432237670881115 6.0136868640879442 0 6.0136868640879442 -9.7168008023949426 0 0 0 0 165.38677419512533 132.56384951545715 0 132.56384951545715 -0.41343393500210368 0 0 0 0 343.14566497724081 92.608903564358116 0 92.608903564358116 -55.151993598030458 0 0 0 0 202.22898334977799 109.3364600139721 0 109.3364600139721 13.987880849492285 0 0 0 0 -13.608670715153806 48.381042307921462 0 48.381042307921462 -36.131191535186545 0 0 0 0 -2.2708537047437858 79.738814613190698 0 79.738814613190698 -21.907435813111078 0 0 0 0 -31.221879922566586 75.075503208125156 0 75.075503208125156 -6.2029042325557384 0 0 0 0 -13.09308742712113 48.252098797086617 0 48.252098797086617 -34.385180896886851 0 0 0 0 118.23501804507032 95.661125662047198 0 95.661125662047198 -46.765923614428175 0 0 0 0 27.615147403212177 148.41449551921323 0 148.41449551921323 -41.560095538956375 0 0 0 0 -48.689414757483974 175.26219061941993 0 175.26219061941993 -51.006292130245129 0 0 0 0 219.64636875170254 31.076472469998407 0 31.076472469998407 -181.73651164964031 0 0 0 0 331.06186513294961 19.200311951452022 0 19.200311951452022 -39.80269132439571 0 0 0 0 -1.2852345388397453 7.297325280815798 0 7.297325280815798 -12.43604000246151 0 0 0 0 199.69320848930238 69.395145536039308 0 69.395145536039308 55.401823265136045 0 0 0 0 -871.38893727320828 201.00844234432952 0 201.00844234432952 392.75332097864157 0 0 0 0 486.81852340322075 -108.39296431474031 0 -108.39296431474031 -779.92270514868142 0 0 0 0 -1.5169010756605488 5.6841436053673391 0 5.6841436053673391 -5.4623753533745116 0 0 0 0 -404.30342333293083 264.15132899515265 0 264.15132899515265 236.91999373471481 0 0 0 0 -507.3410423172827 384.21673426426787 0 384.21673426426787 104.75554778207152 0 0 0 0 415.34051298297709 94.998587667479114 0 94.998587667479114 -194.11128623802506 0 0 0 0 -76.870824448691565 1.4977943180565489 0 1.4977943180565489 0.58798025010764832 0 0 0 0 -275.6063218023628 267.44365280827878 0 267.44365280827878 -84.190439917947515 0 0 0 0 30.06006846085802 3.8592075689157355 0 3.8592075689157355 -18.78012547590879 0 0 0 0 -433.59468724200269 -122.45212607869689 0 -122.45212607869689 9.4924639695309452 0 0 0 0 -9.5469746723813955 0.72878366694640206 0 0.72878366694640206 0.53808261121188394 0 0 0 0 -42.358573485507804 167.84498623476793 0 167.84498623476793 -554.05123642262333 0 0 0 0 -242.81666104317992 214.55686337814859 0 214.55686337814859 111.21492528095041 0 0 0 0 -401.03768004782614 437.86545542491876 0 437.86545542491876 -164.27143152145618 0 0 0 0 -227.45212461590563 190.48413180912394 0 190.48413180912394 81.07934419421872 0 0 0 0 -420.95694056490902 116.10114554015672 0 116.10114554015672 186.69242349128763 0 0 0 0 -75.183442954148632 -89.014347061262015 0 -89.014347061262015 229.63212904577676 0 0 0 0 -103.73299170287282 82.947077576898664 0 82.947077576898664 196.10310486222443 0 0 0 0 -256.95561600606015 206.01757626439849 0 206.01757626439849 130.37770537219694 0 0 0 0 -183.48002281266963 213.30032635266252 0 213.30032635266252 113.11807520729963 0 0 0 0 -275.66135792182467 166.0961877975933 0 166.0961877975933 115.70911999553573 0 0 0 0 -26.327151084391517 95.081857318942639 0 95.081857318942639 -25.57460569590512 0 0 0 0 -27.904975313496834 79.747301147894177 0 79.747301147894177 -17.610708627928034 0 0 0 0 -29.0715732506942 69.742638451862149 0 69.742638451862149 -40.767324044585621 0 0 0 0 -55.361231256503743 112.08886146965415 0 112.08886146965415 -31.91404630413308 0 0 0 0 4.2989663957778248 58.035462920812279 0 58.035462920812279 6.023452638539311 0 0 0 0 37.602214871230899 62.005142193995653 0 62.005142193995653 -78.87872345552023 0 0 0 0 27.55582234882786 90.535005708438348 0 90.535005708438348 28.187458153799525 0 0 0 0 8.2518550254476395 6.9215008299618717 0 6.9215008299618717 -3.5271384166502742 0 0 0 0 -18.764172405826685 15.074723945694132 0 15.074723945694132 -52.839483302317603 0 0 0 0 -7.2595577014230628 -4.0285489174244304 0 -4.0285489174244304 3.0994152974053222 0 0 0 0 -113.93374569267326 -77.402092645246739 0 -77.402092645246739 428.70610395710901 0 0 0 0 -4.2910116985003697 8.0752555916824349 0 8.0752555916824349 -151.91239994680654 0 0 0 0 -19.968117092481407 166.05885224847225 0 166.05885224847225 198.16958562478612 0 0 0 0 -43.935752203906304 74.630858417231138 0 74.630858417231138 42.375769103928178 0 0 0 0 -133.74078558798647 325.44841599763367 0 325.44841599763367 -369.06238069149549 0 0 0 0 -331.67348044237588 -194.65095650393414 0 -194.65095650393414 206.82293718382789 0 0 0 0 -44.385060862405226 536.13731030797317 0 536.13731030797317 25.85948177339742 0 0 0 0 32.299449913254648 37.799874978005391 0 37.799874978005391 -62.992263459695096 0 0 0 0 -18.874670033226721 15.177365541931067 0 15.177365541931067 8.3545506934242439 0 0 0 0 0.99196177000089847 6.5514779737579687 0 6.5514779737579687 -4.0309308015247822 0 0 0 0 -183.36713012180098 177.10335510437608 0 177.10335510437608 560.56602533805562 0 0 0 0 -17.344962368891743 3.4144350806039654 0 3.4144350806039654 0.81584734000554704 0 0 0 0 15.942053742830467 33.92259476570689 0 33.92259476570689 -6.5637829215447709 0 0 0 0 -7.5366904005553153 23.593956012981337 0 23.593956012981337 -12.14140292616608 0 0 0 0 -3.4425401802291162 16.671354821475688 0 16.671354821475688 8.2535562436460168 0 0 0 0 -31.001741248993426 23.5354737547122 0 23.5354737547122 -9.1791816132049924 0 0 0 0 -17.199281495608659 48.032483420236744 0 48.032483420236744 -32.641404804851391 0 0 0 0 2.9958309680223465 398.71078889684759 0 398.71078889684759 336.91810663904471 0 0 0 0 279.1380045167316 162.56135467451168 0 162.56135467451168 33.667506007855991 0 0 0 0 244.37487337471612 93.385123225220013 0 93.385123225220013 -91.429084235802293 0 0 0 0 239.85771694102732 285.89054307867627 0 285.89054307867627 -317.48706852152827 0 0 0 0 7.9121191385350755 7.5684933797058704 0 7.5684933797058704 -8.2487500284934612 0 0 0 0 162.17866960219544 -42.663294164034596 0 -42.663294164034596 -0.93792048992327182 0 0 0 0 133.11246784347622 -3.8130800717153761 0 -3.8130800717153761 -50.855004661003477 0 0 0 0 305.26176475028478 -46.453176233873819 0 -46.453176233873819 -119.34281442234351 0 0 0 0 60.68620466352877 150.68667235149042 0 150.68667235149042 54.50157520682842 0 0 0 0 0.8377038993859145 11.132079390495903 0 11.132079390495903 -4.4685469792352457 0 0 0 0 39.945787832708447 25.584041014818467 0 25.584041014818467 -62.720616119855549 0 0 0 0 -9.4559052843978861 104.97945090905705 0 104.97945090905705 115.41620912919825 0 0 0 0 55.038524028437678 139.7843818143956 0 139.7843818143956 10.906019193651446 0 0 0 0 44.938304186147434 90.844812307439497 0 90.844812307439497 30.279848221929569 0 0 0 0 64.301363511760428 41.866725949152169 0 41.866725949152169 -122.77320405982391 0 0 0 0 -1.5944230349409878 11.03756813553143 0 11.03756813553143 -5.5108957769953975 0 0 0 0 63.005063543381766 72.800287315872993 0 72.800287315872993 1.8846584128914401 0 0 0 0 -10.289672456097527 28.747706555357233 0 28.747706555357233 -9.0213163251207789 0 0 0 0 27.779088190996845 23.218884391753818 0 23.218884391753818 -37.2122767948822 0 0 0 0 26.018130625176127 51.816512645622424 0 51.816512645622424 -8.1134313068105257 0 0 0 0 -10.438946379866712 34.428610563020797 0 34.428610563020797 -12.890912236978863 0 0 0 0 36.216691825175076 68.528466126459534 0 68.528466126459534 19.258629617488623 0 0 0 0 64.152994282107102 43.365103071013436 0 43.365103071013436 -77.474140208098106 0 0 0 0 48.619676845184586 48.432826305164781 0 48.432826305164781 -30.13220884739485 0 0 0 0 43.959155303335137 68.89667845195072 0 68.89667845195072 4.5527104259745101 0 0 0 0 50.744773995345895 68.069486538846832 0 68.069486538846832 -27.579110010628938 0 0 0 0 -49.333878939149145 109.79925767472378 0 109.79925767472378 -60.133395073189604 0 0 0 0 5.7379955999931553 40.118766842449986 0 40.118766842449986 20.669454069568019 0 0 0 0 45.191372336965287 82.949910012746841 0 82.949910012746841 -45.584491395997247 0 0 0 0 46.441450815713324 38.772942988696741 0 38.772942988696741 -50.246077598750617 0 0 0 0 -13.44042079787323 51.435054817047785 0 51.435054817047785 -43.220431754152742 0 0 0 0 -38.986977072854643 114.90067302016541 0 114.90067302016541 -138.4244232682031 0 0 0 0 -88.029561171884779 52.867967380816481 0 52.867967380816481 24.132542394567281 0 0 0 0 -216.90349890757352 129.85422445628501 0 129.85422445628501 -16.767847195987997 0 0 0 0 -21.32462497090637 -21.950148450025154 0 -21.950148450025154 78.587528640222445 0 0 0 0 -213.65265939827805 105.2752929394992 0 105.2752929394992 46.581915570022829 0 0 0 0 44.04100818758161 118.15506896909937 0 118.15506896909937 11.407439246733247 0 0 0 0 16.77728454885073 107.22182765744583 0 107.22182765744583 156.13307632463693 0 0 0 0 -7.738320192251507 1.8343502695832612 0 1.8343502695832612 -0.09392884746246466 0 0 0 0 23.12797575355944 -140.14073799587982 0 -140.14073799587982 -143.33091891981167 0 0 0 0 270.35076414571085 -13.928919786352708 0 -13.928919786352708 -123.33446861816628 0 0 0 0 -194.68365735027692 -153.71544089818417 0 -153.71544089818417 66.792945172026521 0 0 0 0 208.89749368486082 226.09076660320079 0 226.09076660320079 -407.48191978818068 0 0 0 0 -298.88285506367538 270.45728816301926 0 270.45728816301926 -281.64768369448029 0 0 0 0 -264.11001238691597 230.89135478665276 0 230.89135478665276 -352.11978811950394 0 0 0 0 -3.159869698973651 0.67257516866311562 0 0.67257516866311562 0.16599454694727456 0 0 0 0 -301.4705892630227 61.785022339103307 0 61.785022339103307 195.97049317642814 0 0 0 0 -387.67956957033493 279.00945330080049 0 279.00945330080049 -12.9909837280793 0 0 0 0 -54.365261576524063 193.8238389470207 0 193.8238389470207 -362.80201756163297 0 0 0 0 33.916425297556998 -73.648074588323652 0 -73.648074588323652 -209.88941132999025 0 0 0 0 69.912411690602312 -24.722565713145741 0 -24.722565713145741 -91.08070104491344 0 0 0 0 -1.5168383167319845 8.4029509769332975 0 8.4029509769332975 -31.638174974417069 0 0 0 0 0.65378406327727134 109.92519654801799 0 109.92519654801799 -104.70409087577718 0 0 0 0 -4.8447686826057179 49.615052894798282 0 49.615052894798282 -29.384480630877079 0 0 0 0 -216.91963840911922 106.65637309422164 0 106.65637309422164 78.285387051353609 0 0 0 0 -183.6980252711619 90.870383328705429 0 90.870383328705429 17.835658739895734 0 0 0 0 -209.07093128934139 77.768597840746224 0 77.768597840746224 -37.612152517001959 0 0 0 0 -288.02650481923774 92.368351775483461 0 92.368351775483461 27.232326279690824 0 0 0 0 215.23267925520395 54.895059859483808 0 54.895059859483808 -43.974691220006207 0 0 0 0 -1.5877171995219932 6.4795141965511505 0 6.4795141965511505 -19.567024357419939 0 0 0 0 164.32118538512805 -64.698868364553618 0 -64.698868364553618 -180.59172399430099 0 0 0 0 -789.43530020647086 195.99071502099105 0 195.99071502099105 1.6205427590612089 0 0 0 0 -0.97985876472888478 2.4749061687626437 0 2.4749061687626437 -6.5707856735321002 0 0 0 0 -36.864029932545236 190.95902684104658 0 190.95902684104658 -255.13047044022096 0 0 0 0 -503.90405900866608 74.318185084310244 0 74.318185084310244 -31.994096081311 0 0 0 0 -405.78349203440666 320.62710377068652 0 320.62710377068652 -244.1950081943869 0 0 0 0 170.65562603871513 34.408519975042509 0 34.408519975042509 -315.54244934052258 0 0 0 0 -677.08981918312566 274.67289230383722 0 274.67289230383722 499.77305532875471 0 0 0 0 261.77733564458322 89.840161357271427 0 89.840161357271427 -314.87119222876936 0 0 0 0 -42.871503730611039 43.440893869095135 0 43.440893869095135 -17.958328696649502 0 0 0 0 -8.9356738944879908 101.77225214697683 0 101.77225214697683 90.379963547307852 0 0 0 0 8.1558664462445449 127.75476303800133 0 127.75476303800133 -0.22714530543453293 0 0 0 0 -22.388241844186268 86.041392474260647 0 86.041392474260647 78.404604454692162 0 0 0 0 -25.241644835674052 37.248186468195001 0 37.248186468195001 -16.894595063765067 0 0 0 0 -70.785842302539095 0.78562985822645715 0 0.78562985822645715 275.95944740642517 0 0 0 0 -15.686531647002084 80.12313334074679 0 80.12313334074679 17.880425660870969 0 0 0 0 -10.925820743628719 71.548718365731474 0 71.548718365731474 0.080238276692179422 0 0 0 0 4.8544562518019347 5.4449940478773442 0 5.4449940478773442 34.151497256738367 0 0 0 0 4.2201716207528079 26.493750176436151 0 26.493750176436151 119.01003213535296 0 0 0 0 34.819179539201286 12.300981359650905 0 12.300981359650905 1.2989498348470079 0 0 0 0 24.333788580632245 16.721304037528171 0 16.721304037528171 1.6224162526950749 0 0 0 0 31.431797885816195 -97.057694970000739 0 -97.057694970000739 -54.607230141715263 0 0 0 0 -22.834712995652808 -118.36711786262822 0 -118.36711786262822 161.63525101967389 0 0 0 0 18.420798494749761 46.561642953005503 0 46.561642953005503 -132.04883597855587 0 0 0 0 -8.8499645134370439 48.420793691274412 0 48.420793691274412 -97.594251294307469 0 0 0 0 41.987320466449091 1.4310947958383622 0 1.4310947958383622 -65.971412176506419 0 0 0 0 34.0459590620776 61.602582051360514 0 61.602582051360514 -86.427291567211796 0 0 0 0 37.67156052063001 17.190285106862575 0 17.190285106862575 -38.949761687108094 0 0 0 0 51.640166590234003 47.247680600316016 0 47.247680600316016 -36.855929478668259 0 0 0 0 48.058735530310514 39.595296864361444 0 39.595296864361444 -20.991500308151444 0 0 0 0 47.518150223686462 47.746119324142455 0 47.746119324142455 -12.63736010438879 0 0 0 0 -9.4917693321854859 31.946282314198747 0 31.946282314198747 -9.9781555689529284 0 0 0 0 30.249921089387499 34.024248068606539 0 34.024248068606539 -1.3780351660007 0 0 0 0 41.258647356902657 30.276084207809618 0 30.276084207809618 -2.1761145449381729 0 0 0 0 15.743977849539078 38.317407451191684 0 38.317407451191684 30.203397504606983 0 0 0 0 5.1217369635523937 29.563245242694393 0 29.563245242694393 65.649623565212096 0 0 0 0 24.579780027475863 19.647167910455209 0 19.647167910455209 28.675044902658556 0 0 0 0 -3.2586707628924216 32.266209779228021 0 32.266209779228021 -11.267691071225101 0 0 0 0 -1.3564200962321564 3.3359598129785866 0 3.3359598129785866 -6.0180503343640481 0 0 0 0 2.4512041816778947 19.536963042643038 0 19.536963042643038 -0.02036803349789439 0 0 0 0 46.031347669697425 24.386234689807679 0 24.386234689807679 -53.072380758814688 0 0 0 0 10.680174983281177 14.767522892390843 0 14.767522892390843 0.013674817364002761 0 0 0 0 2.5571555843030183 17.994413661362387 0 17.994413661362387 3.4378742131957551 0 0 0 0 -10.058676251435827 26.528198737141793 0 26.528198737141793 1.9919855418047518 0 0 0 0 -1.4614443232667043 14.814709308909514 0 14.814709308909514 2.5741740578837735 0 0 0 0 16.0720566124578 42.240958132769947 0 42.240958132769947 25.925454091273423 0 0 0 0 10.71760464941157 29.065211503163539 0 29.065211503163539 10.542176211866447 0 0 0 0 34.607170371084067 45.786838688054559 0 45.786838688054559 19.705037075167638 0 0 0 0 -9.5470676775220671 39.595519513852267 0 39.595519513852267 -3.6658688801215931 0 0 0 0 -164.31526632031455 54.053579259154503 0 54.053579259154503 52.72145644028933 0 0 0 0 -22.631485809376215 29.014331201685309 0 29.014331201685309 42.835660715888906 0 0 0 0 -6.1211025690425807 12.080006636177984 0 12.080006636177984 26.313087732427846 0 0 0 0 32.676000314989324 47.605811611098943 0 47.605811611098943 34.403642418110394 0 0 0 0 -233.43731065648171 -31.263345459330594 0 -31.263345459330594 68.378627163205238 0 0 0 0 -2.113684540394388 16.672017001090353 0 16.672017001090353 -51.795323376441956 0 0 0 0 -0.01333855778878501 2.7675299416967931 0 2.7675299416967931 0.84324197840083315 0 0 0 0 1.2318171955738109 0.34371938997890794 0 0.34371938997890794 0.12789470118011081 0 0 0 0 -410.97885418534861 120.92157489006058 0 120.92157489006058 -0.23385977676547817 0 0 0 0 -175.6913901302396 208.70038120959362 0 208.70038120959362 -45.84090829422712 0 0 0 0 -339.61241866363707 165.25007713484956 0 165.25007713484956 51.297322813916253 0 0 0 0 -114.97504174995265 103.89652527551152 0 103.89652527551152 61.900344020004013 0 0 0 0 -41.581583313023202 62.195360156218157 0 62.195360156218157 -6.6753247651067795 0 0 0 0 -8.2665699071367271 56.096384555723489 0 56.096384555723489 -5.6000445270601631 0 0 0 0 8.3422324363582447 66.27124277765688 0 66.27124277765688 -7.5247661977336975 0 0 0 0 4.6491087190613598 64.629308516978199 0 64.629308516978199 -0.70946932932565687 0 0 0 0 -36.870222663506866 66.020305078236561 0 66.020305078236561 2.3786278527331888 0 0 0 0 -38.40954266670451 67.492019824485396 0 67.492019824485396 16.838059014160535 0 0 0 0 -30.18286183620512 74.151548175992502 0 74.151548175992502 18.355149877213989 0 0 0 0 223.27738687747296 419.28955323410628 0 419.28955323410628 196.13427640964073 0 0 0 0 35.87612007970165 254.5365433498373 0 254.5365433498373 92.774515251789126 0 0 0 0 147.10084605882173 471.38617927665473 0 471.38617927665473 310.40079940471333 0 0 0 0 -111.68896539755951 18.556382467751973 0 18.556382467751973 -35.532333073977497 0 0 0 0 -69.824575245683263 226.47483979909157 0 226.47483979909157 252.60896319664243 0 0 0 0 -25.322325673930209 82.025954808499591 0 82.025954808499591 -5.4592215369630139 0 0 0 0 2.9979248533145437 221.96507284963445 0 221.96507284963445 176.65174407078302 0 0 0 0 -10.589984789257869 106.3257049833046 0 106.3257049833046 -61.104198597138748 0 0 0 0 -31.396145793758478 -4.6678026948648039 0 -4.6678026948648039 -78.760328583794035 0 0 0 0 87.684694415360354 96.837730415303668 0 96.837730415303668 -99.267731597454258 0 0 0 0 46.536022100458467 219.98637971257995 0 219.98637971257995 100.54348056729214 0 0 0 0 -54.019684222870637 102.79528694555484 0 102.79528694555484 25.948607177459053 0 0 0 0 190.34345937802334 82.369768919047601 0 82.369768919047601 -108.00752810982522 0 0 0 0 317.83830527197279 398.74443253215577 0 398.74443253215577 97.289028774262988 0 0 0 0 266.03373649285516 393.37794224871595 0 393.37794224871595 136.46939571062103 0 0 0 0 127.16467529379997 227.83700915236113 0 227.83700915236113 40.181891691376222 0 0 0 0 217.24566670890636 416.05642916638317 0 416.05642916638317 221.85571155395883 0 0 0 0 333.7255806702924 586.69281877224421 0 586.69281877224421 292.82846992201303 0 0 0 0 542.43452475732522 658.40656517016032 0 658.40656517016032 289.84053889586357 0 0 0 0 435.31437262181146 388.07054011458968 0 388.07054011458968 282.56119112604938 0 0 0 0 505.22844191791148 564.15045315265161 0 564.15045315265161 619.53315296192886 0 0 0 0 312.21270557616776 547.07914132271981 0 547.07914132271981 462.21333111472632 0 0 0 0 313.07564037406314 468.47294255514862 0 468.47294255514862 182.5948963118426 0 0 0 0 192.62407956777315 410.62810697162786 0 410.62810697162786 360.91566985764075 0 0 0 0 -8.6111590783730207 -4.6733560954162385 0 -4.6733560954162385 284.44302383858303 0 0 0 0 296.09333958645038 -7.0680021691505317 0 -7.0680021691505317 -134.73931296457886 0 0 0 0 45.090115394782345 -81.419009875462507 0 -81.419009875462507 71.141197306271351 0 0 0 0 2.2865627961522912 6.8240109191100089 0 6.8240109191100089 -7.3458970387380091 0 0 0 0 270.27199862319048 563.10483401441161 0 563.10483401441161 659.68985941890423 0 0 0 0 -69.382685022731039 563.21234902696233 0 563.21234902696233 688.55226925874013 0 0 0 0 363.65795196792544 407.48566507587384 0 407.48566507587384 -6.9544026117655449 0 0 0 0 85.270778051788056 450.80818233677928 0 450.80818233677928 -475.98442448195419 0 0 0 0 -193.76973696829145 170.52302235510433 0 170.52302235510433 -92.134797234895814 0 0 0 0 89.446830428784097 -16.423902877410001 0 -16.423902877410001 -476.83487507404061 0 0 0 0 -271.29424301242625 433.85267789419231 0 433.85267789419231 -574.51746629760601 0 0 0 0 5.9190823932849863 12.260278598835669 0 12.260278598835669 -9.9070952325203905 0 0 0 0 -219.19706670024607 119.05019370618538 0 119.05019370618538 -165.43030078904849 0 0 0 0 21.81933003880124 21.676619739094917 0 21.676619739094917 -3.5924586653163146 0 0 0 0 -54.042752954382877 231.70842272490336 0 231.70842272490336 -596.08191376582545 0 0 0 0 1.0607268638772211 179.60049884527689 0 179.60049884527689 -324.69405390549218 0 0 0 0 35.686015871178597 179.16951914795209 0 179.16951914795209 -376.30351485181018 0 0 0 0 -20.231982194331295 4.5822247163450811 0 4.5822247163450811 -113.39851054263272 0 0 0 0 -77.076334947336619 38.046424226091403 0 38.046424226091403 -60.563562602867023 0 0 0 0 80.913040350162873 12.855714902216278 0 12.855714902216278 -128.11063294579799 0 0 0 0 10.847429062139367 19.698461851713404 0 19.698461851713404 -55.63594299303324 0 0 0 0 -152.50023693321236 163.04789691776386 0 163.04789691776386 -218.74166162870824 0 0 0 0 7.3986636115996589 52.805661761070951 0 52.805661761070951 -235.84534194582375 0 0 0 0 -23.580990620736884 34.937612365749374 0 34.937612365749374 -115.14133405871689 0 0 0 0 0.28191661794225409 8.645051765684272 0 8.645051765684272 -5.5680688616492375 0 0 0 0 -25.968563640345565 86.746776581334416 0 86.746776581334416 -176.34278068679123 0 0 0 0 -12.812905820339438 71.335602433451641 0 71.335602433451641 -79.504197152098641 0 0 0 0 -127.66996849445968 44.75686532475811 0 44.75686532475811 -89.065172285932931 0 0 0 0 -42.210953999906437 36.93975570662279 0 36.93975570662279 -10.599191044830697 0 0 0 0 -20.636487383581965 55.365848006826397 0 55.365848006826397 -76.735792309886563 0 0 0 0 -36.23635719451886 83.742123135387374 0 83.742123135387374 -176.2388093041518 0 0 0 0 -26.150178981607226 62.010989468425734 0 62.010989468425734 -75.69801137618893 0 0 0 0 13.891623199657261 36.494016125194321 0 36.494016125194321 -77.974262021643881 0 0 0 0 -26.45509114503875 53.463227796144565 0 53.463227796144565 -59.368217792842188 0 0 0 0 65.573597468868684 211.85252058319202 0 211.85252058319202 -9.0364536308334209 0 0 0 0 -43.501410271885106 227.01278456857835 0 227.01278456857835 96.286194943173541 0 0 0 0 1.5649893022782635 138.45980285120822 0 138.45980285120822 -49.974250016646693 0 0 0 0 -138.44633242973941 155.38255572917842 0 155.38255572917842 56.927878248541674 0 0 0 0 -6.5527276188277312 21.859672094450133 0 21.859672094450133 36.079250220285701 0 0 0 0 -125.44723720974798 10.723706296774822 0 10.723706296774822 147.95913247101271 0 0 0 0 -21.41079330395587 17.411041675273736 0 17.411041675273736 70.583688899252593 0 0 0 0 -4.7002721927723314 -0.40708057866595482 0 -0.40708057866595482 5.4609751351744862 0 0 0 0 23.134010539659357 -12.255517011300981 0 -12.255517011300981 50.749377937558165 0 0 0 0 -31.794066644477425 91.915331874057301 0 91.915331874057301 -139.29278660971613 0 0 0 0 -68.462140024526889 34.458805330685209 0 34.458805330685209 -211.60341349168448 0 0 0 0 -64.826351395211532 70.866994212512509 0 70.866994212512509 -65.217036233185354 0 0 0 0 -69.005050629391917 100.33951693790004 0 100.33951693790004 -75.300362716334348 0 0 0 0 -46.89866272224026 90.548426476176246 0 90.548426476176246 -107.08340772746305 0 0 0 0 -41.707204273232492 75.776825563778402 0 75.776825563778402 -74.171115357924918 0 0 0 0 -39.293084379416541 61.024385294571402 0 61.024385294571402 -112.62411480295123 0 0 0 0 -18.442596576747746 81.983599201716061 0 81.983599201716061 -85.87838124242262 0 0 0 0 -51.483809410172398 65.802262949036958 0 65.802262949036958 -66.931037839749479 0 0 0 0 23.445848612551345 30.182734501548111 0 30.182734501548111 -39.643638929846929 0 0 0 0 -11.079055700392928 60.019300936270156 0 60.019300936270156 -53.796809242339805 0 0 0 0 -28.774015435964444 44.10657840384512 0 44.10657840384512 -9.9742507739970492 0 0 0 0 -0.52465551380724662 3.1509483638993316 0 3.1509483638993316 -5.4060298935468438 0 0 0 0 -3.6569763799996906 14.020802874776102 0 14.020802874776102 -39.509529581388136 0 0 0 0 -35.422052738751518 19.444728638940433 0 19.444728638940433 42.706169551122002 0 0 0 0 -78.960383050671226 199.67120172397335 0 199.67120172397335 -194.76671818296018 0 0 0 0 129.29206691937907 131.20634419553789 0 131.20634419553789 -128.46172082571138 0 0 0 0 -1.6704846381495031 0.44503507552849442 0 0.44503507552849442 -0.28460945508837199 0 0 0 0 23.17568930942798 184.79582530997868 0 184.79582530997868 -333.01213219192505 0 0 0 0 -37.661300938114437 12.154284353731782 0 12.154284353731782 182.92001897252339 0 0 0 0 53.300748216934153 44.440836696263432 0 44.440836696263432 -53.471835392570938 0 0 0 0 -55.873851913245744 144.3328169614324 0 144.3328169614324 -123.76043081666285 0 0 0 0 -66.21014798563192 71.714418569837562 0 71.714418569837562 -11.830231842861394 0 0 0 0 247.24662540418194 43.965255577494645 0 43.965255577494645 -96.364067572794738 0 0 0 0 55.700827986875083 58.844461939625035 0 58.844461939625035 18.462369278066035 0 0 0 0 109.41946227465087 -11.56926497619861 0 -11.56926497619861 -14.874506716454562 0 0 0 0 -12.825219122940325 32.652319383043505 0 32.652319383043505 -17.732391464884131 0 0 0 0 -31.404900883906521 78.939988369707862 0 78.939988369707862 -11.976489492466499 0 0 0 0 -24.753572627230824 80.628578135832868 0 80.628578135832868 -63.650936066784197 0 0 0 0 70.893606910478411 76.307693593735166 0 76.307693593735166 -32.397394177918613 0 0 0 0 -6.6521210576174781 40.363398292400234 0 40.363398292400234 -25.514880662320138 0 0 0 0 -77.059700598667405 55.005053702767327 0 55.005053702767327 -65.629048924728522 0 0 0 0 -28.111407527307165 60.582687229387375 0 60.582687229387375 -66.363629325249349 0 0 0 0 -54.380186387512367 83.350355704824324 0 83.350355704824324 -74.348839732992474 0 0 0 0 -59.307844531660521 78.468038714379873 0 78.468038714379873 -55.307691064779647 0 0 0 0 -65.094794817130605 69.572751130057441 0 69.572751130057441 -61.577218435897521 0 0 0 0 -67.805554159313033 71.959574640743085 0 71.959574640743085 -33.010878482462431 0 0 0 0 -58.587846442613227 54.282935928560619 0 54.282935928560619 -34.065671236825438 0 0 0 0 -22.167537885698948 69.600868705009816 0 69.600868705009816 -46.181684344614041 0 0 0 0 -59.842951845734206 62.373841917316895 0 62.373841917316895 -72.855415102778352 0 0 0 0 -13.948034857115603 46.716827619252626 0 46.716827619252626 -76.835216045246341 0 0 0 0 -69.937873908300389 46.796272352878077 0 46.796272352878077 -82.069171148425085 0 0 0 0 -67.506139354780316 69.218408647113392 0 69.218408647113392 -53.78274229499948 0 0 0 0 172.35728715573327 0.0031156402401393279 0 0.0031156402401393279 -96.18216084985761 0 0 0 0 -118.71202516524136 33.329460129923973 0 33.329460129923973 -63.143521635240177 0 0 0 0 -17.636524795753417 50.44197683654707 0 50.44197683654707 -74.491504899878009 0 0 0 0 -94.013108813687722 54.154441915623465 0 54.154441915623465 -81.417029134572658 0 0 0 0 -90.207627166062593 29.554859288524312 0 29.554859288524312 -79.13758886123469 0 0 0 0 -84.776714235924373 49.652723399381102 0 49.652723399381102 -57.156280625102227 0 0 0 0 -36.801106449827785 16.617981541414338 0 16.617981541414338 -75.74767992719535 0 0 0 0 -54.639412101460039 36.619235512567684 0 36.619235512567684 -75.177491025977361 0 0 0 0 -55.059067000622463 49.179349030588355 0 49.179349030588355 -60.472344957335736 0 0 0 0 172.60202440813282 288.10268024789184 0 288.10268024789184 438.38351791808964 0 0 0 0 -64.276838574318248 50.829677435754135 0 50.829677435754135 -21.952453951669092 0 0 0 0 -49.18573926866884 35.746407668772008 0 35.746407668772008 -102.87807888668613 0 0 0 0 45.654755590196146 388.71035352029139 0 388.71035352029139 624.01066165471275 0 0 0 0 391.07001611298256 597.12623786227778 0 597.12623786227778 561.88748696479888 0 0 0 0 445.41368263665936 465.14065197564196 0 465.14065197564196 1022.5093466860999 0 0 0 0 216.66747104917704 696.21941260906897 0 696.21941260906897 1176.407228856755 0 0 0 0 -7.359295935045008 10.35685110224893 0 10.35685110224893 3.9220119152230382 0 0 0 0 -374.91166352844448 496.94240171695128 0 496.94240171695128 1090.1311072001699 0 0 0 0 130.99328214679554 -1.9813919392508978 0 -1.9813919392508978 -23.810037519687285 0 0 0 0 119.93085286524229 58.934123553236077 0 58.934123553236077 -80.746588978421642 0 0 0 0 -6.4852548757626209 41.026575612493616 0 41.026575612493616 -64.868365748530778 0 0 0 0 -20.186874323444499 68.623813074827922 0 68.623813074827922 -77.755931677575063 0 0 0 0 -54.466844788863568 46.577686854273878 0 46.577686854273878 -18.936246516144216 0 0 0 0 181.77755645397701 175.29586064966497 0 175.29586064966497 -21.41722294475403 0 0 0 0 -58.01762685765425 99.245332417947793 0 99.245332417947793 183.69328053115896 0 0 0 0 33.38136824448884 138.83718140614656 0 138.83718140614656 186.58915924831672 0 0 0 0 -43.261490867622342 128.2037515647753 0 128.2037515647753 397.57421185342537 0 0 0 0 271.525343234508 452.39257616370014 0 452.39257616370014 298.50452541802952 0 0 0 0 45.127688372802368 206.16866850072074 0 206.16866850072074 164.72741021926049 0 0 0 0 129.1287205114304 243.99507164630268 0 243.99507164630268 1.3286492136612651 0 0 0 0 399.87884624628441 459.92116908937169 0 459.92116908937169 353.3442487908469 0 0 0 0 325.88067941198733 493.62104016032725 0 493.62104016032725 460.71572919122991 0 0 0 0 5.9804038997097706 1.833667749936879 0 1.833667749936879 -3.321623371861449 0 0 0 0 327.60757519382219 307.03594418764601 0 307.03594418764601 461.61657924897736 0 0 0 0 126.05220182623634 389.10230856222188 0 389.10230856222188 470.23560054290647 0 0 0 0 226.66706679381059 144.92125454322741 0 144.92125454322741 0.39142209877172718 0 0 0 0 171.46695170448947 549.07898607178504 0 549.07898607178504 661.31665555447398 0 0 0 0 3.7228981047637362 1.834046806825242 0 1.834046806825242 -2.6384864400440335 0 0 0 0 349.27539389461617 341.0012636891006 0 341.0012636891006 290.68234268932429 0 0 0 0 516.43019012244577 313.33722751474852 0 313.33722751474852 0.17326987031992758 0 0 0 0 571.4102204156643 440.86420422935043 0 440.86420422935043 156.71070969215361 0 0 0 0 588.98657570037585 487.79361951938517 0 487.79361951938517 281.96610271852114 0 0 0 0 484.75628847731969 367.63483283962705 0 367.63483283962705 352.45330188879961 0 0 0 0 420.85859312395405 409.14940423171356 0 409.14940423171356 299.57263683887322 0 0 0 0 465.38379954775246 328.47420616875024 0 328.47420616875024 280.83092262106948 0 0 0 0 444.02335897950934 545.31163462815857 0 545.31163462815857 330.79733684682287 0 0 0 0 577.88514629498513 943.99049380306678 0 943.99049380306678 900.81574341766827 0 0 0 0 543.79531937856336 690.96975246688089 0 690.96975246688089 421.33530856682046 0 0 0 0 12.483939380543839 13.7361174834287 0 13.7361174834287 -21.644169671134406 0 0 0 0 171.84094201078369 818.06983597646467 0 818.06983597646467 1498.2044542496733 0 0 0 0 420.41689341848905 58.000084057588538 0 58.000084057588538 328.77227753915213 0 0 0 0 4.1357779780918769 1.0145268183785703 0 1.0145268183785703 -1.5210235532946967 0 0 0 0 610.68141774697915 732.8488370102059 0 732.8488370102059 594.7097789356776 0 0 0 0 474.45757639011208 583.01030401544631 0 583.01030401544631 204.25739378115395 0 0 0 0 371.72739333695017 524.28995051031234 0 524.28995051031234 347.75779544888792 0 0 0 0 404.46929074395666 589.53582730303606 0 589.53582730303606 237.07344636285416 0 0 0 0 587.26803427234881 359.15678178625967 0 359.15678178625967 -77.714138501331945 0 0 0 0 412.91866032810742 567.16807317941152 0 567.16807317941152 -68.369989654282108 0 0 0 0 424.76231255142972 667.01255943954857 0 667.01255943954857 333.90403885052365 0 0 0 0 411.4550124811401 598.56333582377556 0 598.56333582377556 413.12252237115172 0 0 0 0 617.69583363283709 523.9111023573364 0 523.9111023573364 222.88821466945228 0 0 0 0 418.96845628312667 509.83249872843226 0 509.83249872843226 256.77723618558957 0 0 0 0 419.89426145800252 568.90949652560857 0 568.90949652560857 236.03283132746583 0 0 0 0 611.71401157829723 480.13442415270765 0 480.13442415270765 -0.18880599037220236 0 0 0 0 346.64315083083648 720.18691444367869 0 720.18691444367869 1.6754350340926172 0 0 0 0 183.78873448210533 783.58430234787284 0 783.58430234787284 414.05952976233675 0 0 0 0 180.19957858936436 754.02667301688143 0 754.02667301688143 769.52326833696134 0 0 0 0 308.53991416507233 559.63427253084592 0 559.63427253084592 325.21480626889388 0 0 0 0 217.7176903774257 528.19478402869572 0 528.19478402869572 456.38439455097705 0 0 0 0 234.66815167684945 535.64761309422101 0 535.64761309422101 330.77870286120014 0 0 0 0 289.82491493174257 294.7966600615764 0 294.7966600615764 320.88206865164102 0 0 0 0 503.85526718942947 370.9168063985926 0 370.9168063985926 0.14700714161153883 0 0 0 0 1.925946628401217 3.2605660566485426 0 3.2605660566485426 -2.7668086758970674 0 0 0 0 223.8472606909354 142.78959117268096 0 142.78959117268096 0.42196489243833091 0 0 0 0 381.24435471086872 398.54544943106157 0 398.54544943106157 582.31777771502675 0 0 0 0 404.52709909516511 511.95647750132048 0 511.95647750132048 334.10779552167514 0 0 0 0 395.47533433428907 509.40931114157866 0 509.40931114157866 368.88901992725187 0 0 0 0 1.585715638170818 5.1645382109997229 0 5.1645382109997229 -4.7843451876749157 0 0 0 0 378.68230357918674 499.27912356666275 0 499.27912356666275 328.7022650387662 0 0 0 0 392.81620686821361 522.60293962382457 0 522.60293962382457 263.38209187331086 0 0 0 0 199.71472822971168 493.9934740781755 0 493.9934740781755 338.40062436448079 0 0 0 0 323.90400877317677 462.60851205533254 0 462.60851205533254 332.85951059139188 0 0 0 0 283.92817902915817 570.52430597307466 0 570.52430597307466 123.40318798218505 0 0 0 0 84.147480944954168 290.64823822414473 0 290.64823822414473 233.93343135013129 0 0 0 0 336.47598591970609 181.668413430496 0 181.668413430496 -450.26198203671083 0 0 0 0 527.75644823415837 972.52521149139977 0 972.52521149139977 1041.2275843819298 0 0 0 0 3.4738918615569441 3.7323216131028829 0 3.7323216131028829 -1.7326152656766141 0 0 0 0 316.19764552353126 544.60079648105966 0 544.60079648105966 717.76102723116855 0 0 0 0 332.24578409644391 713.82918112639163 0 713.82918112639163 519.30834498446711 0 0 0 0 495.73467669083925 348.23964158595663 0 348.23964158595663 301.98197893211182 0 0 0 0 367.76385475606003 562.49109172807221 0 562.49109172807221 578.12118519602154 0 0 0 0 306.50135617817978 514.40332528065483 0 514.40332528065483 456.1026177101885 0 0 0 0 4.9617075419823777 5.7817124553114354 0 5.7817124553114354 -2.9132844037215477 0 0 0 0 371.20166146715474 494.02168360268843 0 494.02168360268843 265.56040595068316 0 0 0 0 182.40297785264011 784.44891057591667 0 784.44891057591667 1123.7085722091288 0 0 0 0 2.4717019261583992 3.4826030067259524 0 3.4826030067259524 -1.3969597519831467 0 0 0 0 96.392556987723083 231.16983452281215 0 231.16983452281215 -294.48622151699965 0 0 0 0 107.51684105995901 335.28441451818071 0 335.28441451818071 501.21373530825076 0 0 0 0 20.100842577961885 590.34870360174318 0 590.34870360174318 197.03024798506522 0 0 0 0 -12.176378113264946 730.29167587534175 0 730.29167587534175 199.01921838942144 0 0 0 0 -77.408052782502637 666.70113085635967 0 666.70113085635967 243.51889916974324 0 0 0 0 37.98750763696421 591.45412660324087 0 591.45412660324087 50.121147347803344 0 0 0 0 -40.25868595371503 573.7990200069944 0 573.7990200069944 127.71808319057163 0 0 0 0 106.21514249432403 901.99856434465619 0 901.99856434465619 145.51694621369279 0 0 0 0 44.905095634880126 503.65308812796866 0 503.65308812796866 -466.22063320477901 0 0 0 0 311.08280570478928 473.55081717727444 0 473.55081717727444 -795.5079939111456 0 0 0 0 937.54172916086827 1441.3402345251379 0 1441.3402345251379 61.719080265494995 0 0 0 0 126.37949371678951 864.56785676573782 0 864.56785676573782 -1336.7617433083215 0 0 0 0 9.5233698209051028 4.6251513058625164 0 4.6251513058625164 2.1785105358663941 0 0 0 0 862.68586282590877 -376.64019939876016 0 -376.64019939876016 -495.11508021016198 0 0 0 0 -93.290843080065841 638.71737272790267 0 638.71737272790267 980.16006994592317 0 0 0 0 -111.76371086203108 104.65060168958735 0 104.65060168958735 61.264774737806874 0 0 0 0 727.9447939702568 249.49587149899889 0 249.49587149899889 480.38967833484639 0 0 0 0 -92.465631700911672 676.34830489957312 0 676.34830489957312 1010.0409481395182 0 0 0 0 1015.4940091380877 963.81713022993063 0 963.81713022993063 585.55978196144133 0 0 0 0 51.336596428598568 864.47635295888904 0 864.47635295888904 377.61048881130409 0 0 0 0 -46.617391107699859 640.10818810557521 0 640.10818810557521 486.87093336324324 0 0 0 0 -392.70264615326596 1148.4232896395843 0 1148.4232896395843 767.88367971306434 0 0 0 0 -94.04465936971792 537.13241563586053 0 537.13241563586053 637.49473079067684 0 0 0 0 -64.921381615395148 537.0093566595242 0 537.0093566595242 614.07920787823969 0 0 0 0 -25.031494747679972 516.45894098022836 0 516.45894098022836 621.71981127846811 0 0 0 0 -22.93928358867015 538.36140756015084 0 538.36140756015084 257.23523539857706 0 0 0 0 -42.336422073611175 610.74015567119568 0 610.74015567119568 402.72211312895888 0 0 0 0 -3.9455595504186931 798.94210825522896 0 798.94210825522896 372.72064270680858 0 0 0 0 -26.89710878412734 720.56700818478203 0 720.56700818478203 300.57176916846583 0 0 0 0 -26.932113739207125 769.57282281691732 0 769.57282281691732 629.67326381706198 0 0 0 0 9.9084829163894028 769.34859367958052 0 769.34859367958052 395.21027617368964 0 0 0 0 244.28252817755629 743.22023249395897 0 743.22023249395897 249.59452621868695 0 0 0 0 -56.157324247302313 781.04381705951528 0 781.04381705951528 244.58060092933738 0 0 0 0 2.7751567468745861 719.56867268726 0 719.56867268726 306.4783136711776 0 0 0 0 -50.53943403897938 648.00211447473703 0 648.00211447473703 201.41969528499976 0 0 0 0 -172.28873326677967 725.49790090469833 0 725.49790090469833 154.32868699147366 0 0 0 0 30.623329687378828 660.62256919667925 0 660.62256919667925 90.293402199044067 0 0 0 0 21.055666359516181 692.73388316763885 0 692.73388316763885 64.826780339681136 0 0 0 0 10.675106565606256 743.91810146852367 0 743.91810146852367 95.420227147267724 0 0 0 0 1.3019502093138726 745.37755640063551 0 745.37755640063551 293.58326690084141 0 0 0 0 354.28973106490048 367.22019556623491 0 367.22019556623491 -270.63004599585111 0 0 0 0 1.4475341823686776 3.1085027050634011 0 3.1085027050634011 -2.7421079322596427 0 0 0 0 185.42371979058953 752.07317046470416 0 752.07317046470416 805.73024759424152 0 0 0 0 490.6370063786585 355.09656474698204 0 355.09656474698204 297.81462633821502 0 0 0 0 197.82127821964104 788.33851062905978 0 788.33851062905978 106.63966422554222 0 0 0 0 353.92608712039782 566.39031276546848 0 566.39031276546848 0.09836301388713764 0 0 0 0 395.43477817388157 466.08213830179011 0 466.08213830179011 240.80360939962338 0 0 0 0 -176.15836332698245 707.68070883863675 0 707.68070883863675 167.58911859421642 0 0 0 0 66.309630434685459 584.79263244487083 0 584.79263244487083 320.18725867973626 0 0 0 0 51.653584956482518 666.39709283423872 0 666.39709283423872 33.976038214921573 0 0 0 0 -120.73366559453825 762.28042708513749 0 762.28042708513749 0.23218785736389691 0 0 0 0 -215.96184755450759 650.60961927880271 0 650.60961927880271 91.20300393353682 0 0 0 0 -375.55752747663246 808.01526604271567 0 808.01526604271567 -0.13121019429672742 0 0 0 0 -180.93301047803425 730.79935010037025 0 730.79935010037025 62.833202348381747 0 0 0 0 -624.47787313606023 668.20878386396544 0 668.20878386396544 175.4193964810911 0 0 0 0 -1166.0312559443228 932.09949127985601 0 932.09949127985601 0.22042142605967704 0 0 0 0 -3.013240197550985 3.1408115435244781 0 3.1408115435244781 -2.9805571551122512 0 0 0 0 -1684.3113449976836 92.54550902327901 0 92.54550902327901 322.64579505148868 0 0 0 0 -494.38254429948211 48.962040329946831 0 48.962040329946831 324.24148752124165 0 0 0 0 -948.19589184379038 574.9295743808616 0 574.9295743808616 276.75812215177575 0 0 0 0 -601.37992596191179 634.00490338970121 0 634.00490338970121 103.09406667474104 0 0 0 0 -537.94880808874223 426.59628039157906 0 426.59628039157906 326.86176751586027 0 0 0 0 -619.26304254056049 601.25105569964944 0 601.25105569964944 177.73489185440849 0 0 0 0 -367.42248421811018 320.11308685256517 0 320.11308685256517 14.61367810908996 0 0 0 0 -335.88813571837818 613.23987534219486 0 613.23987534219486 90.607321744653746 0 0 0 0 -359.87463991749064 644.47915744028796 0 644.47915744028796 173.21637633880164 0 0 0 0 -171.34246293507624 712.03714093980511 0 712.03714093980511 110.67947750493477 0 0 0 0 -392.19327763508045 673.34940831645872 0 673.34940831645872 149.77543620699726 0 0 0 0 -388.33018242228718 664.97336650386205 0 664.97336650386205 138.39784104615319 0 0 0 0 47.635052630121208 519.54842031011231 0 519.54842031011231 0.3018611588740896 0 0 0 0 -318.49372817740368 605.61728225704792 0 605.61728225704792 165.370202292248 0 0 0 0 -154.20715612038475 610.25093256614491 0 610.25093256614491 -77.0525732746828 0 0 0 0 536.13052549631539 381.59309330359247 0 381.59309330359247 0.42274967174503009 0 0 0 0 130.57912824296727 330.52223078130191 0 330.52223078130191 190.05103939435503 0 0 0 0 310.93960687533399 504.91509861715895 0 504.91509861715895 223.72408663433953 0 0 0 0 163.50707364800382 298.31690208703549 0 298.31690208703549 213.2347103964712 0 0 0 0 -6.6815485071302163 8.0815493342234674 0 8.0815493342234674 -6.3246255645510132 0 0 0 0 -73.313500527372526 -67.185514695120219 0 -67.185514695120219 333.93824941095954 0 0 0 0 -149.63287147155825 527.76063499423617 0 527.76063499423617 523.35070479410933 0 0 0 0 -395.6537124884926 408.16606200745082 0 408.16606200745082 -186.7363022911959 0 0 0 0 -89.929046551515057 398.11033429866438 0 398.11033429866438 -525.73988801430096 0 0 0 0 -1381.0147454267353 1648.7214794611718 0 1648.7214794611718 -716.73388951954803 0 0 0 0 724.5047106872189 1114.4353039604375 0 1114.4353039604375 -607.75353521769284 0 0 0 0 -1170.8812123683238 538.41590286353312 0 538.41590286353312 352.57416094373184 0 0 0 0 -2.8638115051610669 4.3925181670390145 0 4.3925181670390145 -4.5694124092323705 0 0 0 0 -1963.6907259277941 727.20628814864904 0 727.20628814864904 350.78641316131689 0 0 0 0 -176.93212719409894 1058.2011472266163 0 1058.2011472266163 -374.16116024926305 0 0 0 0 -189.75374801368798 938.9027426085413 0 938.9027426085413 -38.987514186912449 0 0 0 0 -1358.9063145939144 1221.4167643919209 0 1221.4167643919209 -103.53131798030518 0 0 0 0 -3292.4929878133044 2011.634453507897 0 2011.634453507897 -953.57041846330685 0 0 0 0 -2164.0507773740974 2836.6333768720579 0 2836.6333768720579 -782.82471927331062 0 0 0 0 1844.5897642064556 1150.4609437233157 0 1150.4609437233157 -662.95361441577552 0 0 0 0 705.89361638484115 525.83187193892081 0 525.83187193892081 -56.454207657865481 0 0 0 0 -45.489331885866704 1665.1865901840429 0 1665.1865901840429 -793.04397080166382 0 0 0 0 572.45598371117376 785.10887369634293 0 785.10887369634293 -367.95169712304778 0 0 0 0 300.96424562164611 672.14503734761092 0 672.14503734761092 -243.41540455721406 0 0 0 0 710.0758769217864 515.36454770854471 0 515.36454770854471 -183.38090522866696 0 0 0 0 197.81623541644876 598.4097087195878 0 598.4097087195878 -86.648812360421289 0 0 0 0 345.72681622773325 522.77078923128829 0 522.77078923128829 -159.48742214651429 0 0 0 0 90.070807489046274 766.66155338492899 0 766.66155338492899 -73.942674748665013 0 0 0 0 11.606873431614076 660.54279800827499 0 660.54279800827499 -211.64964644949941 0 0 0 0 63.410535522343707 592.97006320661603 0 592.97006320661603 43.830463668564335 0 0 0 0 328.01572252163714 463.6152634853388 0 463.6152634853388 135.56965238574776 0 0 0 0 356.50078924303943 599.9281222743366 0 599.9281222743366 -7.7646559192507993 0 0 0 0 195.34473117806556 494.93652387403563 0 494.93652387403563 130.28580499139207 0 0 0 0 364.1112186433711 421.39635323863331 0 421.39635323863331 86.389428848953685 0 0 0 0 424.7224359898355 648.5205142405357 0 648.5205142405357 94.174334334791638 0 0 0 0 764.63351637313463 413.43989937970764 0 413.43989937970764 21.531388642542879 0 0 0 0 634.50125252720318 204.08300838118885 0 204.08300838118885 327.93722604568757 0 0 0 0 0.38642360514762153 5.3099871848471523 0 5.3099871848471523 -2.5703432417688532 0 0 0 0 2546.5627733823894 442.84935754500839 0 442.84935754500839 -691.62500367598841 0 0 0 0 1841.9256130561262 65.194901564507745 0 65.194901564507745 -50.391583477612585 0 0 0 0 897.77046004244767 270.23761822067536 0 270.23761822067536 -2.6947507515869802 0 0 0 0 513.43351332018938 493.76180373983516 0 493.76180373983516 -25.899221134823165 0 0 0 0 496.25995322480594 89.063815354631515 0 89.063815354631515 34.625402967591072 0 0 0 0 3.0819915607093353 14.243893495505105 0 14.243893495505105 -6.6626644577712568 0 0 0 0 -899.51027011654696 458.08185706908807 0 458.08185706908807 -74.223205580070498 0 0 0 0 -1241.1975276521771 674.39861984767049 0 674.39861984767049 -135.39876586606988 0 0 0 0 -1157.5689041011537 514.2359491051684 0 514.2359491051684 -366.89768750874646 0 0 0 0 -3341.523422131635 1136.9218931930616 0 1136.9218931930616 -34.195923020277405 0 0 0 0 -958.56679734857835 1038.0107499515543 0 1038.0107499515543 -565.10790822145646 0 0 0 0 -765.9841804697171 830.85627501375711 0 830.85627501375711 -196.60922404695157 0 0 0 0 -428.09007303314866 674.96605307577556 0 674.96605307577556 -413.55190776462405 0 0 0 0 -286.62214418936128 817.49578326095434 0 817.49578326095434 -405.92280798332649 0 0 0 0 76.530771244433708 606.85144433224923 0 606.85144433224923 1042.9618484739203 0 0 0 0 -304.14310385537465 539.23348865892694 0 539.23348865892694 -834.19848396535963 0 0 0 0 1.8956409052764513 5.9527393862897213 0 5.9527393862897213 -1.7532165600236311 0 0 0 0 581.45201020213653 585.65646090385599 0 585.65646090385599 721.13937603174418 0 0 0 0 -40.412157969971304 -117.46177184934641 0 -117.46177184934641 337.49369503182243 0 0 0 0 -4.3105755693155281 4.5673577653194108 0 4.5673577653194108 2.3445369505564031 0 0 0 0 152.80080362782064 36.976490647695755 0 36.976490647695755 -31.316306324646575 0 0 0 0 0.30846291997370301 18.978562149796915 0 18.978562149796915 -6.9082010488490937 0 0 0 0 -194.45575844313862 273.50723774574362 0 273.50723774574362 -336.76360409785411 0 0 0 0 128.33987833740684 197.65119362798578 0 197.65119362798578 61.107651152982726 0 0 0 0 356.41504960462044 381.85534051860304 0 381.85534051860304 -303.06309581702226 0 0 0 0 187.5813343863847 519.36855291940083 0 519.36855291940083 -358.52936560168746 0 0 0 0 -44.040039887047897 363.42537042125332 0 363.42537042125332 -82.080029449527501 0 0 0 0 41.215888214675942 7.1022483086489956 0 7.1022483086489956 46.534817519321223 0 0 0 0 200.79607930715065 473.78194975482256 0 473.78194975482256 732.60386884566105 0 0 0 0 -25.186565937281017 15.527926320634151 0 15.527926320634151 0.10019777753357317 0 0 0 0 -61.067072385652864 201.39635154038115 0 201.39635154038115 -246.33501768537099 0 0 0 0 -13.672421916104426 9.0124620254568129 0 9.0124620254568129 -1.1859865111822998 0 0 0 0 -249.0809663662294 175.92383447948669 0 175.92383447948669 1321.9881189232256 0 0 0 0 -2.2466921960059523 3.2483133711264998 0 3.2483133711264998 0.1794275788278803 0 0 0 0 290.74878647873993 35.810906986072951 0 35.810906986072951 1085.3375630624068 0 0 0 0 351.06264020170784 308.20261680051044 0 308.20261680051044 -593.15886736483662 0 0 0 0 33.040330281524803 170.27425906008284 0 170.27425906008284 -219.02480785254738 0 0 0 0 270.12421135237673 521.20895130524514 0 521.20895130524514 0.98235226792166941 0 0 0 0 208.54157538137952 406.04639226094878 0 406.04639226094878 -50.30993140838109 0 0 0 0 -335.73388057113698 896.96041644615252 0 896.96041644615252 128.10139432819233 0 0 0 0 -267.17247085688541 845.6047234017351 0 845.6047234017351 306.17117274619432 0 0 0 0 -170.95614515602392 662.89691162450799 0 662.89691162450799 257.32686680884945 0 0 0 0 -248.75791514417142 748.69768806604407 0 748.69768806604407 172.08659395751602 0 0 0 0 -309.68076556651795 661.89432584753922 0 661.89432584753922 57.946152321128466 0 0 0 0 -333.42929826022555 646.78020372567698 0 646.78020372567698 123.40977550292155 0 0 0 0 -337.00809810483224 609.42455911108118 0 609.42455911108118 -259.21784498337001 0 0 0 0 -267.35002809512298 854.62756692056428 0 854.62756692056428 -256.99728554220928 0 0 0 0 -424.0182027225826 712.52053993395657 0 712.52053993395657 -96.28419230896543 0 0 0 0 -316.53431760175317 888.20606617384874 0 888.20606617384874 42.021476978246938 0 0 0 0 -268.95739349508585 1056.3687399912305 0 1056.3687399912305 -34.197880538082245 0 0 0 0 -337.04092052328633 984.68102881235973 0 984.68102881235973 133.12573396034713 0 0 0 0 -307.01933530303359 1033.5790802166885 0 1033.5790802166885 105.97045103126948 0 0 0 0 -422.62137071877169 1081.4229450669409 0 1081.4229450669409 346.79203205992962 0 0 0 0 -339.02129757279272 1091.0771200979525 0 1091.0771200979525 3.047336390336568 0 0 0 0 -292.74387076732546 812.30326031916047 0 812.30326031916047 289.88798065159062 0 0 0 0 -359.56423150327646 1189.4104744979231 0 1189.4104744979231 41.643882363830926 0 0 0 0 -697.7741213156462 1661.4203183566931 0 1661.4203183566931 -649.22244102839613 0 0 0 0 -381.25882742469548 1064.252841729176 0 1064.252841729176 -76.824493102401902 0 0 0 0 83.594235728432977 889.27644268030417 0 889.27644268030417 -1601.9837717841438 0 0 0 0 9.9259085889771086 846.94001429908894 0 846.94001429908894 -675.51219021668658 0 0 0 0 -119.16359977108186 842.2244938713593 0 842.2244938713593 -518.65408269634645 0 0 0 0 -358.31434434004882 1196.9235355141091 0 1196.9235355141091 -58.444496107083978 0 0 0 0 -25.458775944031004 946.72221506019196 0 946.72221506019196 -26.999041397117253 0 0 0 0 -225.35144471788863 867.27658636879823 0 867.27658636879823 122.84717158265994 0 0 0 0 251.45764618506655 553.05478108337775 0 553.05478108337775 -76.72300171606912 0 0 0 0 -170.6005107325891 845.03362210206615 0 845.03362210206615 -112.94594754435821 0 0 0 0 -247.89092510830596 406.12888902753184 0 406.12888902753184 -454.42807594101396 0 0 0 0 -21.52682673468189 373.04351093957666 0 373.04351093957666 -583.43728598149028 0 0 0 0 -143.03750775929529 769.45824213046672 0 769.45824213046672 -127.11239534494234 0 0 0 0 354.60314523058514 343.49641640118352 0 343.49641640118352 -196.66606626297289 0 0 0 0 -1.2062180260866029 2.5404252060757244 0 2.5404252060757244 -3.8730118002023062 0 0 0 0 -649.98068853710902 181.12154722064952 0 181.12154722064952 72.537030862811662 0 0 0 0 496.66704283934087 92.621400035255647 0 92.621400035255647 -141.89793124439893 0 0 0 0 -27.419648177987256 241.16812344757636 0 241.16812344757636 -177.73362012325742 0 0 0 0 -68.752543658271861 534.1215245699459 0 534.1215245699459 333.45204802934313 0 0 0 0 -93.389858385531625 3.4012871952727437 0 3.4012871952727437 80.97524831109331 0 0 0 0 387.11801421372365 244.58070951647096 0 244.58070951647096 -883.4534424860467 0 0 0 0 43.724378605204038 512.96429079714289 0 512.96429079714289 -996.43827974511078 0 0 0 0 -16.707116548059275 543.45042213417764 0 543.45042213417764 -891.7482716102968 0 0 0 0 196.34840839025128 435.83600292951451 0 435.83600292951451 -910.95899611314235 0 0 0 0 21.633419940417298 363.74226330826423 0 363.74226330826423 -586.12310620183416 0 0 0 0 -103.22831728904748 378.03004657027486 0 378.03004657027486 -226.72353318645037 0 0 0 0 -110.77144215239605 360.46229764235977 0 360.46229764235977 -217.46450131097299 0 0 0 0 -62.693937003934934 304.42150216795199 0 304.42150216795199 -417.21489713503979 0 0 0 0 -35.147150413838972 185.41286369742011 0 185.41286369742011 -240.54670947069826 0 0 0 0 -60.089628262849146 272.43947410796409 0 272.43947410796409 -164.98006842071482 0 0 0 0 269.62147187985101 756.67596696606779 0 756.67596696606779 139.1438971343232 0 0 0 0 -146.41328859443456 122.7130897041643 0 122.7130897041643 553.14285818772623 0 0 0 0 -80.031259593924915 193.7758049734839 0 193.7758049734839 250.74996478485991 0 0 0 0 550.79372492621769 660.38142589146992 0 660.38142589146992 -1413.297694241468 0 0 0 0 38.607106688103158 240.97537724325593 0 240.97537724325593 -553.93309830326325 0 0 0 0 430.34675535728456 792.61148672620038 0 792.61148672620038 -292.47544160053803 0 0 0 0 580.07755441362315 363.34265919288737 0 363.34265919288737 -56.439990021055564 0 0 0 0 385.30268353650899 446.57626262187114 0 446.57626262187114 739.50877657922683 0 0 0 0 -13.047792079172723 797.43549524146874 0 797.43549524146874 736.24828808603343 0 0 0 0 326.72354297515449 697.22181977434229 0 697.22181977434229 4.3936920430569444 0 0 0 0 504.33966767293532 632.25091865491413 0 632.25091865491413 -13.404953014434795 0 0 0 0 251.69084075925394 599.98543509894751 0 599.98543509894751 134.23860495139525 0 0 0 0 367.53242778317872 393.14415879182707 0 393.14415879182707 16.61820989169064 0 0 0 0 284.11299347866225 311.65517298668783 0 311.65517298668783 257.13706679788447 0 0 0 0 102.17863068135193 325.4884473809434 0 325.4884473809434 500.43602085007365 0 0 0 0 521.82131391025268 708.88457550868588 0 708.88457550868588 490.2908931820275 0 0 0 0 2.4264249136432312 6.474382714366925 0 6.474382714366925 -0.56538883178304467 0 0 0 0 105.65390224573821 690.75423724926986 0 690.75423724926986 1417.3080374403507 0 0 0 0 241.12924193405343 626.14753371440383 0 626.14753371440383 636.45876458376006 0 0 0 0 87.295728566650723 444.57554173669087 0 444.57554173669087 629.76748238241998 0 0 0 0 99.292014791262773 -216.4567364802715 0 -216.4567364802715 640.4609575289287 0 0 0 0 -248.72919305552932 -27.832206951658009 0 -27.832206951658009 53.165133886039257 0 0 0 0 -56.4129648209273 172.28820855849335 0 172.28820855849335 4.8790238851124741 0 0 0 0 5.1111089255235527 5.1859910786901366 0 5.1859910786901366 3.1064030538344696 0 0 0 0 5.1682576379844676 4.5541438936092007 0 4.5541438936092007 2.8347120957325274 0 0 0 0 -22.335525129165035 586.9772817894991 0 586.9772817894991 1255.0873176959867 0 0 0 0 457.53665954150711 816.59807452854511 0 816.59807452854511 769.00763036622084 0 0 0 0 -162.33910429238858 197.90394071415358 0 197.90394071415358 548.61457770326524 0 0 0 0 169.54193477270388 307.58515913904444 0 307.58515913904444 399.70558671516483 0 0 0 0 169.10376097378685 594.48406848700688 0 594.48406848700688 769.54180069819267 0 0 0 0 110.42777619137814 142.06230131972461 0 142.06230131972461 200.67643477644015 0 0 0 0 72.32234099273046 308.05516405404342 0 308.05516405404342 419.51056042968412 0 0 0 0 377.99493192472437 142.40581629506778 0 142.40581629506778 34.490268493784242 0 0 0 0 138.64553613280805 159.1487493052482 0 159.1487493052482 196.72040952171665 0 0 0 0 -72.209794457274256 165.33136698465387 0 165.33136698465387 261.9913759956471 0 0 0 0 95.539862120480393 200.10597110030358 0 200.10597110030358 243.64363984306692 0 0 0 0 89.543010415734898 78.447511782600486 0 78.447511782600486 93.195668515283614 0 0 0 0 -65.461959863969241 156.28884609314991 0 156.28884609314991 107.62372678366592 0 0 0 0 2.1465635672189478 -3.9695352308940386 0 -3.9695352308940386 -1.9468817036969881 0 0 0 0 -210.70179696458945 87.257421353642712 0 87.257421353642712 103.49550193827599 0 0 0 0 72.737572117130185 219.46684218067094 0 219.46684218067094 111.30301846273505 0 0 0 0 242.73517148211613 316.86293421117443 0 316.86293421117443 339.1181578515243 0 0 0 0 64.389477953028177 133.58537345855598 0 133.58537345855598 217.6206577289704 0 0 0 0 230.58504297222316 171.69166959932045 0 171.69166959932045 175.12675402079913 0 0 0 0 207.22864008528632 172.89708758262714 0 172.89708758262714 179.12036293691563 0 0 0 0 120.03987925813999 166.08223702689429 0 166.08223702689429 20.8891752548152 0 0 0 0 157.0932972001774 80.727349226735896 0 80.727349226735896 62.598803551518358 0 0 0 0 18.736389416168095 -20.797102932563575 0 -20.797102932563575 32.54733732821478 0 0 0 0 86.098599629814998 53.361190944086047 0 53.361190944086047 -5.3429119367065141 0 0 0 0 15.052453148650557 10.3683296342939 0 10.3683296342939 -8.2261670088838343 0 0 0 0 -0.31168701725572134 15.010849843489126 0 15.010849843489126 -9.6389642125273554 0 0 0 0 250.58009810447038 -14.631339894891426 0 -14.631339894891426 259.33807029348827 0 0 0 0 63.089770779070733 62.0793518891453 0 62.0793518891453 -49.614988720085719 0 0 0 0 -1511.6088237050426 839.53105695391241 0 839.53105695391241 1467.5922232027006 0 0 0 0 -107.05922756786458 -503.57594157989297 0 -503.57594157989297 -304.97731672938698 0 0 0 0 77.91067426223708 238.83198858891592 0 238.83198858891592 302.02814497801592 0 0 0 0 6.2231065807687145 39.559946935160369 0 39.559946935160369 69.454929230402371 0 0 0 0 179.74074028166797 131.64299107544866 0 131.64299107544866 186.29133377850667 0 0 0 0 27.950963762659569 41.753448606879843 0 41.753448606879843 12.241280454081039 0 0 0 0 15.875138696709399 78.533710971730386 0 78.533710971730386 65.343198747994421 0 0 0 0 16.992722876428161 49.097247426674585 0 49.097247426674585 27.376212108545587 0 0 0 0 53.283566423823046 118.80946711742413 0 118.80946711742413 -10.066916124051573 0 0 0 0 47.889827126971795 95.291819596350251 0 95.291819596350251 47.318079857737757 0 0 0 0 33.252033204247709 96.26406755586504 0 96.26406755586504 47.255224441447353 0 0 0 0 7.2602466808166355 79.441006476401526 0 79.441006476401526 83.980750535905827 0 0 0 0 31.425174996438727 84.725004002340938 0 84.725004002340938 33.096375181165058 0 0 0 0 48.06400533213673 73.1886862821666 0 73.1886862821666 40.822583130553539 0 0 0 0 10.000524962844793 87.160696182894753 0 87.160696182894753 35.541988047392806 0 0 0 0 83.083752784848912 108.37269442854449 0 108.37269442854449 70.372591744526289 0 0 0 0 35.814623154249801 63.69504030984983 0 63.69504030984983 10.133037838956113 0 0 0 0 34.522937156502067 42.183761255787161 0 42.183761255787161 -2.7460469539456653 0 0 0 0 37.003760684019653 84.119207076291787 0 84.119207076291787 18.26674044172978 0 0 0 0 35.414560388686368 83.49212987050123 0 83.49212987050123 36.79162876738701 0 0 0 0 107.50374145714841 60.424847163576942 0 60.424847163576942 -29.741401000239421 0 0 0 0 13.630384254131059 89.22774953195767 0 89.22774953195767 92.727665669692215 0 0 0 0 17.953436394332165 19.402522455322213 0 19.402522455322213 3.6181689954192962 0 0 0 0 126.86275820316951 136.96220873863058 0 136.96220873863058 -68.423229214851744 0 0 0 0 86.904379046718532 18.16832311709004 0 18.16832311709004 22.985175240712124 0 0 0 0 14.404007733652406 58.274352378634262 0 58.274352378634262 3.2737541699607391 0 0 0 0 13.922675082736532 84.068354841292603 0 84.068354841292603 2.0760626514093019 0 0 0 0 40.329335208622751 47.433443000329945 0 47.433443000329945 36.369969295623633 0 0 0 0 13.42210438543043 71.456139774322764 0 71.456139774322764 2.8175174432253698 0 0 0 0 53.276353933182364 86.003913326558774 0 86.003913326558774 12.051163269879424 0 0 0 0 28.375551147182705 56.815739749697968 0 56.815739749697968 0.068082516256254166 0 0 0 0 46.429297748267743 77.105658912789153 0 77.105658912789153 -10.482218084115658 0 0 0 0 28.85039276528174 66.756491546369915 0 66.756491546369915 36.157940379620129 0 0 0 0 29.280676984461024 99.709099418396363 0 99.709099418396363 11.419616331957513 0 0 0 0 50.813024658299931 112.75801684140336 0 112.75801684140336 38.911569327150886 0 0 0 0 40.036645369371399 140.26789963234478 0 140.26789963234478 -26.98103859758703 0 0 0 0 3.2733778315014206 103.1279010058206 0 103.1279010058206 28.312811562005663 0 0 0 0 -65.359221462567803 131.14594556833617 0 131.14594556833617 96.445552225690335 0 0 0 0 55.380276634532493 114.88708536451941 0 114.88708536451941 191.24528569465656 0 0 0 0 49.071616264380282 107.81477794084367 0 107.81477794084367 153.36409520561574 0 0 0 0 2.7067637830184026 4.869194162558415 0 4.869194162558415 2.5910939593315732 0 0 0 0 19.982370264813653 93.023540602614958 0 93.023540602614958 95.459462635189993 0 0 0 0 -8.6285261691342114 57.887782274622708 0 57.887782274622708 99.221979708954137 0 0 0 0 19.372082747144745 37.990743588488172 0 37.990743588488172 37.465172202869809 0 0 0 0 16.505010949410519 53.990114991957867 0 53.990114991957867 7.8275957778838006 0 0 0 0 42.435070658927259 48.831794796619448 0 48.831794796619448 -26.144443978071656 0 0 0 0 30.211953568861645 85.773266265547136 0 85.773266265547136 9.4814709702586697 0 0 0 0 43.737150619872409 71.543697116259864 0 71.543697116259864 -8.5894551155361114 0 0 0 0 60.099055958376994 73.299664592833324 0 73.299664592833324 -32.687797787926684 0 0 0 0 40.144715539019671 64.634733495608089 0 64.634733495608089 -4.5117918921132514 0 0 0 0 56.37054358223395 66.982257939045667 0 66.982257939045667 -30.891850915031682 0 0 0 0 51.192065348370448 63.317304673219923 0 63.317304673219923 -63.655425110216015 0 0 0 0 45.220359898346942 55.426176990793465 0 55.426176990793465 3.1690649160154862 0 0 0 0 46.450176578262472 60.009827729016251 0 60.009827729016251 -4.5289764028566424 0 0 0 0 29.680181119331081 31.592003278299096 0 31.592003278299096 28.819927656252872 0 0 0 0 7.6071611882142491 10.40454751018909 0 10.40454751018909 -24.992963435812214 0 0 0 0 49.360542537991023 70.386542739920515 0 70.386542739920515 1.5835060397075722 0 0 0 0 560.23139210880436 125.65732673998355 0 125.65732673998355 -789.02440042664239 0 0 0 0 514.12430968195986 1864.7212916390417 0 1864.7212916390417 1222.3584106914641 0 0 0 0 117.11088396724949 46.124465833814824 0 46.124465833814824 -60.695209344343908 0 0 0 0 165.81437898231707 46.614077431790065 0 46.614077431790065 -69.004771255171363 0 0 0 0 387.29338445220492 187.23584060845678 0 187.23584060845678 -604.43628007849111 0 0 0 0 9.30206941364942 -21.974171775282429 0 -21.974171775282429 -26.113238881930201 0 0 0 0 518.52213498684796 34.344695285864873 0 34.344695285864873 -2212.3294293687577 0 0 0 0 25.377047955538728 173.55176102840778 0 173.55176102840778 400.4539323336212 0 0 0 0 21.758265474178188 202.08569041215014 0 202.08569041215014 601.73612337398663 0 0 0 0 128.08282949715431 273.53147174323567 0 273.53147174323567 604.6228123604451 0 0 0 0 102.212502947191 75.306162379146429 0 75.306162379146429 14.556345796291559 0 0 0 0 -134.52274481363202 439.37352852632102 0 439.37352852632102 -430.68567681412969 0 0 0 0 -242.22943392651541 -293.87791253830073 0 -293.87791253830073 -60.363623536104569 0 0 0 0 13.477259736011511 20.882101484185796 0 20.882101484185796 12.521529037242146 0 0 0 0 20.479397925394551 -235.58407545545924 0 -235.58407545545924 -1250.279666952556 0 0 0 0 47.834531823846191 1158.847109704162 0 1158.847109704162 17.764776957712456 0 0 0 0 -27.049177174552874 28.460434680259297 0 28.460434680259297 -22.259834039700408 0 0 0 0 -252.07422046004649 -973.00753137475112 0 -973.00753137475112 759.54369392547824 0 0 0 0 395.60821981256731 612.36498471159848 0 612.36498471159848 285.64933940012997 0 0 0 0 -415.32844625334747 1039.7148518886897 0 1039.7148518886897 802.79716775487157 0 0 0 0 796.05676873066841 -415.13093856282831 0 -415.13093856282831 748.4078335907252 0 0 0 0 799.41196032292646 -880.93056610622807 0 -880.93056610622807 -882.37931557645788 0 0 0 0 -689.45697172711516 799.63822089816676 0 799.63822089816676 2193.6554840849058 0 0 0 0 -192.19308101570641 336.85160645226279 0 336.85160645226279 189.96051496687869 0 0 0 0 -254.22685387329329 125.80788942461368 0 125.80788942461368 77.223426319491409 0 0 0 0 -275.15652610812049 67.854488007465989 0 67.854488007465989 265.80529287554964 0 0 0 0 -114.06171528658706 229.48351970102522 0 229.48351970102522 -186.86023239706992 0 0 0 0 -162.86608330112358 356.54941617121221 0 356.54941617121221 -511.16354298696388 0 0 0 0 -548.60190886328655 1052.075266165617 0 1052.075266165617 -616.23583726084325 0 0 0 0 -345.71976207901753 400.36917678640748 0 400.36917678640748 264.40900164430531 0 0 0 0 28.066796494309528 120.4293903646867 0 120.4293903646867 -62.384831755436608 0 0 0 0 -4.6081845915435835 6.2026453815188063 0 6.2026453815188063 -10.311022136599121 0 0 0 0 4.7220764627527387 81.404746867367066 0 81.404746867367066 -32.455885262206721 0 0 0 0 1.9369750591212025 8.5529105894047746 0 8.5529105894047746 -9.0312348904260773 0 0 0 0 10.791206953777873 -9.3522950757687795 0 -9.3522950757687795 16.530896762851626 0 0 0 0 833.88844159619475 1762.7761692830245 0 1762.7761692830245 -975.99868284634431 0 0 0 0 2.1331491612218088 -0.75405472943384666 0 -0.75405472943384666 40.037656592103303 0 0 0 0 -7.9904967391594255 14.13738503355853 0 14.13738503355853 18.185064558347221 0 0 0 0 31.845991056692583 121.23712019153027 0 121.23712019153027 -768.23914287117077 0 0 0 0 -12.241838492598518 15.637806355121072 0 15.637806355121072 -12.099442039520468 0 0 0 0 1092.1160909874743 214.15162300145312 0 214.15162300145312 -912.17561035444669 0 0 0 0 142.18449462180433 451.96537143699243 0 451.96537143699243 3572.6883193998947 0 0 0 0 -1.4761601353666052 5.1919837606749297 0 5.1919837606749297 -3.1363865356271674 0 0 0 0 -23.892218327440787 -63.186304862363613 0 -63.186304862363613 -183.2769355605077 0 0 0 0 -50.899888262974855 16.14497238038166 0 16.14497238038166 -357.51670853165706 0 0 0 0 130.46247458738435 1551.0279412116452 0 1551.0279412116452 -281.89006918914674 0 0 0 0 -1415.6654037410553 516.16506078246493 0 516.16506078246493 1780.8852479722991 0 0 0 0 -786.3463102043097 434.88799752455816 0 434.88799752455816 934.6773234630964 0 0 0 0 96.210252653074505 36.612042306638614 0 36.612042306638614 -71.825808009138001 0 0 0 0 279.29273510719577 197.00962271680328 0 197.00962271680328 273.76219108276564 0 0 0 0 1882.5944690709439 -1878.5598967324531 0 -1878.5598967324531 -475.83284018727863 0 0 0 0 1697.6459465860135 1843.8322082524023 0 1843.8322082524023 871.48396177588074 0 0 0 0 3064.6630784496811 -1285.2489787840022 0 -1285.2489787840022 -581.74672623113474 0 0 0 0 -777.92714733519824 1816.4605502089471 0 1816.4605502089471 2184.6240847393055 0 0 0 0 570.29346911831817 2595.4907003693697 0 2595.4907003693697 1465.7772666451547 0 0 0 0 -4.1081645023368765 1570.5816141126234 0 1570.5816141126234 613.42875043199274 0 0 0 0 -212.50196848978521 -671.49272304834813 0 -671.49272304834813 5040.6457737520323 0 0 0 0 1019.7596415150692 170.92782381643156 0 170.92782381643156 -343.55294595178566 0 0 0 0 2509.8486313333706 1951.5891587492151 0 1951.5891587492151 2117.1274725442745 0 0 0 0 20.908829324186911 14.565601997058867 0 14.565601997058867 13.301831987123833 0 0 0 0 -232.10224953748548 305.63073846758198 0 305.63073846758198 1807.1741468454202 0 0 0 0 -101.89888375387136 102.25282538471015 0 102.25282538471015 1457.0866242104457 0 0 0 0 -158.79306349756371 1050.373092073929 0 1050.373092073929 1460.0845586913474 0 0 0 0 63.794254383843509 564.10114780209551 0 564.10114780209551 154.71969751013967 0 0 0 0 53.603012120118365 572.22518238764678 0 572.22518238764678 736.75992808427691 0 0 0 0 -70.893245782761369 366.21872656838241 0 366.21872656838241 1058.0020439889486 0 0 0 0 -72.044763927123768 366.5185855986183 0 366.5185855986183 1239.5549038629761 0 0 0 0 -78.641683229383489 386.5226882903662 0 386.5226882903662 1230.101936614592 0 0 0 0 -241.30507157780107 467.00388879311697 0 467.00388879311697 1201.0421843647928 0 0 0 0 25.651553157280432 459.27513393833578 0 459.27513393833578 1284.9311465809114 0 0 0 0 26.612794694956392 472.13157939290613 0 472.13157939290613 1180.7405910303714 0 0 0 0 -38.091671892856851 10.134917105083417 0 10.134917105083417 -2.8134126614527801 0 0 0 0 198.86685042993508 501.03792967774029 0 501.03792967774029 1252.0567390834913 0 0 0 0 5.6206485626335052 230.9495219798373 0 230.9495219798373 1926.3377106851767 0 0 0 0 192.74933481141159 432.24280633340584 0 432.24280633340584 1662.4629348910712 0 0 0 0 35.323564493290178 118.60925327229234 0 118.60925327229234 780.55873427761253 0 0 0 0 19.222628656159941 94.28994900977159 0 94.28994900977159 1603.557010866527 0 0 0 0 365.80943604517506 470.12412138064246 0 470.12412138064246 -693.37708521525201 0 0 0 0 60.529825585136457 64.177594200896664 0 64.177594200896664 28.545776658151286 0 0 0 0 -135.32569300564137 285.59509748104028 0 285.59509748104028 -731.27242918542834 0 0 0 0 -13.742870296204273 224.85586611774488 0 224.85586611774488 -701.60521355391393 0 0 0 0 -426.16856805467978 300.05258335537656 0 300.05258335537656 -160.96031287637743 0 0 0 0 -828.19110195767826 697.04076363331842 0 697.04076363331842 -353.93077196184822 0 0 0 0 982.82026856947687 226.2261597033139 0 226.2261597033139 -606.52910488945417 0 0 0 0 138.0567508556951 -8.0408601630442718 0 -8.0408601630442718 -387.7185544314998 0 0 0 0 773.78024379512135 -235.26258973885706 0 -235.26258973885706 -322.57904927126765 0 0 0 0 -422.86231069789756 1095.6444746058387 0 1095.6444746058387 -913.90571731630189 0 0 0 0 -495.39225643224017 966.42237743035366 0 966.42237743035366 -911.79061106353765 0 0 0 0 -702.6643088977462 723.84451816316869 0 723.84451816316869 -762.59260284256015 0 0 0 0 -536.67174930665715 935.75707196994335 0 935.75707196994335 -782.71052468189919 0 0 0 0 -288.17159009935585 639.08044128157053 0 639.08044128157053 -1086.2084819614156 0 0 0 0 -155.30779104767043 305.38823257894546 0 305.38823257894546 -607.62339456125483 0 0 0 0 -268.8603771300368 769.02701334875019 0 769.02701334875019 -1315.6552289557658 0 0 0 0 31.778774215017147 45.78075538730873 0 45.78075538730873 19.881386217536409 0 0 0 0 -1064.3593312016706 -1247.7268613596689 0 -1247.7268613596689 2395.3878517657977 0 0 0 0 354.7140050208036 468.20267795221662 0 468.20267795221662 1665.7446297963688 0 0 0 0 -714.42680242656752 -975.09483063419975 0 -975.09483063419975 -302.25657850306743 0 0 0 0 -10.472459129445326 5.4593356877102366 0 5.4593356877102366 -1.7893536352139208 0 0 0 0 349.00255333285349 178.50613178567801 0 178.50613178567801 958.68305188915838 0 0 0 0 -605.31628211960378 80.485873406254541 0 80.485873406254541 1097.5204487796145 0 0 0 0 77.451132544509164 345.55154676487291 0 345.55154676487291 1495.2624115242033 0 0 0 0 15.91894296823591 437.38548272423691 0 437.38548272423691 1358.4909613834243 0 0 0 0 -112.62713683264428 1028.200478599596 0 1028.200478599596 -2317.6292393181666 0 0 0 0 -328.2401822271413 808.26862426415573 0 808.26862426415573 -1802.2000527273485 0 0 0 0 424.53654034270039 -440.79318914438045 0 -440.79318914438045 2135.3986785926536 0 0 0 0 17.304538089018223 29.133236915861602 0 29.133236915861602 12.035743461931517 0 0 0 0 188.11651730996709 100.92557924866014 0 100.92557924866014 80.947098150827514 0 0 0 0 6.3590127233574876 9.968422565063193 0 9.968422565063193 3.8782098213410237 0 0 0 0 -64.95271722329926 -225.44663578407017 0 -225.44663578407017 3179.0128051525153 0 0 0 0 104.04666573656232 830.6495688212708 0 830.6495688212708 -3230.9924872426727 0 0 0 0 1.0433437470361469 1224.809010730683 0 1224.809010730683 -2003.5494505314637 0 0 0 0 -91.395870942834563 991.72666193566647 0 991.72666193566647 -1725.129279316563 0 0 0 0 -197.92652984474353 550.62934481064804 0 550.62934481064804 -1577.4388798547516 0 0 0 0 98.190142994315465 533.84999752125441 0 533.84999752125441 -1174.9599052370249 0 0 0 0 -46.358043039783297 785.18434474231617 0 785.18434474231617 -1358.7389196599397 0 0 0 0 -162.6923984783225 652.20874276217728 0 652.20874276217728 -1092.2869709552397 0 0 0 0 -186.43920507882285 682.31502467349492 0 682.31502467349492 -1070.2488398129208 0 0 0 0 -213.68070059830484 717.46048190747024 0 717.46048190747024 -1777.1309887109601 0 0 0 0 -271.58069714942849 794.13352731508712 0 794.13352731508712 -1212.8043198590894 0 0 0 0 -193.15353574293749 831.05910471638344 0 831.05910471638344 -1318.4659532484657 0 0 0 0 159.57310420438444 968.43236241568229 0 968.43236241568229 -1265.0793567935616 0 0 0 0 -88.922352810691336 1120.7770536973403 0 1120.7770536973403 -1425.6319842579251 0 0 0 0 -277.89003326682359 1143.9767293810692 0 1143.9767293810692 -1145.7109709099168 0 0 0 0 -290.07998871446762 1098.6216263942188 0 1098.6216263942188 -1308.7796616695214 0 0 0 0 69.615450805229557 1208.5053982153295 0 1208.5053982153295 -987.38156437920406 0 0 0 0 -18.540482112701284 1087.7632087259626 0 1087.7632087259626 -1147.2776185479652 0 0 0 0 254.29763120203279 751.49147103782889 0 751.49147103782889 -1013.8811095717683 0 0 0 0 226.528410751509 847.28234955144217 0 847.28234955144217 -780.41981662104081 0 0 0 0 250.78479048940517 685.8980731939082 0 685.8980731939082 553.34676943488012 0 0 0 0 653.03297251842753 886.71380250198354 0 886.71380250198354 -1006.7822808369237 0 0 0 0 692.53361779077204 301.64086280430274 0 301.64086280430274 -421.83003642482799 0 0 0 0 51.228113665820274 577.91777109042778 0 577.91777109042778 -1658.6087139535084 0 0 0 0 2.709986995257168 652.18255012627196 0 652.18255012627196 92.452208682952914 0 0 0 0 -163.02540385415796 547.3585663229569 0 547.3585663229569 -701.6575587119296 0 0 0 0 138.53796630411853 510.78444698274689 0 510.78444698274689 -702.10113596561246 0 0 0 0 -90.504062262317802 719.90554077739216 0 719.90554077739216 -907.1790115157637 0 0 0 0 397.81982664344832 554.70525368167 0 554.70525368167 -871.08936212099434 0 0 0 0 349.19584111589847 447.23838929663179 0 447.23838929663179 -229.44708088765219 0 0 0 0 28.535516030759936 534.46642412509391 0 534.46642412509391 -249.94449483903736 0 0 0 0 -249.47128387726389 302.667197842311 0 302.667197842311 -275.08747717816004 0 0 0 0 195.42862456867078 486.30992462956783 0 486.30992462956783 -254.81099175077816 0 0 0 0 3.783594518276459 593.35639224140505 0 593.35639224140505 419.88354613997217 0 0 0 0 289.33024794185599 934.13973554874974 0 934.13973554874974 814.47247757740843 0 0 0 0 587.35747515186176 559.09206131604151 0 559.09206131604151 416.41759861551327 0 0 0 0 -6.3180065271855952 15.721321563581824 0 15.721321563581824 -11.580378178874639 0 0 0 0 62.44767275806953 504.23849470288224 0 504.23849470288224 -786.00303603519569 0 0 0 0 -2.4625143703444223 4.3636197503260803 0 4.3636197503260803 -3.4642655070251607 0 0 0 0 -32.91115260020797 1092.9550613248975 0 1092.9550613248975 1758.2471464882183 0 0 0 0 425.54757747406461 -844.78907980583881 0 -844.78907980583881 -2931.437335850118 0 0 0 0 -16.540483268112467 25.182150867109698 0 25.182150867109698 -9.6587559881938745 0 0 0 0 462.24209112878179 77.168335881979147 0 77.168335881979147 -36.709127138943586 0 0 0 0 5.3572228710107144 5.1720714627521716 0 5.1720714627521716 -6.734191279043884 0 0 0 0 43.016048232761023 191.24860594150232 0 191.24860594150232 -436.49125263984752 0 0 0 0 446.00418782853467 697.63717334074317 0 697.63717334074317 514.27756091175252 0 0 0 0 245.57056031752109 24.974501762633736 0 24.974501762633736 -1511.871465992328 0 0 0 0 2.8615608783393327 233.44147325035374 0 233.44147325035374 -272.10131830569298 0 0 0 0 -17.406356015643723 171.25282954581417 0 171.25282954581417 -127.62570079365105 0 0 0 0 -107.40063562550495 183.62435929253843 0 183.62435929253843 281.17497369590274 0 0 0 0 -9.0679931285189177 20.642729230174893 0 20.642729230174893 4.5371775551221276 0 0 0 0 -403.93539875375245 50.754850452001847 0 50.754850452001847 16.637658162260777 0 0 0 0 0.15892311479592536 229.90536779677677 0 229.90536779677677 67.162565161765087 0 0 0 0 -3.8959818736097915 4.4721670174761812 0 4.4721670174761812 1.6343858858975437 0 0 0 0 -11.850234507749178 14.957591480388331 0 14.957591480388331 10.072137026859139 0 0 0 0 -1290.4382996554104 1086.429444729416 0 1086.429444729416 -1035.3623408700041 0 0 0 0 -229.87419713685813 1164.4231224194737 0 1164.4231224194737 -1720.3089907566464 0 0 0 0 -110.02776799982558 161.71080233283078 0 161.71080233283078 941.77319681779045 0 0 0 0 -78.721404798359799 523.69593758038536 0 523.69593758038536 636.62260536531176 0 0 0 0 -649.36933247609011 2363.2977882112764 0 2363.2977882112764 -3025.7952182905865 0 0 0 0 -224.22767990958891 290.36135850056598 0 290.36135850056598 2363.1296429343711 0 0 0 0 -5.5864036505090837 7.4320059801852523 0 7.4320059801852523 3.4674341969074192 0 0 0 0 -682.50362798596143 1332.2823977553562 0 1332.2823977553562 -1983.4439758719527 0 0 0 0 -738.84301756103832 1369.8566244733993 0 1369.8566244733993 -1662.4152674520592 0 0 0 0 -92.669013270919095 1032.1527185549457 0 1032.1527185549457 -3054.1193637654724 0 0 0 0 -1668.5325500878178 1838.7404621180717 0 1838.7404621180717 -1878.6603993902972 0 0 0 0 -106.97698456705507 1340.8169514865999 0 1340.8169514865999 -2313.0641598288639 0 0 0 0 311.30777167965425 155.10437636569259 0 155.10437636569259 -1224.8438833291366 0 0 0 0 -329.34340591797263 -119.43420321865779 0 -119.43420321865779 771.9799808934622 0 0 0 0 -13.675417551450042 13.370625633020609 0 13.370625633020609 -11.237677765850094 0 0 0 0 -1135.8007563376086 1085.0930011900127 0 1085.0930011900127 770.85212398017757 0 0 0 0 -1000.3683074062255 923.20664781959204 0 923.20664781959204 90.19698731853714 0 0 0 0 -1449.7918092826139 1915.5904465361818 0 1915.5904465361818 -856.18196405659546 0 0 0 0 -616.3542186577406 1147.7549718126247 0 1147.7549718126247 -716.4650223506178 0 0 0 0 -1024.8303335331702 1628.1831140281051 0 1628.1831140281051 -1269.5907704477577 0 0 0 0 -198.34540015221137 1422.5351755259799 0 1422.5351755259799 -1178.3487835606211 0 0 0 0 -634.59119704299974 1301.2490965168327 0 1301.2490965168327 -1020.3214644170112 0 0 0 0 -444.87705670187643 1062.9180639813057 0 1062.9180639813057 -923.68759302911349 0 0 0 0 14.961284522200003 779.39013677292314 0 779.39013677292314 -2273.7857612547523 0 0 0 0 -498.56610081651843 1293.9826119317331 0 1293.9826119317331 -1705.0408196745557 0 0 0 0 -641.98453457997039 1417.0267645707863 0 1417.0267645707863 -3371.6544999253238 0 0 0 0 -694.06802489998881 1136.6630221300657 0 1136.6630221300657 -1329.4544756453406 0 0 0 0 -1608.621006621933 533.79381548286653 0 533.79381548286653 -2005.8113450260571 0 0 0 0 10.542243220173987 59.968386954460584 0 59.968386954460584 75.194044561936607 0 0 0 0 -3.3478275327070151 124.57480052684696 0 124.57480052684696 368.57376151918288 0 0 0 0 0.68049461906775832 -8.2664861851117166 0 -8.2664861851117166 169.62882902611818 0 0 0 0 5.5799269475683104 48.529474109378498 0 48.529474109378498 101.98508764758662 0 0 0 0 8.4658973355108174 -9.885551378101809 0 -9.885551378101809 45.65741838687245 0 0 0 0 -24.548983650121954 15.605364319668297 0 15.605364319668297 106.93721455390914 0 0 0 0 1.0194022480224021 9.0930209505827406 0 9.0930209505827406 5.0992374896315056 0 0 0 0 51.991384794091573 43.507401847982692 0 43.507401847982692 22.908121066117019 0 0 0 0 -26.971306909414125 54.234434408375819 0 54.234434408375819 60.133271700742625 0 0 0 0 -52.75538166554179 47.884609141205146 0 47.884609141205146 44.888395469199168 0 0 0 0 -23.749107944224946 24.290303033822568 0 24.290303033822568 32.046615380307003 0 0 0 0 -97.553724682409666 -17.066671438282356 0 -17.066671438282356 -30.873121083903243 0 0 0 0 15.305857792077887 12.102890096473573 0 12.102890096473573 -2.6029496026013703 0 0 0 0 13.661096258987527 60.547059211206943 0 60.547059211206943 56.178473556792596 0 0 0 0 -20.152315181560468 31.096374315284038 0 31.096374315284038 24.253307028536369 0 0 0 0 -55.240205030509969 60.22036162322911 0 60.22036162322911 34.340925863391021 0 0 0 0 -65.840198878067895 103.16976599644477 0 103.16976599644477 39.573243056191131 0 0 0 0 -69.82925956613326 16.849911327831705 0 16.849911327831705 52.115427667711629 0 0 0 0 59.876960602836334 78.280004965752596 0 78.280004965752596 -56.023245249591128 0 0 0 0 43.124476750056658 22.236577623152314 0 22.236577623152314 3.0587947764503944 0 0 0 0 226.79158489756082 638.91206181405141 0 638.91206181405141 1887.6655790207697 0 0 0 0 17.052624353476858 601.91834874055712 0 601.91834874055712 2195.8654178349534 0 0 0 0 240.54140214572544 516.70641349157086 0 516.70641349157086 1710.8938623550057 0 0 0 0 388.64710157244917 392.49929877217983 0 392.49929877217983 2043.4904637350046 0 0 0 0 -468.39858475363872 968.36891241643389 0 968.36891241643389 4327.0107989571798 0 0 0 0 239.12597288574034 211.31477105176236 0 211.31477105176236 -417.02759451735619 0 0 0 0 13.758909682204973 5.7819207259158816 0 5.7819207259158816 3.6920558776571948 0 0 0 0 574.302558327312 707.94488276234188 0 707.94488276234188 288.06649971982188 0 0 0 0 0.11022632472304394 483.51659642755476 0 483.51659642755476 2904.7412300629221 0 0 0 0 943.20561233514309 604.9071605503741 0 604.9071605503741 1943.1799201429385 0 0 0 0 -0.48364591283461777 1201.587320584109 0 1201.587320584109 1622.0246116501985 0 0 0 0 424.38967097005298 1115.5826428845294 0 1115.5826428845294 1.2601236824393709 0 0 0 0 748.75271101565886 350.43375332057985 0 350.43375332057985 -491.45415667441557 0 0 0 0 3.8746953116466329 6.8558921985550541 0 6.8558921985550541 2.1705056614563674 0 0 0 0 424.46353002231263 1724.129794598337 0 1724.129794598337 858.74102602610947 0 0 0 0 -3.0190564264812565 2181.9781969223695 0 2181.9781969223695 3093.7216018899644 0 0 0 0 5.5350176541382154 12.963594630811173 0 12.963594630811173 1.4252842077251273 0 0 0 0 232.64724217956245 667.56638980060598 0 667.56638980060598 1341.9909445735611 0 0 0 0 -318.58213014807552 738.50469040271491 0 738.50469040271491 2088.7829171678895 0 0 0 0 118.38087883095432 686.18724040315647 0 686.18724040315647 1871.7519361517043 0 0 0 0 -121.97470537591653 792.79763761150571 0 792.79763761150571 3208.3279734918688 0 0 0 0 340.19338823791531 1079.9237153763024 0 1079.9237153763024 831.71856676292373 0 0 0 0 264.88773680787563 1347.4935752266101 0 1347.4935752266101 1817.722836322841 0 0 0 0 1.7923234439162457 7.5154261281372072 0 7.5154261281372072 1.8662561642157396 0 0 0 0 440.08156469534879 1228.1564905110517 0 1228.1564905110517 -208.06849314209012 0 0 0 0 583.94048373002806 850.55804389483274 0 850.55804389483274 762.11502986495907 0 0 0 0 662.74306429756325 1029.1228619971398 0 1029.1228619971398 714.62704489341559 0 0 0 0 747.78361343091092 768.42767424659178 0 768.42767424659178 713.06380879119388 0 0 0 0 1224.3147973862942 1116.5645375536842 0 1116.5645375536842 697.63571047740697 0 0 0 0 597.0706689773433 968.82053222577815 0 968.82053222577815 653.94261720820214 0 0 0 0 146.88130169297801 756.29931450591539 0 756.29931450591539 1242.762259113304 0 0 0 0 458.86615381282172 581.40337860531326 0 581.40337860531326 446.86759952169086 0 0 0 0 -158.11071771429852 -77.106861952128384 0 -77.106861952128384 79.406288008001866 0 0 0 0 -2.5752806593271771 0.72686168739065238 0 0.72686168739065238 8.2913127409730691 0 0 0 0 612.33246851562581 818.01595823743264 0 818.01595823743264 703.54218169709748 0 0 0 0 -10.929546670231346 4.2764519947773465 0 4.2764519947773465 -6.0903496708523335 0 0 0 0 -11.895927474852215 68.500972491247012 0 68.500972491247012 35.204091057785263 0 0 0 0 -52.163723817711798 -3.1131637663693255 0 -3.1131637663693255 45.765663500220398 0 0 0 0 -47.659865608467953 -6.1225290524525917 0 -6.1225290524525917 -29.501166196656413 0 0 0 0 -32.918412753635494 3.9193377159099327 0 3.9193377159099327 1.2839397737989202 0 0 0 0 9.6529594561143313 12.125638311874354 0 12.125638311874354 -26.857175106968498 0 0 0 0 -20.015604063950832 -8.3012153640655413 0 -8.3012153640655413 4.6683874236170197 0 0 0 0 -40.050918430888771 4.1338728770447801 0 4.1338728770447801 11.562015281244449 0 0 0 0 -87.441750220648828 -21.487870554803521 0 -21.487870554803521 22.114066402747994 0 0 0 0 -88.717731189739425 -46.574032029966475 0 -46.574032029966475 -16.561454064396457 0 0 0 0 -106.65455127162568 -42.313914629412466 0 -42.313914629412466 4.8769368184366613 0 0 0 0 -8.2800697186746532 1.1013479175893792 0 1.1013479175893792 -1.5077397940555102 0 0 0 0 -9.3174912629820739 2.2126274694679751 0 2.2126274694679751 14.99057846637649 0 0 0 0 83.35808028280735 144.71312893439244 0 144.71312893439244 663.25460791516525 0 0 0 0 215.15601029317622 618.87351961283275 0 618.87351961283275 885.2649528572947 0 0 0 0 -163.78714774173568 102.00723360768461 0 102.00723360768461 970.53998536334439 0 0 0 0 -60.348823583262856 581.01475838059559 0 581.01475838059559 1868.2018056612278 0 0 0 0 234.31649616645882 378.91058058605267 0 378.91058058605267 1248.5171103651955 0 0 0 0 29.918425038093119 537.4606649265188 0 537.4606649265188 1138.1602239846761 0 0 0 0 -4.177403661686327 20.926447192989087 0 20.926447192989087 8.8453470855161491 0 0 0 0 -6.2759365388919832 40.292170970635198 0 40.292170970635198 17.53330327749336 0 0 0 0 108.60778119507449 -169.9484643525866 0 -169.9484643525866 484.74491072124511 0 0 0 0 3.5109738466787519 11.133740821930814 0 11.133740821930814 7.9911165557316792 0 0 0 0 -17.388958402870813 35.652574164506575 0 35.652574164506575 21.063440934599726 0 0 0 0 -41.294595853101782 10.04148753768095 0 10.04148753768095 27.87063871997816 0 0 0 0 172.63853669383207 263.69149695357919 0 263.69149695357919 215.57877793502121 0 0 0 0 6.8403611709458971 22.147149668321205 0 22.147149668321205 8.9812608806479108 0 0 0 0 32.815011861297535 61.344225952536362 0 61.344225952536362 50.586097406496265 0 0 0 0 -791.38030939656164 -141.92109096897912 0 -141.92109096897912 259.2361218230144 0 0 0 0 -44.950076787299068 19.734119353173043 0 19.734119353173043 39.838303592685037 0 0 0 0 24.538258896529442 19.66828713752966 0 19.66828713752966 21.852868843896431 0 0 0 0 -10.273894711601315 29.164645032520639 0 29.164645032520639 67.351970979420003 0 0 0 0 -9.8754718929558294 35.039256254145585 0 35.039256254145585 19.905626483045125 0 0 0 0 -45.895388505909068 18.328234084945507 0 18.328234084945507 33.856753102867515 0 0 0 0 -43.261430562437425 22.566657119677018 0 22.566657119677018 34.580844306242994 0 0 0 0 45.145697567371826 40.392677172243566 0 40.392677172243566 6.4739939016581047 0 0 0 0 53.63991740228812 110.9886017715944 0 110.9886017715944 54.772922653125079 0 0 0 0 -16.004420739001944 86.328563906667114 0 86.328563906667114 4.876627994402952 0 0 0 0 -181.70757430857338 -8.0164576289826073 0 -8.0164576289826073 2.8614037389918394 0 0 0 0 -244.67086706504051 -394.5428698255273 0 -394.5428698255273 -120.97510127223359 0 0 0 0 -88.33334175982236 -15.005685622986675 0 -15.005685622986675 -21.012323829825618 0 0 0 0 -3.9614841564005872 2.3230213700367131 0 2.3230213700367131 3.3271619155948997 0 0 0 0 -1.0546658273601679 14.798442372676618 0 14.798442372676618 3.8055883427587105 0 0 0 0 -2.3651623747500707 1.880519483696844 0 1.880519483696844 0.51979643385857344 0 0 0 0 -27.42547923930033 6.0634679043359938 0 6.0634679043359938 7.8072819839726435 0 0 0 0 -25.627277069659613 0.81992891583649907 0 0.81992891583649907 -1.9763492015117663 0 0 0 0 -25.689414279255288 5.8258339080402948 0 5.8258339080402948 0.88025028191623278 0 0 0 0 -41.086083122048876 8.5347820836032042 0 8.5347820836032042 5.588496464130003 0 0 0 0 -25.27062063631729 2.908675396702165 0 2.908675396702165 12.623286995134549 0 0 0 0 -21.750623608216301 12.620710608081481 0 12.620710608081481 5.3214320216502529 0 0 0 0 -36.198177989790565 6.4983608690818073 0 6.4983608690818073 6.0245836579852039 0 0 0 0 -22.274303195611537 8.0138978684126414 0 8.0138978684126414 -0.60200946370605379 0 0 0 0 -10.626894443471841 2.2866524427140575 0 2.2866524427140575 1.4999921245843666 0 0 0 0 -101.68786507732148 -26.076403963626944 0 -26.076403963626944 -45.37495178815152 0 0 0 0 -25.777485538943438 -19.743066626149812 0 -19.743066626149812 7.1010830797604285 0 0 0 0 -17.859599636867642 28.03345970720693 0 28.03345970720693 2.5449466236314038 0 0 0 0 -3.4004600671216991 0.46413640039475013 0 0.46413640039475013 0.89360540273776223 0 0 0 0 -0.66848787620378758 0.95242130168881545 0 0.95242130168881545 -0.16039116069566717 0 0 0 0 -59.618966837930202 -0.9114815962202556 0 -0.9114815962202556 4.0358737980750448 0 0 0 0 -731.67529357437525 -66.785170635477698 0 -66.785170635477698 322.26350622738391 0 0 0 0 -41.250835730817926 7.4319334321626229 0 7.4319334321626229 2.9319624107083655 0 0 0 0 -36.093041789887025 2.8115895315078205 0 2.8115895315078205 -2.1248151728505036 0 0 0 0 -75.967556698546105 -8.4472450955836393 0 -8.4472450955836393 5.7241310967765457 0 0 0 0 -45.18884172673279 -2.6320798665474285 0 -2.6320798665474285 -7.3862229486112483 0 0 0 0 -47.973276588571025 -1.3772397085704142 0 -1.3772397085704142 5.3261057237177738 0 0 0 0 -455.22005548296875 203.30714053870543 0 203.30714053870543 561.47616356899016 0 0 0 0 -447.34551799736073 185.15395888076091 0 185.15395888076091 89.037092980775924 0 0 0 0 -4.2565483940454669 3.4987259466688272 0 3.4987259466688272 -1.6620623329126261 0 0 0 0 482.67234747693601 339.12485480082023 0 339.12485480082023 -234.5275966057452 0 0 0 0 -248.67935087836668 -102.84552515258838 0 -102.84552515258838 306.43985983258244 0 0 0 0 190.68608584871617 356.49642101145582 0 356.49642101145582 339.43168704336858 0 0 0 0 -523.40214247849872 122.14263673935784 0 122.14263673935784 211.31485856053769 0 0 0 0 -512.43174118568095 -218.22018430440221 0 -218.22018430440221 -91.202723248468828 0 0 0 0 -323.43763611646136 -33.850359142485104 0 -33.850359142485104 183.08665302609734 0 0 0 0 -389.53111500465457 61.380311734457791 0 61.380311734457791 62.847232704007183 0 0 0 0 -400.50697693849361 286.58506190069966 0 286.58506190069966 -157.94055729580577 0 0 0 0 -767.90226965427428 -125.09320700331591 0 -125.09320700331591 24.645707482002763 0 0 0 0 -737.45925234429887 -220.94690596178043 0 -220.94690596178043 15.565306687480188 0 0 0 0 -663.23629728861124 -189.77646337341139 0 -189.77646337341139 -102.49190113450459 0 0 0 0 -3.3739310248006511 -1.4691693924288387 0 -1.4691693924288387 -3.4314675611362304 0 0 0 0 -23.011737502456214 6.7033402423177506 0 6.7033402423177506 3.5385238734486677 0 0 0 0 -38.208762407688482 -2.7313197873772879 0 -2.7313197873772879 -4.2354104665137129 0 0 0 0 -30.838974263657292 -0.57239257435139734 0 -0.57239257435139734 -4.9132312992151128 0 0 0 0 -46.263114377965394 -5.2885918790925643 0 -5.2885918790925643 -1.8556077309185639 0 0 0 0 -35.070451460480399 8.4157046342661488 0 8.4157046342661488 1.5637944672516824 0 0 0 0 -29.20822758310311 9.0550348729151153 0 9.0550348729151153 1.551408289165721 0 0 0 0 -90.949780589173315 -44.121527296694694 0 -44.121527296694694 36.737202574193361 0 0 0 0 0.96566901940968819 -5.09355579464318 0 -5.09355579464318 -116.51109272913891 0 0 0 0 -7.1901082793920068 461.85812568484107 0 461.85812568484107 0.63069466880733671 0 0 0 0 573.43586599071568 542.80748446299549 0 542.80748446299549 11.729765795675121 0 0 0 0 -3.30421634261468 4.4386140717467129 0 4.4386140717467129 -3.0711385530798054 0 0 0 0 105.0984104596937 165.91513054323514 0 165.91513054323514 -11.727901098340226 0 0 0 0 -143.02801640981215 -23.574970060922169 0 -23.574970060922169 42.108891465773922 0 0 0 0 -76.447590072737512 50.749999789401045 0 50.749999789401045 53.9506456143572 0 0 0 0 -131.12192250246153 -70.966855683858739 0 -70.966855683858739 10.569343502444099 0 0 0 0 -0.054717282188562422 0.52463894374372444 0 0.52463894374372444 2.8241661063634069 0 0 0 0 -355.66237229091348 -115.52276338564843 0 -115.52276338564843 191.78565231176253 0 0 0 0 779.13379911485026 766.58886354560673 0 766.58886354560673 131.91783740236133 0 0 0 0 399.96284349127018 444.0446351705632 0 444.0446351705632 462.180137285417 0 0 0 0 -0.33126486748099637 1.1841899028826788 0 1.1841899028826788 -1.7236119369477194 0 0 0 0 -1312.752413915885 688.24868521517055 0 688.24868521517055 58.056464872483048 0 0 0 0 345.25627204871853 676.03458372593741 0 676.03458372593741 26.344233323965454 0 0 0 0 -1967.5575301730169 105.2240638838266 0 105.2240638838266 243.67606999989948 0 0 0 0 -57.500927609915379 -229.50048878431699 0 -229.50048878431699 138.05344236608653 0 0 0 0 -1.035620386353262 1.6267567346994838 0 1.6267567346994838 -0.35705761536971181 0 0 0 0 -851.15042397728394 230.01251007068277 0 230.01251007068277 -134.29318876516481 0 0 0 0 -1343.8190758310225 -58.272552267538686 0 -58.272552267538686 65.457166890395456 0 0 0 0 -1307.8462483154744 254.35902620711613 0 254.35902620711613 -61.288135836672154 0 0 0 0 -820.69947440809847 172.49303963686543 0 172.49303963686543 -118.15366633470694 0 0 0 0 -1137.1707028462661 -77.948128031326632 0 -77.948128031326632 -273.56861806729285 0 0 0 0 -6.5661306282630107 4.0044159963463812 0 4.0044159963463812 1.4259210449187663 0 0 0 0 33.293360731957364 23.071027069534466 0 23.071027069534466 -108.69098424007825 0 0 0 0 -604.10091291153367 328.3555707217638 0 328.3555707217638 -177.36993151895877 0 0 0 0 -1152.9611731331024 -113.95332617194435 0 -113.95332617194435 33.054019133924157 0 0 0 0 -1344.4388490370475 -376.41349386799266 0 -376.41349386799266 -151.30189780256478 0 0 0 0 -1.8995219779939987 1.7817827617593025 0 1.7817827617593025 -2.2939617756001383 0 0 0 0 -766.78257186346309 141.79482983692651 0 141.79482983692651 -146.77612704940839 0 0 0 0 -845.89439849581686 278.77971747275296 0 278.77971747275296 -383.94866179410383 0 0 0 0 -425.17520909309678 341.72596475322644 0 341.72596475322644 -156.3071915301698 0 0 0 0 -467.4624840114011 396.67517205597687 0 396.67517205597687 -221.14443111630681 0 0 0 0 -238.42585215970757 526.89137743833271 0 526.89137743833271 -188.8933318137133 0 0 0 0 -258.12248973898386 398.90487835081876 0 398.90487835081876 -204.19585402007215 0 0 0 0 -836.66720401598286 205.79598428210738 0 205.79598428210738 -160.92506808450162 0 0 0 0 -826.64089853453424 301.91432867783124 0 301.91432867783124 -78.807304814617964 0 0 0 0 -411.94910213895855 502.0813324551782 0 502.0813324551782 -0.16399070268515875 0 0 0 0 -453.41843030240852 460.68134128847669 0 460.68134128847669 -113.02848372235167 0 0 0 0 -173.8085152325948 473.79608769502738 0 473.79608769502738 -176.3735389930298 0 0 0 0 33.189997480756574 526.74811228899489 0 526.74811228899489 -177.88430182386219 0 0 0 0 -259.82920575024764 467.12077283002873 0 467.12077283002873 -108.44027959405503 0 0 0 0 -131.80396384468622 540.8033833376976 0 540.8033833376976 -140.31457344838054 0 0 0 0 -189.25985368083639 471.18443503007438 0 471.18443503007438 -125.86624196495541 0 0 0 0 -113.20358550888341 541.81228067929624 0 541.81228067929624 -156.87592198510902 0 0 0 0 -11.201183560187928 551.37395261408528 0 551.37395261408528 -93.149634914894705 0 0 0 0 -106.68797372965491 513.18068812135061 0 513.18068812135061 -41.932381434482522 0 0 0 0 150.66737344242574 598.35854648875102 0 598.35854648875102 -57.892743504256941 0 0 0 0 35.273844074527005 455.30494448788522 0 455.30494448788522 77.817409690207569 0 0 0 0 -37.820607325236779 778.51151336875046 0 778.51151336875046 -53.010086039664202 0 0 0 0 -12.933064239801752 471.85048940201159 0 471.85048940201159 -73.520552073707222 0 0 0 0 -202.42399628392013 494.72226461144965 0 494.72226461144965 60.797476499894401 0 0 0 0 -217.46753371598425 595.22821089779518 0 595.22821089779518 -20.248074945309781 0 0 0 0 -93.812028857289988 416.38234388250567 0 416.38234388250567 -205.61632623008154 0 0 0 0 -168.4230641366521 605.98786661183112 0 605.98786661183112 -50.550945995084476 0 0 0 0 -421.53640191553859 278.14486639140523 0 278.14486639140523 -77.757528034679126 0 0 0 0 151.57184817545931 299.28617646744533 0 299.28617646744533 -80.175800227518266 0 0 0 0 -24.552222373524273 170.37059255514032 0 170.37059255514032 584.75542191199202 0 0 0 0 208.3085676023511 163.18337812844766 0 163.18337812844766 115.63749937641842 0 0 0 0 -110.98309205477563 361.41551104033715 0 361.41551104033715 165.88535347666766 0 0 0 0 172.99244791502861 702.60784350626636 0 702.60784350626636 -4.6457147604887723 0 0 0 0 -3.0995027932614363 3.3087706216395247 0 3.3087706216395247 -1.4141355597070344 0 0 0 0 242.47935923443583 522.85841451057058 0 522.85841451057058 1184.5640295478952 0 0 0 0 -79.078287425727467 189.35183262055216 0 189.35183262055216 585.87241653936508 0 0 0 0 251.10081052491296 343.05523325572722 0 343.05523325572722 637.92305271212535 0 0 0 0 41.233875502890442 559.76757496190839 0 559.76757496190839 682.52118232069188 0 0 0 0 -7.8647390450185242 6.6608500276416294 0 6.6608500276416294 -2.4198313729795586 0 0 0 0 88.390605179884005 814.65797169922735 0 814.65797169922735 712.09388883710199 0 0 0 0 18.978739446152758 755.95528177334927 0 755.95528177334927 -605.88623100057157 0 0 0 0 34.912233531819538 453.00685520134084 0 453.00685520134084 -62.446067515338655 0 0 0 0 419.33626097146043 122.72880198244093 0 122.72880198244093 205.56853266937105 0 0 0 0 -67.254786192024767 345.18718599060958 0 345.18718599060958 1563.7877034579578 0 0 0 0 200.02761046326486 570.58017834009661 0 570.58017834009661 -889.8194608629201 0 0 0 0 -3.2402290854472255 4.3356577540644707 0 4.3356577540644707 -0.0076890935708959773 0 0 0 0 -121.96790676345609 594.99131487247996 0 594.99131487247996 -773.93442072605831 0 0 0 0 -52.628186368297065 72.249411477023386 0 72.249411477023386 1166.5215931648199 0 0 0 0 -125.38986512941483 214.57056496191944 0 214.57056496191944 1253.0090358298767 0 0 0 0 -3.7688531618278489 4.6646569222957623 0 4.6646569222957623 -0.89283845140278473 0 0 0 0 -158.77944635483436 434.02544232297805 0 434.02544232297805 685.83688736033582 0 0 0 0 -5.5582281639100728 7.2464139996233428 0 7.2464139996233428 0.44647366024006274 0 0 0 0 52.907193857481616 611.31248985238199 0 611.31248985238199 250.72940677456791 0 0 0 0 34.360244783680628 294.10749500567806 0 294.10749500567806 316.99612989160232 0 0 0 0 128.52811086117435 267.11035336760688 0 267.11035336760688 651.87597224547062 0 0 0 0 -390.29373787212171 652.04197088308501 0 652.04197088308501 579.47301560384221 0 0 0 0 -33.498273289347708 56.255150812830834 0 56.255150812830834 1231.861061353884 0 0 0 0 115.60939774728467 279.5166298350232 0 279.5166298350232 -243.28278025969303 0 0 0 0 -127.67735731220455 439.83370150119299 0 439.83370150119299 -93.918848239547515 0 0 0 0 127.81527809203544 302.91863638670475 0 302.91863638670475 -1334.0425043726245 0 0 0 0 -41.128417387455556 458.10187001582381 0 458.10187001582381 -580.24081019265577 0 0 0 0 -73.513279379578307 426.77618608091143 0 426.77618608091143 -260.34963356705703 0 0 0 0 -48.076717719886801 166.73911499520909 0 166.73911499520909 -293.17671902957954 0 0 0 0 -58.482598423788659 101.70351083561582 0 101.70351083561582 -684.2094566008891 0 0 0 0 -253.47129442794903 360.86681290877095 0 360.86681290877095 -218.85384997507208 0 0 0 0 -200.13209530553286 684.0002068101021 0 684.0002068101021 -665.78284144538338 0 0 0 0 -40.812087373810755 215.16194438620732 0 215.16194438620732 -663.09860503919481 0 0 0 0 -40.849836444653192 441.35011275078796 0 441.35011275078796 -60.498057893404621 0 0 0 0 113.59837228607648 316.0014193605457 0 316.0014193605457 -286.48578046819603 0 0 0 0 75.912825122322829 418.80706461350928 0 418.80706461350928 104.58841588442738 0 0 0 0 445.90936318193417 362.53274784064706 0 362.53274784064706 -157.20587091246853 0 0 0 0 209.34799770549353 99.739341964883579 0 99.739341964883579 189.91160993471567 0 0 0 0 50.094074980799633 473.52406297952257 0 473.52406297952257 1297.3779382124476 0 0 0 0 -172.00134351275119 212.77872362256676 0 212.77872362256676 681.37651282443403 0 0 0 0 186.29246917532873 323.87147372559048 0 323.87147372559048 -70.678672778536566 0 0 0 0 2.1419981127461654 9.5579899751544701 0 9.5579899751544701 -0.56562624331491484 0 0 0 0 223.59171292154861 360.14897160275359 0 360.14897160275359 -920.10954640791169 0 0 0 0 0.83231264856684106 4.0627707811727589 0 4.0627707811727589 -0.051267504450429158 0 0 0 0 -201.28753453129775 230.44403386381282 0 230.44403386381282 385.83385952271055 0 0 0 0 -174.74787196194802 337.66731910294675 0 337.66731910294675 420.67483490465384 0 0 0 0 109.37871783617447 159.31334061779125 0 159.31334061779125 -257.87689829996089 0 0 0 0 3.6547643591655685 11.207138673962277 0 11.207138673962277 -0.94153942517786149 0 0 0 0 288.46353759792328 367.65993023547708 0 367.65993023547708 253.16905066878007 0 0 0 0 0.57743722028044431 311.31372297114285 0 311.31372297114285 512.07761494064471 0 0 0 0 609.36507522980173 269.73931809387432 0 269.73931809387432 494.77146315522987 0 0 0 0 -41.739698804660293 340.26332811127941 0 340.26332811127941 1110.3958542118635 0 0 0 0 -44.927585284010092 301.60125665371652 0 301.60125665371652 718.73237121501006 0 0 0 0 91.285844462458044 459.05877832868282 0 459.05877832868282 444.31648975638382 0 0 0 0 -33.567029341922535 529.54134846337547 0 529.54134846337547 799.23068326806242 0 0 0 0 322.55442791678797 811.95063707238296 0 811.95063707238296 937.8473522107488 0 0 0 0 855.25324819040543 320.19415150855639 0 320.19415150855639 25.998645344188844 0 0 0 0 36.019042406369408 8.2492140254471451 0 8.2492140254471451 87.113720718574768 0 0 0 0 396.59449472470442 252.74287690658457 0 252.74287690658457 9.8777644602378132 0 0 0 0 154.33642400051394 371.73976390054668 0 371.73976390054668 467.40673140849685 0 0 0 0 76.001854372720118 196.63923621212962 0 196.63923621212962 165.67834499667515 0 0 0 0 49.230887824520835 39.64428830281733 0 39.64428830281733 1.1211883229588935 0 0 0 0 161.67031198102268 205.16698955124957 0 205.16698955124957 135.54708899647812 0 0 0 0 47.467344256430806 85.365906232575071 0 85.365906232575071 -92.480639878789589 0 0 0 0 45.32459258823377 41.01212351327549 0 41.01212351327549 -34.164934137994933 0 0 0 0 17.400589100085199 10.624492010800168 0 10.624492010800168 12.444949793189323 0 0 0 0 75.823321751897311 60.973283002542303 0 60.973283002542303 -26.785489844340191 0 0 0 0 10.53726437872713 28.13790846899569 0 28.13790846899569 -36.601061116861615 0 0 0 0 34.224904805803533 32.485131056385612 0 32.485131056385612 13.445497797917227 0 0 0 0 14.926238226500573 65.074306499154773 0 65.074306499154773 -156.20983862855064 0 0 0 0 53.148377642130185 7.9477004795558059 0 7.9477004795558059 0.39649789242372435 0 0 0 0 34.556977484884555 78.053549496953565 0 78.053549496953565 -147.94804335712979 0 0 0 0 -71.322059028389049 290.97540029087395 0 290.97540029087395 -370.02817717085054 0 0 0 0 37.688672353306174 68.334254776429589 0 68.334254776429589 -129.27333789428667 0 0 0 0 -32.676215683837654 191.14506115335826 0 191.14506115335826 670.88661056001729 0 0 0 0 -68.161615427248762 186.50013148185462 0 186.50013148185462 743.29664341211901 0 0 0 0 -58.615409827447365 180.78424305464068 0 180.78424305464068 746.42254105452594 0 0 0 0 -113.37319904980177 299.61156503948405 0 299.61156503948405 902.74689799376938 0 0 0 0 -142.22058548856876 389.8527829058512 0 389.8527829058512 620.48109108020981 0 0 0 0 -31.681816555312253 429.4611426434567 0 429.4611426434567 442.64763602965104 0 0 0 0 -68.300946251129062 556.8582377120656 0 556.8582377120656 675.44415109325928 0 0 0 0 -85.13396602544799 292.81827449050888 0 292.81827449050888 353.11614506812475 0 0 0 0 -83.75480253148271 373.05785966908297 0 373.05785966908297 868.70048473463248 0 0 0 0 421.89088261812617 553.6313008029399 0 553.6313008029399 260.98626168756164 0 0 0 0 410.54759658638068 365.71399707013916 0 365.71399707013916 296.99995930454315 0 0 0 0 194.76928530762598 401.15495794135131 0 401.15495794135131 1414.0293224142515 0 0 0 0 619.0674030113878 1018.5248045607368 0 1018.5248045607368 2004.3952218027007 0 0 0 0 165.60233233204053 549.82002209901111 0 549.82002209901111 985.20798238821226 0 0 0 0 17.232294092603638 29.051867057574754 0 29.051867057574754 12.160658230278976 0 0 0 0 -57.270442878085305 69.178031289629871 0 69.178031289629871 1450.8994503452413 0 0 0 0 -12.823457109137962 6.5682534752595529 0 6.5682534752595529 1336.802453990269 0 0 0 0 31.150722457779921 -347.46432092225587 0 -347.46432092225587 2274.2745475544798 0 0 0 0 -242.07015977328774 76.868797939538126 0 76.868797939538126 -138.46324783105229 0 0 0 0 -63.396360437352996 426.24815875270633 0 426.24815875270633 -542.73857130931719 0 0 0 0 39.149004720964086 -1.6914767427431272 0 -1.6914767427431272 -13.809355781976748 0 0 0 0 19.089232331403764 73.803070254973136 0 73.803070254973136 -182.82835421636992 0 0 0 0 -152.86153882579674 74.838314055239607 0 74.838314055239607 -112.6985561510628 0 0 0 0 539.41433049997431 658.86799170431186 0 658.86799170431186 -188.70407864080153 0 0 0 0 2129.7274038951509 1324.0474029330726 0 1324.0474029330726 -281.68716776710244 0 0 0 0 626.2024831541421 423.73211896631256 0 423.73211896631256 -41.154304687588592 0 0 0 0 147.9808678425361 343.6485411202375 0 343.6485411202375 3926.2663156442723 0 0 0 0 1048.1612516797686 165.98090547096581 0 165.98090547096581 -1049.298246907194 0 0 0 0 19.645239798796837 7.0220440731991971 0 7.0220440731991971 -3.1814029651456295 0 0 0 0 640.91601652606187 1258.8723469035103 0 1258.8723469035103 3357.7719418095803 0 0 0 0 606.24795961790005 1487.9350421757517 0 1487.9350421757517 1530.5038506898345 0 0 0 0 748.39318322497638 -443.98619304101703 0 -443.98619304101703 1049.507044197162 0 0 0 0 2320.9658906515433 1083.6419882428308 0 1083.6419882428308 854.94461427319038 0 0 0 0 856.89205455327465 -20.059083234558784 0 -20.059083234558784 571.90676996395632 0 0 0 0 878.16074414238392 847.76363283459796 0 847.76363283459796 710.47240059236356 0 0 0 0 803.27480791154085 249.57655236336723 0 249.57655236336723 118.24019030258205 0 0 0 0 0.33791303023956232 -0.45079012690518994 0 -0.45079012690518994 -0.1571402842834857 0 0 0 0 245.68146740202064 -47.351030497113243 0 -47.351030497113243 -6.9568722851763596 0 0 0 0 174.01094244612614 -178.45261200377718 0 -178.45261200377718 198.50739214206988 0 0 0 0 -55.560792459498771 11.312173078644264 0 11.312173078644264 23.960725002194522 0 0 0 0 300.69162386480457 127.11364883044735 0 127.11364883044735 -42.471478508676228 0 0 0 0 587.52836194638076 257.60355419918778 0 257.60355419918778 4.2386516900442075 0 0 0 0 405.22742437125271 458.361364155302 0 458.361364155302 243.99616950772179 0 0 0 0 288.72541496135455 335.888819129068 0 335.888819129068 115.41749177267047 0 0 0 0 131.33811676880214 544.04015899339356 0 544.04015899339356 261.79048792185222 0 0 0 0 327.15905383759764 342.52225646071111 0 342.52225646071111 97.031656662045862 0 0 0 0 1.6850613367569167 278.93493971488351 0 278.93493971488351 86.999817015814187 0 0 0 0 307.01910289945226 561.48085087293293 0 561.48085087293293 88.289727003517328 0 0 0 0 448.7541859854465 418.05333925594869 0 418.05333925594869 -246.81205297417182 0 0 0 0 -130.81959959021333 556.71496714953537 0 556.71496714953537 108.01459634460116 0 0 0 0 -292.10787180232182 48.479868534024718 0 48.479868534024718 100.88304479044018 0 0 0 0 -64.20334104707581 250.24351643204136 0 250.24351643204136 -249.40066058660159 0 0 0 0 -0.87721119620621124 1.8913659342557594 0 1.8913659342557594 -0.48845027720170719 0 0 0 0 -49.962721702671843 5.0467655608699715 0 5.0467655608699715 -5.6424308756395476 0 0 0 0 -52.029330160832615 -12.044072003569454 0 -12.044072003569454 -9.0186701980637736 0 0 0 0 -92.125197502027731 -12.265405228406053 0 -12.265405228406053 12.72147535350814 0 0 0 0 -0.2637224361812649 1.0310292252207631 0 1.0310292252207631 -0.46292170917186581 0 0 0 0 220.80602263867331 145.364788074854 0 145.364788074854 117.77736451048986 0 0 0 0 202.0469164247661 102.25028244499845 0 102.25028244499845 32.515326231448853 0 0 0 0 -0.062708758268854581 -3.3867906852465239 0 -3.3867906852465239 -3.0647235089327296 0 0 0 0 -52.722042986577435 2.1526076151130837 0 2.1526076151130837 5.7504088889763807 0 0 0 0 -18.506025759434124 11.767346685304801 0 11.767346685304801 -0.4100626181680127 0 0 0 0 -48.204337982990182 0.59977143839932978 0 0.59977143839932978 5.088615691056475 0 0 0 0 -20.665637272155436 3.8244661842036294 0 3.8244661842036294 -3.1567541733893449 0 0 0 0 -21.436618765321327 6.39972254823806 0 6.39972254823806 2.1870133267511846 0 0 0 0 -5.3514453588577453 4.6749275604524883 0 4.6749275604524883 -2.875226491727517 0 0 0 0 -2.8909845125563152 -1.0133536782414012 0 -1.0133536782414012 10.108207162003964 0 0 0 0 -200.63100256830512 -187.31732001858472 0 -187.31732001858472 9.3100556382660216 0 0 0 0 -3.4365502354032884 0.66524694996610378 0 0.66524694996610378 5.0342321069834384 0 0 0 0 7.1954156202591548 6.8580696103326773 0 6.8580696103326773 1.348446716889157 0 0 0 0 -183.12778573392643 -198.3444598057431 0 -198.3444598057431 -198.43255171785131 0 0 0 0 -34.429233106733591 13.498193358733261 0 13.498193358733261 95.147232384173549 0 0 0 0 -158.39279818499199 103.67086747672147 0 103.67086747672147 -62.357442598324269 0 0 0 0 -36.97254907493334 131.198975850446 0 131.198975850446 -36.968200304079801 0 0 0 0 -121.40997352321392 40.906636810501368 0 40.906636810501368 -240.18945706583327 0 0 0 0 -42.338284277792809 23.51005328339869 0 23.51005328339869 36.146135317669774 0 0 0 0 -555.08169153280323 55.3667260108341 0 55.3667260108341 -1.3534381564240903 0 0 0 0 -563.87827818968071 -21.235466395341973 0 -21.235466395341973 21.107991613418562 0 0 0 0 -1.1477716379774705 0.036849556641811887 0 0.036849556641811887 1.1971181075126083 0 0 0 0 -497.61484549904708 39.405573977390304 0 39.405573977390304 2.8868596661486663 0 0 0 0 -0.87478386123397911 1.0397946844101966 0 1.0397946844101966 1.1685914896918632 0 0 0 0 -513.78287996995823 -27.844668124751479 0 -27.844668124751479 21.45967252124683 0 0 0 0 -223.85224909246608 5.5101295560016297 0 5.5101295560016297 -32.294908642448718 0 0 0 0 -241.80063302346207 -117.8366556892197 0 -117.8366556892197 77.095475350928609 0 0 0 0 -0.084656748140773175 1.7683681874418795 0 1.7683681874418795 2.1989452187503957 0 0 0 0 -0.0017101265402743593 -2.1204242703279306 0 -2.1204242703279306 6.943610377744335 0 0 0 0 -59.290946373672341 15.743123685114824 0 15.743123685114824 144.05536351481715 0 0 0 0 11.980115448630386 82.789624533150345 0 82.789624533150345 121.8656512612506 0 0 0 0 -229.91440537184462 -66.558615706508135 0 -66.558615706508135 93.547449444013182 0 0 0 0 -184.7088741683765 -5.6305270287848543 0 -5.6305270287848543 148.87183377068141 0 0 0 0 -126.45512775918542 15.721837386616244 0 15.721837386616244 158.89597232728556 0 0 0 0 -79.260007054828748 18.433079909751541 0 18.433079909751541 113.65245689271251 0 0 0 0 90.082347376323014 97.293518742946617 0 97.293518742946617 141.94255718490604 0 0 0 0 -86.417342176464899 66.489134870984799 0 66.489134870984799 201.36246100001154 0 0 0 0 124.13942882414995 296.96118929276417 0 296.96118929276417 351.72822606744739 0 0 0 0 -55.796425625139818 111.05208894221141 0 111.05208894221141 216.02591075285454 0 0 0 0 -0.54347156967511978 0.22302751759883677 0 0.22302751759883677 0.96919363468288111 0 0 0 0 -55.394762558222737 11.257624470527389 0 11.257624470527389 3.1421663363580592 0 0 0 0 -195.57638840512664 -253.95343569469696 0 -253.95343569469696 333.9532615964963 0 0 0 0 162.86640991091554 -147.02637656615116 0 -147.02637656615116 143.44207128258131 0 0 0 0 -1672.2425296205183 -191.65106190774532 0 -191.65106190774532 442.56149501546679 0 0 0 0 585.165144118836 292.6728081776846 0 292.6728081776846 51.915627558337292 0 0 0 0 -1.9331915609599193 4.5455661219674397 0 4.5455661219674397 -0.80161365766855397 0 0 0 0 17.263406548954663 411.76877807972778 0 411.76877807972778 82.498890944074446 0 0 0 0 -239.77819543680016 -707.03834424105844 0 -707.03834424105844 215.42616262150841 0 0 0 0 52.771454148158227 477.56942053604143 0 477.56942053604143 -129.61232685972209 0 0 0 0 -4.7891475728764021 10.328297056744859 0 10.328297056744859 -11.310235497186255 0 0 0 0 -1724.4028679135517 134.0108266146126 0 134.0108266146126 762.27454805126763 0 0 0 0 132.96482315650064 72.3419605132367 0 72.3419605132367 -86.323329048027517 0 0 0 0 -859.71877532226063 150.11722861477392 0 150.11722861477392 181.82960246980656 0 0 0 0 1.6449916915121996 29.599973799216286 0 29.599973799216286 -31.83739782789857 0 0 0 0 965.3147259387697 970.95082518906202 0 970.95082518906202 -209.31726351504039 0 0 0 0 342.19396617849998 977.96852969728934 0 977.96852969728934 96.548133531949134 0 0 0 0 -53.047078280378628 87.575157946237596 0 87.575157946237596 39.83605335316679 0 0 0 0 40.20695689261629 77.698546555348003 0 77.698546555348003 -40.719759872554278 0 0 0 0 22.804749750721385 191.97345726882122 0 191.97345726882122 -29.154654470039986 0 0 0 0 26.389415479401791 40.337169796080147 0 40.337169796080147 34.236530753912973 0 0 0 0 36.360555545408715 27.795716799570073 0 27.795716799570073 -16.627869503623288 0 0 0 0 30.707309046539109 38.397247281908292 0 38.397247281908292 51.647257832075127 0 0 0 0 -58.639503122114547 237.55729947528198 0 237.55729947528198 0.92666211989126168 0 0 0 0 -33.693480430709315 129.31178925071436 0 129.31178925071436 -1.8928207737480989 0 0 0 0 -112.07668010206544 63.195178494850552 0 63.195178494850552 98.098547339526704 0 0 0 0 200.32462523296226 151.37568745042972 0 151.37568745042972 30.994377230963437 0 0 0 0 303.51908189230744 87.069689391704742 0 87.069689391704742 19.684126083324372 0 0 0 0 -36.006626519396377 108.19376830675265 0 108.19376830675265 229.28270124770643 0 0 0 0 -36.292615282036422 101.79914176527427 0 101.79914176527427 108.18123021980136 0 0 0 0 -120.71024646289152 108.9544147420238 0 108.9544147420238 57.641479925952808 0 0 0 0 1.7447346757599149 25.323808320044776 0 25.323808320044776 3.38500063903399 0 0 0 0 16.067044573253952 37.733340785347536 0 37.733340785347536 34.345173756024451 0 0 0 0 3.5847845369842588 25.880056884316303 0 25.880056884316303 21.005372040546121 0 0 0 0 -17.574700036784634 21.495125928544439 0 21.495125928544439 27.607810831985262 0 0 0 0 -8.1584561851523176 11.652903301075526 0 11.652903301075526 30.376236551324837 0 0 0 0 -14.073498010335101 25.166658231288299 0 25.166658231288299 29.22826487784161 0 0 0 0 42.615991730948735 137.60928220283313 0 137.60928220283313 39.023606063070474 0 0 0 0 27.512323425421755 45.013294971924495 0 45.013294971924495 54.261544540630723 0 0 0 0 -24.897700329354848 50.602619233082805 0 50.602619233082805 -30.405052068766963 0 0 0 0 2.6949552330436575 6.3912149053008847 0 6.3912149053008847 3.6456557753259631 0 0 0 0 58.559961830742395 106.65620468923044 0 106.65620468923044 123.43683304986916 0 0 0 0 84.049381729972083 78.533938873959414 0 78.533938873959414 -47.28762077029387 0 0 0 0 -33.580135328578763 35.45370117375569 0 35.45370117375569 37.917073489705217 0 0 0 0 -59.238981483580574 93.450016146323833 0 93.450016146323833 36.163705609869794 0 0 0 0 56.320513520251552 76.724288731493289 0 76.724288731493289 43.197403097350616 0 0 0 0 79.484721433695086 51.268741366187896 0 51.268741366187896 46.602807481918717 0 0 0 0 58.484473456584965 64.894028753264138 0 64.894028753264138 39.954903107172868 0 0 0 0 -215.2711633302024 24.755975026400847 0 24.755975026400847 -544.77403099718867 0 0 0 0 -113.12430225627031 542.55232864237041 0 542.55232864237041 -1291.0527280880633 0 0 0 0 149.56902958930004 220.62375189224622 0 220.62375189224622 -1263.5953329040312 0 0 0 0 14.406008447749286 -6.0557388635978135 0 -6.0557388635978135 -30.484794175315606 0 0 0 0 628.63975596884848 718.07029016048909 0 718.07029016048909 -1257.6183432285179 0 0 0 0 31.564896457515147 57.696825446699066 0 57.696825446699066 38.31731747065615 0 0 0 0 2.2590208935216651 33.508694009804458 0 33.508694009804458 70.26200005300052 0 0 0 0 25.585997167734604 32.898282251874662 0 32.898282251874662 26.002740648662439 0 0 0 0 98.597858265886316 58.279133769483451 0 58.279133769483451 -37.040642462736287 0 0 0 0 0.040145882769138552 27.996255623038451 0 27.996255623038451 5.0136512606404722 0 0 0 0 7.2037668854466546 6.5271519890626166 0 6.5271519890626166 -1.1670008559320593 0 0 0 0 31.899091126339044 2.3472802031828905 0 2.3472802031828905 -7.328694872707274 0 0 0 0 261.19335154479631 -73.622005235967663 0 -73.622005235967663 -629.70484932223917 0 0 0 0 -203.29434887365278 -397.70060978227139 0 -397.70060978227139 -517.70086492773044 0 0 0 0 6.0098976837414142 16.227671825436204 0 16.227671825436204 -31.930892716001608 0 0 0 0 -2.4180017129287563 17.622875391683436 0 17.622875391683436 23.423979680604845 0 0 0 0 76.96995403530309 43.764639265107689 0 43.764639265107689 23.162038353184471 0 0 0 0 24.846453551726881 25.786224236140697 0 25.786224236140697 15.085611630096537 0 0 0 0 -4.0611707636562642 26.621481696914998 0 26.621481696914998 9.200236549222609 0 0 0 0 -0.35181477919059034 20.078425020054233 0 20.078425020054233 12.493936989208564 0 0 0 0 -5.8621970797539689 23.436099680111511 0 23.436099680111511 8.7286056197735888 0 0 0 0 47.594406226968175 68.716763179098763 0 68.716763179098763 29.595763525189383 0 0 0 0 15.423257812756987 25.410086314521557 0 25.410086314521557 -12.385258508176229 0 0 0 0 -6.4563842136412859 22.242536904057488 0 22.242536904057488 6.6704015806117241 0 0 0 0 -5.0275236276793294 24.755908555438509 0 24.755908555438509 6.5150538273737766 0 0 0 0 22.025968454160548 22.41624448259077 0 22.41624448259077 8.9499215146708764 0 0 0 0 28.524894211116646 37.37994011891557 0 37.37994011891557 8.6085940689006435 0 0 0 0 -6.9181994590908289 37.00458688638173 0 37.00458688638173 -49.096606506136595 0 0 0 0 15.12892085165609 33.444819547469535 0 33.444819547469535 15.985380991977436 0 0 0 0 1.3681439346421485 15.787215735473097 0 15.787215735473097 9.541305045219076 0 0 0 0 0.010277825989760458 8.5770040111492563 0 8.5770040111492563 4.7201897277045646 0 0 0 0 8.6746446115430444 19.520531665955787 0 19.520531665955787 14.107814410926949 0 0 0 0 4.7424284924651374 10.842555884760998 0 10.842555884760998 9.9674233971700232 0 0 0 0 8.2369548015047371 11.263915483159874 0 11.263915483159874 0.59286188627623915 0 0 0 0 -1.1664514482836239 11.840083253675402 0 11.840083253675402 5.3911371151043568 0 0 0 0 -2.0369898358476348 11.017820411529101 0 11.017820411529101 4.636397215857869 0 0 0 0 0.23240405171156908 11.955286551632188 0 11.955286551632188 7.4917145124411348 0 0 0 0 17.849025118746795 19.984007974147971 0 19.984007974147971 7.3665038651306531 0 0 0 0 37.965215740070562 19.142397874875314 0 19.142397874875314 -4.1112946817011107 0 0 0 0 0.085323458581825662 2.5541092444453284 0 2.5541092444453284 3.0752902770494757 0 0 0 0 13.398201292555314 0.39328997855773196 0 0.39328997855773196 1.0026700580492616 0 0 0 0 0.30549085439128021 0.10439492776821169 0 0.10439492776821169 1.0499839862697939 0 0 0 0 929.52336605419987 240.76272430219979 0 240.76272430219979 55.156326289498338 0 0 0 0 -7.293910564359976 -4.5676669592576218 0 -4.5676669592576218 45.639840054616798 0 0 0 0 2.1138036689515332 7.1262856052326491 0 7.1262856052326491 3.575875198174316 0 0 0 0 -229.52106707106577 -2.7096256212171284 0 -2.7096256212171284 83.999321966424759 0 0 0 0 0.092735050391638651 7.4506763442695956 0 7.4506763442695956 9.1926608621579362 0 0 0 0 -6.066097946428016 0.83909361625080692 0 0.83909361625080692 5.911163531037058 0 0 0 0 -145.48877433575399 -47.753972520305979 0 -47.753972520305979 18.189051010958792 0 0 0 0 -3.9308844358192232 7.8052257236558944 0 7.8052257236558944 8.7310613778790014 0 0 0 0 -39.0099806926155 -23.026176535277045 0 -23.026176535277045 12.34532177199435 0 0 0 0 16.173931344826997 36.344658789759706 0 36.344658789759706 25.893366082675129 0 0 0 0 24.720008868164086 30.594201680199831 0 30.594201680199831 15.215775060380111 0 0 0 0 21.025721604266636 21.544247365681159 0 21.544247365681159 6.5202929757284451 0 0 0 0 9.2741369822178967 22.809127607550181 0 22.809127607550181 16.18657930221525 0 0 0 0 7.7008079916005556 19.394475495851651 0 19.394475495851651 16.127125114785784 0 0 0 0 -13.307103851642751 28.777174485770956 0 28.777174485770956 21.887467993314203 0 0 0 0 3.6451942020648858 16.051649101384101 0 16.051649101384101 12.328464270804034 0 0 0 0 -10.559805190783692 10.997142089356657 0 10.997142089356657 15.192000109160674 0 0 0 0 -13.151470079946577 5.106846261683927 0 5.106846261683927 8.1855050002539542 0 0 0 0 -18.135527382255532 11.182640918927063 0 11.182640918927063 21.749231475274428 0 0 0 0 -21.253639872782514 10.266116843631607 0 10.266116843631607 24.370855607885005 0 0 0 0 13.633492635039147 15.2942319651047 0 15.2942319651047 14.180429663858376 0 0 0 0 -6.7915988525689528 12.259321306678956 0 12.259321306678956 15.255310191892505 0 0 0 0 -13.16518708465594 13.763544831135675 0 13.763544831135675 24.632737593025524 0 0 0 0 -8.1731817498803139 15.520701846209704 0 15.520701846209704 17.279662697750609 0 0 0 0 13.272890412086298 16.673735833169559 0 16.673735833169559 14.934499591299272 0 0 0 0 -32.571601555609959 91.849529403614724 0 91.849529403614724 66.519880788666342 0 0 0 0 -178.95449857350468 52.995080584163588 0 52.995080584163588 65.896617862730636 0 0 0 0 26.025290723726357 131.12713210460515 0 131.12713210460515 135.5127236177359 0 0 0 0 -0.11884841234132182 82.191115448502387 0 82.191115448502387 64.540636590561917 0 0 0 0 -0.13941389010142302 97.277423481493315 0 97.277423481493315 150.83394991607292 0 0 0 0 23.495564201613888 128.55605637925328 0 128.55605637925328 82.501549491047626 0 0 0 0 -54.584755018760916 -7.7596569907509547 0 -7.7596569907509547 144.97702285927153 0 0 0 0 36.264345238299939 54.952646795655028 0 54.952646795655028 31.54795908331289 0 0 0 0 -7.4238154275529382 1.7068153777753992 0 1.7068153777753992 5.0791078570208583 0 0 0 0 147.26644183351891 76.763747387718468 0 76.763747387718468 31.973061449447414 0 0 0 0 -3.4549337866628775 24.992156977117702 0 24.992156977117702 28.440433024021331 0 0 0 0 -64.200285587497035 19.47869850853165 0 19.47869850853165 59.588265478527546 0 0 0 0 -11.292012105036186 22.326814182178538 0 22.326814182178538 35.875492492376651 0 0 0 0 17.2017421661767 41.222196339043876 0 41.222196339043876 39.651989980629878 0 0 0 0 -9.8373593742741434 13.765153674148706 0 13.765153674148706 16.939636861858418 0 0 0 0 19.676217651664047 34.831234501732979 0 34.831234501732979 49.78652135952143 0 0 0 0 1.795952430853859 2.3666333277282376 0 2.3666333277282376 4.9917929553377007 0 0 0 0 -17.56492950037574 24.77094691897716 0 24.77094691897716 37.45579039856986 0 0 0 0 -96.835838589540799 41.13984372975392 0 41.13984372975392 81.392089459764975 0 0 0 0 -115.12726489870329 16.397462417902716 0 16.397462417902716 48.872391298340517 0 0 0 0 -92.572092967697245 -56.044113616961113 0 -56.044113616961113 63.85352736531604 0 0 0 0 -29.409269750564007 13.172079351070039 0 13.172079351070039 24.680981378134561 0 0 0 0 -12.484208007626876 -3.4899887160099752 0 -3.4899887160099752 -11.25435426833792 0 0 0 0 -131.4825054542107 -104.70874278971314 0 -104.70874278971314 54.500458318871097 0 0 0 0 -8.2859491198447728 13.12415760063962 0 13.12415760063962 17.502495481838764 0 0 0 0 60.436930733445479 49.410308071590407 0 49.410308071590407 25.948685685732926 0 0 0 0 155.96255300896883 36.126829019063734 0 36.126829019063734 156.62258049903903 0 0 0 0 213.35342002474863 136.49119015787619 0 136.49119015787619 -162.52615383836383 0 0 0 0 39.85587055090582 123.35953013081598 0 123.35953013081598 322.54734185652342 0 0 0 0 13.325912134328973 71.096443013731914 0 71.096443013731914 27.891989973715681 0 0 0 0 18.199426871393371 77.467891524232982 0 77.467891524232982 17.503812555398326 0 0 0 0 -1.0519825978635708 0.84389988180021192 0 0.84389988180021192 1.814202279982652 0 0 0 0 -20.249890090537832 23.994490157537484 0 23.994490157537484 35.333826560736583 0 0 0 0 48.334830885141855 169.42501290164364 0 169.42501290164364 250.63346629950684 0 0 0 0 -49.825958713961882 -10.492230924508476 0 -10.492230924508476 32.918858950317372 0 0 0 0 -66.775959351536585 5.4560980079731962 0 5.4560980079731962 85.193466411583358 0 0 0 0 32.468852225909359 75.587341816812113 0 75.587341816812113 -36.748912978873705 0 0 0 0 22.373546036185871 118.84433468533825 0 118.84433468533825 89.581879248100449 0 0 0 0 15.453766773614916 32.147021817747373 0 32.147021817747373 52.963052025603247 0 0 0 0 23.841416580264195 21.934790277167849 0 21.934790277167849 -25.152597859349044 0 0 0 0 -5.1679874977565703 -0.38430923816213181 0 -0.38430923816213181 1.2570467500775351 0 0 0 0 -2.4862589937052064 -0.58402336405612232 0 -0.58402336405612232 1.5427478012623084 0 0 0 0 -0.17726142609171802 -12.084435966349702 0 -12.084435966349702 12.469985733350768 0 0 0 0 112.78639112695237 89.892939876142918 0 89.892939876142918 -71.117604850674979 0 0 0 0 13.494382571821916 -24.991546989589551 0 -24.991546989589551 -113.86796458157551 0 0 0 0 58.006460242075264 63.956107510024594 0 63.956107510024594 5.7970581244153436 0 0 0 0 -3.5664390297602466 10.385924473453144 0 10.385924473453144 -24.985235141985001 0 0 0 0 2.2382985045624082 11.279825796977093 0 11.279825796977093 -28.818446241974925 0 0 0 0 0.10161748484097188 37.222846246429981 0 37.222846246429981 -59.145873736828435 0 0 0 0 -2.746463613519154 11.495726323350937 0 11.495726323350937 -24.756920066171915 0 0 0 0 1.4841725196207847 -0.16482363486162122 0 -0.16482363486162122 -6.9126439797913051 0 0 0 0 -0.29559903383778874 -64.140567573384033 0 -64.140567573384033 100.58143186178859 0 0 0 0 24.347239511727821 3.8305613004567931 0 3.8305613004567931 -26.67561800715248 0 0 0 0 0.017148150015884767 1.9192273017007686 0 1.9192273017007686 -5.5929065247349818 0 0 0 0 28.728766241736594 35.046006454604139 0 35.046006454604139 -34.75060327598294 0 0 0 0 -147.78257941524498 94.444861344575656 0 94.444861344575656 11.046506001674061 0 0 0 0 9.9503361204697285 19.475171558306556 0 19.475171558306556 4.3509365200734464 0 0 0 0 8.5947722247874481 -21.469296279923583 0 -21.469296279923583 -31.189978719913597 0 0 0 0 29.534811515084584 18.659086719629613 0 18.659086719629613 -13.706245147557638 0 0 0 0 4.5505037546647671 3.3912632260609001 0 3.3912632260609001 -16.040874335304274 0 0 0 0 -12.40660497367935 24.095278433988824 0 24.095278433988824 -23.988279777156094 0 0 0 0 2.9401436256230227 13.969708769934186 0 13.969708769934186 -19.77197489383434 0 0 0 0 8.4593550920201892 -3.4342884185806719 0 -3.4342884185806719 -14.485753872543651 0 0 0 0 28.60913460815209 -12.073507382314347 0 -12.073507382314347 -76.393840356635792 0 0 0 0 4.1803965662238625 -22.498804547473696 0 -22.498804547473696 -72.067224237419396 0 0 0 0 -40.634847829249338 78.607842582791818 0 78.607842582791818 -51.149879248569732 0 0 0 0 -6.1757489983202447 8.0180955426996903 0 8.0180955426996903 -13.683228197991641 0 0 0 0 -1.4753741679511165 2.0739407067039428 0 2.0739407067039428 -1.7588138032701384 0 0 0 0 54.255766299989773 40.085696795977128 0 40.085696795977128 -193.06429604423647 0 0 0 0 -79.982896120898658 72.378633224665464 0 72.378633224665464 -176.94048748434943 0 0 0 0 -0.14049773633229279 -1.5694192263860174 0 -1.5694192263860174 0.54982746168292351 0 0 0 0 85.940951619864791 -11.280205407512767 0 -11.280205407512767 -160.59007328794064 0 0 0 0 7.6491834595290129 -42.624825503428838 0 -42.624825503428838 0.17149861453799531 0 0 0 0 -25.473013077476935 7.7720300062833303 0 7.7720300062833303 -166.70789694343512 0 0 0 0 33.848319852470098 74.464654992963347 0 74.464654992963347 -55.448800554899208 0 0 0 0 -89.403632543428103 44.585507283682091 0 44.585507283682091 457.90684150912057 0 0 0 0 6.1027860405447427 25.183421689898751 0 25.183421689898751 -158.03175619743342 0 0 0 0 12.81396113527444 58.151159501128859 0 58.151159501128859 31.001840836761403 0 0 0 0 1.055343484419609 33.281610872895243 0 33.281610872895243 -37.397922421258158 0 0 0 0 15.206512376103717 39.654345382732643 0 39.654345382732643 -30.858766178079698 0 0 0 0 -115.8415339502244 -85.878743845270947 0 -85.878743845270947 286.63186873469022 0 0 0 0 -11.011822224798379 64.769035047942452 0 64.769035047942452 18.588399657281116 0 0 0 0 -12.995936228267965 45.117928973894806 0 45.117928973894806 -10.474494356648218 0 0 0 0 -18.921053229656536 36.901273779949406 0 36.901273779949406 -46.2259031212634 0 0 0 0 16.090344789838127 53.710695755755296 0 53.710695755755296 2.0758094712728052 0 0 0 0 -6.2234835428826045 44.146504897656996 0 44.146504897656996 -2.0194339082445367 0 0 0 0 52.116542684001615 -46.368656431601266 0 -46.368656431601266 -130.73023878323511 0 0 0 0 2.4731711002951897 0.018911410823946539 0 0.018911410823946539 -22.127447846931972 0 0 0 0 3.1501167348332615 14.231316506238301 0 14.231316506238301 -58.950372748099873 0 0 0 0 14.479543485209433 55.098772927567552 0 55.098772927567552 -46.499645194653567 0 0 0 0 2.5588332921033725 22.019400225810386 0 22.019400225810386 -10.416826802640571 0 0 0 0 11.998230175279673 2.6625828920133294 0 2.6625828920133294 -8.6213405258233848 0 0 0 0 0.52686525786609195 4.9936059639425707 0 4.9936059639425707 32.145480797001042 0 0 0 0 -0.027912518377754887 4.1350435828454994 0 4.1350435828454994 78.405051570240175 0 0 0 0 -12.035513344328223 9.1285528443166015 0 9.1285528443166015 18.746052455726371 0 0 0 0 2.2557549665711178 -24.80772022879529 0 -24.80772022879529 76.647160493871567 0 0 0 0 528.89232512436865 441.86775626073722 0 441.86775626073722 744.58753732984587 0 0 0 0 528.56847622095768 890.22145360254501 0 890.22145360254501 1056.7851725298824 0 0 0 0 1.5740250148082851 772.37824366019959 0 772.37824366019959 1191.0332446034445 0 0 0 0 403.20316684412683 985.29950153908885 0 985.29950153908885 1171.675778843055 0 0 0 0 666.07071955371066 930.00971143314018 0 930.00971143314018 1164.4769065761247 0 0 0 0 555.5394104747611 749.69146695120889 0 749.69146695120889 1161.2753251827089 0 0 0 0 4.7521609530859905 -16.217074753568568 0 -16.217074753568568 42.700023772626935 0 0 0 0 -462.90992636456212 -322.93925153476448 0 -322.93925153476448 233.89777421257168 0 0 0 0 814.00811433271156 750.75686447092085 0 750.75686447092085 1114.1573264461931 0 0 0 0 4.9973539071434061 127.33950533749794 0 127.33950533749794 -109.20141067145596 0 0 0 0 1368.7676099055425 1749.146237702098 0 1749.146237702098 1313.006080819916 0 0 0 0 706.50040464940685 831.75236303043039 0 831.75236303043039 1391.074023811092 0 0 0 0 2022.1250568312098 1512.6561020019653 0 1512.6561020019653 1170.2563666624042 0 0 0 0 -2.5630770794741693 1237.6917027143172 0 1237.6917027143172 1066.3976082172267 0 0 0 0 837.10179590813641 827.39336270836066 0 827.39336270836066 -108.44775731681511 0 0 0 0 12.197734728914156 351.27250096933363 0 351.27250096933363 -558.10966924105742 0 0 0 0 -902.95315034643863 -814.93871528383352 0 -814.93871528383352 325.74095971788711 0 0 0 0 -1.9263733343811396 1.3663465212752044 0 1.3663465212752044 -11.099550443806208 0 0 0 0 -1.4243612846065901 2.203913988289429 0 2.203913988289429 0.93172317424340179 0 0 0 0 436.04183722267044 -266.42807748415362 0 -266.42807748415362 1197.9548194773088 0 0 0 0 117.53984560725803 278.17703654543311 0 278.17703654543311 349.25039015992297 0 0 0 0 591.98305074829841 -596.46524659303213 0 -596.46524659303213 -484.20475775443083 0 0 0 0 125.48367570180562 117.04391155487974 0 117.04391155487974 -76.535976101498818 0 0 0 0 109.80268009633255 -68.976352993415276 0 -68.976352993415276 213.45761363474594 0 0 0 0 -0.0022112518257037662 9.6859158987062628 0 9.6859158987062628 3.658951460980461 0 0 0 0 23.205931188043905 12.548576651905023 0 12.548576651905023 3.824221942544682 0 0 0 0 -1.2268141725857333 2.9817131839818671 0 2.9817131839818671 -0.52056703353017042 0 0 0 0 -326.27225885877124 -19.93713847559593 0 -19.93713847559593 -290.95388601393279 0 0 0 0 690.48934294874789 1008.1016431374455 0 1008.1016431374455 690.61473760503577 0 0 0 0 861.92149722472095 -424.33100680079406 0 -424.33100680079406 778.76803547739473 0 0 0 0 567.87760493611859 471.75710388219522 0 471.75710388219522 -306.11104386878287 0 0 0 0 2097.9189095469483 2618.6921559336042 0 2618.6921559336042 2387.2125386175503 0 0 0 0 698.87488733953433 1033.7045385161173 0 1033.7045385161173 2990.5926604542328 0 0 0 0 -573.05608598832623 457.02491030173769 0 457.02491030173769 1917.3635140875122 0 0 0 0 -139.64725972254018 -151.64741832263189 0 -151.64741832263189 1558.7069226120802 0 0 0 0 -580.27586528203392 -1102.8674466621896 0 -1102.8674466621896 438.46062299689947 0 0 0 0 4.4731141656174032 -5.3522006802709541 0 -5.3522006802709541 13.257818452715654 0 0 0 0 -452.12526839916245 667.21169854524123 0 667.21169854524123 411.40365305738743 0 0 0 0 505.64255689043057 549.44722714666568 0 549.44722714666568 15.983271829114528 0 0 0 0 7.5548703705523224 6.627152238281127 0 6.627152238281127 15.070162482829005 0 0 0 0 -84.78844805879271 72.394927893594286 0 72.394927893594286 178.75763989053667 0 0 0 0 -158.81313784174563 334.52016268395346 0 334.52016268395346 870.29100413195556 0 0 0 0 70.27406914100726 64.137053665696556 0 64.137053665696556 -46.349056207082761 0 0 0 0 -95.680585015288671 -52.426113138209075 0 -52.426113138209075 -242.67651766417703 0 0 0 0 160.76490700288196 -72.042953998380199 0 -72.042953998380199 -579.8044758254382 0 0 0 0 293.86187613896618 362.30868506090701 0 362.30868506090701 -733.33665911730714 0 0 0 0 557.78027077852346 2043.0026741025872 0 2043.0026741025872 906.18933417795051 0 0 0 0 -843.54388444554934 608.59022791781899 0 608.59022791781899 2891.3916899280011 0 0 0 0 -371.3451039451902 319.91916926536942 0 319.91916926536942 870.06002734281901 0 0 0 0 -715.94583651857829 531.99100568548602 0 531.99100568548602 1774.5488986114797 0 0 0 0 -589.15418244717148 347.88274666380494 0 347.88274666380494 1179.7707544064506 0 0 0 0 -361.17221666284604 19.759002271031932 0 19.759002271031932 625.57298442314277 0 0 0 0 -677.77104656661686 21.342676000207575 0 21.342676000207575 1741.0998265423914 0 0 0 0 -96.632358494207438 -368.44520244979867 0 -368.44520244979867 889.59789422272661 0 0 0 0 -444.86617127322825 -33.810870300390889 0 -33.810870300390889 1128.1707233070483 0 0 0 0 -594.67061250298866 -458.27458803782793 0 -458.27458803782793 2422.8264820322966 0 0 0 0 -436.73855450763949 63.507714959214354 0 63.507714959214354 1104.6089618684273 0 0 0 0 -26.62774829295995 -345.45252003283349 0 -345.45252003283349 72.354195386338688 0 0 0 0 -282.43731586962531 -57.716983462089047 0 -57.716983462089047 21.809687511893571 0 0 0 0 -166.05977692901251 122.30051413180445 0 122.30051413180445 -246.77406923830858 0 0 0 0 -683.45118013968022 546.88724070239005 0 546.88724070239005 -458.50112670936505 0 0 0 0 -2.4838766090211379 78.257238923442259 0 78.257238923442259 47.316585674672147 0 0 0 0 -6.2005430016042737 47.401781525337341 0 47.401781525337341 49.495687970573442 0 0 0 0 -343.71970603586988 793.20271699276668 0 793.20271699276668 380.34694563609082 0 0 0 0 70.636315145515255 587.94683061748219 0 587.94683061748219 -615.62270146808805 0 0 0 0 296.01711095382052 1181.5632434550207 0 1181.5632434550207 2305.0518981833084 0 0 0 0 1674.895563506785 1692.3162472472468 0 1692.3162472472468 262.66395928998827 0 0 0 0 12.45589839713459 8.8933355073620248 0 8.8933355073620248 3.0257503711420952 0 0 0 0 1016.4988966253295 389.68024268249792 0 389.68024268249792 -426.28168016956624 0 0 0 0 957.50035815481533 1451.4467342437183 0 1451.4467342437183 2417.6313024940901 0 0 0 0 0.96318376530811278 6.4807689700403301 0 6.4807689700403301 35.894681958841232 0 0 0 0 1526.1628088266225 1899.1235631565942 0 1899.1235631565942 2018.892117597672 0 0 0 0 491.95507760904002 1636.9100764516625 0 1636.9100764516625 2914.916016698684 0 0 0 0 507.60304950793943 635.20692282567325 0 635.20692282567325 923.5442900284761 0 0 0 0 933.40731507310556 1779.3297551179239 0 1779.3297551179239 1910.1379143227205 0 0 0 0 1051.0238401106728 -25.111260052455464 0 -25.111260052455464 883.37281869979779 0 0 0 0 -868.9636272784519 152.651586953476 0 152.651586953476 1248.8757862948405 0 0 0 0 146.85856560102911 1276.3369548227129 0 1276.3369548227129 306.47963115889434 0 0 0 0 454.49437218435594 -1406.0132311762409 0 -1406.0132311762409 1370.0909543603921 0 0 0 0 1365.7143873486057 -862.98160113095946 0 -862.98160113095946 -1857.1530804652684 0 0 0 0 86.03411206906452 52.26695569527385 0 52.26695569527385 -42.97959672804452 0 0 0 0 -115.10478653971222 -87.776474703941858 0 -87.776474703941858 -363.6096450354953 0 0 0 0 -187.59669206842955 -274.46084138162769 0 -274.46084138162769 -399.02194393361788 0 0 0 0 0.98193617260167798 1.4623082955086915 0 1.4623082955086915 -1.5125882870151326 0 0 0 0 1.8658170173875988 -250.08680527556135 0 -250.08680527556135 -685.10832484762341 0 0 0 0 157.72044157660275 190.03942841537446 0 190.03942841537446 191.01333891722379 0 0 0 0 104.58445375998053 -43.045528803488423 0 -43.045528803488423 -637.16781406140035 0 0 0 0 182.95346891933877 109.82417319051274 0 109.82417319051274 67.338575146364747 0 0 0 0 226.79601129004732 166.33493156008944 0 166.33493156008944 -4.1981939058714488 0 0 0 0 155.20474451077462 135.63953289891424 0 135.63953289891424 66.301053169936495 0 0 0 0 176.70226775051924 96.65706196155088 0 96.65706196155088 42.746431526191373 0 0 0 0 123.76087194891443 88.567900786440305 0 88.567900786440305 23.097944073388135 0 0 0 0 73.186645974972635 87.03716941163384 0 87.03716941163384 110.34142578546607 0 0 0 0 69.84467403079725 38.021058644268606 0 38.021058644268606 45.200963102983224 0 0 0 0 33.844134024104278 45.339900745581417 0 45.339900745581417 80.734049065529689 0 0 0 0 0.5169345383926327 4.1333746378989744 0 4.1333746378989744 -3.4806965215894152 0 0 0 0 11.987694071271108 24.575129948851099 0 24.575129948851099 71.120342315443395 0 0 0 0 -2.9712113737761001 6.8193780414413681 0 6.8193780414413681 -3.7614982918504527 0 0 0 0 97.629849029617617 -23.206563790953169 0 -23.206563790953169 -373.05985059622071 0 0 0 0 -44.724366537135211 50.033180796413944 0 50.033180796413944 59.197800713487595 0 0 0 0 41.056889748411777 16.107908969135678 0 16.107908969135678 -35.207802017312133 0 0 0 0 -53.066295113720116 1.2770032525504575 0 1.2770032525504575 -34.886805418284226 0 0 0 0 -34.55181826770422 79.488794567074365 0 79.488794567074365 -105.35946229233468 0 0 0 0 49.204919478535885 15.576899887245418 0 15.576899887245418 24.520009871160255 0 0 0 0 88.471299758861278 53.114307248196383 0 53.114307248196383 -231.5837100480785 0 0 0 0 96.606280013671494 116.53789331053304 0 116.53789331053304 1.9015220679000322 0 0 0 0 109.29800230126057 128.81179923495984 0 128.81179923495984 52.118165174209935 0 0 0 0 95.816524168563774 138.33318379252887 0 138.33318379252887 119.31791649394575 0 0 0 0 -0.12123232900248126 0.65456285859946917 0 0.65456285859946917 0.082073020783967721 0 0 0 0 42.26544096764701 7.3490075205968424 0 7.3490075205968424 -5.6215626432694989 0 0 0 0 52.034497432409808 85.720764803456518 0 85.720764803456518 57.466873174344073 0 0 0 0 164.21746718564827 43.821144049739814 0 43.821144049739814 -21.725965051774438 0 0 0 0 19.485873028628703 6.8992187944108991 0 6.8992187944108991 14.713140314670454 0 0 0 0 143.38160400200286 145.53083315474578 0 145.53083315474578 24.828475800473825 0 0 0 0 131.38274296444797 156.1734683347986 0 156.1734683347986 69.705813203143407 0 0 0 0 136.60794360857108 144.95334361375444 0 144.95334361375444 29.522130966135592 0 0 0 0 174.66577971059451 133.56103200766802 0 133.56103200766802 53.335531006398469 0 0 0 0 197.93050276655413 187.53846234912953 0 187.53846234912953 101.23171482718499 0 0 0 0 187.43657756177709 114.57622639719011 0 114.57622639719011 69.263332410906514 0 0 0 0 135.54104736994486 160.54015049110512 0 160.54015049110512 64.084345123308594 0 0 0 0 303.40503273912327 278.31151018837318 0 278.31151018837318 167.1402655604943 0 0 0 0 215.83542239929375 176.94670298492474 0 176.94670298492474 128.02744716487382 0 0 0 0 238.14303675755946 162.66517959971407 0 162.66517959971407 95.362045975272849 0 0 0 0 334.97296227568586 273.78906855877449 0 273.78906855877449 152.68381569476219 0 0 0 0 373.3193075918316 266.55477577798865 0 266.55477577798865 122.14711031928164 0 0 0 0 447.97255105710065 410.4777710223093 0 410.4777710223093 217.22389450613355 0 0 0 0 374.55401076740236 349.58682989587578 0 349.58682989587578 171.9805223076437 0 0 0 0 423.29620387015893 474.97888224289727 0 474.97888224289727 246.61345926786726 0 0 0 0 422.9441246039496 467.5242379769752 0 467.5242379769752 261.60149836991695 0 0 0 0 319.92796216641 361.48109003227819 0 361.48109003227819 225.87167158826833 0 0 0 0 302.09939886683424 382.61519811228482 0 382.61519811228482 267.65965467212538 0 0 0 0 281.86145153456891 277.640333739384 0 277.640333739384 200.87815258756336 0 0 0 0 238.64927850693493 242.27294225025253 0 242.27294225025253 125.13226506061801 0 0 0 0 195.86124659063353 304.77738248303967 0 304.77738248303967 265.04371891892015 0 0 0 0 124.36031627732882 233.17345394298775 0 233.17345394298775 197.40050936375246 0 0 0 0 271.39873159890703 323.18876020928383 0 323.18876020928383 188.34749478484991 0 0 0 0 123.93407939984172 182.06542589089668 0 182.06542589089668 126.97936884532771 0 0 0 0 84.78532302295207 138.48850982904651 0 138.48850982904651 75.419998766979006 0 0 0 0 211.93938695011457 175.02316471485301 0 175.02316471485301 74.991537036154114 0 0 0 0 162.76020754680576 188.40011530815173 0 188.40011530815173 153.91531746137025 0 0 0 0 152.57457763036655 117.43683382586005 0 117.43683382586005 90.488968912810606 0 0 0 0 226.74283308822123 178.00063091307084 0 178.00063091307084 110.53843079455692 0 0 0 0 154.05224761171849 115.65719849945162 0 115.65719849945162 70.300944949739915 0 0 0 0 140.63099912965117 65.089591394081708 0 65.089591394081708 -28.693276196013358 0 0 0 0 219.3222437525219 132.62434519832004 0 132.62434519832004 -153.57352087648906 0 0 0 0 119.48861327168561 56.951935572742968 0 56.951935572742968 -169.76530702786113 0 0 0 0 3.0447850037635362 49.751872357113371 0 49.751872357113371 -39.694243178514625 0 0 0 0 151.12563402660453 136.37830086505346 0 136.37830086505346 -23.615994180363487 0 0 0 0 70.067783983307436 51.038860566144621 0 51.038860566144621 -39.658160476677494 0 0 0 0 81.566926703962963 -625.15988769388059 0 -625.15988769388059 -715.75549859333296 0 0 0 0 114.08094747946598 -55.029466871352497 0 -55.029466871352497 -323.49544743839442 0 0 0 0 -44.097041224191344 388.01919539353548 0 388.01919539353548 644.9265144628589 0 0 0 0 -123.98459633866696 -42.661614922868466 0 -42.661614922868466 80.050577446410898 0 0 0 0 -122.82116186945495 25.666175030248269 0 25.666175030248269 201.09803992447451 0 0 0 0 64.614334579753631 423.21410308549457 0 423.21410308549457 431.54476663284004 0 0 0 0 938.5495178020501 1099.4973463754031 0 1099.4973463754031 265.29375815761159 0 0 0 0 4.2745152589122881 108.88022804731008 0 108.88022804731008 -107.0027673985096 0 0 0 0 -90.159171599036199 9.5154441353761285 0 9.5154441353761285 54.013705698176636 0 0 0 0 37.127363171478606 60.568259281970683 0 60.568259281970683 -41.092406204646203 0 0 0 0 -75.271082144623506 -50.898444066944649 0 -50.898444066944649 -18.306395937324851 0 0 0 0 -134.33957128715701 164.54486785119298 0 164.54486785119298 111.29017767588812 0 0 0 0 -0.086580136679430098 71.408597021439817 0 71.408597021439817 -45.016105845716552 0 0 0 0 65.033208711547928 166.4578670102438 0 166.4578670102438 65.991296971155862 0 0 0 0 65.750053775351262 13.529709011910199 0 13.529709011910199 -202.97198571813306 0 0 0 0 88.481138051865855 158.17301401655845 0 158.17301401655845 -12.281389395415317 0 0 0 0 164.67687148001278 142.63968368232008 0 142.63968368232008 -9.5283632773962381 0 0 0 0 185.30414924793149 217.47045535315237 0 217.47045535315237 53.233149924423628 0 0 0 0 195.83636895932432 256.62306375156459 0 256.62306375156459 144.01314566990675 0 0 0 0 153.34445884325396 363.17288997823925 0 363.17288997823925 366.26334607483932 0 0 0 0 92.292104067237233 215.96800681075138 0 215.96800681075138 209.71254336443599 0 0 0 0 115.4202010082081 114.88775987765848 0 114.88775987765848 -0.1106950090720602 0 0 0 0 147.41543054260546 246.35721503012428 0 246.35721503012428 107.30109439626358 0 0 0 0 89.801432874457532 169.99506422398326 0 169.99506422398326 139.15153028853456 0 0 0 0 146.22355561571749 187.23127361178854 0 187.23127361178854 -52.237352158747854 0 0 0 0 88.247824291465804 168.56049361513669 0 168.56049361513669 138.20573540254057 0 0 0 0 107.96963881761621 87.147506480760967 0 87.147506480760967 -127.20982251142323 0 0 0 0 100.86750801831113 217.06961075279833 0 217.06961075279833 -69.33347195287115 0 0 0 0 -201.74438397816266 196.4555631525684 0 196.4555631525684 90.516705638098529 0 0 0 0 -30.877337691407803 89.44907586886282 0 89.44907586886282 -44.032880595503094 0 0 0 0 -34.506118640123532 223.48631430340083 0 223.48631430340083 -158.3331011035043 0 0 0 0 67.266056491813913 24.563060633163161 0 24.563060633163161 -33.64029362775662 0 0 0 0 60.137153903197031 23.067131398391211 0 23.067131398391211 -195.68534113603528 0 0 0 0 36.596106120377954 51.24157191282211 0 51.24157191282211 -34.140227025502099 0 0 0 0 30.932824665613936 51.472651414543449 0 51.472651414543449 -30.11645244854688 0 0 0 0 372.07468480193347 285.67222277747851 0 285.67222277747851 35.059314172736322 0 0 0 0 102.34008739859564 192.28290367561203 0 192.28290367561203 85.648602904582731 0 0 0 0 -7.8966884381006821 28.944516685955477 0 28.944516685955477 -138.22865518521121 0 0 0 0 2.5262344084505344 5.2946148984195602 0 5.2946148984195602 -25.485115862178795 0 0 0 0 24.289756164362785 59.442226788637498 0 59.442226788637498 -22.766851397278657 0 0 0 0 40.111771760421107 90.076128875574796 0 90.076128875574796 -75.86239859010675 0 0 0 0 24.61759361155805 47.739807766231777 0 47.739807766231777 -57.375904177694487 0 0 0 0 30.708178158639839 80.761880382693988 0 80.761880382693988 -6.4741200060141324 0 0 0 0 5.8667711901944131 29.023526523145847 0 29.023526523145847 -17.116585132069304 0 0 0 0 -0.55419231717991124 89.219604051445771 0 89.219604051445771 -125.00290375434582 0 0 0 0 -6.4159047298307996 2.1573458507054966 0 2.1573458507054966 66.46626716589526 0 0 0 0 25.615160634479253 695.65158328503821 0 695.65158328503821 -210.35873307789916 0 0 0 0 -0.49505492573450738 11.092920258725911 0 11.092920258725911 15.281899814890792 0 0 0 0 163.48677149750074 100.39038939755847 0 100.39038939755847 769.61837310344526 0 0 0 0 554.44230405776761 181.26791129521735 0 181.26791129521735 502.563089692223 0 0 0 0 -4.6226117523141284 3.9826319843304177 0 3.9826319843304177 -6.042372537303919 0 0 0 0 154.81156495925097 -29.134916121005745 0 -29.134916121005745 -453.86915365207039 0 0 0 0 68.040139284887118 433.04487044564848 0 433.04487044564848 -443.81501897833988 0 0 0 0 2.3432518842455465 -35.233182835370599 0 -35.233182835370599 -111.4096223143964 0 0 0 0 134.81094617627241 211.67051729298055 0 211.67051729298055 -112.80602790992907 0 0 0 0 31.129368570400402 195.5517192528182 0 195.5517192528182 146.61662883443023 0 0 0 0 80.286055408316315 386.43385887064233 0 386.43385887064233 121.81219004998559 0 0 0 0 -127.68772179671214 311.02828817576301 0 311.02828817576301 456.03740013801962 0 0 0 0 -64.298618246866681 320.86895944563548 0 320.86895944563548 805.2575210469131 0 0 0 0 -166.20822136076458 89.125002740344826 0 89.125002740344826 168.84563838876602 0 0 0 0 -389.21161480827141 409.74151509636067 0 409.74151509636067 164.7815725421824 0 0 0 0 50.910761446139077 325.99033984684411 0 325.99033984684411 154.73076708071335 0 0 0 0 -76.277533571454114 160.93563387346967 0 160.93563387346967 222.357520646392 0 0 0 0 141.51587358856341 343.73802647514924 0 343.73802647514924 301.55822941467341 0 0 0 0 153.89388943963786 561.02443699585365 0 561.02443699585365 512.31077094325337 0 0 0 0 21.292783200049598 358.32108180824071 0 358.32108180824071 471.99481582250337 0 0 0 0 14.028672782740614 584.88162501478746 0 584.88162501478746 652.01588443417313 0 0 0 0 271.47737643396977 858.65988320372071 0 858.65988320372071 857.67650644471723 0 0 0 0 254.92421315932734 857.97312258610873 0 857.97312258610873 858.42566608083507 0 0 0 0 402.83222081972053 825.59560224022971 0 825.59560224022971 705.10174529392589 0 0 0 0 437.84648911566183 193.23441055845888 0 193.23441055845888 -1102.1963672505203 0 0 0 0 539.42332311734026 1149.0196743980707 0 1149.0196743980707 910.08767046392495 0 0 0 0 2.7594241020635764 5.6882137834253292 0 5.6882137834253292 -0.43597925086505995 0 0 0 0 640.91723488498792 890.92820821429837 0 890.92820821429837 612.83240709763959 0 0 0 0 446.42811602298752 701.74388768564495 0 701.74388768564495 509.95392212916295 0 0 0 0 471.4215520716898 670.47439935493139 0 670.47439935493139 521.96928428768115 0 0 0 0 184.72687553503056 665.62682577554006 0 665.62682577554006 676.53064957483366 0 0 0 0 277.13023094703385 544.15737483531575 0 544.15737483531575 474.21101239648669 0 0 0 0 197.51004583008034 503.14375829785467 0 503.14375829785467 529.42181882391196 0 0 0 0 258.28116648890136 376.05633100357113 0 376.05633100357113 322.17587938108954 0 0 0 0 298.07311175786162 515.21108301436061 0 515.21108301436061 459.95495181098204 0 0 0 0 309.64714096986427 368.60412423893013 0 368.60412423893013 251.2002577079345 0 0 0 0 162.89514363836679 292.22945157463153 0 292.22945157463153 304.07967127777738 0 0 0 0 338.07488288881677 495.2451637119878 0 495.2451637119878 365.56817858174691 0 0 0 0 223.94768109373763 351.65535438066468 0 351.65535438066468 344.20208916617139 0 0 0 0 579.61299837793194 592.88948714573598 0 592.88948714573598 441.73192506435953 0 0 0 0 320.94733170529798 505.55673956651185 0 505.55673956651185 453.18085122176217 0 0 0 0 420.68589810834555 634.37731052770516 0 634.37731052770516 627.51824484552981 0 0 0 0 433.3419598951732 487.15765139948871 0 487.15765139948871 306.38229959499313 0 0 0 0 601.23806952845189 633.35352782854761 0 633.35352782854761 21.516552894034248 0 0 0 0 510.18250598966551 600.47828314725848 0 600.47828314725848 349.8265612725022 0 0 0 0 884.87100037860364 991.85165372573283 0 991.85165372573283 474.11806220320523 0 0 0 0 -1.2692289267324668 6.4255713208644067 0 6.4255713208644067 -1.7211354491753799 0 0 0 0 399.79394185483397 1065.7940824326188 0 1065.7940824326188 1436.7885710649648 0 0 0 0 292.76366961309395 336.91499738817492 0 336.91499738817492 -927.71951277975086 0 0 0 0 389.9724486082273 624.66583320008601 0 624.66583320008601 -365.33482251901478 0 0 0 0 389.73154119296919 627.15990428562259 0 627.15990428562259 918.41739952647731 0 0 0 0 560.44668408770667 785.3539146463936 0 785.3539146463936 538.06996483099056 0 0 0 0 5.9782129795417802 5.9091219050215926 0 5.9091219050215926 5.8267894744440056 0 0 0 0 1002.3607333480072 -70.941825092685832 0 -70.941825092685832 142.64974992676616 0 0 0 0 -152.52002928573347 466.76047558140817 0 466.76047558140817 117.79501748650432 0 0 0 0 -129.31528949816311 256.90665140740686 0 256.90665140740686 -329.98927767316673 0 0 0 0 131.6217852063055 536.61350216731171 0 536.61350216731171 -33.584902134305594 0 0 0 0 257.27063356059443 519.80121249850413 0 519.80121249850413 -31.336473393964297 0 0 0 0 1135.5388379079814 1279.5364811200025 0 1279.5364811200025 -154.13995220555171 0 0 0 0 345.79605388220079 329.87299348075931 0 329.87299348075931 593.91838993988495 0 0 0 0 345.47945300969877 611.240240921843 0 611.240240921843 783.67397532385849 0 0 0 0 490.46905733110179 543.42350984471932 0 543.42350984471932 314.73872018707516 0 0 0 0 489.24826704807492 556.08897063378208 0 556.08897063378208 439.14316624715138 0 0 0 0 514.53098382978351 344.97643710344892 0 344.97643710344892 125.22702108385465 0 0 0 0 1094.5701010664052 836.75127313608573 0 836.75127313608573 456.27865261493389 0 0 0 0 442.00882874560921 445.59529298716234 0 445.59529298716234 160.14271326921516 0 0 0 0 306.81606230488978 434.97091212964574 0 434.97091212964574 251.44184857807704 0 0 0 0 520.34139838898045 738.43192129438989 0 738.43192129438989 402.87228649939789 0 0 0 0 117.34552061191789 444.83333780908924 0 444.83333780908924 237.45329299295736 0 0 0 0 214.17724999215716 421.78048873001444 0 421.78048873001444 221.8025840082928 0 0 0 0 -75.943337654258357 30.698404154230957 0 30.698404154230957 -260.81238127012875 0 0 0 0 186.11923091601784 85.492140173001189 0 85.492140173001189 -274.66614978725465 0 0 0 0 -13.309836994521902 215.22670437058059 0 215.22670437058059 -302.2755450450959 0 0 0 0 93.371332636088482 -70.545400513866298 0 -70.545400513866298 143.36598965688091 0 0 0 0 335.82307516349374 -106.18064993221816 0 -106.18064993221816 -77.732183819643978 0 0 0 0 -23.07276101977186 132.16566379092546 0 132.16566379092546 -289.90510355127117 0 0 0 0 65.294506413007184 -186.64465511667254 0 -186.64465511667254 83.663919488069951 0 0 0 0 19.443500406581563 16.390464255633958 0 16.390464255633958 14.879970961186118 0 0 0 0 193.93137251491862 18.646902283599502 0 18.646902283599502 -304.90854848773142 0 0 0 0 -95.739580256029512 -62.27851628764995 0 -62.27851628764995 127.86655715817687 0 0 0 0 137.56748936965596 332.03461015436932 0 332.03461015436932 -24.265842778526348 0 0 0 0 114.26589782749943 233.96530607533987 0 233.96530607533987 -215.63957207270505 0 0 0 0 87.607549426887999 -264.67870971472485 0 -264.67870971472485 -739.01439058964797 0 0 0 0 138.38588041559706 316.7620893355579 0 316.7620893355579 189.78123167176727 0 0 0 0 -2.2449005868600693 1.7342441899101715 0 1.7342441899101715 -2.2282629686899558 0 0 0 0 234.8160224933074 267.90662458152838 0 267.90662458152838 78.797214047450325 0 0 0 0 -31.08691949932836 235.19020529992667 0 235.19020529992667 151.67846209104164 0 0 0 0 -20.703557868844655 159.39473948483624 0 159.39473948483624 103.80253566108331 0 0 0 0 87.976672783443064 324.78222201084191 0 324.78222201084191 312.72676239406701 0 0 0 0 -46.861108402052196 85.291817467356395 0 85.291817467356395 243.40216381391156 0 0 0 0 204.64874703998794 235.17576493343677 0 235.17576493343677 104.68150867774239 0 0 0 0 478.45481407827901 458.22009070063245 0 458.22009070063245 284.07719530146551 0 0 0 0 44.37299272099699 322.00957627790626 0 322.00957627790626 753.17279663475074 0 0 0 0 182.60478671031888 -204.6403770070724 0 -204.6403770070724 423.20336434354044 0 0 0 0 -140.66021918994375 -133.72795219442651 0 -133.72795219442651 157.88566177507892 0 0 0 0 -126.51968242492148 120.47096011846179 0 120.47096011846179 276.33864220823352 0 0 0 0 -4.2737397113669431 270.24538684359754 0 270.24538684359754 249.5116222509707 0 0 0 0 47.279272425854288 228.12699218482078 0 228.12699218482078 250.94262718223808 0 0 0 0 717.92428168227343 285.29504546883572 0 285.29504546883572 58.821166403539337 0 0 0 0 13.844585388236737 397.90465481467891 0 397.90465481467891 654.56627447420033 0 0 0 0 1.4399839383893465 7.1886697947989688 0 7.1886697947989688 4.6168724814120381 0 0 0 0 -2.9371015860451735 -21.492924523938257 0 -21.492924523938257 499.52579853279747 0 0 0 0 573.40630252767824 114.84241625153504 0 114.84241625153504 24.254929495465149 0 0 0 0 15.93104853101795 -51.538769127078183 0 -51.538769127078183 101.74493897431307 0 0 0 0 -9.0899877273190555 11.992118917145966 0 11.992118917145966 -4.7810369746335537 0 0 0 0 7.2965209443156596 13.295597116099671 0 13.295597116099671 8.4208443325853217 0 0 0 0 134.85354292816191 16.940108879984109 0 16.940108879984109 -2.1426692118293431 0 0 0 0 193.17205077316612 111.33286818511033 0 111.33286818511033 27.574876402175505 0 0 0 0 240.28100323833462 0.34707980706584962 0 0.34707980706584962 -10.048299387816769 0 0 0 0 -4.2531557121332355 9.2817820798721584 0 9.2817820798721584 -3.1783659537604247 0 0 0 0 100.60252548259905 95.251612526102534 0 95.251612526102534 -243.2016450537958 0 0 0 0 46.572799117020622 13.107797641405796 0 13.107797641405796 -329.63035781585313 0 0 0 0 -9.1291881694996846 180.21974627939449 0 180.21974627939449 -304.55691977796778 0 0 0 0 483.33007672423264 181.66966937569759 0 181.66966937569759 -11.209656224864375 0 0 0 0 98.868743306447868 85.839302770510585 0 85.839302770510585 113.1365595852684 0 0 0 0 160.84642746151076 181.9016640985933 0 181.9016640985933 144.01584765204461 0 0 0 0 227.10604423702171 208.36619704970508 0 208.36619704970508 121.78846457081181 0 0 0 0 396.47091569175973 325.72486446258358 0 325.72486446258358 161.47872599651419 0 0 0 0 -5.7723896722567645 5.5890377462541636 0 5.5890377462541636 -4.9482467849998564 0 0 0 0 59.774635756723001 72.293994154086477 0 72.293994154086477 124.67704967175291 0 0 0 0 10.557917967671528 164.62001011180757 0 164.62001011180757 143.12193690017875 0 0 0 0 81.312365472709644 734.31559630135848 0 734.31559630135848 273.95729874627909 0 0 0 0 330.59429721314518 615.24515530891222 0 615.24515530891222 270.25015648955525 0 0 0 0 -1.5196952514159534 2.418070432716334 0 2.418070432716334 -1.6501768006731652 0 0 0 0 29.918176725048397 377.26744194282287 0 377.26744194282287 368.79919288703627 0 0 0 0 293.40845201004231 366.28985231187431 0 366.28985231187431 302.58245624997562 0 0 0 0 447.23570501628274 443.68310626405037 0 443.68310626405037 194.17134676905812 0 0 0 0 381.23197230167716 630.98615658098652 0 630.98615658098652 315.11961103714111 0 0 0 0 499.30183153989492 591.66004180433924 0 591.66004180433924 323.70739423179248 0 0 0 0 356.62381849089434 361.17894391676168 0 361.17894391676168 133.20327028887186 0 0 0 0 450.358812486018 627.87344780545868 0 627.87344780545868 417.44627007109284 0 0 0 0 804.61518793452706 603.75589496543989 0 603.75589496543989 184.79122767161471 0 0 0 0 462.57524791199285 659.45342213869435 0 659.45342213869435 413.90627320382828 0 0 0 0 528.79670744956093 604.90132285987625 0 604.90132285987625 270.48091535593994 0 0 0 0 373.8833087768362 460.66471223698773 0 460.66471223698773 310.4274828228331 0 0 0 0 500.14033525933337 598.68375753728833 0 598.68375753728833 405.62392425549206 0 0 0 0 538.89689184620147 709.30397839595798 0 709.30397839595798 671.25089149077485 0 0 0 0 4.5054264570386806 4.3355546022222455 0 4.3355546022222455 4.6136731941800484 0 0 0 0 1483.5412679109868 514.42105814963361 0 514.42105814963361 75.954355595514926 0 0 0 0 -278.2612525962486 592.10585481193061 0 592.10585481193061 463.23753446562478 0 0 0 0 1139.5091456037881 697.04298643022412 0 697.04298643022412 262.70194776616609 0 0 0 0 490.90163546877739 1027.426447089892 0 1027.426447089892 596.57674844150051 0 0 0 0 709.6696268241285 336.93541075819303 0 336.93541075819303 461.55589343081465 0 0 0 0 550.92537600492506 606.55830543342427 0 606.55830543342427 258.30662378456054 0 0 0 0 590.19898923090659 691.90203455873871 0 691.90203455873871 424.67793029061704 0 0 0 0 532.40096142816765 545.58654079572352 0 545.58654079572352 276.35404021771319 0 0 0 0 454.45770480011561 423.08561226561233 0 423.08561226561233 182.27887528549218 0 0 0 0 649.8766844327838 554.88283485275497 0 554.88283485275497 250.51029811460558 0 0 0 0 452.92808408237761 367.56277229896568 0 367.56277229896568 191.74625420471011 0 0 0 0 372.34375852301309 229.49914008948645 0 229.49914008948645 84.424147391509905 0 0 0 0 333.31763776706066 254.01166779792493 0 254.01166779792493 90.83607542078056 0 0 0 0 429.38937687584257 392.09547241881779 0 392.09547241881779 164.02354264729729 0 0 0 0 516.7533010022089 392.10766927826899 0 392.10766927826899 110.85262720817445 0 0 0 0 569.58912658667032 355.80765444125245 0 355.80765444125245 145.049661818819 0 0 0 0 527.31450251235947 488.52850851338599 0 488.52850851338599 335.76228209486544 0 0 0 0 66.315350006843801 113.60449146293604 0 113.60449146293604 -43.333887497366504 0 0 0 0 415.33315192803366 267.71371811343118 0 267.71371811343118 -134.85585802892092 0 0 0 0 208.85018018177652 174.37589762277366 0 174.37589762277366 67.479511730663944 0 0 0 0 206.4595847990222 187.99107319682298 0 187.99107319682298 -3.8542653327085645 0 0 0 0 128.02512873496016 153.42409585366931 0 153.42409585366931 86.688872620485654 0 0 0 0 165.16857632402389 189.44048466349432 0 189.44048466349432 10.448721024230508 0 0 0 0 118.3674043370338 178.94606196653149 0 178.94606196653149 49.021958146394809 0 0 0 0 267.36899597261799 89.237022507039001 0 89.237022507039001 -7.6594305355156393 0 0 0 0 204.6598795144746 136.50361506401032 0 136.50361506401032 25.498826278309934 0 0 0 0 204.46967322837736 139.40457576121662 0 139.40457576121662 34.945882980642637 0 0 0 0 0.69682785956871385 2.2518011971868361 0 2.2518011971868361 -6.3460515724551705 0 0 0 0 815.00051589008217 -91.187167347245122 0 -91.187167347245122 -318.61928496106066 0 0 0 0 342.34381445035979 5.7612169503809127 0 5.7612169503809127 94.04005397073206 0 0 0 0 82.893426862159686 271.11092288949749 0 271.11092288949749 -154.97756404187385 0 0 0 0 158.05296561818977 154.38013472378861 0 154.38013472378861 17.955602430492945 0 0 0 0 267.30684656606172 203.82277347944341 0 203.82277347944341 -170.48603707352595 0 0 0 0 260.27449468712439 92.341083322546183 0 92.341083322546183 -127.05825915490732 0 0 0 0 -4.7443017434416106 100.78071668968778 0 100.78071668968778 -334.33198053026899 0 0 0 0 349.85692789462337 306.49946136551443 0 306.49946136551443 -576.26376842162517 0 0 0 0 264.48468300125751 112.45224942509253 0 112.45224942509253 -366.3480235895604 0 0 0 0 -251.38271622692992 655.47928418922447 0 655.47928418922447 -1292.4721483370231 0 0 0 0 626.32350901296013 182.62111012627747 0 182.62111012627747 -522.6417414210664 0 0 0 0 -1628.9288065829933 721.08515350304106 0 721.08515350304106 87.867736963838979 0 0 0 0 102.11888661887497 164.15245336513271 0 164.15245336513271 166.03903727039142 0 0 0 0 208.30597332178149 204.90129401167951 0 204.90129401167951 181.09808368071981 0 0 0 0 -327.72951052113058 476.8448663828367 0 476.8448663828367 -442.22376935923148 0 0 0 0 1.6362198553706406 7.3941403531843974 0 7.3941403531843974 -0.89523020258947028 0 0 0 0 3.8854206232387014 9.0148805531710465 0 9.0148805531710465 -3.7367797119867059 0 0 0 0 329.78169340513705 198.53362564295412 0 198.53362564295412 98.909650162562684 0 0 0 0 225.52398449545581 471.1059626218605 0 471.1059626218605 655.15790606032351 0 0 0 0 312.80544613288657 808.31363328823204 0 808.31363328823204 1211.5017268651409 0 0 0 0 2.6091840789736693 3.2660991244795525 0 3.2660991244795525 -0.79675888462552535 0 0 0 0 385.67951910448755 395.78511064454324 0 395.78511064454324 -581.40049150584537 0 0 0 0 304.95991162519931 -108.06000576538554 0 -108.06000576538554 -1202.7529737589457 0 0 0 0 410.20535811438458 522.85812626196912 0 522.85812626196912 65.918762491897269 0 0 0 0 586.12528261751868 680.87763338435707 0 680.87763338435707 351.73494614409947 0 0 0 0 635.79656284734665 853.69171077259352 0 853.69171077259352 587.09944573473285 0 0 0 0 547.54823083926749 619.33661653302033 0 619.33661653302033 409.98191701848418 0 0 0 0 542.55904508346453 729.95289043057835 0 729.95289043057835 364.84105911749339 0 0 0 0 510.67552560111471 737.62392436027324 0 737.62392436027324 270.04686188797587 0 0 0 0 524.56928865276586 674.3191089642155 0 674.3191089642155 278.44010176040319 0 0 0 0 484.88928782620496 695.60799059504666 0 695.60799059504666 353.71363078069999 0 0 0 0 414.75235016192892 622.14696258776576 0 622.14696258776576 269.31535361274291 0 0 0 0 434.55455496727518 711.99818298764944 0 711.99818298764944 274.77683754361715 0 0 0 0 463.90596348885447 747.35037383622284 0 747.35037383622284 232.07052824044695 0 0 0 0 492.58084127428447 738.82230354833234 0 738.82230354833234 224.39189414139946 0 0 0 0 451.36064909784182 700.51805176816697 0 700.51805176816697 276.07433448864145 0 0 0 0 437.71127287112904 713.20940722148384 0 713.20940722148384 292.73101484356016 0 0 0 0 434.11773568816716 729.41383555018092 0 729.41383555018092 220.10949574671963 0 0 0 0 333.13146684486128 697.15400145311196 0 697.15400145311196 272.75126499837648 0 0 0 0 332.09399289690191 732.30422476126569 0 732.30422476126569 335.18557236996139 0 0 0 0 407.33315062864858 695.91789743080085 0 695.91789743080085 348.14928090760566 0 0 0 0 460.76623376646603 739.86537850187597 0 739.86537850187597 286.02024619663041 0 0 0 0 440.08805029356154 759.72498400833069 0 759.72498400833069 294.97912315486872 0 0 0 0 482.98379332109471 735.20798799827867 0 735.20798799827867 191.88474210863671 0 0 0 0 399.17643425780989 810.03187733409698 0 810.03187733409698 206.16421483976274 0 0 0 0 194.78954128455371 898.90674789351522 0 898.90674789351522 171.00881636246868 0 0 0 0 386.98157284441186 714.01742378275799 0 714.01742378275799 126.45040149867418 0 0 0 0 508.16871754106251 752.38442142560984 0 752.38442142560984 280.78242036408119 0 0 0 0 478.1473176437139 721.09993865048546 0 721.09993865048546 262.21465220747814 0 0 0 0 387.2040628601693 730.06352874722631 0 730.06352874722631 276.68501777882102 0 0 0 0 498.90478100559267 693.45522369693572 0 693.45522369693572 340.39854943266982 0 0 0 0 0.49621459995364603 1.2860573913505817 0 1.2860573913505817 1.2927608115750804 0 0 0 0 245.47590654758096 140.39261654132497 0 140.39261654132497 68.378719030714819 0 0 0 0 -637.8214502430892 522.2673276422554 0 522.2673276422554 -28.999193680591816 0 0 0 0 1066.183620225951 495.56499649234024 0 495.56499649234024 65.780984672942395 0 0 0 0 -20.819283118864405 347.6203979576926 0 347.6203979576926 -530.9327293556039 0 0 0 0 -133.23295758443419 224.47835453378184 0 224.47835453378184 -312.60582130889179 0 0 0 0 -15.313118713485892 386.62702898279804 0 386.62702898279804 -263.29095896724289 0 0 0 0 84.81984969102632 179.7392911366037 0 179.7392911366037 -1213.4205960594545 0 0 0 0 40.239551353108254 236.9997251040154 0 236.9997251040154 -436.22615182414393 0 0 0 0 22.325958957346927 476.69451868914228 0 476.69451868914228 -710.28438028508117 0 0 0 0 20.395958252060439 634.75117571962164 0 634.75117571962164 -304.4410444074565 0 0 0 0 33.52130331506487 873.64334356155882 0 873.64334356155882 99.157134658040718 0 0 0 0 -49.10661252400314 522.13070198674518 0 522.13070198674518 -106.32503826743368 0 0 0 0 69.019293354889669 710.25653441616441 0 710.25653441616441 306.65913562171636 0 0 0 0 -3.6154985738976393 863.92899657292423 0 863.92899657292423 98.805496675912195 0 0 0 0 -97.205581801968947 627.30220542919881 0 627.30220542919881 40.875567368602788 0 0 0 0 -110.49336114656035 733.57405062746943 0 733.57405062746943 555.57048871279051 0 0 0 0 -16.461070784906042 845.39556368180547 0 845.39556368180547 413.45106382373444 0 0 0 0 -205.42095353783225 729.18497994503184 0 729.18497994503184 421.25509626094504 0 0 0 0 -12.013972346998344 931.26463923211986 0 931.26463923211986 220.16958929921361 0 0 0 0 0.055635240663832519 936.86671655308589 0 936.86671655308589 -26.180464751980708 0 0 0 0 -86.607445384681341 517.7953496880923 0 517.7953496880923 -535.63640723194567 0 0 0 0 -102.43096604620951 852.62204817192537 0 852.62204817192537 -205.21431768106959 0 0 0 0 48.372269119790872 483.79993295147733 0 483.79993295147733 -718.09017625899151 0 0 0 0 94.621487529620936 181.28493120482062 0 181.28493120482062 -2243.1233017245786 0 0 0 0 -0.60023735624417895 884.3351023290827 0 884.3351023290827 -934.02459855344523 0 0 0 0 -1.2156429208214661 3.3658898807196564 0 3.3658898807196564 -1.7081564421678657 0 0 0 0 -0.11144446329853963 595.50776860510996 0 595.50776860510996 526.09170683588673 0 0 0 0 -166.14248081674305 366.21395890795702 0 366.21395890795702 1346.135929205735 0 0 0 0 109.07609068288002 231.59818350498699 0 231.59818350498699 -104.99867019278827 0 0 0 0 -38.251334641758149 544.32142235552624 0 544.32142235552624 254.19744243750938 0 0 0 0 225.64216565959214 464.08080432693623 0 464.08080432693623 -309.44843980933365 0 0 0 0 44.157520698372537 440.76255576402491 0 440.76255576402491 568.2857406199455 0 0 0 0 182.47073458651721 307.93231517196818 0 307.93231517196818 338.55468123703031 0 0 0 0 -2.8836455006078268 9.4113577305768246 0 9.4113577305768246 -3.3149740048377598 0 0 0 0 135.2712851510878 156.8107336293333 0 156.8107336293333 61.802800201125137 0 0 0 0 139.32389453226642 253.11034938280136 0 253.11034938280136 202.32954993319981 0 0 0 0 -40.861332284803211 203.54644026825531 0 203.54644026825531 -432.55161599653457 0 0 0 0 -4.1889009263101968 14.119356727095102 0 14.119356727095102 -4.324490368388294 0 0 0 0 179.31280208002136 130.88406616711109 0 130.88406616711109 55.851226970485186 0 0 0 0 227.932985145977 130.51495831695593 0 130.51495831695593 35.757649841596503 0 0 0 0 3.122176016882193 7.7556542530071795 0 7.7556542530071795 -9.1298878811104061 0 0 0 0 202.3270474383462 161.77387515683131 0 161.77387515683131 43.807426747232967 0 0 0 0 393.45011829737632 127.37870868275513 0 127.37870868275513 20.443108206500256 0 0 0 0 372.0005189414851 330.71912980243019 0 330.71912980243019 -263.79166588051521 0 0 0 0 211.26218283093476 438.10380602413079 0 438.10380602413079 86.962886156745299 0 0 0 0 356.97395248422981 195.21948821142996 0 195.21948821142996 -165.48945272643323 0 0 0 0 717.72066097026982 246.23098098775336 0 246.23098098775336 -593.96323020443924 0 0 0 0 963.9368691588752 -104.80852134545239 0 -104.80852134545239 -311.60731343168118 0 0 0 0 -1550.5789292790723 655.40817920365043 0 655.40817920365043 25.859852609844893 0 0 0 0 1.2323471115605571 2.0395983659576444 0 2.0395983659576444 -3.5565264793168367 0 0 0 0 2.5727811496578141 4.7506470567878978 0 4.7506470567878978 -14.534033084120331 0 0 0 0 -275.75767809853642 407.89800114093441 0 407.89800114093441 -753.91794719357495 0 0 0 0 -89.3847056860468 201.7012308104604 0 201.7012308104604 -249.56118835346388 0 0 0 0 329.80655615632168 -33.584472787968025 0 -33.584472787968025 -650.58441008286172 0 0 0 0 272.45783783393381 218.06550728429681 0 218.06550728429681 -494.25775157377211 0 0 0 0 -74.774403806528426 -97.919632518054641 0 -97.919632518054641 -280.17367078994994 0 0 0 0 -1.9133022578066345 3.9407100274469684 0 3.9407100274469684 -9.1903818918298938 0 0 0 0 -30.107079689187231 257.19001838353142 0 257.19001838353142 -569.64064141783092 0 0 0 0 -215.18175687806433 -444.83892460923653 0 -444.83892460923653 -805.96246790247096 0 0 0 0 -0.13213641889439301 -26.400520870357923 0 -26.400520870357923 -1509.7016889891675 0 0 0 0 -440.54653295269236 557.41906268712955 0 557.41906268712955 -267.39098303593801 0 0 0 0 237.53054440944106 57.361284317117679 0 57.361284317117679 -1356.2301046639041 0 0 0 0 187.17779939250613 463.86161476646521 0 463.86161476646521 -1245.0773151223802 0 0 0 0 187.63454631752393 531.55625833309205 0 531.55625833309205 -847.03879185650658 0 0 0 0 193.48988013828057 285.95793266167129 0 285.95793266167129 -268.91500508244826 0 0 0 0 259.38780905122985 128.10068554497229 0 128.10068554497229 -521.87489103657026 0 0 0 0 342.56423334287683 295.4757030734263 0 295.4757030734263 -682.83712829890283 0 0 0 0 152.61765362245205 -64.771634566434841 0 -64.771634566434841 -789.85790017010731 0 0 0 0 86.96132597032647 96.862591531350517 0 96.862591531350517 70.174454190902907 0 0 0 0 -42.952864640170446 156.52577254585412 0 156.52577254585412 542.05442784105617 0 0 0 0 47.506532773679282 42.177899120611983 0 42.177899120611983 263.97568020434119 0 0 0 0 40.351414246266359 194.57115263172091 0 194.57115263172091 216.501444292614 0 0 0 0 106.81256228151142 256.72279203062863 0 256.72279203062863 249.7830092723998 0 0 0 0 76.426247171351633 -24.119005662241761 0 -24.119005662241761 296.93300353660743 0 0 0 0 47.381706322748869 -252.89837222169263 0 -252.89837222169263 -534.53179254542556 0 0 0 0 -72.005957757393844 205.75572414742055 0 205.75572414742055 -849.5818704315825 0 0 0 0 -4.5499818306941791 7.0852770924540778 0 7.0852770924540778 -2.0831475775171766 0 0 0 0 0.035043687614233932 70.422669618492364 0 70.422669618492364 -1028.7922314364614 0 0 0 0 -4.7341251237231958 5.6028863040635315 0 5.6028863040635315 -3.0742827771849832 0 0 0 0 289.7050187370769 -404.414017511157 0 -404.414017511157 -1750.0837271396322 0 0 0 0 -2.758382265455694 22.435132527058393 0 22.435132527058393 9.9328565356729381 0 0 0 0 158.65084800036311 640.85914132235848 0 640.85914132235848 -1177.98399506633 0 0 0 0 -55.655475758238026 114.58268870194502 0 114.58268870194502 144.09034971465371 0 0 0 0 -752.6774573318653 1242.3969190128992 0 1242.3969190128992 -747.93598315091367 0 0 0 0 -26.977456085971298 60.718858287256523 0 60.718858287256523 93.743512408261026 0 0 0 0 -28.837579953873501 99.057355495318916 0 99.057355495318916 193.42534773251941 0 0 0 0 17.666880852463152 48.040864297044074 0 48.040864297044074 35.043009337161919 0 0 0 0 -44.876050223881975 54.043403517725892 0 54.043403517725892 102.94724500254233 0 0 0 0 -49.990957255857211 61.644648555164167 0 61.644648555164167 152.3491213526795 0 0 0 0 0.10844446951159625 145.46022041096512 0 145.46022041096512 115.51135138052996 0 0 0 0 -2.247300051005368 115.30032185440177 0 115.30032185440177 18.692778621552861 0 0 0 0 46.503480687531919 106.50904280105169 0 106.50904280105169 141.54290563914765 0 0 0 0 7.9468235586391529 140.54729051325194 0 140.54729051325194 68.252617521371576 0 0 0 0 -3.1627272151381476 159.06459183039624 0 159.06459183039624 177.76356750441482 0 0 0 0 22.09077130476544 133.69056185953286 0 133.69056185953286 -13.590934086256311 0 0 0 0 48.834634672517495 133.25716201282739 0 133.25716201282739 77.109148073672259 0 0 0 0 -16.170683715328778 158.20403713242922 0 158.20403713242922 87.317101538961651 0 0 0 0 2.7959810723605187 160.22743539568182 0 160.22743539568182 78.421480194876494 0 0 0 0 -10.565791608249128 169.11315579582879 0 169.11315579582879 56.42405292429612 0 0 0 0 64.562964110769954 76.90114107398972 0 76.90114107398972 60.711247746973214 0 0 0 0 79.4712038221478 119.71785853712026 0 119.71785853712026 72.056101215253875 0 0 0 0 112.76644204746117 168.88729984362726 0 168.88729984362726 76.821402149686037 0 0 0 0 -33.95715320015006 116.5178572109171 0 116.5178572109171 10.553227229965159 0 0 0 0 116.92036689883798 330.21798171465713 0 330.21798171465713 -116.78564037576143 0 0 0 0 -33.042320993765088 14.787786366388225 0 14.787786366388225 24.465957245833494 0 0 0 0 122.95334525861517 157.88370014035465 0 157.88370014035465 -61.324671167722045 0 0 0 0 -10.837699145065926 134.80129307831885 0 134.80129307831885 -12.036740640636708 0 0 0 0 8.1648895061047071 55.225583702978483 0 55.225583702978483 37.098981282537295 0 0 0 0 -37.60779522320081 87.045346054615948 0 87.045346054615948 -26.219431866491504 0 0 0 0 34.429458028724397 56.729813287530547 0 56.729813287530547 -5.5595775856003655 0 0 0 0 32.802962590153584 37.47927828317097 0 37.47927828317097 -140.00502346275971 0 0 0 0 -26.179002198226954 45.605699844536502 0 45.605699844536502 124.67963175671321 0 0 0 0 -16.14233236242967 11.07565332827032 0 11.07565332827032 13.749301783447692 0 0 0 0 92.759896076534915 120.05308456328476 0 120.05308456328476 -107.24472804745164 0 0 0 0 42.920399938020637 172.04557026244947 0 172.04557026244947 35.833019026800685 0 0 0 0 -4.2036480130645941 13.798048552362161 0 13.798048552362161 89.475368891382459 0 0 0 0 -5.8262557577117455 1.3154761843548712 0 1.3154761843548712 -3.2436937792858132 0 0 0 0 -146.61377262442693 -17.022551030033355 0 -17.022551030033355 87.94215663660907 0 0 0 0 -292.9674596079476 211.51048499753961 0 211.51048499753961 43.166516313694956 0 0 0 0 -35.265098540014151 233.13145351702042 0 233.13145351702042 -385.5407447571306 0 0 0 0 -421.41180772588359 48.703115615801835 0 48.703115615801835 126.17703545347831 0 0 0 0 -111.84298515425144 -58.652142479681061 0 -58.652142479681061 -289.57838897259353 0 0 0 0 46.019976597466147 -47.409481300329119 0 -47.409481300329119 -446.439677191589 0 0 0 0 -80.245533529721797 395.61408127576215 0 395.61408127576215 -20.815470507484861 0 0 0 0 -33.308768198439793 155.72445739862997 0 155.72445739862997 -72.735240233580043 0 0 0 0 -52.002448582163197 112.16526471304314 0 112.16526471304314 -85.971895990950543 0 0 0 0 42.16548792408301 27.430801956365691 0 27.430801956365691 -41.98863038746245 0 0 0 0 -31.499804652503371 160.90375592834243 0 160.90375592834243 -78.49757928303552 0 0 0 0 4.7306183791670264 144.73844983340496 0 144.73844983340496 -216.08456296567965 0 0 0 0 -63.279976229849126 50.384230915060471 0 50.384230915060471 -61.682943691535911 0 0 0 0 18.95467159072723 102.66112364338915 0 102.66112364338915 -105.16104896671459 0 0 0 0 45.946788848030266 22.447085617693325 0 22.447085617693325 -46.200413107255855 0 0 0 0 270.15556832882248 -102.23937184368151 0 -102.23937184368151 -126.14433676406816 0 0 0 0 27.801766668124401 160.03601679178519 0 160.03601679178519 -259.67365817720565 0 0 0 0 14.330976816208931 161.81969544851472 0 161.81969544851472 -169.09357844213582 0 0 0 0 49.430549372778842 40.137119659038945 0 40.137119659038945 -73.045894111404778 0 0 0 0 44.809204386945709 17.787726918432242 0 17.787726918432242 -49.308347241823398 0 0 0 0 -47.646700811589653 252.18579191647041 0 252.18579191647041 -191.32243835697045 0 0 0 0 -71.405853257469062 217.4268527706663 0 217.4268527706663 -208.13819240129396 0 0 0 0 -295.2878767739021 310.97607835541203 0 310.97607835541203 987.03280504646682 0 0 0 0 -70.410702019224118 346.91879378297745 0 346.91879378297745 175.62697154943544 0 0 0 0 -329.34332674877078 168.07799626062115 0 168.07799626062115 -63.434172536303777 0 0 0 0 -78.931906492781309 241.33379413369676 0 241.33379413369676 -100.77953969388909 0 0 0 0 -1.4393361781771077 3.8214142007015468 0 3.8214142007015468 -0.30958091670411747 0 0 0 0 171.91660112118007 243.20391827713684 0 243.20391827713684 -1426.0447372742765 0 0 0 0 -12.251192978846412 22.350576440797148 0 22.350576440797148 -16.946233774875488 0 0 0 0 -319.89334810421951 253.0989365702244 0 253.0989365702244 -121.17259531342279 0 0 0 0 34.344637421331328 22.819348063776591 0 22.819348063776591 -61.180446226729572 0 0 0 0 185.10144112010312 0.46463313152344199 0 0.46463313152344199 -307.08694301108881 0 0 0 0 -405.23940771037906 341.87329176868116 0 341.87329176868116 101.39874321624666 0 0 0 0 246.79103024208416 102.46896358899539 0 102.46896358899539 8.2906624439910956 0 0 0 0 -1.2053514964599543 26.489895046662468 0 26.489895046662468 0.70759552191552189 0 0 0 0 39.369670192319973 153.24286357896381 0 153.24286357896381 75.848893681060872 0 0 0 0 -136.23964636683741 146.5240145679636 0 146.5240145679636 41.221892552712234 0 0 0 0 -178.15566867298639 304.24968158588263 0 304.24968158588263 -126.91489744703904 0 0 0 0 -230.53271146295265 235.52437741724725 0 235.52437741724725 -99.992980535542301 0 0 0 0 -106.80725784864444 241.86529599703408 0 241.86529599703408 -113.16902170610319 0 0 0 0 75.08744049510824 9.4953761696815491 0 9.4953761696815491 -202.48618814597648 0 0 0 0 -63.821367735188545 71.895612092426205 0 71.895612092426205 -35.008643937045761 0 0 0 0 -66.70408402287984 65.872959061315143 0 65.872959061315143 -34.456338083560844 0 0 0 0 -255.62444429295738 265.03597426699207 0 265.03597426699207 225.64821822950398 0 0 0 0 9.5541148795637127 -80.900917223782017 0 -80.900917223782017 32.458487295705709 0 0 0 0 88.713510508858235 -246.9917063827379 0 -246.9917063827379 719.13331323158855 0 0 0 0 -251.68767875469757 268.26798192324623 0 268.26798192324623 234.32817666483606 0 0 0 0 179.26572945217742 825.18451471771357 0 825.18451471771357 1273.5979444887162 0 0 0 0 2.0749788820849915 3.5813058684755532 0 3.5813058684755532 8.5453585592766785 0 0 0 0 1157.1662618375503 131.60552412289326 0 131.60552412289326 -160.09376025951497 0 0 0 0 -457.58778314661913 704.23358412775815 0 704.23358412775815 1462.1146100105252 0 0 0 0 94.394949884345806 350.1811253164924 0 350.1811253164924 97.069193725196328 0 0 0 0 -277.0878013444526 39.733420847838715 0 39.733420847838715 1243.5160009005122 0 0 0 0 736.59890694625028 501.71859848957683 0 501.71859848957683 1207.2615815441241 0 0 0 0 785.33699901369619 126.19685042855599 0 126.19685042855599 706.14388073260488 0 0 0 0 -265.31197391667774 293.52364647115974 0 293.52364647115974 1359.3031107519455 0 0 0 0 -299.830929922 -60.060556674893405 0 -60.060556674893405 447.68444773888768 0 0 0 0 -469.39965443933215 -69.416309845855722 0 -69.416309845855722 541.18603590108978 0 0 0 0 239.48178894724151 561.90367270519619 0 561.90367270519619 141.85215368376521 0 0 0 0 -432.41362345028756 110.98346877363656 0 110.98346877363656 621.45469620961376 0 0 0 0 816.98439867446359 1015.1054467042377 0 1015.1054467042377 632.58017209279751 0 0 0 0 280.96290265852258 483.6399330778404 0 483.6399330778404 170.48311907487368 0 0 0 0 205.73345919257554 557.34921985071924 0 557.34921985071924 190.69722855852524 0 0 0 0 207.610470071686 370.87897207432616 0 370.87897207432616 427.42608802256655 0 0 0 0 171.08931978513351 395.87389919512816 0 395.87389919512816 333.02238743258204 0 0 0 0 -170.08373669495813 555.18359522739411 0 555.18359522739411 282.28131030925579 0 0 0 0 99.226143984362352 604.26736448714837 0 604.26736448714837 687.70701427979657 0 0 0 0 322.3621574000681 602.88510816989219 0 602.88510816989219 349.46066470540245 0 0 0 0 -12.295986127946371 13.919267192189182 0 13.919267192189182 -6.1831755851691241 0 0 0 0 118.93975900518217 447.09186796301356 0 447.09186796301356 784.27795559964579 0 0 0 0 -407.11367361128578 -154.10963781402097 0 -154.10963781402097 459.27216368417066 0 0 0 0 -345.91655580121369 495.54165333625133 0 495.54165333625133 1438.2531855500056 0 0 0 0 -85.909035276468785 57.757402178591292 0 57.757402178591292 1010.4603837957075 0 0 0 0 -244.208205685758 364.23480592415945 0 364.23480592415945 605.09269309615047 0 0 0 0 -900.11744283399094 201.66089176271635 0 201.66089176271635 565.23587649677938 0 0 0 0 -109.20497966076255 383.03765743070107 0 383.03765743070107 -473.30645527382876 0 0 0 0 -309.40588180767554 -52.725124886714184 0 -52.725124886714184 257.61456999116854 0 0 0 0 134.42678231046193 136.32788191158147 0 136.32788191158147 42.749030099515949 0 0 0 0 -4.8892864603658488 64.251324047411913 0 64.251324047411913 102.89679569880776 0 0 0 0 -405.34017733904875 -237.92875953192561 0 -237.92875953192561 -88.114748510764912 0 0 0 0 7.9453325389459231 22.13803381847088 0 22.13803381847088 4.8730502400870819 0 0 0 0 -611.22282346281509 303.60849610282457 0 303.60849610282457 -195.24818080411933 0 0 0 0 -25.546395112526294 2.3500647358598314 0 2.3500647358598314 28.386010552546118 0 0 0 0 -942.05590926275909 778.94167422014289 0 778.94167422014289 -282.49962658376899 0 0 0 0 -614.23532574557612 389.80384033167866 0 389.80384033167866 -136.47070848806106 0 0 0 0 -1212.1401771714336 258.37957788167841 0 258.37957788167841 187.62052052598301 0 0 0 0 -687.20443057789817 24.448838371677994 0 24.448838371677994 394.89358355630975 0 0 0 0 -428.12729645388026 55.380424172988569 0 55.380424172988569 121.7560804407176 0 0 0 0 -481.74321248829256 -116.61606319903512 0 -116.61606319903512 361.90349987208901 0 0 0 0 -463.62851907274762 -112.8127961015889 0 -112.8127961015889 249.79766362752707 0 0 0 0 -11.892424636120268 57.256993063921982 0 57.256993063921982 162.84709981368724 0 0 0 0 -350.24250561499866 91.830244624325132 0 91.830244624325132 168.37995040456735 0 0 0 0 -140.76166818591992 298.05645254363844 0 298.05645254363844 90.866586724841909 0 0 0 0 -55.91441807455476 279.44580235416379 0 279.44580235416379 86.090516119387757 0 0 0 0 -10.594684403258725 119.20751931133782 0 119.20751931133782 1032.1088693875536 0 0 0 0 -50.405216780673598 35.737866594611418 0 35.737866594611418 16.118268504035953 0 0 0 0 30.409664544400584 52.573819558015202 0 52.573819558015202 116.64757219330278 0 0 0 0 26.882696683551785 172.73079741974266 0 172.73079741974266 -98.510236027093924 0 0 0 0 81.650508459651704 83.519432397241701 0 83.519432397241701 59.899110923165665 0 0 0 0 52.617184241069481 44.23484344697863 0 44.23484344697863 29.023073998758264 0 0 0 0 14.311643848413951 95.512506019171269 0 95.512506019171269 91.633884400933312 0 0 0 0 22.829575486248359 142.09748577079154 0 142.09748577079154 30.353083607536973 0 0 0 0 59.207733891380485 146.89341945881461 0 146.89341945881461 121.14200906998087 0 0 0 0 58.687374593718914 144.13573516310774 0 144.13573516310774 50.403339741555101 0 0 0 0 -62.611288435698953 113.13437683566463 0 113.13437683566463 42.80600197622698 0 0 0 0 15.872982253138616 111.64583730041704 0 111.64583730041704 -110.82569832434092 0 0 0 0 38.184024959904491 129.65667355403821 0 129.65667355403821 -47.577350415425826 0 0 0 0 -182.23301456878107 185.26801251882171 0 185.26801251882171 96.694014358945424 0 0 0 0 -30.61305381620943 33.034185721092491 0 33.034185721092491 18.459696834652945 0 0 0 0 -9.3422809748080908 42.563977709360188 0 42.563977709360188 1488.8481463019343 0 0 0 0 41.511416448087033 55.629389366031923 0 55.629389366031923 35.668021324793543 0 0 0 0 -148.78968980052014 -150.72441777911445 0 -150.72441777911445 -29.483333733143809 0 0 0 0 -149.60344447259558 38.800104248439311 0 38.800104248439311 424.1469013164733 0 0 0 0 -390.00660002958648 2029.9966779702586 0 2029.9966779702586 1818.7688908337441 0 0 0 0 -1017.8309853803075 584.95067449521503 0 584.95067449521503 488.06155789532068 0 0 0 0 1328.1292916436651 -121.99441826747443 0 -121.99441826747443 -609.30835866847792 0 0 0 0 -935.01995756325778 794.19820435502061 0 794.19820435502061 -91.261225158448724 0 0 0 0 -17.519505602215219 1.7947036976795303 0 1.7947036976795303 0.95568671299839281 0 0 0 0 -59.735964984160091 403.86227511166362 0 403.86227511166362 -815.29243968601077 0 0 0 0 -430.57748273980542 423.17132656890158 0 423.17132656890158 112.48703444641797 0 0 0 0 -413.21933869238273 354.81502824564313 0 354.81502824564313 258.7061095743702 0 0 0 0 -446.405109379848 296.77291827473164 0 296.77291827473164 242.99745056506117 0 0 0 0 -1052.7431649691475 -37.834268495411095 0 -37.834268495411095 399.80571951795173 0 0 0 0 224.14018158490944 -34.93673193941504 0 -34.93673193941504 231.70337825496381 0 0 0 0 -519.21920817198043 197.61466767489264 0 197.61466767489264 390.51629435344148 0 0 0 0 -246.31127346954599 -55.555244045623112 0 -55.555244045623112 394.2687822416683 0 0 0 0 -420.07508782194054 274.61170067747571 0 274.61170067747571 242.01525486369064 0 0 0 0 -368.78025126547436 226.7391363040806 0 226.7391363040806 270.92083965346228 0 0 0 0 -360.18161497812252 161.34628728646476 0 161.34628728646476 198.73697840213572 0 0 0 0 -350.20810973391053 222.07279759256016 0 222.07279759256016 185.97762570043596 0 0 0 0 -287.75088897782553 199.5162416562398 0 199.5162416562398 181.62443984927086 0 0 0 0 -366.70009552858482 241.18397351764372 0 241.18397351764372 185.00771330076168 0 0 0 0 -170.29598383589473 194.62551634029114 0 194.62551634029114 147.05306094721709 0 0 0 0 -290.30390706856269 192.93498300039209 0 192.93498300039209 178.33042755593669 0 0 0 0 -202.23837064573308 148.42493754986208 0 148.42493754986208 184.03402936842031 0 0 0 0 -201.49633533989254 149.25016486260893 0 149.25016486260893 147.82500160628842 0 0 0 0 -116.2635405723413 126.36607057994843 0 126.36607057994843 152.14844982400973 0 0 0 0 -59.076889961768757 125.31767510137979 0 125.31767510137979 119.29678458127637 0 0 0 0 -75.22296284926415 126.55841128411157 0 126.55841128411157 122.80764627798999 0 0 0 0 -170.16101966184806 192.74489893200354 0 192.74489893200354 116.47319918239373 0 0 0 0 -80.856032954878174 151.70823268404638 0 151.70823268404638 121.42471592991569 0 0 0 0 -40.24969555658754 150.91737761861441 0 150.91737761861441 103.27819382399503 0 0 0 0 -31.918934927893133 161.2796755616705 0 161.2796755616705 74.60737906671784 0 0 0 0 58.612390094465809 78.449428062926017 0 78.449428062926017 101.94051568477926 0 0 0 0 39.889623090741225 107.51942918184432 0 107.51942918184432 50.331197742438235 0 0 0 0 -17.432832273363601 123.64293413814084 0 123.64293413814084 94.132726392934273 0 0 0 0 -44.881067098584026 162.28256243397755 0 162.28256243397755 67.68651373659668 0 0 0 0 -93.155044726139749 219.32638838912862 0 219.32638838912862 21.516521925397683 0 0 0 0 -30.353370634798921 180.73064814965801 0 180.73064814965801 41.467727823503083 0 0 0 0 -82.096693114814116 342.38638902918319 0 342.38638902918319 -231.2616339845481 0 0 0 0 -239.35739002813352 251.77642363903942 0 251.77642363903942 171.88342485117482 0 0 0 0 -320.28041060372925 316.01456116546069 0 316.01456116546069 128.03670422841606 0 0 0 0 -239.94557396779419 226.46240480887354 0 226.46240480887354 133.15419401382314 0 0 0 0 -138.59780156255874 237.74203257017962 0 237.74203257017962 47.013303746673046 0 0 0 0 -41.042034150566906 110.57631384436218 0 110.57631384436218 41.036301842642843 0 0 0 0 37.368912919788272 213.4397825922315 0 213.4397825922315 -9.5813158183837004 0 0 0 0 85.313391464151209 68.524499206848304 0 68.524499206848304 3.5068217521152292 0 0 0 0 26.594250333961099 112.94117239918023 0 112.94117239918023 -20.889846000616672 0 0 0 0 -24.354692098684609 189.31622143158074 0 189.31622143158074 232.01169838629721 0 0 0 0 -12.86326478429396 21.159118458178462 0 21.159118458178462 4.663061702798676 0 0 0 0 47.933110968209803 148.98910052525162 0 148.98910052525162 209.58964522442329 0 0 0 0 -159.08669281520997 458.80615932948967 0 458.80615932948967 402.11220865736686 0 0 0 0 4.2526389591609188 15.555453700078338 0 15.555453700078338 42.454067644511426 0 0 0 0 -13.27690180845093 69.270496087887295 0 69.270496087887295 369.38273907559778 0 0 0 0 13.145784139697881 16.800675600241988 0 16.800675600241988 12.248660791859567 0 0 0 0 -68.064490882738028 120.93415849227313 0 120.93415849227313 43.84857278596786 0 0 0 0 -4.1885726555483416 96.740492305724501 0 96.740492305724501 44.559779605196809 0 0 0 0 42.556484041968361 43.616090600413372 0 43.616090600413372 50.65190112691198 0 0 0 0 -5.7412926709387229 17.024374767189371 0 17.024374767189371 51.640431536182867 0 0 0 0 -0.0082741196518441029 5.2839064085057856 0 5.2839064085057856 6.0979203384164578 0 0 0 0 410.34042376998696 646.71897186650108 0 646.71897186650108 550.43443130060041 0 0 0 0 -248.7715944970405 -10.439220096207919 0 -10.439220096207919 46.115581714188011 0 0 0 0 3.8547553575197213 0.89688009276365221 0 0.89688009276365221 32.574623976525807 0 0 0 0 -274.36580676345329 178.5805379851995 0 178.5805379851995 53.273334537217124 0 0 0 0 994.50716965795436 739.83238674202948 0 739.83238674202948 238.64496350336594 0 0 0 0 942.60024626289669 1326.7442951692519 0 1326.7442951692519 682.51740365773003 0 0 0 0 937.14299721656425 1347.7134502751342 0 1347.7134502751342 728.92960440029583 0 0 0 0 382.48100708467246 909.0164094962438 0 909.0164094962438 1012.849090884717 0 0 0 0 525.096980768707 550.44990711261198 0 550.44990711261198 155.10902688565329 0 0 0 0 -76.888063933824014 179.2994875297386 0 179.2994875297386 1046.2094669434955 0 0 0 0 -101.32978412665398 -275.02409667695611 0 -275.02409667695611 226.6262142597443 0 0 0 0 151.12999050155122 136.85478656108171 0 136.85478656108171 1197.1518497371871 0 0 0 0 93.873166069541185 -207.71514937733627 0 -207.71514937733627 -571.01822102096594 0 0 0 0 181.72320860113541 456.37359275000199 0 456.37359275000199 438.98592656601977 0 0 0 0 1312.259500788663 1984.0072703040387 0 1984.0072703040387 730.03381411745704 0 0 0 0 22.585734280970485 21.469267005775663 0 21.469267005775663 -6.4129096046635539 0 0 0 0 999.01897029827524 357.53368919635795 0 357.53368919635795 -69.19921891426975 0 0 0 0 359.25292644185174 1004.2482659491793 0 1004.2482659491793 1857.7037463833949 0 0 0 0 1010.0105100243745 1099.3732861273329 0 1099.3732861273329 281.08584949345095 0 0 0 0 1788.9049679206946 1736.837165113805 0 1736.837165113805 802.60927442975026 0 0 0 0 497.01307625278423 580.97685011074464 0 580.97685011074464 298.69807579825283 0 0 0 0 227.80240288540517 506.58006572616159 0 506.58006572616159 711.50613033850641 0 0 0 0 463.74748385098064 349.11839190328919 0 349.11839190328919 284.81518183031039 0 0 0 0 359.95457187689317 239.39509961058593 0 239.39509961058593 963.30292053678363 0 0 0 0 445.48703096342069 710.82615308076947 0 710.82615308076947 1659.6467782029308 0 0 0 0 828.05340216314653 987.22326016422812 0 987.22326016422812 718.025405122758 0 0 0 0 826.61452590124827 966.92248292070599 0 966.92248292070599 802.40248348798923 0 0 0 0 -472.89997337225577 -217.14209572567836 0 -217.14209572567836 427.72660762427586 0 0 0 0 0.82645347493949828 0.79537042559846327 0 0.79537042559846327 12.090756968868696 0 0 0 0 2658.3651118852649 1441.906261108069 0 1441.906261108069 533.44227537848019 0 0 0 0 1140.2203341700733 1552.9335465114584 0 1552.9335465114584 1567.1655546568891 0 0 0 0 1195.8231013928453 401.79286468971839 0 401.79286468971839 574.62233538039982 0 0 0 0 270.46214364090702 873.88344146201462 0 873.88344146201462 803.49045037867199 0 0 0 0 875.3188082353663 1472.6967464777281 0 1472.6967464777281 1334.8612314664274 0 0 0 0 15.465135706574074 212.90947661789551 0 212.90947661789551 306.89237295752264 0 0 0 0 -255.32716860043001 414.54397372753056 0 414.54397372753056 1608.2798617340572 0 0 0 0 13.709615713989479 171.83698528789409 0 171.83698528789409 311.57456143771924 0 0 0 0 4.1783316633591312 392.53931014855971 0 392.53931014855971 421.70378524895023 0 0 0 0 188.92149402794894 882.56162593102545 0 882.56162593102545 1667.6052133854441 0 0 0 0 380.17266493719217 949.26518683785434 0 949.26518683785434 821.88342437497704 0 0 0 0 299.67202532402553 329.77906372620373 0 329.77906372620373 584.97946357609453 0 0 0 0 697.18785923293035 912.73534481319984 0 912.73534481319984 641.19488978582285 0 0 0 0 500.35347487751278 371.76864958307124 0 371.76864958307124 -65.337042288614612 0 0 0 0 -70.614334388112184 496.71229312508149 0 496.71229312508149 54.582783476620307 0 0 0 0 3.3215930991426603 8.8946897224026991 0 8.8946897224026991 -1.1774725680093403 0 0 0 0 282.37920617567215 -118.31758031769925 0 -118.31758031769925 -154.92120346612137 0 0 0 0 107.40665849541256 534.81047489093498 0 534.81047489093498 370.78523024152673 0 0 0 0 80.191069860113203 140.76098679535198 0 140.76098679535198 -13.908296557758149 0 0 0 0 -48.743856128057814 102.750581310489 0 102.750581310489 596.57432264982072 0 0 0 0 -181.43144672505514 0.15354433403672374 0 0.15354433403672374 61.717943036455836 0 0 0 0 0.36379817121783731 5.6177586909948225 0 5.6177586909948225 -0.45317223134778706 0 0 0 0 270.25838437967468 43.107187550800518 0 43.107187550800518 -443.56584553188623 0 0 0 0 -245.24231285689166 279.89991229297902 0 279.89991229297902 890.70180163055954 0 0 0 0 -154.28438136353634 -10.602171698074812 0 -10.602171698074812 322.98379578643289 0 0 0 0 -58.516961418086794 260.71274385204219 0 260.71274385204219 154.50401390909246 0 0 0 0 174.61333829916475 -33.934462019255534 0 -33.934462019255534 314.75134550577968 0 0 0 0 -475.93280686400249 215.00355080723602 0 215.00355080723602 372.32401078540261 0 0 0 0 -207.19682771943189 275.6493332635855 0 275.6493332635855 274.9619822445411 0 0 0 0 199.16588849583059 676.38183262302573 0 676.38183262302573 -625.96135177020369 0 0 0 0 -494.30668268616137 -66.9391071110349 0 -66.9391071110349 549.24017905810433 0 0 0 0 -3.0550461364602768 5.9317793509938141 0 5.9317793509938141 -1.6709407286440401 0 0 0 0 305.32702660713403 271.3931296505225 0 271.3931296505225 -973.77118216184226 0 0 0 0 27.659730653125735 149.92400329767042 0 149.92400329767042 -388.35732134761111 0 0 0 0 -614.03886836000856 556.39278230845935 0 556.39278230845935 1437.4058228929825 0 0 0 0 292.83304750029492 219.06682959954878 0 219.06682959954878 244.13909392984078 0 0 0 0 -4.9483481040172137 10.930770003686948 0 10.930770003686948 -3.0358196665194441 0 0 0 0 -64.485662489802053 703.79158507538932 0 703.79158507538932 518.12171046725143 0 0 0 0 -62.5015057628043 520.30541777982671 0 520.30541777982671 407.14694218440809 0 0 0 0 -12.751324877970546 18.852442833214923 0 18.852442833214923 -201.25706330227149 0 0 0 0 -504.3719384597498 239.97925549548017 0 239.97925549548017 30.926928937513367 0 0 0 0 -314.81534453886707 145.08164568957727 0 145.08164568957727 151.73054365765529 0 0 0 0 -296.33108833884762 186.54199970745503 0 186.54199970745503 27.255664970867656 0 0 0 0 -343.34853098168969 177.5916402453604 0 177.5916402453604 36.601075236534598 0 0 0 0 -347.05964706049417 192.63079089708663 0 192.63079089708663 10.584349434816204 0 0 0 0 -375.14957354492799 151.33982323170312 0 151.33982323170312 14.990355452376207 0 0 0 0 -173.59074112732196 164.57678143515477 0 164.57678143515477 -68.444315978518716 0 0 0 0 -0.45997518520653102 49.886375057760233 0 49.886375057760233 30.396092336537549 0 0 0 0 3.9407285191035726 29.546627159471669 0 29.546627159471669 35.218681326883626 0 0 0 0 -303.35748086921376 358.65008864355968 0 358.65008864355968 -290.40942867481135 0 0 0 0 -1.1965224193475308 3.0581359250088695 0 3.0581359250088695 5.0719248034270326 0 0 0 0 34.636104526362033 76.116000526406424 0 76.116000526406424 141.91531383524489 0 0 0 0 -5.4250170781176053 -1.9767095803248793 0 -1.9767095803248793 5.7042361172999563 0 0 0 0 -85.549874658259796 0.28976176572177792 0 0.28976176572177792 418.12839945724409 0 0 0 0 -554.91048548943945 88.2147860446712 0 88.2147860446712 410.91262487979111 0 0 0 0 -73.516495620424394 41.910300874955283 0 41.910300874955283 115.49638905999541 0 0 0 0 -45.993494709741555 24.686386121135904 0 24.686386121135904 38.760015067879479 0 0 0 0 -76.790846879870514 110.47123443289456 0 110.47123443289456 194.55166655554785 0 0 0 0 -110.22462362190709 116.88266918349109 0 116.88266918349109 156.36318975270478 0 0 0 0 -67.303782377988682 113.10805009009437 0 113.10805009009437 156.58117041445803 0 0 0 0 -72.172737569964738 -68.245427374062274 0 -68.245427374062274 284.8015331519855 0 0 0 0 -38.131786463869503 171.21050547314007 0 171.21050547314007 238.64509626815379 0 0 0 0 -317.10143916928791 173.32380388205638 0 173.32380388205638 193.16209051498754 0 0 0 0 -230.89305919267645 94.873871321915431 0 94.873871321915431 221.49997883974356 0 0 0 0 -304.3916606920393 183.25627793154308 0 183.25627793154308 181.30933553901195 0 0 0 0 -381.96207229614083 236.49757506792412 0 236.49757506792412 184.35794233660999 0 0 0 0 -334.61505345546175 185.21936975144763 0 185.21936975144763 223.61372073642997 0 0 0 0 -377.58281087657087 148.28746910786867 0 148.28746910786867 210.17045101490567 0 0 0 0 -296.83069979397624 217.70012639375045 0 217.70012639375045 -144.37280347746491 0 0 0 0 -602.54716729716165 428.68760228193423 0 428.68760228193423 95.308150114871751 0 0 0 0 -295.27278816100443 199.22683394352316 0 199.22683394352316 35.661489085894573 0 0 0 0 -334.76251789526577 273.23492662337048 0 273.23492662337048 49.779871744362026 0 0 0 0 -322.69281554258487 217.88092839503588 0 217.88092839503588 142.02433279983961 0 0 0 0 -322.01417598127591 207.1265451140971 0 207.1265451140971 55.59628404700652 0 0 0 0 -322.06496357090509 208.23281072656118 0 208.23281072656118 84.136216395998417 0 0 0 0 -322.82456725448719 221.30743174526378 0 221.30743174526378 99.317975660369484 0 0 0 0 -364.45523777463677 138.86659987083226 0 138.86659987083226 81.775577209413314 0 0 0 0 -0.35202352455962682 1.4392038321042655 0 1.4392038321042655 0.094292834322970087 0 0 0 0 -34.519881244006683 55.450656663519112 0 55.450656663519112 -498.31396339024377 0 0 0 0 -187.4120382694382 31.229522273879411 0 31.229522273879411 879.64140526387257 0 0 0 0 -180.78074195222871 97.957504102121675 0 97.957504102121675 72.129555337677175 0 0 0 0 -309.05587302062122 202.10179147975305 0 202.10179147975305 82.17198981047477 0 0 0 0 -138.00957849012775 176.22929885305757 0 176.22929885305757 214.84196516070733 0 0 0 0 -77.490567401113367 -117.71156562256357 0 -117.71156562256357 158.41057893743891 0 0 0 0 -190.91898696324643 -5.9825299274898498 0 -5.9825299274898498 320.00415731141175 0 0 0 0 -299.00123941587663 -51.462614006122294 0 -51.462614006122294 175.91298922332783 0 0 0 0 -54.286649021290941 23.987208795612787 0 23.987208795612787 189.89070011987496 0 0 0 0 -102.06041443471986 -19.803212417775285 0 -19.803212417775285 102.88502581545799 0 0 0 0 -78.829179327418387 -75.212955487160798 0 -75.212955487160798 119.49794930763801 0 0 0 0 -109.1730455995712 -26.798512321956878 0 -26.798512321956878 96.921094946826997 0 0 0 0 -202.56536330346717 43.939096673354015 0 43.939096673354015 125.62963604956894 0 0 0 0 -246.15578220010502 68.824598346909625 0 68.824598346909625 105.09125322324519 0 0 0 0 -207.54870309955731 104.31473894496276 0 104.31473894496276 33.895747700831635 0 0 0 0 -354.73046621648245 188.98535522301972 0 188.98535522301972 68.700549177885478 0 0 0 0 -188.50649035046649 40.526764428333337 0 40.526764428333337 103.59116681856358 0 0 0 0 -501.37037658899499 173.05880627758233 0 173.05880627758233 81.573216551383666 0 0 0 0 22.835739422217326 12.806613101537465 0 12.806613101537465 0.42498737204673631 0 0 0 0 -347.70892241037654 235.42984761363323 0 235.42984761363323 -14.501736263895509 0 0 0 0 -276.71976745525899 202.48690984493669 0 202.48690984493669 50.348283913717751 0 0 0 0 -112.00849447610381 90.800254148961358 0 90.800254148961358 -16.819323644736144 0 0 0 0 -143.23088037780326 107.11467168883792 0 107.11467168883792 282.15425753471027 0 0 0 0 30.194606230994395 104.94187881392463 0 104.94187881392463 80.461489200683445 0 0 0 0 -52.071899152301427 24.666169998607941 0 24.666169998607941 -11.517064228453952 0 0 0 0 2.4242823021595541 121.76895573508989 0 121.76895573508989 -379.49894793343628 0 0 0 0 43.863508901387831 40.649053897707489 0 40.649053897707489 -226.82739615596142 0 0 0 0 50.824709466636705 -212.90153806208582 0 -212.90153806208582 -645.62463919615357 0 0 0 0 -31.538733770525141 79.307156088640568 0 79.307156088640568 128.27643720853212 0 0 0 0 -38.665404117009075 -16.798606384858175 0 -16.798606384858175 80.876613007747437 0 0 0 0 0.63053652084636269 31.003222758970878 0 31.003222758970878 -68.824928555186489 0 0 0 0 -110.09586469898568 -141.08286424708922 0 -141.08286424708922 9.2207375700654666 0 0 0 0 -439.50980227364198 -132.71680867280838 0 -132.71680867280838 78.735558040898468 0 0 0 0 -10.698621916939885 7.1273867999498961 0 7.1273867999498961 -5.1629416435804441 0 0 0 0 -51.773766657679516 38.09271554461202 0 38.09271554461202 180.00083260959491 0 0 0 0 -197.34577243322201 66.055107575863303 0 66.055107575863303 -606.54826994932864 0 0 0 0 -31.828292159895938 18.817331809718691 0 18.817331809718691 -9.7430754991089952 0 0 0 0 -664.09464775594824 -194.35307272809769 0 -194.35307272809769 -689.59645452831683 0 0 0 0 -865.72705066390336 508.56949440399467 0 508.56949440399467 -317.91588452120959 0 0 0 0 -69.282899507583352 95.233967227175526 0 95.233967227175526 -733.94767013433557 0 0 0 0 607.47686866357253 776.41672536132137 0 776.41672536132137 -1242.7971904426545 0 0 0 0 474.12313087685834 99.110056093260937 0 99.110056093260937 -2225.2249109348659 0 0 0 0 290.29807145610812 -372.06080874333031 0 -372.06080874333031 -140.05006217027949 0 0 0 0 -871.32074221145012 -218.04254721115285 0 -218.04254721115285 0.29962074222203228 0 0 0 0 -2.6456728319429175 4.3720832057411343 0 4.3720832057411343 -6.8797978055526201 0 0 0 0 -293.16670108063408 -287.80335827877389 0 -287.80335827877389 -31.757965088810124 0 0 0 0 -506.36797306580411 150.34344140493158 0 150.34344140493158 7.5508931982894865 0 0 0 0 -3.9610433760099113 325.6356722141818 0 325.6356722141818 10.625142137128762 0 0 0 0 -122.98280460109527 229.71173863957847 0 229.71173863957847 438.38785153265962 0 0 0 0 -23.341383466336993 474.46601285763472 0 474.46601285763472 -653.58411089156834 0 0 0 0 -4.0887819949057302 354.09069303258366 0 354.09069303258366 -94.785004869098429 0 0 0 0 118.32733963802457 193.07321713064721 0 193.07321713064721 731.44675040230686 0 0 0 0 126.17030928679742 488.0866881198408 0 488.0866881198408 -176.63382427358329 0 0 0 0 438.20198766075191 311.88154244612906 0 311.88154244612906 -271.31802545847404 0 0 0 0 -16.530235803139107 15.74765539459657 0 15.74765539459657 -8.3923869883167583 0 0 0 0 249.5470644750385 426.90453185738443 0 426.90453185738443 -335.75044095728299 0 0 0 0 208.86407030030841 237.02786624622615 0 237.02786624622615 -349.03837288763407 0 0 0 0 159.14134445556192 319.31970391696132 0 319.31970391696132 -447.81955389112545 0 0 0 0 182.8885837903872 147.19391429440066 0 147.19391429440066 -609.62462053592844 0 0 0 0 162.82395211161929 218.50068244589602 0 218.50068244589602 -743.30313415863691 0 0 0 0 142.61639226988336 44.932201135117339 0 44.932201135117339 -1368.8027039876988 0 0 0 0 -411.22019470806117 738.60710317384473 0 738.60710317384473 -833.25278106714723 0 0 0 0 384.02740751636156 384.70597682327843 0 384.70597682327843 -661.6122158255539 0 0 0 0 156.09875678210437 445.84973729759514 0 445.84973729759514 -909.11359932524465 0 0 0 0 -772.758396693549 623.67310021001686 0 623.67310021001686 104.58860024885053 0 0 0 0 -534.83130075218651 633.50906743869473 0 633.50906743869473 -1055.2500997438408 0 0 0 0 -402.29602027642613 431.14282157836988 0 431.14282157836988 -1452.4660612768294 0 0 0 0 -706.12133824454941 66.199711199403282 0 66.199711199403282 303.42326358758146 0 0 0 0 -351.40369440058203 94.231992541859654 0 94.231992541859654 -841.51693966322273 0 0 0 0 -489.37522749174968 -149.25390901189803 0 -149.25390901189803 8.2419170923185447 0 0 0 0 -242.48847285692318 19.753268521697464 0 19.753268521697464 107.85764799064782 0 0 0 0 -817.31413580859953 471.22571148612315 0 471.22571148612315 -493.76207954240181 0 0 0 0 -1128.2114148813707 777.39160636465931 0 777.39160636465931 -1026.6287179802721 0 0 0 0 -772.90967386136435 -374.82707111329296 0 -374.82707111329296 -882.36340957972971 0 0 0 0 -637.62570336738281 387.92531828407118 0 387.92531828407118 661.86204567371533 0 0 0 0 -826.29275711743685 -223.32385902241117 0 -223.32385902241117 -16.954383692289412 0 0 0 0 -915.99814462521317 -40.692487678179532 0 -40.692487678179532 -35.733025380658546 0 0 0 0 -684.93954873725306 -173.12463164177188 0 -173.12463164177188 32.694509511010438 0 0 0 0 141.93372849182197 -163.57961349827383 0 -163.57961349827383 -630.57872089244393 0 0 0 0 -1.330775386172359 -0.090345542772936938 0 -0.090345542772936938 -9.8787982800863787 0 0 0 0 -1123.3714668880784 443.67610876346498 0 443.67610876346498 -565.23522046896414 0 0 0 0 6.0943268499819858 7.7549437740910037 0 7.7549437740910037 -23.808615578032864 0 0 0 0 57.323311523985467 85.390969851981936 0 85.390969851981936 -75.800202722193717 0 0 0 0 -735.63173429719609 -144.57856772009518 0 -144.57856772009518 30.490856589469331 0 0 0 0 25.146129448767851 31.180993527543208 0 31.180993527543208 22.585595669011418 0 0 0 0 172.28045968403785 -40.011418826918202 0 -40.011418826918202 -45.879446671504411 0 0 0 0 -10.433081488808966 50.994891103485315 0 50.994891103485315 -59.226644229678641 0 0 0 0 -45.42067875849898 160.20694688209733 0 160.20694688209733 37.08734979444489 0 0 0 0 -7.5037517931195907 181.57638290496379 0 181.57638290496379 30.256880305867526 0 0 0 0 -50.810369746126526 167.50297083518626 0 167.50297083518626 27.273151833706834 0 0 0 0 118.96531344502728 191.4192767835807 0 191.4192767835807 2.6003969637931732 0 0 0 0 31.070046218825155 118.82063048239934 0 118.82063048239934 -4.5131154484424769 0 0 0 0 -37.44053584865469 104.2971895471635 0 104.2971895471635 30.153298632149017 0 0 0 0 -12.89475537117778 3.1399020289655368 0 3.1399020289655368 5.1779472341475525 0 0 0 0 -887.38940498851298 -81.650720371933858 0 -81.650720371933858 26.884583667670086 0 0 0 0 -952.71472108557646 -301.74550610061851 0 -301.74550610061851 92.580269426289306 0 0 0 0 -799.53687697608257 -1.5847932260185189 0 -1.5847932260185189 -44.596653653550675 0 0 0 0 -810.76729792248807 73.6808731318215 0 73.6808731318215 64.889060990013604 0 0 0 0 -1324.0521971134003 -34.452446756113204 0 -34.452446756113204 44.365235276825842 0 0 0 0 -668.29214733439585 50.800539976378332 0 50.800539976378332 12.144270468907052 0 0 0 0 -3.1211212082494946 35.683069743796977 0 35.683069743796977 16.631418566387829 0 0 0 0 -836.77832016146567 87.061995927261705 0 87.061995927261705 150.48848957500741 0 0 0 0 -81.712609432499448 133.94591360620507 0 133.94591360620507 44.21220816287223 0 0 0 0 -760.3912029495259 229.68705830068211 0 229.68705830068211 98.970481412215122 0 0 0 0 -761.50635769561632 203.0584430383376 0 203.0584430383376 -234.86968487893319 0 0 0 0 -528.73592754783749 -200.82992755898067 0 -200.82992755898067 187.6029344864819 0 0 0 0 -897.10798701825115 107.54586474399593 0 107.54586474399593 211.22466178255854 0 0 0 0 -856.67907932089292 171.20933449208678 0 171.20933449208678 63.604560689018399 0 0 0 0 -818.5732639029884 7.4095767135431743 0 7.4095767135431743 93.073567639796238 0 0 0 0 -808.54883217089082 25.482484687780016 0 25.482484687780016 125.63363155085426 0 0 0 0 -855.34069932549755 -175.52892603181999 0 -175.52892603181999 207.39027102930413 0 0 0 0 -670.96599175642768 -117.18370315755328 0 -117.18370315755328 250.86230741568943 0 0 0 0 77.948096664826153 -4.7482801789228688 0 -4.7482801789228688 8.1362696377691464 0 0 0 0 -9.9022938456610632 11.498411831704985 0 11.498411831704985 -9.2354966465807991 0 0 0 0 -810.47480612432992 -150.7428753221775 0 -150.7428753221775 322.62282795814099 0 0 0 0 -463.49548167286048 176.10328214474384 0 176.10328214474384 280.79172511434081 0 0 0 0 103.17348365101498 670.49062682052318 0 670.49062682052318 308.36007108489775 0 0 0 0 560.05497260238553 -393.44710875297505 0 -393.44710875297505 503.97999583042383 0 0 0 0 261.14735237145396 1168.7581987347885 0 1168.7581987347885 -886.29575893374567 0 0 0 0 -226.72461481364644 689.89327490242488 0 689.89327490242488 302.20043110539154 0 0 0 0 -189.54559434994735 580.38972984349311 0 580.38972984349311 -254.05033936999462 0 0 0 0 34.775412440591026 378.26717232259034 0 378.26717232259034 -563.17939277540813 0 0 0 0 -329.18995508175431 323.05675646099735 0 323.05675646099735 13.280157391103785 0 0 0 0 -168.80992487126787 351.14578488912957 0 351.14578488912957 13.447080649280906 0 0 0 0 -790.83384820627543 442.29922125754547 0 442.29922125754547 208.61615480042929 0 0 0 0 -326.13239820807212 249.80705992674484 0 249.80705992674484 238.50522584833379 0 0 0 0 -129.27218753193301 60.879948623160999 0 60.879948623160999 187.03182827993442 0 0 0 0 -865.68249463849497 -347.46989460006 0 -347.46989460006 184.73927674446895 0 0 0 0 -5.0316435888440196 5.6356773437189389 0 5.6356773437189389 -5.3002541350216283 0 0 0 0 -1406.1589645370696 -157.23708115558838 0 -157.23708115558838 214.98322197461539 0 0 0 0 -494.84408896460809 650.85821080660207 0 650.85821080660207 -864.42212902118627 0 0 0 0 -1436.1257488430963 567.58993490570015 0 567.58993490570015 254.34397549702408 0 0 0 0 -6.6971006706003671 31.122794125092526 0 31.122794125092526 22.427828836816968 0 0 0 0 47.553870407711656 -97.468894390530295 0 -97.468894390530295 1042.2674103244499 0 0 0 0 99.446054863685276 493.87049278546783 0 493.87049278546783 -184.97467721669 0 0 0 0 -549.14141012372056 326.75757619876288 0 326.75757619876288 836.83641463906315 0 0 0 0 224.15608505038836 -626.01060847686313 0 -626.01060847686313 -87.029906564705016 0 0 0 0 -1.3663770422260981 -1.5528322656975604 0 -1.5528322656975604 10.601710518101683 0 0 0 0 384.51553959055309 -312.11255898081572 0 -312.11255898081572 -824.53742894551215 0 0 0 0 -190.29003176940023 -68.605432488893257 0 -68.605432488893257 69.995067003061251 0 0 0 0 -203.47704884859559 31.102575682618863 0 31.102575682618863 56.9002061465049 0 0 0 0 -199.34011796127015 -2.3401249158544033 0 -2.3401249158544033 175.26840910822557 0 0 0 0 -288.89564383910874 7.7463178344423227 0 7.7463178344423227 158.03934868983561 0 0 0 0 -167.71220979224017 17.235185622660083 0 17.235185622660083 12.60160101626559 0 0 0 0 -120.5216648656351 161.31898179244308 0 161.31898179244308 226.67982299190317 0 0 0 0 417.88914418600325 28.812207235081587 0 28.812207235081587 323.51503819709842 0 0 0 0 414.45985830171276 310.08690254169977 0 310.08690254169977 61.91106437495182 0 0 0 0 228.21253139969485 187.61732357951223 0 187.61732357951223 214.89369492326296 0 0 0 0 468.15858924605709 195.86371047327339 0 195.86371047327339 32.776150874833547 0 0 0 0 229.57563557934191 224.71667920734581 0 224.71667920734581 41.78171350158118 0 0 0 0 203.11947833851445 110.84872413450285 0 110.84872413450285 66.077596468674528 0 0 0 0 242.90456944525795 231.40873228324836 0 231.40873228324836 99.082834586228273 0 0 0 0 225.63759474680137 102.67185541028289 0 102.67185541028289 97.257892621466453 0 0 0 0 145.86897956837493 171.37564773335362 0 171.37564773335362 38.502389195869 0 0 0 0 127.39962093551003 64.351861230570648 0 64.351861230570648 -22.88967111123111 0 0 0 0 -24.431227171837236 8.6743135236865783 0 8.6743135236865783 -15.486224311605838 0 0 0 0 117.76149924778292 39.870404014475866 0 39.870404014475866 -61.874415278827655 0 0 0 0 32.337066199967012 -50.622669859471216 0 -50.622669859471216 -137.1750046156285 0 0 0 0 113.17552432322555 238.25714062732277 0 238.25714062732277 90.198940249542829 0 0 0 0 62.252016972517595 187.63652605633342 0 187.63652605633342 316.60936363656583 0 0 0 0 410.95187760219414 406.75457809551676 0 406.75457809551676 134.17398252499106 0 0 0 0 262.50315629644138 -6.7489507985496857 0 -6.7489507985496857 332.94519287748244 0 0 0 0 -85.450298582691175 861.95741904146553 0 861.95741904146553 841.8257497437055 0 0 0 0 -143.12171735863376 -47.73815026594184 0 -47.73815026594184 167.91596602881509 0 0 0 0 -14.074864582507331 15.504984978721609 0 15.504984978721609 -9.4136769505379441 0 0 0 0 69.451394662930397 762.91205850832375 0 762.91205850832375 740.01525739489261 0 0 0 0 214.96437362068173 492.83080252804848 0 492.83080252804848 529.33105335110986 0 0 0 0 -5.9625511605978829 2.2770122518481415 0 2.2770122518481415 2.7314470119504293 0 0 0 0 299.59288841816306 457.97098356082824 0 457.97098356082824 450.51785922431191 0 0 0 0 529.46245215542149 414.83577480159329 0 414.83577480159329 418.14115748667245 0 0 0 0 22.895990216318751 181.81681345599463 0 181.81681345599463 132.98360101995559 0 0 0 0 -274.77349648989184 192.55046723524811 0 192.55046723524811 713.80778387405007 0 0 0 0 -110.28286833016318 -11.43569735454912 0 -11.43569735454912 489.48562744847004 0 0 0 0 -154.87572781857307 351.48777480178342 0 351.48777480178342 786.36263727715141 0 0 0 0 287.47309167467029 -9.7851985445281571 0 -9.7851985445281571 753.28503480309155 0 0 0 0 -102.83192315359338 223.18649296575632 0 223.18649296575632 556.67446890632709 0 0 0 0 -77.804523158043594 316.43635540119612 0 316.43635540119612 515.83474659298645 0 0 0 0 -3.5823862075371835 4.8156148414972364 0 4.8156148414972364 -3.8440227753550218 0 0 0 0 89.434899854299147 262.94461555343514 0 262.94461555343514 -547.5958583132433 0 0 0 0 153.85334804410013 172.19985551783202 0 172.19985551783202 -422.47802514328032 0 0 0 0 2.1488585524733566 1.6418969250265221 0 1.6418969250265221 -3.7339724895127695 0 0 0 0 -187.07770301929122 290.60681767278129 0 290.60681767278129 951.10805902227912 0 0 0 0 245.0287483945649 422.44845205392903 0 422.44845205392903 107.71144055701006 0 0 0 0 -13.06094632062495 10.970888667056371 0 10.970888667056371 -6.7179725633491838 0 0 0 0 92.148118244878788 182.93860185889366 0 182.93860185889366 -12.888589085478088 0 0 0 0 -232.70041509416478 -142.04716904453107 0 -142.04716904453107 171.92917589985154 0 0 0 0 320.13768982586771 353.02345175531082 0 353.02345175531082 49.866507811206247 0 0 0 0 132.37260472348134 261.18072012723542 0 261.18072012723542 -16.186853164461354 0 0 0 0 244.184139531455 354.89114477569638 0 354.89114477569638 54.593946296040485 0 0 0 0 98.443768360157264 387.82288872153731 0 387.82288872153731 141.66001065463024 0 0 0 0 -24.494621833131532 235.01981406889445 0 235.01981406889445 -6.084329122752024 0 0 0 0 106.34003705599753 282.567488460204 0 282.567488460204 -164.10418548615962 0 0 0 0 66.253962150760344 218.88661311038459 0 218.88661311038459 -100.41534970944485 0 0 0 0 163.83389262847777 286.59823503187727 0 286.59823503187727 -63.82740290624406 0 0 0 0 56.584165275911801 308.96647234715056 0 308.96647234715056 -417.27092250679118 0 0 0 0 -24.314202219589788 235.01586345019223 0 235.01586345019223 -276.36802770662689 0 0 0 0 -169.95981858714367 367.36468388083267 0 367.36468388083267 -135.10687781677188 0 0 0 0 -55.896464290693984 291.71214871069151 0 291.71214871069151 -85.490956463245311 0 0 0 0 -53.524044221681834 290.88992319899262 0 290.88992319899262 -151.19073516900016 0 0 0 0 10.197860610992393 190.67998660004514 0 190.67998660004514 -180.83262850150641 0 0 0 0 21.676561265678174 243.04240869192995 0 243.04240869192995 -152.66515264072223 0 0 0 0 -24.282956661576463 136.65058403165312 0 136.65058403165312 -192.03095145881161 0 0 0 0 -21.247629531906568 191.70628713349652 0 191.70628713349652 -163.01677434014346 0 0 0 0 -77.820876562109333 99.760854069671041 0 99.760854069671041 -178.43567815652932 0 0 0 0 -27.248769991332665 141.04071357861903 0 141.04071357861903 -182.77079846846027 0 0 0 0 -20.197868517512688 95.674024610918423 0 95.674024610918423 -194.11939051412628 0 0 0 0 -56.864431153117039 85.154350370306929 0 85.154350370306929 -180.20850482193055 0 0 0 0 26.24444407979172 95.828824156475093 0 95.828824156475093 -190.76658606766432 0 0 0 0 9.9819755635617184 123.53921531386732 0 123.53921531386732 -164.3969574236653 0 0 0 0 127.2973477508931 191.03834605223346 0 191.03834605223346 -173.33293588891593 0 0 0 0 32.274977811779536 203.44366690528659 0 203.44366690528659 -173.63109978258035 0 0 0 0 58.704058132017963 139.71727696913331 0 139.71727696913331 -191.8920061298013 0 0 0 0 171.56592816626653 176.84217257501405 0 176.84217257501405 -117.31837738866034 0 0 0 0 76.572637723736989 189.12009120846778 0 189.12009120846778 -115.81517062582134 0 0 0 0 115.59536272841797 134.7759764272414 0 134.7759764272414 -171.38368595456905 0 0 0 0 46.830748160675284 103.96954233681026 0 103.96954233681026 -167.01331781838235 0 0 0 0 46.596823552106798 94.150406969944015 0 94.150406969944015 -133.40064617415555 0 0 0 0 93.452691617094388 148.04352469154037 0 148.04352469154037 -118.25436007692042 0 0 0 0 151.44755691793398 96.0805721093584 0 96.0805721093584 -71.704112212144537 0 0 0 0 171.51359265177962 176.76963189074013 0 176.76963189074013 -38.184704338065785 0 0 0 0 281.4954498576808 213.0876280419393 0 213.0876280419393 -48.69933354875684 0 0 0 0 154.65969688479072 212.50693115325529 0 212.50693115325529 -45.354916081570991 0 0 0 0 -295.45198797564808 -75.275678182952106 0 -75.275678182952106 19.236201925963542 0 0 0 0 -42.475436058341529 -15.955334600324363 0 -15.955334600324363 -137.13708425345612 0 0 0 0 -75.176568195849541 80.437414667654593 0 80.437414667654593 -104.85935617629184 0 0 0 0 82.190413758180512 115.1338269853477 0 115.1338269853477 -79.931295894115465 0 0 0 0 55.187704271738767 36.246246257745952 0 36.246246257745952 -97.655862742917634 0 0 0 0 -27.154288272286067 93.118404264650962 0 93.118404264650962 -129.73739754302369 0 0 0 0 -1.2977376633607491 39.236336092300007 0 39.236336092300007 -162.97531589664868 0 0 0 0 -215.06635131237272 25.520079272974726 0 25.520079272974726 -124.20466637683421 0 0 0 0 -71.915501158720872 24.093270921830481 0 24.093270921830481 -201.05023862621238 0 0 0 0 -178.90089866055496 -8.4970008592754311 0 -8.4970008592754311 -180.23827495766 0 0 0 0 -27.027599055334576 77.676565806621511 0 77.676565806621511 -164.93262157193612 0 0 0 0 -23.368920575710945 60.266415291505837 0 60.266415291505837 -194.10006971693656 0 0 0 0 -71.061532839717984 58.106668321994221 0 58.106668321994221 -154.05062092391381 0 0 0 0 -92.840104693255853 34.912540590321441 0 34.912540590321441 -184.79186821000258 0 0 0 0 -49.389338841931021 76.674624076882537 0 76.674624076882537 -190.86616573098581 0 0 0 0 -100.20488027888496 46.410407507383752 0 46.410407507383752 -193.7644055449091 0 0 0 0 -143.09583595847653 10.656114946305024 0 10.656114946305024 -198.9399442518943 0 0 0 0 -96.602050003159093 53.841973580387275 0 53.841973580387275 -189.69812320295864 0 0 0 0 -111.71737487658538 60.082438431945775 0 60.082438431945775 -178.69154810292093 0 0 0 0 -195.50304555275943 -23.746866270394094 0 -23.746866270394094 -240.8435159260498 0 0 0 0 -177.98995955253849 17.434596227226393 0 17.434596227226393 -168.12416966161982 0 0 0 0 -281.46900441272192 -18.90471171658146 0 -18.90471171658146 -194.8343659642378 0 0 0 0 -373.39162913781547 156.48951110526559 0 156.48951110526559 -525.25302439678671 0 0 0 0 -408.5638618040357 -158.91381198765157 0 -158.91381198765157 -235.4357098667424 0 0 0 0 -214.48488580699996 40.217468602607369 0 40.217468602607369 -202.29008320643698 0 0 0 0 -1.1182729168469336 1.1395992615654507 0 1.1395992615654507 -5.9478420194314836 0 0 0 0 -629.40585407607796 9.5909101374018064 0 9.5909101374018064 74.331804586666294 0 0 0 0 -980.07175559680218 174.28866099655306 0 174.28866099655306 2.0269442837470706 0 0 0 0 -615.62168305361774 167.62408784580566 0 167.62408784580566 -35.856483532395941 0 0 0 0 -375.42244561005646 41.697506075215642 0 41.697506075215642 29.204385158986042 0 0 0 0 -226.08383387238973 73.493552838997289 0 73.493552838997289 -265.83005840664009 0 0 0 0 -70.400992632243288 181.89894761062897 0 181.89894761062897 -58.262640714666304 0 0 0 0 25.788131087357385 35.561433725222969 0 35.561433725222969 -83.552120003683768 0 0 0 0 149.78899287854256 47.239678325398927 0 47.239678325398927 -201.86151991054248 0 0 0 0 53.895132286434091 193.06342111262029 0 193.06342111262029 -385.20345249011689 0 0 0 0 -22.99449093768817 -103.08210454309005 0 -103.08210454309005 -119.16256336299557 0 0 0 0 27.610096986754797 109.39563528101098 0 109.39563528101098 -165.4586148699218 0 0 0 0 -178.35803778875197 39.535656415531776 0 39.535656415531776 1.8100401083775068 0 0 0 0 -129.4068294589888 93.118096232850803 0 93.118096232850803 -100.71367269467555 0 0 0 0 -116.71613992789571 53.824386162004885 0 53.824386162004885 0.094677656581552583 0 0 0 0 -49.485757304853905 75.67065853719123 0 75.67065853719123 -63.634634394020395 0 0 0 0 -37.959415039165833 71.332433228682021 0 71.332433228682021 -53.258738345029997 0 0 0 0 -150.68599959807852 119.1613170994454 0 119.1613170994454 -36.883728904480449 0 0 0 0 -226.86618538450693 121.36350276288704 0 121.36350276288704 -9.3916654195581941 0 0 0 0 18.259437857660568 42.924293026005529 0 42.924293026005529 -58.26063764971606 0 0 0 0 13.022475876618596 1.897588312412001 0 1.897588312412001 -20.432026910006467 0 0 0 0 90.351959902396629 -15.733999853314973 0 -15.733999853314973 -59.309246027718793 0 0 0 0 -155.66583068827003 26.77058631803493 0 26.77058631803493 -91.953846530532246 0 0 0 0 -27.425737800127784 28.479434789447993 0 28.479434789447993 -20.441987883383753 0 0 0 0 223.29684094410186 -144.27661027022896 0 -144.27661027022896 -127.93686983932548 0 0 0 0 -35.479142695238949 55.592773246452651 0 55.592773246452651 -30.089855336071604 0 0 0 0 -84.89088291914959 38.591658886191908 0 38.591658886191908 -81.972834459352725 0 0 0 0 3.2220543302028091 38.984551089302045 0 38.984551089302045 -14.933443676442039 0 0 0 0 -16.074490151917264 56.089511596032864 0 56.089511596032864 -45.881174415012765 0 0 0 0 -54.925519608941613 29.242253099892878 0 29.242253099892878 -126.493605746301 0 0 0 0 -8.5385329488390198 -0.6988462860135769 0 -0.6988462860135769 -11.166857539795728 0 0 0 0 -48.131768828165477 28.237265414636674 0 28.237265414636674 -13.978161555806942 0 0 0 0 -1033.8582801351731 67.329668899430544 0 67.329668899430544 185.47566772068978 0 0 0 0 -502.56994970614323 58.20772522666266 0 58.20772522666266 49.995801891705923 0 0 0 0 -439.51712386491999 -57.872926190260841 0 -57.872926190260841 36.83233383460356 0 0 0 0 -600.0822642570165 10.592202288342833 0 10.592202288342833 163.87374226029533 0 0 0 0 -295.70384220586129 99.87715626211093 0 99.87715626211093 -19.773879953543656 0 0 0 0 -169.99120346366817 276.28787271187355 0 276.28787271187355 -208.91845319854292 0 0 0 0 -597.64298051109654 26.164540589975331 0 26.164540589975331 77.671518893398343 0 0 0 0 -259.85304298871415 237.74450840146301 0 237.74450840146301 -342.59986719109111 0 0 0 0 -10.61886756125115 6.2436914357123277 0 6.2436914357123277 -3.2005313893914584 0 0 0 0 -761.05613172716039 373.66235368359821 0 373.66235368359821 -133.91969200932454 0 0 0 0 -422.7098329711298 -177.89370200933035 0 -177.89370200933035 20.273422949049746 0 0 0 0 102.39225576756144 -36.206408563148216 0 -36.206408563148216 -136.01318746923062 0 0 0 0 -232.27520876574272 -46.241713214507399 0 -46.241713214507399 95.056323543303733 0 0 0 0 -976.97608092878363 -164.52868028015018 0 -164.52868028015018 386.9161081038219 0 0 0 0 -5.7817088441915985 260.32832932639303 0 260.32832932639303 92.947293507146242 0 0 0 0 -283.35022578537246 -364.92683121107575 0 -364.92683121107575 -691.60151310136735 0 0 0 0 74.309762006683741 757.82398076172421 0 757.82398076172421 175.68146661367518 0 0 0 0 6.5290599903964903 -62.135406034778498 0 -62.135406034778498 28.931584242873214 0 0 0 0 0.12569707250784745 0.056561052780949694 0 0.056561052780949694 1.6878896300454116 0 0 0 0 262.6100173671457 533.15553586355077 0 533.15553586355077 -227.32616643792517 0 0 0 0 -957.81416118451671 -260.11764749228041 0 -260.11764749228041 830.10442915879139 0 0 0 0 -1197.4656377052888 116.76217945721146 0 116.76217945721146 939.44032566545229 0 0 0 0 -336.46824523796386 503.4057458691459 0 503.4057458691459 -903.51931798594887 0 0 0 0 -6.95477450322457 5.9708475550154994 0 5.9708475550154994 -3.8739719301785449 0 0 0 0 -125.88437189724209 421.01254608429826 0 421.01254608429826 -252.36766614819726 0 0 0 0 -158.05928609501279 346.35082887608928 0 346.35082887608928 -350.97478668562508 0 0 0 0 -186.80295643229329 320.25991294337427 0 320.25991294337427 -190.14441162288722 0 0 0 0 -479.40036454479559 472.98254893630929 0 472.98254893630929 -238.25924148273612 0 0 0 0 82.517612118725083 436.24637045292047 0 436.24637045292047 -344.33742025585707 0 0 0 0 -82.232525282357528 -137.43599196336299 0 -137.43599196336299 -312.18815242100669 0 0 0 0 -192.12617299817794 71.485148878152359 0 71.485148878152359 -89.541956763377129 0 0 0 0 -443.60158846888953 -44.196413956943161 0 -44.196413956943161 -68.272481674389383 0 0 0 0 -1338.3853331452992 91.291364249936123 0 91.291364249936123 -86.434047078965932 0 0 0 0 -793.29110898419458 835.22781905606644 0 835.22781905606644 -690.05263580617247 0 0 0 0 -81.900793727927521 -605.37805500341415 0 -605.37805500341415 -647.16777208318126 0 0 0 0 -608.23762070835073 1026.7106128973292 0 1026.7106128973292 -166.4046183033031 0 0 0 0 698.64938366051138 320.59520613247764 0 320.59520613247764 -190.40160839605596 0 0 0 0 -1500.5708906063592 503.13408771537297 0 503.13408771537297 640.09774789296353 0 0 0 0 -539.5359307253384 210.58182854107872 0 210.58182854107872 708.56763644812418 0 0 0 0 -10.19426517469736 7.7203904608546665 0 7.7203904608546665 4.5489622351772994 0 0 0 0 -178.95417010468373 166.99813290011707 0 166.99813290011707 19.213644146160732 0 0 0 0 -64.142498006719507 102.82771125454212 0 102.82771125454212 -23.648684508365477 0 0 0 0 -34.381039900216365 84.955150880543584 0 84.955150880543584 -16.56388184953812 0 0 0 0 -24.83550299617491 229.13207387841703 0 229.13207387841703 40.337412364627198 0 0 0 0 -31.045519197567959 42.841875034510402 0 42.841875034510402 -43.865128050585255 0 0 0 0 -24.761063167004977 38.324825375035743 0 38.324825375035743 -44.220815716248126 0 0 0 0 -11.470883700631401 7.1479610380075798 0 7.1479610380075798 -3.8921517843805873 0 0 0 0 93.010007271221184 -99.461283705144524 0 -99.461283705144524 -63.465608216092733 0 0 0 0 58.382640234682654 97.229115723385803 0 97.229115723385803 -171.50608379294863 0 0 0 0 -51.91441466251672 -9.5158955329752644 0 -9.5158955329752644 -1.8023192317059511 0 0 0 0 15.841679374132141 -6.9540554612551126 0 -6.9540554612551126 -7.9466658594874673 0 0 0 0 119.28444920580523 135.88483110595598 0 135.88483110595598 -228.63395997085536 0 0 0 0 138.43694423929264 16.010922427857963 0 16.010922427857963 -148.72988747077147 0 0 0 0 35.981046161798169 20.636899347413532 0 20.636899347413532 -36.214922443493762 0 0 0 0 16.287298883026978 -27.921217767408962 0 -27.921217767408962 -126.94692895518892 0 0 0 0 407.55300470275142 165.39753596241121 0 165.39753596241121 -359.84945799820889 0 0 0 0 150.91089478512004 273.92978523498095 0 273.92978523498095 -2.3062881832115636 0 0 0 0 64.9466634713026 137.96008988437961 0 137.96008988437961 -46.842238140137624 0 0 0 0 135.89353274185396 42.692946933760027 0 42.692946933760027 -169.61395389887548 0 0 0 0 -109.20796785059019 179.50802973269674 0 179.50802973269674 8.8182258149026893 0 0 0 0 -67.694279208062767 323.60655058190332 0 323.60655058190332 -246.53433588767439 0 0 0 0 -134.70912207990636 85.822488997686378 0 85.822488997686378 -122.68520735615493 0 0 0 0 -53.018117611760886 125.71709184799874 0 125.71709184799874 -320.98106890449344 0 0 0 0 80.892821039841692 74.397486904312245 0 74.397486904312245 -188.9793285462747 0 0 0 0 -4.8346778549712326 23.903413796750101 0 23.903413796750101 139.71359934215434 0 0 0 0 -50.591900417021755 52.611963660940106 0 52.611963660940106 24.741904372458446 0 0 0 0 -119.25676524068058 96.034969956952864 0 96.034969956952864 -16.319180636869532 0 0 0 0 -133.31564978149686 287.77714734748224 0 287.77714734748224 -221.21200614098234 0 0 0 0 19.570134226667566 24.468543785486936 0 24.468543785486936 -9.2375362987068783 0 0 0 0 -72.232118062970869 144.41406038137984 0 144.41406038137984 -172.38438735418458 0 0 0 0 -103.56400062698958 192.4614237464084 0 192.4614237464084 -128.41394467240752 0 0 0 0 -27.650049814236127 141.20726682785789 0 141.20726682785789 -200.08033613378575 0 0 0 0 -25.819140248477765 72.073859123697503 0 72.073859123697503 54.468591861226301 0 0 0 0 -15.253977624452091 -70.540256935596801 0 -70.540256935596801 18.030131511904983 0 0 0 0 -3.7654410179820843 65.378341492530581 0 65.378341492530581 -22.559931471942491 0 0 0 0 29.265795140799813 34.224952910051698 0 34.224952910051698 -41.022639260472765 0 0 0 0 -37.181616856083032 114.65703484548712 0 114.65703484548712 40.850904031481413 0 0 0 0 -49.947813041439076 212.65321431591815 0 212.65321431591815 87.499911527136646 0 0 0 0 -87.27248983814934 115.60758756637506 0 115.60758756637506 19.732279262592044 0 0 0 0 -59.593140289791151 42.09774048546862 0 42.09774048546862 -14.465960844640122 0 0 0 0 -9.434742011148046 99.145299927835595 0 99.145299927835595 -79.785223342670179 0 0 0 0 -80.319920610625559 198.31753225632383 0 198.31753225632383 -213.58017971115987 0 0 0 0 -261.52695575396137 104.98554539646767 0 104.98554539646767 -12.907667347263896 0 0 0 0 -106.10095928070223 13.573795968065156 0 13.573795968065156 -87.575166236464071 0 0 0 0 -119.93903913578833 28.605456057713354 0 28.605456057713354 45.833617033282962 0 0 0 0 -59.383070174606473 93.440733645485125 0 93.440733645485125 -117.78836938613313 0 0 0 0 -56.164852610683738 67.279807296076797 0 67.279807296076797 -45.74981277380175 0 0 0 0 -72.58562670770425 49.972842716239938 0 49.972842716239938 28.160112921941618 0 0 0 0 -46.538393490915617 17.447223759362711 0 17.447223759362711 19.596139627057859 0 0 0 0 -83.97335855187157 81.874420350184664 0 81.874420350184664 23.028152375607533 0 0 0 0 -88.181649590995221 146.91835900743081 0 146.91835900743081 51.60921865284854 0 0 0 0 -13.143875746372942 41.154163400180551 0 41.154163400180551 14.095055185779529 0 0 0 0 -85.707361128569573 135.05455257137282 0 135.05455257137282 2.5730328069439565 0 0 0 0 -29.954997993760514 50.955018532869857 0 50.955018532869857 -10.174639576142615 0 0 0 0 -25.075149370956694 53.592592180413931 0 53.592592180413931 29.063872328835714 0 0 0 0 -53.822259322894979 61.108798854359712 0 61.108798854359712 -21.728739187399597 0 0 0 0 -27.595866659066814 128.51628753018122 0 128.51628753018122 -53.956463106449519 0 0 0 0 -26.88089458715092 59.934023724966238 0 59.934023724966238 -1.9496380469064305 0 0 0 0 -128.24663431898989 150.18028789940581 0 150.18028789940581 165.2861762381508 0 0 0 0 -13.058243252913599 47.503069451338888 0 47.503069451338888 75.880202746108807 0 0 0 0 -148.02378694528488 13.288545219937077 0 13.288545219937077 262.23106416728115 0 0 0 0 -148.56147297554435 74.062531742325518 0 74.062531742325518 152.97861628518649 0 0 0 0 -39.368516460157515 52.114653689131977 0 52.114653689131977 7.8089904714782294 0 0 0 0 -16.467374488595851 77.837015431947293 0 77.837015431947293 113.99610818743531 0 0 0 0 -416.40995469688323 -58.461870836350954 0 -58.461870836350954 69.592196285902901 0 0 0 0 174.92142498654903 196.99363154996172 0 196.99363154996172 -125.52836531537832 0 0 0 0 7.7820502768001969 5.7538073900019207 0 5.7538073900019207 2.7805597704618741 0 0 0 0 84.491966921317953 109.45261279634235 0 109.45261279634235 -26.038707016527042 0 0 0 0 -10.902777922519817 236.98563157084936 0 236.98563157084936 -120.43514845614118 0 0 0 0 -15.472503263943509 285.18294198168223 0 285.18294198168223 106.47256420089252 0 0 0 0 -287.57388431746767 171.22893075044158 0 171.22893075044158 82.667493133469179 0 0 0 0 -274.86977045579295 33.966332951843128 0 33.966332951843128 117.53015591149233 0 0 0 0 -238.09752102539642 102.49151091525164 0 102.49151091525164 -372.40795465133851 0 0 0 0 -1205.0481726248217 -444.67870645217408 0 -444.67870645217408 -582.7713645389631 0 0 0 0 -591.96790075915669 377.90628742352055 0 377.90628742352055 -583.48038945863004 0 0 0 0 -645.63525548498365 1741.5959636306434 0 1741.5959636306434 505.60133097074868 0 0 0 0 -1077.3488985136482 505.37158683603775 0 505.37158683603775 484.10434977915429 0 0 0 0 -312.16393004047131 373.59332946488576 0 373.59332946488576 83.02189390710555 0 0 0 0 13.341387100361317 391.0106771174469 0 391.0106771174469 -222.09029640048902 0 0 0 0 375.49856410245957 343.35696395446212 0 343.35696395446212 -121.44814745962867 0 0 0 0 456.29221869882895 914.06100263429835 0 914.06100263429835 -82.387924828435644 0 0 0 0 471.16772186344133 517.77955711743562 0 517.77955711743562 -300.6772839714522 0 0 0 0 1215.7971140071641 -632.61187675893962 0 -632.61187675893962 -2286.4513688633451 0 0 0 0 -108.4592309607433 129.71503381286311 0 129.71503381286311 -563.19896591831457 0 0 0 0 15.116817262188761 37.264259500883782 0 37.264259500883782 160.79385866418647 0 0 0 0 -12.085717571613964 7.5439780916191701 0 7.5439780916191701 -5.2184963409202147 0 0 0 0 27.206943883021278 30.914391094313942 0 30.914391094313942 51.625445016838057 0 0 0 0 -63.556831705387616 81.589390300261584 0 81.589390300261584 128.24016329132428 0 0 0 0 -63.407230279462794 15.37535699765067 0 15.37535699765067 54.209419640641954 0 0 0 0 -38.46664853412949 127.96286323558525 0 127.96286323558525 -596.75762947023759 0 0 0 0 29.056718505196841 17.606732816859221 0 17.606732816859221 -429.96044520800933 0 0 0 0 32.650202693064784 -51.118974339615306 0 -51.118974339615306 -179.8689566922767 0 0 0 0 2.7459729370366404 106.80664382677242 0 106.80664382677242 -319.9177370523812 0 0 0 0 -99.167602858693499 194.13383646982584 0 194.13383646982584 -287.46152366438673 0 0 0 0 24.098060366835853 115.67209238423129 0 115.67209238423129 -332.97879036213999 0 0 0 0 -94.696507606316572 158.10782997353806 0 158.10782997353806 -287.47527742289822 0 0 0 0 -207.65955337931973 205.80510165572832 0 205.80510165572832 -307.02076660338753 0 0 0 0 -52.885551535397099 211.80136341156322 0 211.80136341156322 -452.94708383128682 0 0 0 0 -12.920532465906945 133.0822593819903 0 133.0822593819903 -244.7898761506849 0 0 0 0 3.3319737945821544 34.769801982674835 0 34.769801982674835 -611.8811678395723 0 0 0 0 41.126825541008657 168.11188680764644 0 168.11188680764644 -142.20913197902337 0 0 0 0 -52.604956980599127 47.219792688112648 0 47.219792688112648 -374.68377748575585 0 0 0 0 -454.18004386647226 31.611804797388686 0 31.611804797388686 -220.22545318091215 0 0 0 0 -193.93152938337153 248.58848088434934 0 248.58848088434934 -465.93712479417991 0 0 0 0 -194.88645760853979 35.068163414318406 0 35.068163414318406 -133.20000357038225 0 0 0 0 -233.03861191456781 199.77588392049984 0 199.77588392049984 -188.13503405044503 0 0 0 0 -105.4843552558068 42.932485287305099 0 42.932485287305099 -222.83862245996534 0 0 0 0 -145.42172261653286 84.916908941613656 0 84.916908941613656 -83.393411752796965 0 0 0 0 -72.333581162411065 87.297064397696886 0 87.297064397696886 -165.32084218495584 0 0 0 0 -63.544150489403364 -3.7690310079588016 0 -3.7690310079588016 -59.364101600727736 0 0 0 0 21.437986258070168 44.062687601754305 0 44.062687601754305 -55.354206747842909 0 0 0 0 -136.28137577529697 113.72568267614565 0 113.72568267614565 -96.154239951376439 0 0 0 0 -44.403049094834387 33.617016487184628 0 33.617016487184628 -67.688164835830548 0 0 0 0 -50.6157495291136 -5.3642977211575271 0 -5.3642977211575271 -2.3230405700951451 0 0 0 0 -59.144238599537857 45.502471838623023 0 45.502471838623023 -114.14521501992112 0 0 0 0 -105.54628295981138 74.384964545860385 0 74.384964545860385 -78.685550123947905 0 0 0 0 -124.23271374812794 147.98956883041592 0 147.98956883041592 -189.92298155478784 0 0 0 0 -112.07623220079586 101.95682385366308 0 101.95682385366308 -130.06263487095293 0 0 0 0 2.4082631278597546 49.285121402940604 0 49.285121402940604 -254.64780037775199 0 0 0 0 -13.019128923814634 136.74417426011325 0 136.74417426011325 -281.7898868825032 0 0 0 0 18.50441498613327 58.058184843544041 0 58.058184843544041 -185.56765201165399 0 0 0 0 -12.067886228305724 146.32796226495975 0 146.32796226495975 -268.92254646728725 0 0 0 0 -55.89594032459172 184.52362537129284 0 184.52362537129284 -183.48808543533505 0 0 0 0 -29.087467944713808 98.297270213832007 0 98.297270213832007 -257.04509867643901 0 0 0 0 -14.705841511886319 106.19068458445145 0 106.19068458445145 -442.62336855768285 0 0 0 0 -137.51684314970043 187.07220557200435 0 187.07220557200435 -329.6178657083492 0 0 0 0 -24.460407380559197 16.735181271083164 0 16.735181271083164 -3.0620874287243174 0 0 0 0 -112.10038819435795 520.53762434210967 0 520.53762434210967 768.95254489195054 0 0 0 0 141.1795136916794 401.37417992908422 0 401.37417992908422 243.258362968867 0 0 0 0 -345.34492107641381 638.08119412950964 0 638.08119412950964 173.63675335234007 0 0 0 0 -12.568955073737015 -32.604521249359095 0 -32.604521249359095 -63.232978785957719 0 0 0 0 -21.493132109701037 -35.913051143090797 0 -35.913051143090797 1.6165734890673775 0 0 0 0 -37.144281950901259 17.998281147570943 0 17.998281147570943 -2.1848511439080425 0 0 0 0 300.59411959438785 131.62154392105435 0 131.62154392105435 72.987607160470361 0 0 0 0 101.57758343309251 200.32924054261639 0 200.32924054261639 99.298102830298149 0 0 0 0 155.74492414215092 338.8474306624812 0 338.8474306624812 221.84483894919595 0 0 0 0 -50.394803857067018 2.966047716081448 0 2.966047716081448 69.583767161744618 0 0 0 0 -16.156970397252735 151.69515781623272 0 151.69515781623272 71.380239278230874 0 0 0 0 36.205922067350912 181.63158413804831 0 181.63158413804831 31.826887199455086 0 0 0 0 192.75633051836121 134.18794639381122 0 134.18794639381122 -58.46683951697014 0 0 0 0 664.48489823843556 398.21332986399375 0 398.21332986399375 -138.88773172424953 0 0 0 0 431.66224701546525 424.18050591518886 0 424.18050591518886 235.73609335148649 0 0 0 0 611.48224796473005 401.52630258102636 0 401.52630258102636 -125.98139723839722 0 0 0 0 471.93056119120411 125.95511015714419 0 125.95511015714419 -238.47574318926672 0 0 0 0 114.84784465120538 -26.4848973064245 0 -26.4848973064245 -261.82630246819554 0 0 0 0 -56.683050974133948 357.54260663544437 0 357.54260663544437 -477.03277706262816 0 0 0 0 2.3850991613720609 2.3391588202642879 0 2.3391588202642879 2.3173713722504559 0 0 0 0 684.65679598873396 177.7492909516119 0 177.7492909516119 -133.15272573175935 0 0 0 0 38.350075500660751 15.947479647803448 0 15.947479647803448 -80.985601142538599 0 0 0 0 6.6539765502250106 6.8663338068026221 0 6.8663338068026221 -1.991622202704832 0 0 0 0 -124.58852446154742 156.38994796787097 0 156.38994796787097 36.302798841556069 0 0 0 0 -219.21153442661216 -74.908069366119435 0 -74.908069366119435 34.118790674341653 0 0 0 0 4.1595499172071868 104.50319759875129 0 104.50319759875129 58.441636975272559 0 0 0 0 8.8838854837137688 21.13989698007309 0 21.13989698007309 -35.735055826260549 0 0 0 0 38.326961938769273 118.07076212323864 0 118.07076212323864 -20.620660983997368 0 0 0 0 2.2561777507972138 21.166355667303357 0 21.166355667303357 -48.604383956189885 0 0 0 0 -215.50380543808751 -337.53535401503268 0 -337.53535401503268 -28.940326618255497 0 0 0 0 28.089593200445051 46.161209530617271 0 46.161209530617271 74.482554450034513 0 0 0 0 93.171998860702843 171.698893036762 0 171.698893036762 4.3904440078804328 0 0 0 0 409.89219396023373 682.66735150114346 0 682.66735150114346 760.20907924403582 0 0 0 0 10.74067282220652 7.9923810397648332 0 7.9923810397648332 -16.450774194697463 0 0 0 0 753.56437642398305 452.95715285595634 0 452.95715285595634 193.49344996167747 0 0 0 0 130.34425954140534 -50.977332495128394 0 -50.977332495128394 274.3402654723435 0 0 0 0 157.16160102879803 -71.653662637922025 0 -71.653662637922025 199.95403854525881 0 0 0 0 101.2834123810353 133.35810430853917 0 133.35810430853917 -190.10792347889037 0 0 0 0 328.67159941733553 313.2113267535633 0 313.2113267535633 43.743825073475818 0 0 0 0 591.46661270897857 702.20850111759137 0 702.20850111759137 705.8585056620343 0 0 0 0 273.44351740460479 47.372986080573355 0 47.372986080573355 837.89024905136102 0 0 0 0 260.33544952395641 -79.779761276739464 0 -79.779761276739464 -167.37408960390439 0 0 0 0 114.78959046801538 150.75663421644191 0 150.75663421644191 -424.4133965511819 0 0 0 0 -0.33748262957119834 32.805795492136141 0 32.805795492136141 -49.742061677136654 0 0 0 0 6.570341411993013 -255.75228768399074 0 -255.75228768399074 -256.52913808192534 0 0 0 0 155.21052880605021 35.810588691840167 0 35.810588691840167 -62.421120032118779 0 0 0 0 -0.11851683535986268 4.6488034869353427 0 4.6488034869353427 -13.060277013035098 0 0 0 0 12.927223537973507 38.265147188182119 0 38.265147188182119 3.6998096043952415 0 0 0 0 14.24498411809418 51.307831640080622 0 51.307831640080622 -8.7429056996297732 0 0 0 0 -17.253063399455879 20.853576776945445 0 20.853576776945445 -11.025821808641822 0 0 0 0 9.8572479079484765 163.55554050591309 0 163.55554050591309 0.14828170533291996 0 0 0 0 1.1775863153086448 100.44964413546995 0 100.44964413546995 -1.5587477769295219 0 0 0 0 69.700567528721876 121.18880539678139 0 121.18880539678139 12.90804035993051 0 0 0 0 157.48165513365711 148.3802428338513 0 148.3802428338513 -26.94197676370095 0 0 0 0 71.400440254197747 166.42804863371566 0 166.42804863371566 26.930929629146704 0 0 0 0 27.211673351554055 107.4565289873608 0 107.4565289873608 -1.6694332655752078 0 0 0 0 -144.77705891688674 102.41876202031199 0 102.41876202031199 20.89588174920209 0 0 0 0 -32.913190904966541 164.38088916435845 0 164.38088916435845 -32.694253061054042 0 0 0 0 -46.955180327351627 89.50176857873339 0 89.50176857873339 -17.333892730210209 0 0 0 0 44.548425416742248 140.56403799848522 0 140.56403799848522 -82.571548348118085 0 0 0 0 105.57240572757291 54.760646207581885 0 54.760646207581885 -74.286286609334638 0 0 0 0 136.40230135063484 163.61874674339197 0 163.61874674339197 15.792452119276277 0 0 0 0 -5.7896883180546865 190.26525419607788 0 190.26525419607788 -105.72806541210593 0 0 0 0 76.139903801864421 79.537597828222715 0 79.537597828222715 -83.35148681433202 0 0 0 0 306.96399567597473 54.666944702625187 0 54.666944702625187 -105.84355484837533 0 0 0 0 244.847824162287 -33.840041518862563 0 -33.840041518862563 -39.180706150078549 0 0 0 0 166.66889524041471 84.990141295551439 0 84.990141295551439 -109.15417120240454 0 0 0 0 187.44668864126743 48.001653082299526 0 48.001653082299526 -53.206282727525831 0 0 0 0 234.83587921614526 90.111049971104876 0 90.111049971104876 -62.458819650521036 0 0 0 0 127.98534472668325 40.222392090534413 0 40.222392090534413 25.501768232782183 0 0 0 0 48.440970432686299 118.50345750533234 0 118.50345750533234 96.350707998193684 0 0 0 0 -1.6477315609809011 60.476216293540347 0 60.476216293540347 28.618093334874175 0 0 0 0 10.784583625204505 38.148334176999015 0 38.148334176999015 14.003698812564835 0 0 0 0 23.522727601016289 24.477281289103203 0 24.477281289103203 11.070179914035833 0 0 0 0 2.0084791176518593 66.939539014279489 0 66.939539014279489 -4.5721585350693204 0 0 0 0 75.963602265186637 12.738392397313874 0 12.738392397313874 -46.849363047160296 0 0 0 0 78.628313371744298 20.760523281918722 0 20.760523281918722 -35.050591792052728 0 0 0 0 17.715971511172114 13.134555181873637 0 13.134555181873637 10.44889904917946 0 0 0 0 53.566520834632684 71.809149421358597 0 71.809149421358597 -56.078590975929728 0 0 0 0 18.714149837700745 82.779026759505996 0 82.779026759505996 -112.23484858829033 0 0 0 0 18.755449375102216 79.102196583296973 0 79.102196583296973 51.739063687226007 0 0 0 0 -28.752553696132964 359.06161415778661 0 359.06161415778661 -265.03502255445892 0 0 0 0 -29.85894261417161 341.66853855054433 0 341.66853855054433 370.97587324484266 0 0 0 0 -9.2435634046560153 100.2001900817595 0 100.2001900817595 38.300656014542255 0 0 0 0 -12.968551736325026 227.88802149626827 0 227.88802149626827 894.80309877889158 0 0 0 0 5.8152475406022148 4.9677019717378101 0 4.9677019717378101 4.5940187816211449 0 0 0 0 -68.356541955809007 232.08554775873017 0 232.08554775873017 511.41750815800333 0 0 0 0 30.355095918579536 480.94177552322617 0 480.94177552322617 1125.9036389251924 0 0 0 0 339.99965603914552 200.58308704168667 0 200.58308704168667 -1.9451167774459464 0 0 0 0 -16.599371872724078 508.28217600400603 0 508.28217600400603 654.08509764957125 0 0 0 0 614.07956356574505 -92.209896273401682 0 -92.209896273401682 -20.943069475983066 0 0 0 0 34.19846621886154 -30.985015406244429 0 -30.985015406244429 30.181566428473161 0 0 0 0 767.79320664238912 520.93995855271896 0 520.93995855271896 230.17661615038742 0 0 0 0 -1441.685588450016 767.41362603740708 0 767.41362603740708 -905.4688234802743 0 0 0 0 -757.02519971798415 1105.4303181282885 0 1105.4303181282885 -826.36546384576286 0 0 0 0 -164.82656645084853 -471.05835238824511 0 -471.05835238824511 -806.24461790932401 0 0 0 0 -1448.4112768788932 -74.626913196862006 0 -74.626913196862006 -505.2582386897484 0 0 0 0 -309.88777660269125 -107.06607449278454 0 -107.06607449278454 -693.68211665694616 0 0 0 0 45.512071839789314 9.4164753127734002 0 9.4164753127734002 -672.23823410115438 0 0 0 0 -960.06547302252307 165.26766801311896 0 165.26766801311896 -436.95044718472491 0 0 0 0 -310.10901735397408 -106.70311008477984 0 -106.70311008477984 -674.84727159156319 0 0 0 0 -358.28443948742074 164.07514860054289 0 164.07514860054289 -441.93119301896922 0 0 0 0 -1063.8521265174857 578.13401962948956 0 578.13401962948956 -369.87712458050373 0 0 0 0 -479.87302584635745 602.24245305540535 0 602.24245305540535 -394.52171288995578 0 0 0 0 -721.56603194118713 251.50033147716022 0 251.50033147716022 -761.1771442359659 0 0 0 0 -28.390521368313784 265.68984030059073 0 265.68984030059073 -539.92319376614068 0 0 0 0 -22.782070115766146 134.94736164879214 0 134.94736164879214 -35.473839178626804 0 0 0 0 -7.8535501648993886 37.651045107826576 0 37.651045107826576 -167.73804651182945 0 0 0 0 -50.102075023246016 408.49158019981223 0 408.49158019981223 -1090.8052767493864 0 0 0 0 -1.3073468146667775 2.812499599458512 0 2.812499599458512 -5.7491993660281082 0 0 0 0 -583.57138868550123 142.51800176172401 0 142.51800176172401 -16.329784226312768 0 0 0 0 -17.409821801287876 -123.86331523532317 0 -123.86331523532317 -75.332165728701511 0 0 0 0 77.52884051471068 0.22977188369350188 0 0.22977188369350188 31.238969857466145 0 0 0 0 -13.404932740076219 14.762111624289901 0 14.762111624289901 -12.147167094328324 0 0 0 0 -4.3896168225683141 107.75608389648187 0 107.75608389648187 -87.092845889754244 0 0 0 0 -0.24657375030768947 14.121888754332865 0 14.121888754332865 -3.4264992767305955 0 0 0 0 2.4014859299431919 56.883983612529846 0 56.883983612529846 10.077881637960672 0 0 0 0 -15.674485338619817 27.951332117104279 0 27.951332117104279 -13.007610652982954 0 0 0 0 8.5809825292567865 31.22879117861401 0 31.22879117861401 20.675223933231678 0 0 0 0 -11.118681601291314 40.738466308015632 0 40.738466308015632 22.117433643214099 0 0 0 0 -0.82622701945001609 48.701101853092041 0 48.701101853092041 -3.6990548532776302 0 0 0 0 5.1415647912589293 90.568741922551453 0 90.568741922551453 168.461421104279 0 0 0 0 -8.3857145612242423 23.211195299254022 0 23.211195299254022 -25.351487976080605 0 0 0 0 -779.66847932668315 160.42352527930689 0 160.42352527930689 21.140723934604466 0 0 0 0 301.34067899939896 352.53103206569722 0 352.53103206569722 -357.77482339478593 0 0 0 0 -4.8517080250489339 6.1639902044808554 0 6.1639902044808554 -9.3876932575453793 0 0 0 0 -181.52560914671585 -71.762015371939924 0 -71.762015371939924 123.50719084266348 0 0 0 0 -2392.5137986126665 -255.91206171612703 0 -255.91206171612703 252.8063608277298 0 0 0 0 -738.15817031496772 1535.4959166378758 0 1535.4959166378758 189.49072357764817 0 0 0 0 -157.81947003900984 527.24451825964934 0 527.24451825964934 143.7584819006006 0 0 0 0 -129.99659533701407 148.23297582490113 0 148.23297582490113 214.49046842330063 0 0 0 0 -304.12869301522278 495.14736545141204 0 495.14736545141204 115.97723457990924 0 0 0 0 -300.37920096165726 374.24987042415341 0 374.24987042415341 -20.420028081480268 0 0 0 0 -46.410622661917387 400.88971952402426 0 400.88971952402426 -105.20023399145248 0 0 0 0 -304.65847467862022 431.51561319782013 0 431.51561319782013 -135.66630652548065 0 0 0 0 -13.869317440645318 60.048865454294628 0 60.048865454294628 -10.084456723005133 0 0 0 0 -63.586282153986758 2.868420167846125 0 2.868420167846125 166.37508491236076 0 0 0 0 -3.5140992756919331 5.4566673543352593 0 5.4566673543352593 -7.2271184009193945 0 0 0 0 15.357004613436402 286.02693058853947 0 286.02693058853947 851.24851924139602 0 0 0 0 -130.20951130912545 186.44547009623784 0 186.44547009623784 97.622985613490528 0 0 0 0 -12.410140456835506 181.62066618571407 0 181.62066618571407 -114.60225749163146 0 0 0 0 38.396864187012994 23.504662320938877 0 23.504662320938877 4.0317180697024249 0 0 0 0 -1005.5166991829594 27.80032933063012 0 27.80032933063012 2981.6385918588385 0 0 0 0 13.746988530852427 3.6135442922133834 0 3.6135442922133834 2.7283159989761732 0 0 0 0 14.966715107481818 323.79579811852636 0 323.79579811852636 -497.41127519348811 0 0 0 0 -76.048592185133657 200.80991155870015 0 200.80991155870015 -355.79969258868368 0 0 0 0 4.9383589152980676 50.560794406679634 0 50.560794406679634 -27.496958221759996 0 0 0 0 3.6272212989661057 41.289502169733169 0 41.289502169733169 -2.0100460426365316 0 0 0 0 -3.0587822152638182 52.789950691230842 0 52.789950691230842 -4.6890961656690706 0 0 0 0 -12.195041032283354 39.109426241286428 0 39.109426241286428 -5.8154793326763894 0 0 0 0 -673.64909748183527 77.707370456025274 0 77.707370456025274 206.90458692516313 0 0 0 0 6.2796538381443412 6.1095448590438011 0 6.1095448590438011 5.0687206881295097 0 0 0 0 -65.221465039236136 350.70857875788579 0 350.70857875788579 -5.5762236140144523 0 0 0 0 4.7737989761417055 38.25423184188719 0 38.25423184188719 16.317879781836261 0 0 0 0 -58.706824611193952 310.83401926103397 0 310.83401926103397 -252.85098509288309 0 0 0 0 547.88068143634882 226.8305070076276 0 226.8305070076276 18.997579946432779 0 0 0 0 -227.74376727381423 714.86249349031004 0 714.86249349031004 904.65538841376474 0 0 0 0 -254.39553974567571 -3.3632424173847539 0 -3.3632424173847539 868.47302636324866 0 0 0 0 433.55815114520647 574.99869031074923 0 574.99869031074923 501.60983749263505 0 0 0 0 -211.46842519966231 682.78647597759664 0 682.78647597759664 528.68476862769785 0 0 0 0 -155.09106113160669 192.69524017625463 0 192.69524017625463 78.872173700050553 0 0 0 0 50.81157688405051 105.26741851025872 0 105.26741851025872 38.390365003697298 0 0 0 0 -71.765963688124458 70.700503320753626 0 70.700503320753626 -26.431020896124107 0 0 0 0 -9.8288427102622649 17.068461248556197 0 17.068461248556197 -4.0263147450885413 0 0 0 0 -78.209893176245643 63.122950617865158 0 63.122950617865158 -17.348563288415839 0 0 0 0 227.06394435332413 24.89182045580128 0 24.89182045580128 -656.81555839735665 0 0 0 0 -478.56226501570927 0.38141552841989323 0 0.38141552841989323 -603.06816195170541 0 0 0 0 -2.289216699288283 20.993201557305092 0 20.993201557305092 -19.337073801604888 0 0 0 0 -322.64550934792459 1341.0076070798768 0 1341.0076070798768 1587.5209593206291 0 0 0 0 -1278.3558237674683 -2.6156822965167521 0 -2.6156822965167521 723.20158787302353 0 0 0 0 219.22303159832336 -382.92005983262425 0 -382.92005983262425 1027.1824280354122 0 0 0 0 -462.34532717536172 950.25757473734848 0 950.25757473734848 364.19372330479746 0 0 0 0 199.76097892240659 356.19495644197139 0 356.19495644197139 600.16493798914598 0 0 0 0 -405.15855719516776 7.1360109691049729 0 7.1360109691049729 470.85154108141069 0 0 0 0 -335.00720071826254 392.4290858732993 0 392.4290858732993 -140.6029083463427 0 0 0 0 -526.36981526931777 -138.22526505195378 0 -138.22526505195378 56.8591801525763 0 0 0 0 -331.48215823924693 -20.757623472054547 0 -20.757623472054547 4.2346692988139694 0 0 0 0 -477.53464351095681 35.501831565296015 0 35.501831565296015 156.87164944941014 0 0 0 0 -273.30043389459024 40.049359571454261 0 40.049359571454261 -78.203322479581402 0 0 0 0 -341.3532933537499 26.258564006297092 0 26.258564006297092 32.388432176328934 0 0 0 0 -292.22740039658675 94.119925382470683 0 94.119925382470683 -3.6180444903366151 0 0 0 0 -333.63245640805621 -81.546811580240899 0 -81.546811580240899 -132.71047212157646 0 0 0 0 -257.6862383181724 7.0534410040854709 0 7.0534410040854709 -62.683965821372112 0 0 0 0 -179.06489365798188 15.792791120791662 0 15.792791120791662 -168.84018250588633 0 0 0 0 -252.29405632015551 13.610077580910001 0 13.610077580910001 -146.26407285963069 0 0 0 0 -141.79313082933368 49.790068196398352 0 49.790068196398352 -181.28201835396794 0 0 0 0 -177.29732183514034 54.072995745939352 0 54.072995745939352 -163.87189127058809 0 0 0 0 -151.03938017049222 62.318378922056581 0 62.318378922056581 -161.47433417575667 0 0 0 0 -209.16354269448493 70.714523480193748 0 70.714523480193748 -158.58640956392628 0 0 0 0 -175.70821386839089 83.143745848301478 0 83.143745848301478 -162.59959792261361 0 0 0 0 -195.57763380748293 47.173303969837434 0 47.173303969837434 -126.70268637753907 0 0 0 0 -216.87416464596026 80.829331500208355 0 80.829331500208355 -135.97910590634274 0 0 0 0 -203.69917963010084 87.805480714203441 0 87.805480714203441 -164.01010618331202 0 0 0 0 -210.85058967335499 92.379433385747689 0 92.379433385747689 -164.20200506490073 0 0 0 0 -197.25660817025346 93.589127315099176 0 93.589127315099176 -170.99217394481821 0 0 0 0 -244.52271763618046 50.94474343092952 0 50.94474343092952 -74.078301032062882 0 0 0 0 -251.12521429891058 72.479968400410144 0 72.479968400410144 -137.86721174852937 0 0 0 0 -269.0056193719065 97.658053344930522 0 97.658053344930522 -99.870631659026913 0 0 0 0 -630.95252305196391 454.42680991735688 0 454.42680991735688 -1946.8181185310204 0 0 0 0 -824.44082301224512 298.33808191862863 0 298.33808191862863 367.03751819329591 0 0 0 0 -159.95385419359445 -689.62479908888417 0 -689.62479908888417 -1100.1402953970646 0 0 0 0 -244.93420072420849 105.10256184618265 0 105.10256184618265 -151.83860229665879 0 0 0 0 228.82303969785994 -366.48182721892908 0 -366.48182721892908 -931.06515311955263 0 0 0 0 -217.72737617221719 98.897531098926265 0 98.897531098926265 -165.48925893095293 0 0 0 0 -231.58487123501254 111.75318019648694 0 111.75318019648694 -160.69881430490932 0 0 0 0 -99.168347473996633 58.512588497119651 0 58.512588497119651 23.305078694797189 0 0 0 0 388.37430484425886 -528.93823233408239 0 -528.93823233408239 -1031.9203216276401 0 0 0 0 -214.13553578639403 92.745680052968964 0 92.745680052968964 -160.75457847433427 0 0 0 0 -216.34217594908114 107.7262673802893 0 107.7262673802893 -178.02922977092385 0 0 0 0 -221.25235254841391 97.629155960370554 0 97.629155960370554 -188.83020004030641 0 0 0 0 712.23696431534484 349.31489382193831 0 349.31489382193831 -251.54141263861027 0 0 0 0 -248.42783806020361 -53.318156230077875 0 -53.318156230077875 -244.71431715549988 0 0 0 0 -172.19442913462535 100.35603776635253 0 100.35603776635253 198.40818863410203 0 0 0 0 -84.793967980414862 109.64945532014012 0 109.64945532014012 -2.6555231170596185 0 0 0 0 -294.55424436856993 161.3538568498916 0 161.3538568498916 -192.77528168210119 0 0 0 0 -411.98871716173016 260.78597335455197 0 260.78597335455197 -236.09086704367655 0 0 0 0 -0.079553737565618121 32.323158665107847 0 32.323158665107847 -12.574857896033954 0 0 0 0 -244.31844093743712 185.68349886794749 0 185.68349886794749 -235.03210295763915 0 0 0 0 -105.5095277520777 146.25495801850957 0 146.25495801850957 -193.65074551153521 0 0 0 0 -47.484908463960892 151.09418585873664 0 151.09418585873664 -328.99247135300539 0 0 0 0 -164.51593854096427 129.63559930944757 0 129.63559930944757 -201.46427728475828 0 0 0 0 -204.71739095091107 120.32447860318825 0 120.32447860318825 -176.24105748377042 0 0 0 0 -162.9114945010806 109.81051654586918 0 109.81051654586918 -173.65314175151434 0 0 0 0 -165.05888623767714 125.04185682952311 0 125.04185682952311 -184.04851939983928 0 0 0 0 -123.94051515475439 138.35291711639729 0 138.35291711639729 -178.20521515045311 0 0 0 0 -159.76432104062405 133.35830467622873 0 133.35830467622873 -176.5762319978603 0 0 0 0 -135.42978825150931 98.687175649152778 0 98.687175649152778 -173.8039069205588 0 0 0 0 -185.5670948315601 102.28896214383167 0 102.28896214383167 -170.14367968185979 0 0 0 0 -100.14095159707358 123.95559946791218 0 123.95559946791218 -184.43892463540396 0 0 0 0 -167.54787191309515 87.469444002254932 0 87.469444002254932 -171.65817026171135 0 0 0 0 -75.118605947925971 141.78765401473993 0 141.78765401473993 -173.47659578714229 0 0 0 0 -98.83406878754613 88.773994087128813 0 88.773994087128813 -183.69308980432106 0 0 0 0 -111.14937674112298 91.813793853788411 0 91.813793853788411 -173.12714824471914 0 0 0 0 -58.807599993386248 174.4860576843439 0 174.4860576843439 -190.00613085069563 0 0 0 0 -47.326748315907025 203.28401187563941 0 203.28401187563941 -140.82742080172557 0 0 0 0 -75.980321097049455 170.35527817170623 0 170.35527817170623 -178.66387203779232 0 0 0 0 -30.893804449406161 162.31291522731226 0 162.31291522731226 -189.5095356312595 0 0 0 0 -170.79727609990368 158.94952531058698 0 158.94952531058698 -17.389853065702482 0 0 0 0 -75.771687278233003 177.80069588560582 0 177.80069588560582 -44.785081247704511 0 0 0 0 -181.39220434604795 253.51375541905145 0 253.51375541905145 -96.498411355777534 0 0 0 0 -92.62496990191157 106.36849834986677 0 106.36849834986677 -1.2815309356860483 0 0 0 0 -225.71695328379337 211.92704393594977 0 211.92704393594977 106.58486793066913 0 0 0 0 -64.614233809094003 164.74386337943542 0 164.74386337943542 -185.52491593885679 0 0 0 0 -142.83473461869812 65.858356177709993 0 65.858356177709993 90.841357459052233 0 0 0 0 -118.71444867851801 200.89764126470141 0 200.89764126470141 -60.117828827693302 0 0 0 0 -204.62546539890445 274.51617288666603 0 274.51617288666603 -148.27516115038452 0 0 0 0 -279.24538337641934 226.48899747120595 0 226.48899747120595 -41.872121719026836 0 0 0 0 -259.42735363906831 140.67219954194297 0 140.67219954194297 -75.543357103400922 0 0 0 0 -193.88789699435256 224.99997160906059 0 224.99997160906059 -131.68945534130035 0 0 0 0 -231.34274606898998 220.55237378587117 0 220.55237378587117 -150.346587883334 0 0 0 0 -266.24674363956274 186.61575197011007 0 186.61575197011007 -89.143537203617598 0 0 0 0 6.6607234708416119 15.723111869496563 0 15.723111869496563 48.736763094957112 0 0 0 0 -20.572354801288725 334.19295643107671 0 334.19295643107671 -353.71505852989139 0 0 0 0 87.895341720384295 472.14174272380842 0 472.14174272380842 -194.07410890449319 0 0 0 0 -609.25316634984017 -268.11146966217802 0 -268.11146966217802 1749.7405492235703 0 0 0 0 -38.554134357986271 304.29953052444944 0 304.29953052444944 -357.47629122061426 0 0 0 0 -14.114494633164171 36.991629199398403 0 36.991629199398403 78.441955391404235 0 0 0 0 -205.33608127777643 55.396015201440605 0 55.396015201440605 79.478883605028386 0 0 0 0 -170.53877831094815 172.57704777209437 0 172.57704777209437 -68.548514086785872 0 0 0 0 -92.537231632507883 79.006222552750842 0 79.006222552750842 63.135407406247396 0 0 0 0 -80.71120436462661 61.859225534246434 0 61.859225534246434 1.4128918260812497 0 0 0 0 -69.519085818870877 38.887725003631267 0 38.887725003631267 1.2268870423955935 0 0 0 0 -104.57370113553407 111.0478718924619 0 111.0478718924619 -69.391190722901229 0 0 0 0 -16.029047535762473 22.830778069080267 0 22.830778069080267 4.3567888693624042 0 0 0 0 -13.773193410401831 41.078855954773232 0 41.078855954773232 23.842504410455458 0 0 0 0 -97.726001592387547 -54.165798147545729 0 -54.165798147545729 -89.001143109215263 0 0 0 0 -107.38364846198238 -83.256745414802936 0 -83.256745414802936 -170.18343304675182 0 0 0 0 -227.72974618399167 -137.34985139578703 0 -137.34985139578703 -46.327393660380949 0 0 0 0 -235.56167135838314 164.35084178423995 0 164.35084178423995 215.31537944264892 0 0 0 0 -12.726247963178317 36.194372343238712 0 36.194372343238712 3.4479153618175502 0 0 0 0 13.42435846060107 104.2342034542703 0 104.2342034542703 -80.609903881098035 0 0 0 0 -0.68766823415353429 79.053822609470444 0 79.053822609470444 -45.098680015659909 0 0 0 0 -8.4276025480994576 58.637754431024518 0 58.637754431024518 -14.097926022841307 0 0 0 0 18.069984205816581 54.805179328042868 0 54.805179328042868 -115.74429449771924 0 0 0 0 -359.33954350220301 252.97508765325256 0 252.97508765325256 -90.506261376961419 0 0 0 0 31.669311888621998 50.084739996352624 0 50.084739996352624 -82.825265732830516 0 0 0 0 -98.377879042696023 113.61732719989148 0 113.61732719989148 -2.0139911665151411 0 0 0 0 -326.6225901647631 -12.881006878957123 0 -12.881006878957123 258.15329570894573 0 0 0 0 -391.12175281775308 156.80266052707748 0 156.80266052707748 159.11013470238686 0 0 0 0 -230.36552315700828 175.60393197771009 0 175.60393197771009 38.585493434204636 0 0 0 0 -308.89580487392959 130.63674025293403 0 130.63674025293403 139.54430927511385 0 0 0 0 -189.37486571682894 241.54802373786788 0 241.54802373786788 58.782394602907516 0 0 0 0 -224.61758459823886 168.33198858474771 0 168.33198858474771 -133.51965354878848 0 0 0 0 -225.1445569885509 288.1560606175899 0 288.1560606175899 -139.06498249300535 0 0 0 0 42.522340000432436 35.516111357891234 0 35.516111357891234 -58.991360292139255 0 0 0 0 -70.790893194851378 128.28307738108788 0 128.28307738108788 -51.769133490332024 0 0 0 0 -23.738118959889107 74.445354779593799 0 74.445354779593799 -86.300120791875088 0 0 0 0 -0.72540978180404636 91.092587732370703 0 91.092587732370703 -100.35614714687108 0 0 0 0 13.818545309950423 89.116736889265667 0 89.116736889265667 -105.87241441822334 0 0 0 0 11.278698755584628 95.32117096637694 0 95.32117096637694 -109.27320979069918 0 0 0 0 72.277095505196485 53.238419418135891 0 53.238419418135891 -83.96350537252863 0 0 0 0 37.169454593142291 126.90495254780035 0 126.90495254780035 -41.800942746103829 0 0 0 0 -43.57883595786916 37.738724899460976 0 37.738724899460976 -75.507586392050143 0 0 0 0 -55.88857715834456 55.036768784928427 0 55.036768784928427 -83.65572045733461 0 0 0 0 -411.44702222890555 149.38881407776626 0 149.38881407776626 62.841236424570525 0 0 0 0 -160.72056229860755 56.64632004572195 0 56.64632004572195 -37.787744141718576 0 0 0 0 -186.56256165965169 217.27622436687125 0 217.27622436687125 -13.269364488316569 0 0 0 0 -30.372220821725932 -12.570388390098742 0 -12.570388390098742 -44.294160155002828 0 0 0 0 2.9340486351670165 -0.39391006753318436 0 -0.39391006753318436 -0.094200718978463271 0 0 0 0 101.64310020944322 109.34396985793683 0 109.34396985793683 -100.99934318216401 0 0 0 0 60.352411944630148 -0.27788597039511842 0 -0.27788597039511842 -53.197462744414224 0 0 0 0 -3.2486520493985154 12.740900240181873 0 12.740900240181873 -30.03507055921682 0 0 0 0 9.4406100021878956 50.981673893280231 0 50.981673893280231 -32.0371607326706 0 0 0 0 -29.313877594948281 51.860015976395516 0 51.860015976395516 64.314666467478673 0 0 0 0 -23.488252969793393 55.580910181340641 0 55.580910181340641 -78.42698214011034 0 0 0 0 -79.500000017866114 74.933656189225076 0 74.933656189225076 -48.411713308734761 0 0 0 0 36.488525417913124 46.373208009733524 0 46.373208009733524 -54.431864740575548 0 0 0 0 -0.48582424044610661 9.4247786195931127 0 9.4247786195931127 -5.5447545490158276 0 0 0 0 -38.921943905908847 50.67945106136176 0 50.67945106136176 -66.096793122600502 0 0 0 0 13.734333250171943 54.259017928647502 0 54.259017928647502 -35.731494165161749 0 0 0 0 10.692342383204959 44.671496039663907 0 44.671496039663907 -36.827142967027612 0 0 0 0 28.532345013806335 69.515194793197011 0 69.515194793197011 -51.500166954481017 0 0 0 0 16.36709068671189 30.40732949793437 0 30.40732949793437 -6.5576241000489972 0 0 0 0 34.290286119634402 53.390726608738987 0 53.390726608738987 -32.759363076615045 0 0 0 0 40.110764668506818 10.73693773706691 0 10.73693773706691 -6.714761836850812 0 0 0 0 -3.064875668660676 11.389749971305111 0 11.389749971305111 -10.131001186422125 0 0 0 0 30.749718708113505 30.946195291900949 0 30.946195291900949 9.3638068568543531 0 0 0 0 40.920137041946873 -5.2229642289835283 0 -5.2229642289835283 -9.9786276847480622 0 0 0 0 6.6713153114687884 10.26528633394355 0 10.26528633394355 -34.983087345790409 0 0 0 0 -5.4962362332080374 -29.541827541799648 0 -29.541827541799648 -60.744499507640285 0 0 0 0 24.015078785130754 14.977305433847505 0 14.977305433847505 -30.761833177873541 0 0 0 0 -7.9632485742293966 5.061917603031624 0 5.061917603031624 -3.2901207099106813 0 0 0 0 -30.380577850189184 31.701042044591759 0 31.701042044591759 51.556493904121453 0 0 0 0 -22.585744516458362 63.681626942458024 0 63.681626942458024 30.546975104736703 0 0 0 0 -2.3958616347639463 1.8998481316704456 0 1.8998481316704456 -1.7290517621756862 0 0 0 0 -276.90702511436393 -32.047691690544525 0 -32.047691690544525 44.772012832110704 0 0 0 0 -12.062579804609413 29.609010907191987 0 29.609010907191987 -298.81869406917031 0 0 0 0 -292.13204196819424 178.10637056878227 0 178.10637056878227 237.34083290512353 0 0 0 0 -71.703739855125605 159.11656420597228 0 159.11656420597228 42.190846190473167 0 0 0 0 -88.648751007629471 106.73821288448289 0 106.73821288448289 -44.726653010777227 0 0 0 0 -256.99363717628557 349.03292293226241 0 349.03292293226241 -192.3129104353502 0 0 0 0 1759.1362570628162 442.69992904483297 0 442.69992904483297 -606.48572996664734 0 0 0 0 2.5214531988555038 7.8369741755399094 0 7.8369741755399094 13.999948323341854 0 0 0 0 -763.37214457360869 531.25962750513645 0 531.25962750513645 50.30146199117371 0 0 0 0 -223.41114830054357 169.2044471312438 0 169.2044471312438 -157.5548913871462 0 0 0 0 -335.45061848504793 243.88469539540529 0 243.88469539540529 -168.28574005065457 0 0 0 0 -218.30427337213405 166.64269343883097 0 166.64269343883097 -326.27755196064027 0 0 0 0 -192.89767392044541 346.73177642819064 0 346.73177642819064 -370.02769983186136 0 0 0 0 -350.31615846421118 173.32390982820289 0 173.32390982820289 -142.13538990095276 0 0 0 0 42.197098628692856 113.15601033082385 0 113.15601033082385 -373.53006280175759 0 0 0 0 -297.62210748787948 316.09642697017989 0 316.09642697017989 -165.89344568024899 0 0 0 0 17.675652644251613 8.651073730849518 0 8.651073730849518 -13.990131334484872 0 0 0 0 -290.46141660926332 76.939167371114308 0 76.939167371114308 -26.992690480510646 0 0 0 0 -218.12393106517629 55.375440676667495 0 55.375440676667495 -27.528291106147663 0 0 0 0 105.24243624114752 12.692605465272209 0 12.692605465272209 -46.789444747391826 0 0 0 0 22.477923733356963 22.985862507654375 0 22.985862507654375 -25.731985935091473 0 0 0 0 -400.1673017238445 323.51445302655065 0 323.51445302655065 -116.7592150760247 0 0 0 0 -101.27987953706543 186.0289147108524 0 186.0289147108524 -119.10384580164941 0 0 0 0 -122.67055964742303 254.27619194321232 0 254.27619194321232 -239.75500590758384 0 0 0 0 -28.446673282886877 13.792271488596271 0 13.792271488596271 -116.70034159710485 0 0 0 0 84.309171564040298 206.53430706798827 0 206.53430706798827 192.90838944129791 0 0 0 0 0.97269440321234768 0.77453652117885952 0 0.77453652117885952 -0.44688231168098724 0 0 0 0 48.405736963225721 42.952272971537312 0 42.952272971537312 -35.270081041191801 0 0 0 0 96.003156287581078 5.1125828223330245 0 5.1125828223330245 -22.229270399016968 0 0 0 0 -91.232213270912325 94.634039078386195 0 94.634039078386195 -21.81927729074232 0 0 0 0 -11.997719455869131 19.142857666088055 0 19.142857666088055 -6.6709428887372155 0 0 0 0 98.582057024817914 31.671686632416822 0 31.671686632416822 -39.775437943653742 0 0 0 0 138.05699821167127 358.09456429007514 0 358.09456429007514 -249.56257400129834 0 0 0 0 295.09070052158313 102.79086970233766 0 102.79086970233766 -115.44664076052374 0 0 0 0 335.76354605565393 198.92324561999703 0 198.92324561999703 -371.67573617784365 0 0 0 0 103.76286733423103 368.11812687561724 0 368.11812687561724 -82.738780921448779 0 0 0 0 -4.8546567177318138 538.91607956678126 0 538.91607956678126 -344.80455839620117 0 0 0 0 -202.29540400036876 510.5058621452863 0 510.5058621452863 -78.332171174268296 0 0 0 0 -42.844953763657031 439.76059919838008 0 439.76059919838008 -177.44832859519374 0 0 0 0 634.71860763341283 730.65144298800806 0 730.65144298800806 -329.8030605738204 0 0 0 0 681.65910556094104 5.6689979314105585 0 5.6689979314105585 -996.77743912965525 0 0 0 0 -86.389849316777145 778.14158051354298 0 778.14158051354298 139.88464140443102 0 0 0 0 77.404291044828824 117.80598417927467 0 117.80598417927467 -744.43327583215432 0 0 0 0 -115.00946539989036 184.58886077172792 0 184.58886077172792 -678.77362593789439 0 0 0 0 -164.85791695831495 -4.6346420483860129 0 -4.6346420483860129 -25.792343218945462 0 0 0 0 2.0069468579571819 -0.1538648720191107 0 -0.1538648720191107 -2.8045457719830296 0 0 0 0 -99.774424398217434 311.47303449903848 0 311.47303449903848 -450.56823517537487 0 0 0 0 19.029718933176355 15.92749778173129 0 15.92749778173129 -10.720876128099917 0 0 0 0 -0.092723359376082115 5.9288894394402121 0 5.9288894394402121 2.4542319174149014 0 0 0 0 21.385477878754045 21.126746708800056 0 21.126746708800056 0.74197377586096991 0 0 0 0 -0.19062385363144863 1.6358013845690227 0 1.6358013845690227 -7.8165539323337043 0 0 0 0 158.70120930109624 -33.831762129611889 0 -33.831762129611889 47.061332542936725 0 0 0 0 113.99816711376116 -1.6082091644348111 0 -1.6082091644348111 38.771909847859206 0 0 0 0 212.76289972161248 -1.5226162503586238 0 -1.5226162503586238 0.62679570804903051 0 0 0 0 102.72455715502838 133.32547201813213 0 133.32547201813213 -166.44315760868631 0 0 0 0 2.3479753789646409 2.8877617997469542 0 2.8877617997469542 -0.63612893561924722 0 0 0 0 225.33533874203204 -259.02871408584178 0 -259.02871408584178 34.425809052292607 0 0 0 0 18.803770196231198 -74.180642996929237 0 -74.180642996929237 -629.31663815228421 0 0 0 0 35.089998060218932 175.94027366072623 0 175.94027366072623 209.18231881536485 0 0 0 0 444.2361412564278 -122.49323002386518 0 -122.49323002386518 -147.5713138405772 0 0 0 0 136.68302947553821 -15.146730900239163 0 -15.146730900239163 -28.775010483277583 0 0 0 0 43.838391387575847 47.198374063799491 0 47.198374063799491 -28.845328862271799 0 0 0 0 75.261817549486295 2.248740500297572 0 2.248740500297572 -1.7621113757686544 0 0 0 0 101.88149143579358 53.242349484204169 0 53.242349484204169 -35.469172471388447 0 0 0 0 30.785486473162365 -3.5592370859569264 0 -3.5592370859569264 -1.3752071599840718 0 0 0 0 45.548209503576217 50.228514034546222 0 50.228514034546222 -24.92119934627506 0 0 0 0 151.64716256126121 -16.938241242698041 0 -16.938241242698041 -24.343746899074176 0 0 0 0 232.61773268506295 -29.847138740740775 0 -29.847138740740775 -149.97402710975575 0 0 0 0 107.54885925655253 36.38151959278548 0 36.38151959278548 2.4822118675938327 0 0 0 0 261.73940683142428 5.5359854109956359 0 5.5359854109956359 -45.370110517840658 0 0 0 0 31.783155419245155 -1.239029328433034 0 -1.239029328433034 -7.9391868357793385 0 0 0 0 -33.085783655817067 38.362482496729172 0 38.362482496729172 13.255436282050141 0 0 0 0 75.760612486737955 -9.8551506873873223 0 -9.8551506873873223 -26.891118820647534 0 0 0 0 -36.628034681401914 80.138736858949414 0 80.138736858949414 13.339545091983382 0 0 0 0 -81.53975652576446 -2.4021150582098016 0 -2.4021150582098016 -138.07809581135371 0 0 0 0 60.560796042074799 59.872509305390849 0 59.872509305390849 -38.962801389851393 0 0 0 0 14.065572775791225 -6.3344187423099356 0 -6.3344187423099356 29.223110363733213 0 0 0 0 116.50341060742539 -50.338081579283426 0 -50.338081579283426 13.262535918085632 0 0 0 0 184.22596796857397 10.228305781096424 0 10.228305781096424 5.4381328817198664 0 0 0 0 29.553070611669192 55.59888762827326 0 55.59888762827326 -13.316340441528226 0 0 0 0 139.58260850774514 -1.0972014028957346 0 -1.0972014028957346 10.382900652126409 0 0 0 0 13.254673575875064 0.064902327643655333 0 0.064902327643655333 1.3587028382619337 0 0 0 0 75.523609327556187 21.129594831011673 0 21.129594831011673 6.0415945449931314 0 0 0 0 101.98744492516562 51.110088473556061 0 51.110088473556061 -1.1795324413906201 0 0 0 0 48.145914305442602 48.251307117493525 0 48.251307117493525 14.204554605123121 0 0 0 0 46.001909624709697 65.760589340706247 0 65.760589340706247 14.562665916870174 0 0 0 0 25.093109338634363 42.251965219672911 0 42.251965219672911 23.359882189884956 0 0 0 0 23.7297056916494 13.068365724756291 0 13.068365724756291 10.827852244154201 0 0 0 0 158.36792062323093 34.457917967720277 0 34.457917967720277 -11.18810761558052 0 0 0 0 253.94153554098648 -3.9903464819915371 0 -3.9903464819915371 0.32875506149139255 0 0 0 0 46.504648746287529 52.564270369956688 0 52.564270369956688 -16.759253095357167 0 0 0 0 152.66384646108645 6.6107180679109661 0 6.6107180679109661 -27.770179847706459 0 0 0 0 -377.39899074897403 194.30168985773162 0 194.30168985773162 -75.710634982955526 0 0 0 0 -163.68365054749302 206.39878192778087 0 206.39878192778087 -213.85671187502521 0 0 0 0 -152.31728500731697 154.58448109654819 0 154.58448109654819 -177.1342454526457 0 0 0 0 0.078472194778029802 1.1761410804951709 0 1.1761410804951709 -2.7072201950060304 0 0 0 0 236.24358377058888 -152.6239779143516 0 -152.6239779143516 -500.67951630775133 0 0 0 0 -57.167584940194502 137.32407040970975 0 137.32407040970975 -197.56293658539653 0 0 0 0 -55.322053718130064 107.19243057623339 0 107.19243057623339 -93.495252120752411 0 0 0 0 -121.53573617859001 193.78081112652762 0 193.78081112652762 -246.4249093326398 0 0 0 0 -106.74918602123944 185.34111990920428 0 185.34111990920428 -124.54202436146079 0 0 0 0 -102.68258789066749 169.9492452937684 0 169.9492452937684 -67.729565016103152 0 0 0 0 -152.39150698059893 171.87908093057558 0 171.87908093057558 -109.68248801615846 0 0 0 0 -38.717700913606677 131.14515618160294 0 131.14515618160294 -121.81062701697192 0 0 0 0 -6.3744990856648656 90.903466643545471 0 90.903466643545471 -138.93755205560046 0 0 0 0 31.100432852668746 49.119298934121616 0 49.119298934121616 -13.61898847253542 0 0 0 0 32.922095918489504 35.220345708476998 0 35.220345708476998 -75.170594918305142 0 0 0 0 -43.79345373916658 107.90194166711512 0 107.90194166711512 -41.739031658184103 0 0 0 0 -81.454514374585415 128.71926244057795 0 128.71926244057795 -8.5973912184272194 0 0 0 0 -6.2629497745620029 110.28480376108018 0 110.28480376108018 -60.703473095429217 0 0 0 0 -233.17305202952411 185.5562745685238 0 185.5562745685238 -27.512590552882102 0 0 0 0 -93.096067395387763 177.78468383734412 0 177.78468383734412 -76.775443900198297 0 0 0 0 25.475974310218589 114.41086369176446 0 114.41086369176446 -63.6181464794563 0 0 0 0 -102.00593274993298 167.72998558713516 0 167.72998558713516 -85.738723733476945 0 0 0 0 -159.16368647586205 84.757351494879913 0 84.757351494879913 -2.6212992829277937 0 0 0 0 -97.799170781406474 97.882599890108906 0 97.882599890108906 0.0026588605578581337 0 0 0 0 -155.8369093965739 104.16623395097326 0 104.16623395097326 13.312592342208518 0 0 0 0 -175.67611144298826 88.395604467234079 0 88.395604467234079 37.080266428507457 0 0 0 0 -205.25510362420755 172.70680910519513 0 172.70680910519513 -24.150067657687032 0 0 0 0 -155.73683932767017 138.07768234009018 0 138.07768234009018 -25.24567157483034 0 0 0 0 -169.37527140888415 155.92806711415506 0 155.92806711415506 -68.682576652776334 0 0 0 0 -120.62813708480826 190.54302957708842 0 190.54302957708842 -110.25416202440465 0 0 0 0 -288.47221705372067 11.833980078722561 0 11.833980078722561 -0.53240081039257348 0 0 0 0 -80.186447870051779 42.646086588846629 0 42.646086588846629 3.8999703183126257 0 0 0 0 66.741562374336354 20.78966172103901 0 20.78966172103901 -248.32567277932321 0 0 0 0 426.32351700698928 168.13948950105805 0 168.13948950105805 -139.91035976951025 0 0 0 0 59.220193507288059 46.556754943587293 0 46.556754943587293 132.63004661653395 0 0 0 0 -45.927017869174961 216.45538411577672 0 216.45538411577672 -131.71912572154542 0 0 0 0 -618.05977916450865 -115.18749122222562 0 -115.18749122222562 -122.18198049980492 0 0 0 0 -2.2844399437710265 3.047193085407045 0 3.047193085407045 -1.3466655637361811 0 0 0 0 -48.486119730801875 94.065467893258756 0 94.065467893258756 -213.49251757312231 0 0 0 0 -163.69240777754385 83.37252783889744 0 83.37252783889744 46.611024118010391 0 0 0 0 -113.01662707018113 209.31321486262823 0 209.31321486262823 116.29251956375083 0 0 0 0 -162.12881506071426 33.346016991468787 0 33.346016991468787 447.69895211510868 0 0 0 0 -137.29315473489987 284.51917508263978 0 284.51917508263978 440.74768218857207 0 0 0 0 155.42771826055105 654.11725389656203 0 654.11725389656203 4.6549259490797112 0 0 0 0 522.98305283611626 -613.61105792422313 0 -613.61105792422313 37.438832149091468 0 0 0 0 -5.6582163453868048 6.3395208487355816 0 6.3395208487355816 -6.4178124111538182 0 0 0 0 559.57855471233779 209.8847041443496 0 209.8847041443496 -10.302391844372323 0 0 0 0 147.22368072069366 347.9759460259138 0 347.9759460259138 87.287871036845445 0 0 0 0 -549.02095882306457 -346.2605295902722 0 -346.2605295902722 174.14492150566366 0 0 0 0 40.851995532188084 -19.034313202734211 0 -19.034313202734211 168.95055240061629 0 0 0 0 -223.13466981769307 261.59732544903454 0 261.59732544903454 80.815450902260636 0 0 0 0 -67.902964386936219 165.64452686981895 0 165.64452686981895 61.873710518251755 0 0 0 0 228.88180157837633 -223.37923337458415 0 -223.37923337458415 335.7354443365839 0 0 0 0 -579.68677384410694 237.55488193691417 0 237.55488193691417 707.46523093090218 0 0 0 0 -177.75504930819079 438.08340484425662 0 438.08340484425662 -149.04856243145696 0 0 0 0 -157.90595020518958 153.64415148676744 0 153.64415148676744 144.12971667174133 0 0 0 0 -92.109092194252298 114.3323463332672 0 114.3323463332672 -21.496231670799375 0 0 0 0 -142.4138613154355 136.33087071976479 0 136.33087071976479 137.98943773655265 0 0 0 0 -0.77546312913563042 0.70625903641605703 0 0.70625903641605703 -3.1548293727069989 0 0 0 0 81.851929721036868 77.885825161555658 0 77.885825161555658 -63.537908447804512 0 0 0 0 -397.80878516813391 -81.848783439778344 0 -81.848783439778344 48.25301636282893 0 0 0 0 140.76955424045354 74.433291410380662 0 74.433291410380662 -28.46898092387346 0 0 0 0 317.66133585534772 32.995637008031736 0 32.995637008031736 -30.309699323513996 0 0 0 0 1.7221146973457517 60.510107338523447 0 60.510107338523447 -0.49324169480816238 0 0 0 0 96.891153030845089 100.73493815702022 0 100.73493815702022 -10.874693597237638 0 0 0 0 4.7648673847693317 49.513807417726639 0 49.513807417726639 3.6234302790035144 0 0 0 0 85.515507768470343 55.066429988870368 0 55.066429988870368 1.239439674469395 0 0 0 0 103.32033963948652 27.359223903253223 0 27.359223903253223 15.679940477020864 0 0 0 0 36.402110295057355 54.162553922589723 0 54.162553922589723 24.997708150825929 0 0 0 0 21.142375100851382 26.618696138948508 0 26.618696138948508 6.7552856357287965 0 0 0 0 64.714622442496875 73.516346731415979 0 73.516346731415979 31.43701455500559 0 0 0 0 85.268591316148559 46.220018552192414 0 46.220018552192414 19.209300502065162 0 0 0 0 80.173451972580096 49.003393087472432 0 49.003393087472432 56.844521020087996 0 0 0 0 78.555085252204663 40.58895720649889 0 40.58895720649889 15.556629271515703 0 0 0 0 227.31366828645696 26.340469404409305 0 26.340469404409305 3.5455795817069884 0 0 0 0 140.59795666839182 72.352605049595695 0 72.352605049595695 9.0632474995145458 0 0 0 0 243.3304628283222 78.635704899716075 0 78.635704899716075 24.889288837905042 0 0 0 0 -11.807479593824691 -1.7234425845359382 0 -1.7234425845359382 3.5541533015219215 0 0 0 0 228.71038997158212 67.639477711820518 0 67.639477711820518 -152.43733124009668 0 0 0 0 -123.01051305045257 120.37892631937939 0 120.37892631937939 67.809511246672628 0 0 0 0 -1.3354897165739672 1.8926598593302231 0 1.8926598593302231 -5.7801254237851083 0 0 0 0 -296.15855127864052 342.43708418085589 0 342.43708418085589 -209.58031568421688 0 0 0 0 -111.37952495663922 116.39167901791734 0 116.39167901791734 -149.578137452394 0 0 0 0 -13.721157475629298 190.52840300186108 0 190.52840300186108 -214.70784840439592 0 0 0 0 251.89549133422406 -25.226724430074228 0 -25.226724430074228 -57.475194534203183 0 0 0 0 0.16475354105429574 0.62453208270375171 0 0.62453208270375171 -2.2945680652233307 0 0 0 0 -27.469260214427777 252.56742660834425 0 252.56742660834425 -240.69793309667875 0 0 0 0 -131.55099373454868 233.55405852989861 0 233.55405852989861 -136.57792434461226 0 0 0 0 -30.589129109014266 354.87297078275492 0 354.87297078275492 -84.634090999283217 0 0 0 0 23.824990834458731 247.029284013699 0 247.029284013699 45.179747922889874 0 0 0 0 -69.988751003847938 110.01238477638867 0 110.01238477638867 -68.918077016292955 0 0 0 0 -143.91336684496491 238.45091057880927 0 238.45091057880927 -51.782151232870092 0 0 0 0 -15.06069386141462 50.923060149882076 0 50.923060149882076 170.70735053024327 0 0 0 0 -152.51367293266958 162.8265159682378 0 162.8265159682378 324.17247283478719 0 0 0 0 -171.9733012431825 141.62974897819186 0 141.62974897819186 356.09284076338372 0 0 0 0 -42.505676505112206 201.08621078134547 0 201.08621078134547 241.85879848579498 0 0 0 0 102.49052749459156 60.421145579583253 0 60.421145579583253 -5.5388141446273949 0 0 0 0 18.770985448704408 13.547815582002002 0 13.547815582002002 -0.21215575846036927 0 0 0 0 116.41616734671334 236.21219187384941 0 236.21219187384941 9.1038625722940196 0 0 0 0 -20.616458458030181 59.023878092669875 0 59.023878092669875 16.989563366150605 0 0 0 0 43.745148885878734 62.892649170751611 0 62.892649170751611 -80.429609833357972 0 0 0 0 56.357829660098105 26.315452740776891 0 26.315452740776891 19.053559862536986 0 0 0 0 0.39686912843772504 0.70840223745740971 0 0.70840223745740971 -0.79259422029970494 0 0 0 0 -87.466118292687497 -1.4708115196226572 0 -1.4708115196226572 15.963039261326685 0 0 0 0 -14.6022290820124 10.60613311004181 0 10.60613311004181 44.767631169133892 0 0 0 0 -23.844978812806403 -6.8631513655764138 0 -6.8631513655764138 15.592930136696054 0 0 0 0 -49.612448201648249 38.712694073771218 0 38.712694073771218 80.197674403163546 0 0 0 0 -24.754832433359006 7.9048608896940031 0 7.9048608896940031 -3.743714210574911 0 0 0 0 -26.888898546095334 51.264197543134287 0 51.264197543134287 5.3429229677476542 0 0 0 0 15.703903301114906 24.95710380320179 0 24.95710380320179 -15.528735492056512 0 0 0 0 -40.355488987147965 38.872651647841849 0 38.872651647841849 -18.009269369780668 0 0 0 0 -7.7305190315126993 8.5359099892639279 0 8.5359099892639279 -30.424973322751612 0 0 0 0 -86.765154510735215 -7.9283854492150567 0 -7.9283854492150567 -0.34087482245377032 0 0 0 0 -77.158828065453235 64.607484772950556 0 64.607484772950556 1.8851598811725125 0 0 0 0 -12.027100745403686 -4.3975511938224372 0 -4.3975511938224372 -66.291183764100424 0 0 0 0 -35.611127396809309 10.254458506979063 0 10.254458506979063 5.8920026003070234 0 0 0 0 11.063980244177856 40.909242479894601 0 40.909242479894601 11.825744282366941 0 0 0 0 -56.434271463278037 0.76315363192770747 0 0.76315363192770747 -6.4091002371283139 0 0 0 0 -29.622149341109548 10.861465472548844 0 10.861465472548844 -30.608037790058006 0 0 0 0 -99.045913632472775 39.456679324150173 0 39.456679324150173 -6.2910015199558984 0 0 0 0 -84.215411633334043 -30.933631829958358 0 -30.933631829958358 -43.404889904402808 0 0 0 0 -32.01114731577411 12.928789506528119 0 12.928789506528119 -8.8799145472594319 0 0 0 0 14.569845371079282 42.566180023008201 0 42.566180023008201 -16.674110181378637 0 0 0 0 3.2159118462059268 39.015784702383826 0 39.015784702383826 6.4647503235976274 0 0 0 0 21.494609706614938 63.676788959546684 0 63.676788959546684 20.457737078157152 0 0 0 0 -34.981695659509683 16.236942027349869 0 16.236942027349869 4.5660474216056173 0 0 0 0 -111.10336374644567 -3.4734459684041212 0 -3.4734459684041212 -83.617046432696952 0 0 0 0 -122.63791019362361 -13.127983468189996 0 -13.127983468189996 18.805961680464861 0 0 0 0 -123.55555796233739 13.6896805067081 0 13.6896805067081 29.258036237527449 0 0 0 0 -86.457566172736733 24.470928852011639 0 24.470928852011639 81.938445005591348 0 0 0 0 -150.94556165745735 12.521230005785583 0 12.521230005785583 142.64597578477878 0 0 0 0 -175.48640467214591 -24.931816215053914 0 -24.931816215053914 80.785360146510357 0 0 0 0 -177.6644632194143 7.998987318861964 0 7.998987318861964 303.36403644327584 0 0 0 0 -244.21370190725702 171.83246962608064 0 171.83246962608064 89.502647093440373 0 0 0 0 -57.884357506562992 117.19381133876732 0 117.19381133876732 -97.869900786568905 0 0 0 0 411.56451837262557 95.060531513358001 0 95.060531513358001 284.95966601740838 0 0 0 0 -5.7606163188689017 4.2729372878909615 0 4.2729372878909615 -1.6075065851130184 0 0 0 0 -277.27244532405894 777.44611717254156 0 777.44611717254156 1117.2053602327414 0 0 0 0 454.16566403458637 38.130533429435673 0 38.130533429435673 134.05165598915664 0 0 0 0 582.84867250213301 482.15935945266938 0 482.15935945266938 306.18948760804051 0 0 0 0 157.06163003448091 244.17581718091969 0 244.17581718091969 -337.82167408200621 0 0 0 0 21.17974371266417 10.278084675551803 0 10.278084675551803 -14.725240216999627 0 0 0 0 667.50171455685813 81.277846806111484 0 81.277846806111484 -388.59159283739427 0 0 0 0 131.59744336003223 247.45942460000879 0 247.45942460000879 320.69406031544349 0 0 0 0 240.15118808042826 -225.60256408931673 0 -225.60256408931673 -355.64807894221849 0 0 0 0 519.21855537431838 158.09868455589094 0 158.09868455589094 -428.37151215493213 0 0 0 0 267.60531560155323 635.33505340978536 0 635.33505340978536 766.84399204464717 0 0 0 0 178.96937161021197 246.72849399945517 0 246.72849399945517 570.85887589230151 0 0 0 0 294.85736362447733 318.29209138977876 0 318.29209138977876 252.82210122808829 0 0 0 0 86.7166753605743 178.16240874827054 0 178.16240874827054 377.84104883972395 0 0 0 0 242.87567841741293 92.149359111752347 0 92.149359111752347 172.7270252852104 0 0 0 0 7.6398764423357051 22.347660098242812 0 22.347660098242812 -13.027652546800262 0 0 0 0 -1.7073288131414301 37.822495425432862 0 37.822495425432862 -5.9546999271260574 0 0 0 0 29.270476470797803 37.748773597470063 0 37.748773597470063 -6.3129016279635835 0 0 0 0 4.9649591689340014 281.54596886172294 0 281.54596886172294 -31.208627601638 0 0 0 0 -16.209761093816851 15.468960038157078 0 15.468960038157078 -0.68180313327344777 0 0 0 0 174.71538414536735 254.39113559154794 0 254.39113559154794 -42.763855064869858 0 0 0 0 25.277474048212753 -57.383269347414171 0 -57.383269347414171 122.97630046684571 0 0 0 0 -285.76208814832353 6.6377518299232179 0 6.6377518299232179 119.72730236285133 0 0 0 0 287.4688218890351 380.54831130119328 0 380.54831130119328 269.94069395947736 0 0 0 0 144.11242817225684 9.5509232216209057 0 9.5509232216209057 -80.263806735440539 0 0 0 0 309.81243919631015 363.22583886072243 0 363.22583886072243 265.89509359943622 0 0 0 0 40.621175460317211 9.5724426566348768 0 9.5724426566348768 -18.333362425231257 0 0 0 0 10.437165549561541 55.787255553608702 0 55.787255553608702 10.808450584732782 0 0 0 0 -11.068972528928533 23.84330237839869 0 23.84330237839869 -4.8473829167666196 0 0 0 0 507.04706441543749 347.122406445651 0 347.122406445651 254.98586446545232 0 0 0 0 -4.1351803186965359 4.4633938371112087 0 4.4633938371112087 8.4462903224445256 0 0 0 0 892.43410555650371 293.40261467615619 0 293.40261467615619 85.532878706369956 0 0 0 0 42.39320351020433 -22.406097574181331 0 -22.406097574181331 -18.65485469676787 0 0 0 0 244.87289393462561 423.04321085480478 0 423.04321085480478 248.08125343234497 0 0 0 0 79.657990019575664 419.01791877757569 0 419.01791877757569 261.1651824165092 0 0 0 0 229.94336373991223 353.9917672154811 0 353.9917672154811 265.5705057135674 0 0 0 0 250.12165771617333 263.17453380725692 0 263.17453380725692 13.255994848885166 0 0 0 0 -149.43572923494867 209.85079404964199 0 209.85079404964199 118.1359344025368 0 0 0 0 154.74231239694927 583.02745801855144 0 583.02745801855144 451.09645929406543 0 0 0 0 719.17331816043588 547.19692600437338 0 547.19692600437338 171.49801736515656 0 0 0 0 -115.40915110321112 16.413554099105568 0 16.413554099105568 203.73463226621243 0 0 0 0 -178.28616680807136 63.413992438559944 0 63.413992438559944 109.71992987826479 0 0 0 0 162.76224832883963 120.11896835960579 0 120.11896835960579 101.96642116524163 0 0 0 0 54.776120311587874 151.23298424472705 0 151.23298424472705 128.27143122399139 0 0 0 0 9.0607942575625202 243.19898141634621 0 243.19898141634621 286.80442811461944 0 0 0 0 -253.46664248522029 61.232184413718642 0 61.232184413718642 7.8063869178029108 0 0 0 0 59.668587767845565 201.88759786346964 0 201.88759786346964 19.159051020629704 0 0 0 0 -66.633349709371032 5.9966083336257725 0 5.9966083336257725 -71.446292470955086 0 0 0 0 -254.52710318982827 34.695920334272159 0 34.695920334272159 -69.792105516358788 0 0 0 0 -89.934445470076753 108.04001735579459 0 108.04001735579459 -414.6480034310116 0 0 0 0 -233.61383164885774 -58.176171746497857 0 -58.176171746497857 -498.68907881169616 0 0 0 0 -336.16135432658166 324.58525830751614 0 324.58525830751614 -506.90229747753983 0 0 0 0 19.274808421954731 116.9103122628112 0 116.9103122628112 -416.84865863569576 0 0 0 0 -140.79031659032989 109.32353200025318 0 109.32353200025318 -1276.0418006253676 0 0 0 0 -319.37368344643437 618.89359242230239 0 618.89359242230239 -1165.3581800805405 0 0 0 0 79.771592819710349 35.01310719263347 0 35.01310719263347 -580.4894915978557 0 0 0 0 373.70436017978136 -124.39219726092415 0 -124.39219726092415 270.56908223816663 0 0 0 0 299.65229874729266 299.26528526916991 0 299.26528526916991 -561.07547204758157 0 0 0 0 85.078896365823311 6.0944897177359962 0 6.0944897177359962 -1237.6700855694398 0 0 0 0 36.972553896598811 330.24149815280771 0 330.24149815280771 -1056.709165853943 0 0 0 0 -112.34756670627394 -76.256250748563616 0 -76.256250748563616 -1256.1847652696233 0 0 0 0 7.4273978547353181 504.16556836046584 0 504.16556836046584 -1421.609295805647 0 0 0 0 80.898885274789791 321.05403358252443 0 321.05403358252443 -1090.0551744618351 0 0 0 0 517.26896612479504 512.76967058350692 0 512.76967058350692 -1052.8024155263774 0 0 0 0 116.66783977643536 -164.77890736323116 0 -164.77890736323116 -2289.7897287185624 0 0 0 0 163.1960234367707 81.18146322199209 0 81.18146322199209 -1185.8989428389468 0 0 0 0 -0.42427508586911955 1.9978533697449734 0 1.9978533697449734 1.347368601204991 0 0 0 0 86.802470027165327 151.87406378974993 0 151.87406378974993 -1802.7547415999834 0 0 0 0 -12.815479840341482 17.152359718045979 0 17.152359718045979 -6.4256161967892282 0 0 0 0 -50.190415386812674 280.13541539887592 0 280.13541539887592 -1762.3613908977277 0 0 0 0 454.1225934118429 241.55340937416622 0 241.55340937416622 -217.46070160411909 0 0 0 0 586.38559257079328 680.19526736868875 0 680.19526736868875 401.9518151441298 0 0 0 0 77.996383843295007 287.01679226441956 0 287.01679226441956 122.12109686603071 0 0 0 0 691.02113937417039 -80.392470893679501 0 -80.392470893679501 159.23123665631283 0 0 0 0 -95.944088746513444 178.02303549293538 0 178.02303549293538 90.202213862907229 0 0 0 0 -143.54724155014446 713.55069189758433 0 713.55069189758433 814.7239813583742 0 0 0 0 188.90446576893191 78.839611068784507 0 78.839611068784507 -2479.5137016851913 0 0 0 0 -2.9301017491537493 7.1489014185035984 0 7.1489014185035984 -1.9467659326476259 0 0 0 0 111.39845423033489 399.63157639165092 0 399.63157639165092 295.82103279754301 0 0 0 0 -201.58804373698968 422.14053784928365 0 422.14053784928365 -81.261519157986186 0 0 0 0 -159.36676694118955 875.21963584585137 0 875.21963584585137 -352.08685629339016 0 0 0 0 -193.70394500108705 533.84824650206428 0 533.84824650206428 -655.35410197745659 0 0 0 0 -365.97431076647092 495.01614445941414 0 495.01614445941414 -399.39370939846231 0 0 0 0 -207.30554098116363 549.52637613043407 0 549.52637613043407 -516.22440241699223 0 0 0 0 -394.82194045388786 530.80520234647065 0 530.80520234647065 -368.32561690214789 0 0 0 0 -345.55861914290153 623.13829778181389 0 623.13829778181389 -314.05617099910796 0 0 0 0 -262.19261966796574 291.87757349885396 0 291.87757349885396 -295.07917075699515 0 0 0 0 -729.84712430685056 367.91145236601551 0 367.91145236601551 -283.34778171002108 0 0 0 0 -40.650555018435625 141.26616349757023 0 141.26616349757023 -408.39310926330472 0 0 0 0 -402.39775717120551 110.25909016544938 0 110.25909016544938 -396.31806499507366 0 0 0 0 -2.3834796486751477 4.0758677235415917 0 4.0758677235415917 3.8985958912695011 0 0 0 0 -10.981438854597627 22.056306158612642 0 22.056306158612642 13.59152143393294 0 0 0 0 -330.89926531246817 254.09984649023045 0 254.09984649023045 -128.27209522211706 0 0 0 0 -9.9359758878790672 32.866109132490237 0 32.866109132490237 57.207695719564072 0 0 0 0 -37.117427939020786 57.059556273192356 0 57.059556273192356 38.003825618490737 0 0 0 0 -34.165389481462839 -9.0090698337006074 0 -9.0090698337006074 187.0816584454551 0 0 0 0 8.7792914151190615 56.166529255679052 0 56.166529255679052 23.817914923904027 0 0 0 0 10.944271951433166 43.792983424087652 0 43.792983424087652 26.080392661473525 0 0 0 0 -13.638403140304945 65.320414885820355 0 65.320414885820355 20.262194390303193 0 0 0 0 -4.1500226359984254 47.117842189745943 0 47.117842189745943 -94.096798143185879 0 0 0 0 -108.35532556298358 129.69240658492708 0 129.69240658492708 49.219876038077928 0 0 0 0 -105.31126891377698 198.92899802071224 0 198.92899802071224 -411.38631147156593 0 0 0 0 -163.4195504424506 -86.095524614631358 0 -86.095524614631358 -162.15885250291103 0 0 0 0 -225.11073702995236 214.63829000481405 0 214.63829000481405 -343.47211219168821 0 0 0 0 -2.2062232826414263 2.5444335486005443 0 2.5444335486005443 2.1994413537161037 0 0 0 0 117.57117376061797 -205.29465610820989 0 -205.29465610820989 965.79307637136117 0 0 0 0 -109.02211304045341 62.658131371654235 0 62.658131371654235 -15.278482801879818 0 0 0 0 3.9787443428732274 3.1312068585013719 0 3.1312068585013719 1.1123190786065642 0 0 0 0 -125.65430560846289 -389.6802165691779 0 -389.6802165691779 1777.6697865625738 0 0 0 0 44.748990258041886 249.92225246160888 0 249.92225246160888 -75.470389743434907 0 0 0 0 -166.8513681324257 -2.5744975841917039 0 -2.5744975841917039 -77.84762113433608 0 0 0 0 -55.719018098665401 128.838988023208 0 128.838988023208 -238.34914448222617 0 0 0 0 -0.82888536699113047 -0.66153640775780786 0 -0.66153640775780786 1.1683034649963266 0 0 0 0 -59.271751357031462 73.260966130281304 0 73.260966130281304 -90.352389883879368 0 0 0 0 0.02684321108245058 44.675258285891687 0 44.675258285891687 -140.69411974043578 0 0 0 0 -27.833345972358075 108.92472971204097 0 108.92472971204097 -151.2428045042634 0 0 0 0 -25.363819065707503 68.037950902762532 0 68.037950902762532 -155.39666663810567 0 0 0 0 7.2403845978203947 3.7342033717633711 0 3.7342033717633711 -0.18047721809172046 0 0 0 0 -5.6656259403680451 9.3794569084020623 0 9.3794569084020623 -12.17821661999551 0 0 0 0 -8.8088392473291606 7.7261917836076464 0 7.7261917836076464 20.368730230289657 0 0 0 0 11.583030810994387 34.516894259175388 0 34.516894259175388 -24.187118881228344 0 0 0 0 -4.2038343803724274 26.800553016455524 0 26.800553016455524 -11.315089465220353 0 0 0 0 2.9643376752283075 29.047585122764758 0 29.047585122764758 55.872593071899246 0 0 0 0 17.307866948133636 8.7715156544895336 0 8.7715156544895336 5.4546958311248446 0 0 0 0 0.61448688413977948 2.5800328287718717 0 2.5800328287718717 5.9861501752960562 0 0 0 0 -0.85380153673759196 85.088056031641827 0 85.088056031641827 114.32220398141271 0 0 0 0 -7.2218705786868895 9.672611383499877 0 9.672611383499877 3.6603862555299624 0 0 0 0 8.402681007704814 12.021548377708314 0 12.021548377708314 -7.759942901658178 0 0 0 0 -20.438383793371031 61.959999551678266 0 61.959999551678266 58.520352594736323 0 0 0 0 3.9960184181822882 17.154307452802684 0 17.154307452802684 6.5582710513154439 0 0 0 0 15.036956609597837 459.17228613693578 0 459.17228613693578 519.19962084921281 0 0 0 0 47.599256323766895 476.20517369696245 0 476.20517369696245 481.70323151191405 0 0 0 0 251.50528034559102 -34.579850904867271 0 -34.579850904867271 -81.001522125472547 0 0 0 0 711.59459959130618 348.5245907548142 0 348.5245907548142 197.86885485617859 0 0 0 0 1.6590320277938133 2.8189836767464342 0 2.8189836767464342 0.29492834254587841 0 0 0 0 -71.975233740609838 51.26527913726386 0 51.26527913726386 623.04219799058501 0 0 0 0 -0.96839605988481026 7.1711185167861231 0 7.1711185167861231 3.7419087376775071 0 0 0 0 -15.387943570691277 57.869418169171695 0 57.869418169171695 159.13685107074525 0 0 0 0 -13.411130795546114 121.39198240740842 0 121.39198240740842 706.90738335599235 0 0 0 0 -340.36602378505631 289.8944918469806 0 289.8944918469806 872.06609407643919 0 0 0 0 -220.44203893723898 298.57038132953039 0 298.57038132953039 842.56320056804543 0 0 0 0 -153.39532323404273 368.42034637352208 0 368.42034637352208 810.18461308675069 0 0 0 0 -148.52802095381776 348.89857258319535 0 348.89857258319535 797.74438927688971 0 0 0 0 -265.48696548599401 384.7524617662948 0 384.7524617662948 886.81136334163602 0 0 0 0 736.14780154459004 727.85574025561073 0 727.85574025561073 448.98771382634004 0 0 0 0 -2.9355445195599543 0.98106077880592579 0 0.98106077880592579 1.2760285505181912 0 0 0 0 -239.68920156278909 62.726430547743803 0 62.726430547743803 364.01249540968638 0 0 0 0 -152.27549612543953 458.41225011581173 0 458.41225011581173 1113.3115930712438 0 0 0 0 380.18571823873208 760.66006990678943 0 760.66006990678943 675.22095107566929 0 0 0 0 158.72814456296328 820.06847580300564 0 820.06847580300564 1522.309481198412 0 0 0 0 5.3948722090712238 5.7931156251266174 0 5.7931156251266174 4.7018252355227155 0 0 0 0 499.02690808648185 935.16666945518364 0 935.16666945518364 -817.33410481150656 0 0 0 0 -142.39197766895813 167.10695389218654 0 167.10695389218654 1637.8736316064005 0 0 0 0 -271.94460895474185 -16.576552381442525 0 -16.576552381442525 1382.5806141032449 0 0 0 0 -117.91558457691281 188.60052950552199 0 188.60052950552199 -68.581761689174527 0 0 0 0 -305.10628437811101 557.96879467402141 0 557.96879467402141 -121.0818811048789 0 0 0 0 -272.84261265062378 -184.35656203553663 0 -184.35656203553663 705.19283060979615 0 0 0 0 -35.979961055309104 232.50701807970472 0 232.50701807970472 148.61079681461342 0 0 0 0 -353.30040830826329 240.17240175772758 0 240.17240175772758 774.46274538565376 0 0 0 0 -267.76775067562994 122.14597053462057 0 122.14597053462057 783.63644323268204 0 0 0 0 -248.95817160327351 254.27652479736253 0 254.27652479736253 1085.2836114302336 0 0 0 0 152.15312174578139 346.35729933034781 0 346.35729933034781 935.69618763114886 0 0 0 0 0.025762869088794105 30.394836582489006 0 30.394836582489006 1598.8215567108491 0 0 0 0 -148.46067695229431 279.32634486395182 0 279.32634486395182 1623.7425558937871 0 0 0 0 -75.686195373375085 4.0567059745485494 0 4.0567059745485494 960.27616822094205 0 0 0 0 -73.996494404695113 339.36307757309078 0 339.36307757309078 649.94273342928227 0 0 0 0 0.45178200181544526 334.40597534140989 0 334.40597534140989 -19.249554790111688 0 0 0 0 -10.251429914746041 38.805719391746152 0 38.805719391746152 513.07739410692011 0 0 0 0 99.396700106015487 228.88408992569202 0 228.88408992569202 -518.4261433703341 0 0 0 0 -431.79774572016322 91.41735763250108 0 91.41735763250108 102.84138510981666 0 0 0 0 -410.0815643471251 -33.746520060166034 0 -33.746520060166034 1084.2220361314337 0 0 0 0 -345.26895825211977 726.40469802561324 0 726.40469802561324 1292.0173330574239 0 0 0 0 -402.47539758818857 100.29998566896347 0 100.29998566896347 2216.224120056615 0 0 0 0 4.4978310721975845 5.4978400483344956 0 5.4978400483344956 5.3236609793923586 0 0 0 0 47.237270077908761 980.16607186436431 0 980.16607186436431 -212.67145565510327 0 0 0 0 0.29005138041247847 450.08632159603098 0 450.08632159603098 2267.7784338536421 0 0 0 0 -148.26314997489681 986.41997533031054 0 986.41997533031054 1960.3571074897136 0 0 0 0 290.28371792913822 966.01594284882844 0 966.01594284882844 1310.2948472662615 0 0 0 0 -24.373199454988935 722.58759937337777 0 722.58759937337777 1156.8511549210921 0 0 0 0 -265.39605948517419 645.47564511985763 0 645.47564511985763 1323.5150811938079 0 0 0 0 -207.59511356276926 789.73743727437773 0 789.73743727437773 924.42056805925745 0 0 0 0 -110.53991043947462 984.30441884309732 0 984.30441884309732 1219.7875740075438 0 0 0 0 -200.31842683387367 886.80841955066194 0 886.80841955066194 919.61346804804509 0 0 0 0 61.639838787727058 860.28022647075773 0 860.28022647075773 453.15691125199396 0 0 0 0 -0.026996590338135663 999.48350248591123 0 999.48350248591123 853.14550440270023 0 0 0 0 196.341799419788 641.25396399213764 0 641.25396399213764 590.74776723220589 0 0 0 0 -134.224812384914 628.80960086980508 0 628.80960086980508 829.07319386817358 0 0 0 0 -145.19542756940064 712.77413373706304 0 712.77413373706304 842.26306586159899 0 0 0 0 -127.35115561714338 877.24755602800349 0 877.24755602800349 631.21284019585164 0 0 0 0 -239.51894428002561 802.60446468811995 0 802.60446468811995 1036.5749680401259 0 0 0 0 -451.96280316260527 588.23594495854968 0 588.23594495854968 1115.9779394288837 0 0 0 0 -90.672687437960121 570.62320404608272 0 570.62320404608272 849.03900840891106 0 0 0 0 -58.996006727094937 199.45695273645919 0 199.45695273645919 318.8914716778329 0 0 0 0 -237.95395376074885 441.12243332293707 0 441.12243332293707 879.68408542037582 0 0 0 0 -420.8082647161209 466.85793893309733 0 466.85793893309733 877.84225463383882 0 0 0 0 8.8224669573520771 11.993968214031753 0 11.993968214031753 10.323766988311826 0 0 0 0 -178.70536206359247 279.72533579279809 0 279.72533579279809 73.637021132726886 0 0 0 0 -509.61531358399952 761.21808677287436 0 761.21808677287436 32.879458305209937 0 0 0 0 381.01366258147755 655.1799704590876 0 655.1799704590876 197.04355549339573 0 0 0 0 -208.23985477163842 -49.563874043666544 0 -49.563874043666544 -620.52152347196852 0 0 0 0 611.03829145658528 207.59647691764053 0 207.59647691764053 -245.12695181217077 0 0 0 0 1073.0953656171332 702.98489493710531 0 702.98489493710531 211.00291988899909 0 0 0 0 -254.13449256325839 101.19610726226574 0 101.19610726226574 -8.8660392536583004 0 0 0 0 -2.056770644321773 4.0354955967940356 0 4.0354955967940356 18.171889664738263 0 0 0 0 1956.4615690177525 1018.8001780841107 0 1018.8001780841107 490.50131414906286 0 0 0 0 -0.59274438342160352 2.5112356539420375 0 2.5112356539420375 6.4645696398900849 0 0 0 0 -771.96475117795126 11.995269279870797 0 11.995269279870797 243.80973455741969 0 0 0 0 793.21202186985465 328.09256709684286 0 328.09256709684286 262.34824240280994 0 0 0 0 412.83026891838381 656.29934733322796 0 656.29934733322796 753.18466689438151 0 0 0 0 161.09886541127344 320.91319440571613 0 320.91319440571613 802.82346545447786 0 0 0 0 508.02277231412882 806.60417263992349 0 806.60417263992349 968.29063476123247 0 0 0 0 427.28964241222275 506.68645166811086 0 506.68645166811086 718.97676970673604 0 0 0 0 585.1775398820464 673.93991940052604 0 673.93991940052604 399.59396877383278 0 0 0 0 424.07857001767115 737.48784240879127 0 737.48784240879127 398.85793355628766 0 0 0 0 216.19788591406723 737.37234312993451 0 737.37234312993451 496.04419985859158 0 0 0 0 353.34425122415269 560.97213318793092 0 560.97213318793092 403.25369892191588 0 0 0 0 379.61864239343413 851.77361431771635 0 851.77361431771635 629.18128611108705 0 0 0 0 231.00237662918516 521.6225221077234 0 521.6225221077234 559.5922940052078 0 0 0 0 229.46025092411219 602.37307296816687 0 602.37307296816687 489.26914808273523 0 0 0 0 99.169263323885389 395.31267178369785 0 395.31267178369785 60.766913779843435 0 0 0 0 56.695362753946938 60.055390714986885 0 60.055390714986885 108.43706304464467 0 0 0 0 15.633811793617497 249.10189925385589 0 249.10189925385589 225.42089952097535 0 0 0 0 -163.47302656859392 598.05993389093805 0 598.05993389093805 805.37001300179475 0 0 0 0 -29.733866528258659 198.64669538013641 0 198.64669538013641 -4.6984029235978824 0 0 0 0 -23.898713154338111 193.85338473236772 0 193.85338473236772 -146.04310936839329 0 0 0 0 87.498512348505756 57.921483375077031 0 57.921483375077031 -555.35343606628544 0 0 0 0 54.32137092105404 126.85019843908663 0 126.85019843908663 -97.087720032435982 0 0 0 0 -108.82012364656839 -40.053189850272418 0 -40.053189850272418 90.471492458765397 0 0 0 0 -102.8689400420335 65.997523287482181 0 65.997523287482181 -29.045286866964489 0 0 0 0 19.696547609390109 7.0759130086487403 0 7.0759130086487403 -12.820587311895451 0 0 0 0 12.391305302585351 100.11854317644055 0 100.11854317644055 80.316615591471418 0 0 0 0 -12.179798031778773 1.0846830831378611 0 1.0846830831378611 -15.000790666729245 0 0 0 0 -17.474512680967621 7.8321388746633716 0 7.8321388746633716 -4.059039085595983 0 0 0 0 -37.110386168715195 117.50948091307919 0 117.50948091307919 -70.902484998698355 0 0 0 0 -3.2879243112201948 34.137197008373676 0 34.137197008373676 6.2398965122333721 0 0 0 0 380.45892829520744 865.95344575820718 0 865.95344575820718 -13.126908868205646 0 0 0 0 -51.543979560083244 -11.825725385079295 0 -11.825725385079295 43.81091867721625 0 0 0 0 -307.17337162827607 588.41535573336841 0 588.41535573336841 1508.8670393271223 0 0 0 0 -8.4678472895438262 4.8949907480476753 0 4.8949907480476753 31.329322962945945 0 0 0 0 189.6029646837851 -75.056620761861268 0 -75.056620761861268 -50.63654232949375 0 0 0 0 -2.8312824354199222 5.2820095104952856 0 5.2820095104952856 8.1751644475887399 0 0 0 0 1227.0437582938757 1434.8100213238704 0 1434.8100213238704 1489.1719683823933 0 0 0 0 -217.88730757312442 -2.6541757722820876 0 -2.6541757722820876 -39.328600764343719 0 0 0 0 -0.51508065361122135 1.9415422035526717 0 1.9415422035526717 -6.9009407011235453 0 0 0 0 -8.15691076987423 15.736261766396638 0 15.736261766396638 18.765999186642148 0 0 0 0 -32.851838390603504 14.447466424829827 0 14.447466424829827 21.658117957974241 0 0 0 0 -5.3941088544432603 20.897255540152056 0 20.897255540152056 17.249648051251697 0 0 0 0 -21.388504115163215 29.128114952857199 0 29.128114952857199 19.582281770624853 0 0 0 0 235.70188279953436 188.13742602634011 0 188.13742602634011 -74.049076903665991 0 0 0 0 -25.663160739276975 15.046443495578814 0 15.046443495578814 1.4544278887441102 0 0 0 0 -75.044614806502068 49.253467807890729 0 49.253467807890729 66.388715727638328 0 0 0 0 13.011101252101071 72.54369471361565 0 72.54369471361565 2.0868868197790107 0 0 0 0 -7.3194055727653904 19.298542005190939 0 19.298542005190939 16.670479822380003 0 0 0 0 5.4353700017607594 11.989021439169633 0 11.989021439169633 4.7106956020998263 0 0 0 0 -7.1673619429639075 19.811392620145853 0 19.811392620145853 12.23499820438883 0 0 0 0 1.5264670356700663 24.610864759484684 0 24.610864759484684 16.177651656633316 0 0 0 0 -31.008011927624466 -3.464509026513042 0 -3.464509026513042 -16.251102436963265 0 0 0 0 -105.96032390017353 19.43794300020636 0 19.43794300020636 63.497973944382466 0 0 0 0 -4.2971523781433234 1.3798168937999549 0 1.3798168937999549 1.7163077471865407 0 0 0 0 13.070940144400083 33.887783162728056 0 33.887783162728056 15.897683078099362 0 0 0 0 -21.296031218363225 9.3925292988080926 0 9.3925292988080926 7.5308339568263563 0 0 0 0 -75.117227340582758 50.916742503835849 0 50.916742503835849 89.343961960999877 0 0 0 0 -4.4627298922860064 16.893147680199945 0 16.893147680199945 14.693398810621375 0 0 0 0 -103.02682988648303 12.793152035936146 0 12.793152035936146 21.669128623660072 0 0 0 0 15.776993305014912 20.612196023638717 0 20.612196023638717 -26.893973575268319 0 0 0 0 -4.8745276925796119 4.3703023390096831 0 4.3703023390096831 -1.4615147794464995 0 0 0 0 -21.446814290276961 39.87470864644547 0 39.87470864644547 23.219116811751519 0 0 0 0 -38.318237179177231 24.665827485845512 0 24.665827485845512 -0.43171980182546577 0 0 0 0 -11.99730126002396 38.871427982534897 0 38.871427982534897 -19.053425176443852 0 0 0 0 8.4140755550611317 18.557820554632983 0 18.557820554632983 2.1508987171663279 0 0 0 0 -0.087675648196693601 12.547178529447294 0 12.547178529447294 7.0686577474430621 0 0 0 0 -9.5207087847076366 30.937754367929482 0 30.937754367929482 16.782619364181748 0 0 0 0 69.620724678272381 31.223577578326513 0 31.223577578326513 -65.880869918903045 0 0 0 0 -37.194702690257373 17.173920923744177 0 17.173920923744177 9.0485848751699809 0 0 0 0 -8.2280670550535433 28.337969835783952 0 28.337969835783952 -13.222925734834462 0 0 0 0 -23.427716918834193 3.1517924091861662 0 3.1517924091861662 1.0276933903216454 0 0 0 0 -77.40203646820737 40.039822996335715 0 40.039822996335715 116.2972988605934 0 0 0 0 -36.239488623563375 29.585028979174695 0 29.585028979174695 43.120365567656336 0 0 0 0 -1.0851168423090201 3.1885075731986987 0 3.1885075731986987 -0.5859995603933621 0 0 0 0 18.399242334096925 98.600052611313004 0 98.600052611313004 60.717944627640463 0 0 0 0 -59.733327894529793 43.428453954025827 0 43.428453954025827 36.411560990278304 0 0 0 0 -60.030164909856353 69.143369333707199 0 69.143369333707199 75.608555318693107 0 0 0 0 -21.247324888674484 35.567198246338648 0 35.567198246338648 206.98128508772152 0 0 0 0 -15.932247997392551 63.814229498111672 0 63.814229498111672 82.292182871377918 0 0 0 0 38.832596668553379 33.192752383070228 0 33.192752383070228 56.703995995376317 0 0 0 0 14.070433509732538 80.767317652248494 0 80.767317652248494 100.6483627948819 0 0 0 0 38.970262725932116 -15.70868446220129 0 -15.70868446220129 109.22695982373625 0 0 0 0 -7.6744648428466462 45.168974950044799 0 45.168974950044799 -66.426426405966595 0 0 0 0 -27.390539579224424 19.102566899628414 0 19.102566899628414 -75.108743598510955 0 0 0 0 -7.0024446614453382 3.067179894720006 0 3.067179894720006 1.9132844785306862 0 0 0 0 -2.1867521109961672 -11.944845768472987 0 -11.944845768472987 0.76052537258317443 0 0 0 0 -5.9323777894137777 1.591402296256585 0 1.591402296256585 0.94439439328663677 0 0 0 0 -19.363157842584769 18.757359141337474 0 18.757359141337474 17.565920834245844 0 0 0 0 -5.5181303210873409 -2.3395403803371511 0 -2.3395403803371511 -0.12181003543615132 0 0 0 0 -114.596554495889 1.4828027812964137 0 1.4828027812964137 224.55159727099453 0 0 0 0 19.132703893534199 184.44502012067824 0 184.44502012067824 -619.00738745698709 0 0 0 0 -64.636710593826137 81.499509286199554 0 81.499509286199554 -240.97761381160308 0 0 0 0 -44.943804059628746 63.291271737624811 0 63.291271737624811 -163.08245647541548 0 0 0 0 -16.248282913424276 -1.3102389515032069 0 -1.3102389515032069 1.795890325779488 0 0 0 0 -65.399866604570889 81.23359560769137 0 81.23359560769137 -114.56030024180563 0 0 0 0 19.465595997360651 70.441964352961804 0 70.441964352961804 18.765963925290521 0 0 0 0 -12.340045332763111 -56.471899894503622 0 -56.471899894503622 206.88943253097386 0 0 0 0 -413.50147477933206 116.40913089175956 0 116.40913089175956 688.01455037178312 0 0 0 0 5.2765575985367832 1.2079375885638513 0 1.2079375885638513 -1.9984683614928702 0 0 0 0 641.83536109363195 -299.30724387511873 0 -299.30724387511873 -33.739718945763343 0 0 0 0 57.307728351515834 93.28904683912333 0 93.28904683912333 -73.754658763596808 0 0 0 0 4.8011841323750559 102.872884399339 0 102.872884399339 384.37671596591099 0 0 0 0 3.6599443556478946 71.22812516801423 0 71.22812516801423 265.58517125519211 0 0 0 0 -71.670356635877397 -57.903253845546715 0 -57.903253845546715 541.56770273809525 0 0 0 0 -76.899651871848619 -94.361486714112971 0 -94.361486714112971 311.29934474438051 0 0 0 0 -121.07325515811681 -29.494889566866732 0 -29.494889566866732 220.82211890614781 0 0 0 0 -237.88943094313436 26.060585663326492 0 26.060585663326492 250.04614847654557 0 0 0 0 -117.83208233349433 10.973987493669483 0 10.973987493669483 81.951516305598489 0 0 0 0 -104.75126114885643 493.38836589046241 0 493.38836589046241 -151.78079621237907 0 0 0 0 -37.393591940768928 64.67620227331696 0 64.67620227331696 -34.216770366716354 0 0 0 0 -53.923568690137472 130.51448515714947 0 130.51448515714947 15.632022096466244 0 0 0 0 -26.09573751060698 16.869069078015812 0 16.869069078015812 -9.8748453013807662 0 0 0 0 -54.627981237954373 92.952773794459972 0 92.952773794459972 -109.54687684324745 0 0 0 0 105.04847376661928 108.38074688236884 0 108.38074688236884 -113.16829471226811 0 0 0 0 -1.0831615593874062 30.460455233778205 0 30.460455233778205 8.3478686437582788 0 0 0 0 -225.25655437524256 -271.14397755782466 0 -271.14397755782466 54.775649465097615 0 0 0 0 -115.53983514568245 328.36041618925265 0 328.36041618925265 -248.55091620293092 0 0 0 0 -25.914237171405517 54.961036123621696 0 54.961036123621696 -69.341114523465819 0 0 0 0 -57.537766282224766 218.61045802613103 0 218.61045802613103 -137.90319128249507 0 0 0 0 169.30126418166037 124.16564974236985 0 124.16564974236985 -254.7754525746609 0 0 0 0 -66.405062682271819 88.208461216540854 0 88.208461216540854 -78.923322823658395 0 0 0 0 -227.95943105946208 188.30176540894149 0 188.30176540894149 -107.78553593749348 0 0 0 0 -271.14926446291065 327.23592868373635 0 327.23592868373635 -219.91999619823218 0 0 0 0 14.03644336612092 11.305484993324058 0 11.305484993324058 8.5137990540499118 0 0 0 0 296.25419966501067 61.551005090792728 0 61.551005090792728 -59.227196610975511 0 0 0 0 -104.11693760527123 513.7723444086879 0 513.7723444086879 -214.06742451375635 0 0 0 0 -160.55936043585825 145.94914690024507 0 145.94914690024507 106.27585164767174 0 0 0 0 -104.3772935072484 202.69286258854606 0 202.69286258854606 -10.478374450088722 0 0 0 0 -97.395632213738281 238.39205699682179 0 238.39205699682179 -233.71376623282703 0 0 0 0 -105.34203208088002 180.69634884605682 0 180.69634884605682 -16.839146781368981 0 0 0 0 -182.33666580826684 258.18534184331952 0 258.18534184331952 48.880974625878935 0 0 0 0 -100.60316188244178 84.104329310945786 0 84.104329310945786 32.53980500755506 0 0 0 0 -117.01048645502306 138.89351110071016 0 138.89351110071016 -122.40396223782002 0 0 0 0 -181.71299070080568 228.52433136339448 0 228.52433136339448 122.32929295342092 0 0 0 0 -308.06978417013306 93.554488250688848 0 93.554488250688848 46.25993778389298 0 0 0 0 -381.67510980727093 -14.489075858800106 0 -14.489075858800106 120.62899593731345 0 0 0 0 -6.8306758729456192 2.2678520956883972 0 2.2678520956883972 -0.83087429038626959 0 0 0 0 -570.41279028970166 261.028801510226 0 261.028801510226 119.73314445445871 0 0 0 0 -133.37735137122218 -497.28687009207727 0 -497.28687009207727 -88.096502870290578 0 0 0 0 -185.47347826719488 310.11790527110952 0 310.11790527110952 -123.0572363219203 0 0 0 0 6.225696900428062 7.323880178675708 0 7.323880178675708 4.4677649389232252 0 0 0 0 -460.50049387244144 230.85196006179649 0 230.85196006179649 -108.07766911469116 0 0 0 0 -516.5882841390503 440.90894375586055 0 440.90894375586055 -147.88678208790225 0 0 0 0 -249.42840686868294 282.35109609775168 0 282.35109609775168 -284.88099512398094 0 0 0 0 -556.39508274524269 374.3774881365473 0 374.3774881365473 304.58920469977238 0 0 0 0 469.87704869872323 162.91841626152024 0 162.91841626152024 134.03394722516305 0 0 0 0 1.7261326075348364 2.4622524707727678 0 2.4622524707727678 2.3450650690912216 0 0 0 0 -363.18036810969352 570.20431990085672 0 570.20431990085672 407.31004436628677 0 0 0 0 -360.12072768785583 356.27205718288337 0 356.27205718288337 179.31656803953331 0 0 0 0 -528.00504272762646 186.51083888088317 0 186.51083888088317 145.34526862544772 0 0 0 0 -287.28062419877097 334.14907046775943 0 334.14907046775943 38.574062646235234 0 0 0 0 51.083681906966376 117.63268453380624 0 117.63268453380624 -15.065611018763775 0 0 0 0 362.69614061638822 596.89761677938179 0 596.89761677938179 -20.471068284081866 0 0 0 0 217.72078382263135 35.724537563802414 0 35.724537563802414 71.078897293412865 0 0 0 0 309.32183335685841 224.29485917251804 0 224.29485917251804 117.96373103150654 0 0 0 0 18.678971078363247 96.455043649236359 0 96.455043649236359 154.46606212255847 0 0 0 0 43.981238255968492 74.310554476888001 0 74.310554476888001 199.71240686824422 0 0 0 0 -54.702252045557543 352.07429918872162 0 352.07429918872162 127.63001580515754 0 0 0 0 25.247873505446478 232.70071092641638 0 232.70071092641638 -150.48470262530793 0 0 0 0 293.08095593079815 166.15058564827763 0 166.15058564827763 -161.86359328991421 0 0 0 0 -238.94397360637731 155.37861657602951 0 155.37861657602951 -71.324178726606988 0 0 0 0 -237.95233117140015 345.39636686310678 0 345.39636686310678 -143.74707161989181 0 0 0 0 -259.65061216863978 181.95308192031166 0 181.95308192031166 -201.23262878517153 0 0 0 0 -48.009616672890388 178.47760368110795 0 178.47760368110795 -181.30990847045996 0 0 0 0 -45.467526699983864 255.04584574479986 0 255.04584574479986 -246.90855778144123 0 0 0 0 143.94537724611291 206.9983089492157 0 206.9983089492157 -245.64645616860344 0 0 0 0 54.515364509737083 179.0421289306143 0 179.0421289306143 -244.96957427046436 0 0 0 0 55.850732498860452 193.8272542567031 0 193.8272542567031 -268.57746009214952 0 0 0 0 19.928699830333017 4.9077668743439062 0 4.9077668743439062 -22.619456229739086 0 0 0 0 173.27447456654227 186.99435318227683 0 186.99435318227683 -318.11679808002555 0 0 0 0 133.2722206103881 151.62820719486788 0 151.62820719486788 1.9355921168134955 0 0 0 0 -60.953433806142129 84.042444533613889 0 84.042444533613889 -124.1715852847592 0 0 0 0 -23.668062609027402 39.317193853652498 0 39.317193853652498 -149.486782515909 0 0 0 0 -26.283329175919789 33.229992990251823 0 33.229992990251823 -36.72232087930071 0 0 0 0 -2.9163612734118942 35.678787271977853 0 35.678787271977853 -22.100623039914353 0 0 0 0 223.7747152089305 -4.7208643236026546 0 -4.7208643236026546 -68.633925889341299 0 0 0 0 102.35144389548077 59.048806378947575 0 59.048806378947575 -101.42530619015497 0 0 0 0 -22.722057925557081 27.077203213344958 0 27.077203213344958 -24.96020113485676 0 0 0 0 52.796898824431992 -17.794868792326042 0 -17.794868792326042 -6.0803178174228378 0 0 0 0 5.0775806038059272 3.6209171483011078 0 3.6209171483011078 -4.547395935726132 0 0 0 0 127.2849062418245 266.65433701365646 0 266.65433701365646 243.95103728764786 0 0 0 0 -22.83614699478494 35.5659436289111 0 35.5659436289111 -22.097985593048215 0 0 0 0 -15.179048647870943 24.690778426047572 0 24.690778426047572 -29.022760906170106 0 0 0 0 -45.085423554552108 90.256865948454504 0 90.256865948454504 -317.9545899322311 0 0 0 0 -5.0710366169299164 5.0421527784053239 0 5.0421527784053239 3.3962262809412316 0 0 0 0 29.799392077584343 -61.082800300953295 0 -61.082800300953295 -376.03018931156112 0 0 0 0 110.48917005422481 476.43726829743815 0 476.43726829743815 25.679147179147549 0 0 0 0 -55.193268390956291 -31.317600408814769 0 -31.317600408814769 -60.985903148723082 0 0 0 0 181.97058838619705 366.84414706794792 0 366.84414706794792 121.5711504074643 0 0 0 0 128.82928890752373 378.1970198273184 0 378.1970198273184 263.95552121469376 0 0 0 0 -97.02848292166891 -202.25106924154124 0 -202.25106924154124 -415.86860382868053 0 0 0 0 -15.366171326536488 -1.8723388642317786 0 -1.8723388642317786 17.590461749987313 0 0 0 0 -257.39127862723217 34.295559484939673 0 34.295559484939673 -37.855991861872099 0 0 0 0 45.924164180676598 63.326099930847249 0 63.326099930847249 -67.995840164974652 0 0 0 0 237.932912079159 91.806184808557191 0 91.806184808557191 -329.10710535076782 0 0 0 0 -140.12445185981051 -89.411924065265794 0 -89.411924065265794 -73.615644125018093 0 0 0 0 -27.925911576070234 19.582006840384413 0 19.582006840384413 -7.7800287558888801 0 0 0 0 -32.799175079737324 29.829107786297868 0 29.829107786297868 -12.834932748892243 0 0 0 0 -41.002705791456236 28.911672382003772 0 28.911672382003772 -16.835076977356408 0 0 0 0 -179.78611314715818 70.856388884041735 0 70.856388884041735 36.046845034583839 0 0 0 0 -56.564933954272419 42.653938848420694 0 42.653938848420694 -54.342618914404738 0 0 0 0 -47.268426552669553 36.704434956873229 0 36.704434956873229 -51.045111921375792 0 0 0 0 -56.014497033174848 51.198704012246708 0 51.198704012246708 -38.495542280363225 0 0 0 0 -29.274889032487408 33.787368257814705 0 33.787368257814705 -56.098514011217958 0 0 0 0 -62.915352765707212 67.832805259513407 0 67.832805259513407 -88.955596324498401 0 0 0 0 -86.01192143537628 37.563077187379349 0 37.563077187379349 -46.849445748378457 0 0 0 0 0.01308011705177492 1.2764214184339551 0 1.2764214184339551 -1.3501561300974743 0 0 0 0 146.56420601136597 3.6366055677312943 0 3.6366055677312943 -22.454324501039082 0 0 0 0 -8.2929126173912664 88.47550605565084 0 88.47550605565084 -68.303232127758747 0 0 0 0 17.83439888706198 124.14178216194341 0 124.14178216194341 -85.47820764410244 0 0 0 0 -19.405513603036525 103.1886709037135 0 103.1886709037135 -65.475388456368819 0 0 0 0 -40.989143440194312 111.27180254344057 0 111.27180254344057 -83.575294377174941 0 0 0 0 -25.078825026365848 72.423209347326747 0 72.423209347326747 -127.63031945386683 0 0 0 0 -92.552908939749614 56.867332915657698 0 56.867332915657698 -122.25822549774966 0 0 0 0 -32.115732143583656 53.22291311155071 0 53.22291311155071 -69.775670829797264 0 0 0 0 -48.532885564251046 84.16540973924748 0 84.16540973924748 -157.80686346935636 0 0 0 0 -44.451249272555287 149.87208112158987 0 149.87208112158987 -103.53452367362843 0 0 0 0 -65.585041270080183 149.98990248910059 0 149.98990248910059 -74.228444294047222 0 0 0 0 -50.468914279364981 163.85641264769947 0 163.85641264769947 -64.292728455475299 0 0 0 0 -76.687876339768991 137.92659468881402 0 137.92659468881402 -22.634823440992477 0 0 0 0 -44.0657395066155 154.67402474531355 0 154.67402474531355 -88.192249592702865 0 0 0 0 -49.290069076509099 149.23957247681756 0 149.23957247681756 -84.070545026208492 0 0 0 0 -34.363113442865142 121.32011022040751 0 121.32011022040751 -24.114269917626643 0 0 0 0 25.314674921137339 204.38023580234858 0 204.38023580234858 -50.750041750769014 0 0 0 0 -93.968136983530712 182.24920428246332 0 182.24920428246332 -71.954111543976978 0 0 0 0 -34.424035123665817 117.2343807601319 0 117.2343807601319 -167.95931084941913 0 0 0 0 -109.09032209361976 135.545868303715 0 135.545868303715 -103.71641341014038 0 0 0 0 -89.90475147858433 138.62276648404571 0 138.62276648404571 -64.348693174546497 0 0 0 0 -159.96800525766594 221.84216355321405 0 221.84216355321405 -138.27798171150971 0 0 0 0 -200.81167955827186 60.62995292397045 0 60.62995292397045 11.085145947647106 0 0 0 0 28.597505453297345 47.544628172883677 0 47.544628172883677 -47.641728900323869 0 0 0 0 -81.731496102438541 114.98563733378887 0 114.98563733378887 -27.287225764408504 0 0 0 0 0.26128485357868847 2.2185898040461893 0 2.2185898040461893 -4.020809271468778 0 0 0 0 -60.138356457624468 148.18358200791226 0 148.18358200791226 -61.43122693396981 0 0 0 0 -89.456101783223858 150.88468510473831 0 150.88468510473831 310.51280675886051 0 0 0 0 -35.673715746721427 213.66454410524329 0 213.66454410524329 -552.44623713239525 0 0 0 0 1.0449271764177013 1.5054758094469705 0 1.5054758094469705 -0.2752209516644486 0 0 0 0 -53.539824861087254 163.50610184195466 0 163.50610184195466 -92.212681910059473 0 0 0 0 -224.91814992703803 4.4062079061559416 0 4.4062079061559416 -238.53965473304561 0 0 0 0 -109.38653135611821 326.01388919584497 0 326.01388919584497 -430.13485618357845 0 0 0 0 -115.93297519203952 245.1511189162361 0 245.1511189162361 -446.43120087879652 0 0 0 0 -391.61321430728003 298.44240747358322 0 298.44240747358322 -212.18966886963608 0 0 0 0 -254.89496984924335 131.96850669046034 0 131.96850669046034 -27.308387630891957 0 0 0 0 -215.92691638684482 243.96690250759275 0 243.96690250759275 -195.87662714167527 0 0 0 0 -61.330609505844222 166.44111105882575 0 166.44111105882575 -497.99280273801196 0 0 0 0 -45.631606353457755 69.294033270127329 0 69.294033270127329 -268.89596032384452 0 0 0 0 -81.412956576969009 133.86650481213655 0 133.86650481213655 -321.23391555983471 0 0 0 0 -47.633726130126888 87.524596136496257 0 87.524596136496257 -142.67989164658411 0 0 0 0 -6.667936918354826 29.222899092174885 0 29.222899092174885 -94.900487210965366 0 0 0 0 36.369923245241807 96.283231017945582 0 96.283231017945582 -124.02649275347721 0 0 0 0 8.370480425634014 66.3558961808194 0 66.3558961808194 124.31287501475526 0 0 0 0 3.4173199288110538 1.2655767528362176 0 1.2655767528362176 0.14412316018286653 0 0 0 0 1.1318686095146404 73.821800080762841 0 73.821800080762841 -253.26117096446433 0 0 0 0 52.872823745110509 63.255876168081159 0 63.255876168081159 49.011808648290753 0 0 0 0 9.03905519035834 36.395255381940842 0 36.395255381940842 63.324393383089046 0 0 0 0 36.917869399482697 66.149384585099824 0 66.149384585099824 10.741659951039765 0 0 0 0 6.2807439093958237 62.399457555970002 0 62.399457555970002 10.84484565639832 0 0 0 0 28.478220037370193 42.82943402666524 0 42.82943402666524 38.09240214879901 0 0 0 0 9.0353121046282467 73.20816793240374 0 73.20816793240374 11.265741926976261 0 0 0 0 9.5408949797711102 66.564435275953656 0 66.564435275953656 -10.76968058193961 0 0 0 0 -52.61504783538112 96.126730385090923 0 96.126730385090923 36.510085865847941 0 0 0 0 -4.0117314019880723 20.889914573272108 0 20.889914573272108 132.33998449511637 0 0 0 0 -233.87436224248449 107.2375973260223 0 107.2375973260223 44.745283624077274 0 0 0 0 -88.973733267179341 59.962285004436126 0 59.962285004436126 24.106014250197404 0 0 0 0 -79.806433005433064 85.860536996260635 0 85.860536996260635 14.220801996878436 0 0 0 0 -70.160939926943684 58.065200261113205 0 58.065200261113205 33.452693984498183 0 0 0 0 -49.205298624736315 95.201721878462195 0 95.201721878462195 -39.046676826928888 0 0 0 0 -41.477665424115912 60.16719680703568 0 60.16719680703568 1.2283085099516029 0 0 0 0 0.058505313341811416 75.966431582323821 0 75.966431582323821 5.4399704857132747 0 0 0 0 -3.5862161840341287 55.840636876942881 0 55.840636876942881 -24.932056577461481 0 0 0 0 -15.055870810821943 46.951772405385782 0 46.951772405385782 -12.711409173070933 0 0 0 0 -25.791247699300584 68.370736286155079 0 68.370736286155079 -23.567922731302133 0 0 0 0 -22.664721149703837 65.054937876246186 0 65.054937876246186 -40.857993105575588 0 0 0 0 14.526386038061901 8.7251382041322358 0 8.7251382041322358 40.84047670925429 0 0 0 0 4.6163200818809855 33.088352157542431 0 33.088352157542431 -18.834140075618052 0 0 0 0 -28.378023878871318 38.718218779496965 0 38.718218779496965 0.72607152525233687 0 0 0 0 -18.858576629385425 27.650479741164418 0 27.650479741164418 11.477476668682357 0 0 0 0 -20.126008761908452 29.803548434244476 0 29.803548434244476 34.739746557734179 0 0 0 0 -58.425803871643438 44.660549692485802 0 44.660549692485802 12.238898402916675 0 0 0 0 -11.301342369953289 14.240496164906915 0 14.240496164906915 23.305140748920465 0 0 0 0 -15.219170844648033 27.557497430148942 0 27.557497430148942 39.339095642979373 0 0 0 0 6.7142143450060701 24.07379109657559 0 24.07379109657559 23.123043398375017 0 0 0 0 10.199236980013666 39.219525701480961 0 39.219525701480961 -4.1960068664448045 0 0 0 0 -100.79778839040409 51.885151723479339 0 51.885151723479339 22.113129791876418 0 0 0 0 17.548823294018803 62.946095551997132 0 62.946095551997132 23.48465334162529 0 0 0 0 -2.459275923805464 10.781974007568387 0 10.781974007568387 0.021744075386436634 0 0 0 0 -20.599978354948689 84.822063898136548 0 84.822063898136548 44.799065995743149 0 0 0 0 -26.355607010060339 43.001061416089215 0 43.001061416089215 26.025381258317793 0 0 0 0 0.13190715169184841 64.611715413742786 0 64.611715413742786 14.951766736867285 0 0 0 0 12.665275460620165 34.456680313956966 0 34.456680313956966 11.715257506324321 0 0 0 0 98.560709234086971 60.367256727935455 0 60.367256727935455 -57.385968076936479 0 0 0 0 -27.030373500936548 68.648009975877358 0 68.648009975877358 23.948132770859957 0 0 0 0 2.314882909746764 5.8357309946287899 0 5.8357309946287899 -1.6540734675345163 0 0 0 0 23.376835022499534 34.356769014781932 0 34.356769014781932 33.178555851183098 0 0 0 0 -2.0402766895672357 97.221468717841503 0 97.221468717841503 -38.114180831322301 0 0 0 0 -6.5642678901131148 70.082286251539699 0 70.082286251539699 24.253587228202377 0 0 0 0 -43.375159731764143 59.835014838349707 0 59.835014838349707 -0.38900241707233363 0 0 0 0 51.055408295440429 59.930685004477709 0 59.930685004477709 -11.43932689337089 0 0 0 0 41.2606366041 43.566628211206535 0 43.566628211206535 -2.8254397675555083 0 0 0 0 2.0528168310520414 54.188484207579677 0 54.188484207579677 -5.0910727383579797 0 0 0 0 -13.177536041419444 75.560500253330247 0 75.560500253330247 8.6236633336629893 0 0 0 0 -10.309472261025803 76.644700931454281 0 76.644700931454281 -4.9240826113200455 0 0 0 0 13.900424204994778 32.325701625112686 0 32.325701625112686 27.946038817615857 0 0 0 0 -10.391293128224788 27.791331582797284 0 27.791331582797284 -2.4682857044172124 0 0 0 0 18.277618139480182 75.81911537149972 0 75.81911537149972 -39.807973580300313 0 0 0 0 25.469165392435144 29.553093022080148 0 29.553093022080148 28.807568105996722 0 0 0 0 19.239795909656095 108.13920634067836 0 108.13920634067836 -37.590557771101885 0 0 0 0 28.989384381566197 59.008228284415964 0 59.008228284415964 -15.625113142708869 0 0 0 0 17.598927733968594 48.17595861521113 0 48.17595861521113 20.359500591614051 0 0 0 0 124.13521998780197 57.672813536672038 0 57.672813536672038 -13.928196140772343 0 0 0 0 0.70577403312631759 1.5183247843528989 0 1.5183247843528989 3.3104463200271539 0 0 0 0 276.18926101860416 90.108109479675477 0 90.108109479675477 11.770394263494381 0 0 0 0 0.44325855873679387 1.6425589495864301 0 1.6425589495864301 0.94230373481141783 0 0 0 0 -399.39069591781299 98.05770463430963 0 98.05770463430963 148.04011948360858 0 0 0 0 -34.496417037149513 108.30170719991111 0 108.30170719991111 101.28297952038702 0 0 0 0 -100.68697194843116 175.01356816543739 0 175.01356816543739 148.33979876475496 0 0 0 0 1.0887810623607095 1.3378737104093972 0 1.3378737104093972 1.1309077495319997 0 0 0 0 -66.502280797067215 23.529799036921759 0 23.529799036921759 202.5078174672999 0 0 0 0 -141.35620034679596 -23.840056768800423 0 -23.840056768800423 143.52544902805357 0 0 0 0 -171.46485256197775 18.262755614990965 0 18.262755614990965 -51.056635997148987 0 0 0 0 -41.085523733425362 191.001188721777 0 191.001188721777 126.29411625339981 0 0 0 0 -224.37207930152181 149.46108923043175 0 149.46108923043175 4.544819907649071 0 0 0 0 154.14922627826309 6.1705730269814012 0 6.1705730269814012 -43.49551890528528 0 0 0 0 -43.246118378861865 61.14576617379862 0 61.14576617379862 -25.839984537691635 0 0 0 0 -41.781237502913427 53.644271735522125 0 53.644271735522125 -27.085855240900855 0 0 0 0 -54.217993803315039 46.510237297336062 0 46.510237297336062 -30.74960399716656 0 0 0 0 -79.161583544533642 85.038118388469229 0 85.038118388469229 -35.748328399711227 0 0 0 0 -3.1815398411255416 12.260725217390785 0 12.260725217390785 0.67349231837903289 0 0 0 0 -51.950646090808732 49.593466449865446 0 49.593466449865446 -6.1080482364286581 0 0 0 0 -47.852915687555651 52.559790240291477 0 52.559790240291477 -7.4881547200420755 0 0 0 0 -43.46051006437807 17.156338830907487 0 17.156338830907487 31.505780092817282 0 0 0 0 -98.293810093542561 72.903248492515559 0 72.903248492515559 -10.471775525873454 0 0 0 0 -117.25885905414907 90.17918589013243 0 90.17918589013243 9.4487697316872072 0 0 0 0 -10.342610130460343 -5.6939385048503013 0 -5.6939385048503013 17.314595245634706 0 0 0 0 -15.723460102250101 116.31517777056797 0 116.31517777056797 7.4598727547599992 0 0 0 0 -75.505305054422934 72.514053448147024 0 72.514053448147024 -8.337741124931199 0 0 0 0 -71.266421220308985 70.702497248637883 0 70.702497248637883 -105.76277219519034 0 0 0 0 -98.021585882583167 96.55899653961751 0 96.55899653961751 -10.239929959227993 0 0 0 0 -79.449170777195832 91.804730471903895 0 91.804730471903895 -12.116549416947237 0 0 0 0 -108.43844489415642 139.52850012509589 0 139.52850012509589 -99.531634072633096 0 0 0 0 -96.10562259258586 77.292482335968089 0 77.292482335968089 -6.5227462856719285 0 0 0 0 -10.54778929252064 26.003403157625165 0 26.003403157625165 -12.741069381225557 0 0 0 0 -69.647875088194269 58.509780343460989 0 58.509780343460989 -34.303578158895107 0 0 0 0 -6.7514819652387814 24.848500138638883 0 24.848500138638883 -6.1263641102195834 0 0 0 0 -6.3879173219885317 14.83499577214684 0 14.83499577214684 -6.4499855781719049 0 0 0 0 7.3206990594990131 46.764113914105536 0 46.764113914105536 -13.322612198374273 0 0 0 0 -5.102038897555758 71.085367092613978 0 71.085367092613978 0.17861376919245231 0 0 0 0 -37.320215393017861 95.027040736202252 0 95.027040736202252 -72.756746780069079 0 0 0 0 -90.456303553481121 43.997750835005718 0 43.997750835005718 -25.144567354436731 0 0 0 0 15.590977032415793 -1.8024062033575916 0 -1.8024062033575916 -3.6331133395275259 0 0 0 0 -170.60346656016191 47.494000887865695 0 47.494000887865695 22.5324301611181 0 0 0 0 -10.346505047840765 57.608052896242953 0 57.608052896242953 -12.279601407119117 0 0 0 0 -10.109501675506181 54.671809224177196 0 54.671809224177196 22.171439068234577 0 0 0 0 6.5874887570425926 50.560566138603463 0 50.560566138603463 8.9908846283324237 0 0 0 0 -23.05365487193194 39.245479731689557 0 39.245479731689557 9.1471141207221081 0 0 0 0 -13.190993725505905 52.451607286369835 0 52.451607286369835 21.519413755504502 0 0 0 0 6.3736356246625405 10.535755631117709 0 10.535755631117709 -3.0270966680925411 0 0 0 0 20.168194176076213 79.205603485916072 0 79.205603485916072 -80.327370767412845 0 0 0 0 29.835244049216271 129.04460085700384 0 129.04460085700384 -19.50160254380171 0 0 0 0 49.818388174804568 67.044611701881877 0 67.044611701881877 -78.080145029620326 0 0 0 0 -127.60398322402762 -0.37509012531518238 0 -0.37509012531518238 31.735444427064067 0 0 0 0 -46.014578367903255 53.715235863358558 0 53.715235863358558 -15.518308026231551 0 0 0 0 -67.097085810877616 -56.998235546552678 0 -56.998235546552678 63.669778034567571 0 0 0 0 -111.0585350590045 56.563749424524758 0 56.563749424524758 4.8338453027063224 0 0 0 0 -52.0888511777448 -79.812665959527294 0 -79.812665959527294 88.462197904100321 0 0 0 0 -0.94848948315758719 2.908811215937078 0 2.908811215937078 -6.8943165006240648 0 0 0 0 -26.555815465089836 9.2868371295835459 0 9.2868371295835459 18.915640408546096 0 0 0 0 -51.283885896700667 9.4960128185211943 0 9.4960128185211943 133.51191413707056 0 0 0 0 -28.563855055032036 59.130574655629289 0 59.130574655629289 78.564368599654699 0 0 0 0 -27.730236689763842 -24.837431768413808 0 -24.837431768413808 -55.683459277908696 0 0 0 0 -2.3341891943178723 -1.5631082985547877 0 -1.5631082985547877 -3.1817638384539246 0 0 0 0 -49.61722222721437 106.26115292031864 0 106.26115292031864 -176.73664981521142 0 0 0 0 -82.30553137438983 34.163152579973939 0 34.163152579973939 -59.033567963964742 0 0 0 0 -38.22912257487252 18.286398650470804 0 18.286398650470804 -6.3875666656931296 0 0 0 0 -1.8625087601758423 58.740421331384823 0 58.740421331384823 -61.224880303192549 0 0 0 0 18.330160622710537 32.711266590282321 0 32.711266590282321 -32.887994645136132 0 0 0 0 23.704566378313757 36.382810145374606 0 36.382810145374606 -199.02260399044462 0 0 0 0 -114.77712763776799 0.15551473402319971 0 0.15551473402319971 40.31166619250871 0 0 0 0 -91.926789546094369 134.48794096767506 0 134.48794096767506 -24.417097350162294 0 0 0 0 -21.106325366640704 47.261907568733136 0 47.261907568733136 77.706017850274293 0 0 0 0 -10.797777120990759 103.15229075136335 0 103.15229075136335 13.887356993443973 0 0 0 0 -16.939877833574428 89.392842079347247 0 89.392842079347247 39.033042924060283 0 0 0 0 -24.433531112867058 67.812146773927452 0 67.812146773927452 0.17494256921781925 0 0 0 0 -4.7183603876692359 74.063388472844963 0 74.063388472844963 -2.9686500134844209 0 0 0 0 -21.93675546409213 56.699109851744652 0 56.699109851744652 41.054695709740372 0 0 0 0 15.487383702563932 24.42382990029013 0 24.42382990029013 5.7153257284417869 0 0 0 0 -35.945577137208602 50.695828741294463 0 50.695828741294463 -6.7966025344940135 0 0 0 0 -49.465876319256495 113.16558673558575 0 113.16558673558575 -45.394424849991083 0 0 0 0 -23.038574461097596 46.505238369864855 0 46.505238369864855 -1.0279708952948567 0 0 0 0 -0.2523190118081402 61.436465230901376 0 61.436465230901376 -2.1211831422276646 0 0 0 0 24.307925360220821 36.78335773262134 0 36.78335773262134 -11.128800873121754 0 0 0 0 -45.945329856109311 74.688339487308895 0 74.688339487308895 -5.2436435725358024 0 0 0 0 20.519041299041469 34.852277178449484 0 34.852277178449484 -11.429294270371528 0 0 0 0 -49.34601448749163 83.137801058824152 0 83.137801058824152 -25.440529038707609 0 0 0 0 0.8114842591011211 21.160177292449546 0 21.160177292449546 20.343454228980349 0 0 0 0 -26.386602868748014 38.152443032640804 0 38.152443032640804 -34.510434717667522 0 0 0 0 -6.962949163873148 6.1702232385990783 0 6.1702232385990783 -3.6116977694160539 0 0 0 0 -5.5697441492084181 70.517787196069548 0 70.517787196069548 -13.576162686522366 0 0 0 0 96.781014022853924 7.4141517732350621 0 7.4141517732350621 -25.675010523023957 0 0 0 0 -190.31298518872063 70.070427903256132 0 70.070427903256132 55.226974627541495 0 0 0 0 -148.91453582469694 70.525955707715184 0 70.525955707715184 -72.697447838567314 0 0 0 0 -20.711208674474619 20.653436922155379 0 20.653436922155379 -3.2016647431300953 0 0 0 0 54.928287093978724 -6.5631457495037466 0 -6.5631457495037466 -4.8990347467261017 0 0 0 0 -59.388214907681686 71.336356555006205 0 71.336356555006205 -4.142480568103565 0 0 0 0 -15.62669809286308 66.419769872245524 0 66.419769872245524 -63.859163420238474 0 0 0 0 -107.29788000881308 85.96430533915418 0 85.96430533915418 -4.6280961688316893 0 0 0 0 -30.603107168564748 44.001644861961722 0 44.001644861961722 -5.2457817237373092 0 0 0 0 -99.240544486194267 66.691233827758424 0 66.691233827758424 -66.47126713853504 0 0 0 0 1.3814639408180938 0.42261339091294303 0 0.42261339091294303 -0.42477166529263854 0 0 0 0 5.2351431658837839 39.249228094623973 0 39.249228094623973 -6.7083677352681406 0 0 0 0 -85.242856546174153 108.09404677329076 0 108.09404677329076 -19.879768730668729 0 0 0 0 112.80455961480038 73.611686527117854 0 73.611686527117854 38.791174788086209 0 0 0 0 108.3204920617718 56.900150200008284 0 56.900150200008284 -16.842887389284442 0 0 0 0 -37.072723388962913 39.853546086547794 0 39.853546086547794 16.681745188550849 0 0 0 0 -51.697827576397685 57.600300638725457 0 57.600300638725457 50.720318203094735 0 0 0 0 114.70241534688103 88.321671486321065 0 88.321671486321065 -37.664293036657909 0 0 0 0 -6.9494414359520533 9.7450273790807103 0 9.7450273790807103 -9.9146455866576133 0 0 0 0 -23.297102459364396 47.621423853712258 0 47.621423853712258 20.635671621799702 0 0 0 0 -34.450763724846183 21.914898713697767 0 21.914898713697767 16.537184973069998 0 0 0 0 -34.555715058230106 26.131462971066526 0 26.131462971066526 -14.303604565931025 0 0 0 0 37.33401209290605 97.304295591420669 0 97.304295591420669 50.027222756198171 0 0 0 0 -18.544796765956562 43.118386256932354 0 43.118386256932354 17.481505259027472 0 0 0 0 25.121967774612131 68.703962245614093 0 68.703962245614093 17.94045726732918 0 0 0 0 47.182925616652938 26.911456617530348 0 26.911456617530348 -17.719909166946309 0 0 0 0 25.90451392257819 48.651854407311475 0 48.651854407311475 -47.716544232520391 0 0 0 0 -5.5989392730953114 78.226407817880727 0 78.226407817880727 -42.079647652830317 0 0 0 0 5.9019472332707039 12.587248972288947 0 12.587248972288947 14.983043216504683 0 0 0 0 7.8181244209117722 42.990961525018065 0 42.990961525018065 -19.404159257544507 0 0 0 0 -11.201040860025387 29.22720648354516 0 29.22720648354516 -24.136028372511646 0 0 0 0 -66.215961530993809 -15.672705070725215 0 -15.672705070725215 35.029000745798839 0 0 0 0 -3.3718190614401351 15.045435643430551 0 15.045435643430551 9.9915975784782987 0 0 0 0 -177.88673441535138 58.269368011598999 0 58.269368011598999 49.666174502359354 0 0 0 0 -39.95771389910044 24.577280754153712 0 24.577280754153712 -4.0420842030981134 0 0 0 0 -34.931761846768495 45.319445372833798 0 45.319445372833798 0.90217688778648153 0 0 0 0 -53.304507981694769 41.560906641766678 0 41.560906641766678 1.1850814579520375 0 0 0 0 -29.852773339727719 41.422839544124145 0 41.422839544124145 -16.186530239738204 0 0 0 0 -1.9268686714250975 10.834260979776701 0 10.834260979776701 -0.0044758506476654247 0 0 0 0 -51.859813481858055 71.392727322434666 0 71.392727322434666 -41.089476399596606 0 0 0 0 -29.426981262302434 38.199193513037244 0 38.199193513037244 -20.238438017733642 0 0 0 0 -49.572759226199196 49.890407542398179 0 49.890407542398179 -35.891058329834777 0 0 0 0 -37.910791483314824 46.756214723154699 0 46.756214723154699 -56.447171786612671 0 0 0 0 -41.267252872559766 50.662811166395841 0 50.662811166395841 -15.173538673552684 0 0 0 0 7.5584107113172649 40.487346339836222 0 40.487346339836222 -33.965416604929487 0 0 0 0 3.218030815213794 2.9472402988946698 0 2.9472402988946698 3.8697002463296855 0 0 0 0 -96.648434155111318 93.08439563385582 0 93.08439563385582 -48.381405971071217 0 0 0 0 -19.389983885674155 53.219300147713511 0 53.219300147713511 -79.291180099102348 0 0 0 0 13.884974046115531 25.754100608770386 0 25.754100608770386 -45.661513162871415 0 0 0 0 -39.626447010046832 49.468140727673017 0 49.468140727673017 -20.178836347375182 0 0 0 0 -143.85835500398025 -49.341537257507298 0 -49.341537257507298 72.841676953074057 0 0 0 0 -31.02291508095368 12.735085901575076 0 12.735085901575076 -16.977365319983846 0 0 0 0 -0.32499167715195654 4.8404701180533465 0 4.8404701180533465 0.071445372355526615 0 0 0 0 -0.81519872057288012 -18.102023189838292 0 -18.102023189838292 75.469880434458901 0 0 0 0 -2.4373693711592779 3.7470050769575209 0 3.7470050769575209 -1.3568207607533793 0 0 0 0 -35.216306155714847 28.845952273901275 0 28.845952273901275 17.623830849770457 0 0 0 0 14.420182312693214 161.36832715397395 0 161.36832715397395 33.156386793794809 0 0 0 0 -11.442958957130031 20.406923307244142 0 20.406923307244142 -54.134832445939537 0 0 0 0 -0.68231883075607058 25.70869530493475 0 25.70869530493475 -25.368974355014927 0 0 0 0 44.292701507169113 16.343272196798353 0 16.343272196798353 -61.133262451723567 0 0 0 0 -6.8630170942051336 27.613631155429175 0 27.613631155429175 -15.981721519508937 0 0 0 0 -149.20024881543941 -10.648189118714072 0 -10.648189118714072 40.207287842044025 0 0 0 0 -82.460669749852968 -105.15355702614761 0 -105.15355702614761 -44.606902021463611 0 0 0 0 16.294112165498035 18.094623479935137 0 18.094623479935137 13.087578604788035 0 0 0 0 -3.5561963196232682 121.05548655930761 0 121.05548655930761 -38.918463792462717 0 0 0 0 63.829063638288062 24.429179162398214 0 24.429179162398214 -49.727469889665372 0 0 0 0 -84.588441898683413 -50.262221617280829 0 -50.262221617280829 -98.286575215985067 0 0 0 0 -44.806349364502239 24.637442495652067 0 24.637442495652067 -37.955889032571577 0 0 0 0 -32.187380295115872 39.612676994569483 0 39.612676994569483 -20.195612705196254 0 0 0 0 -239.7576380930841 170.03380001291225 0 170.03380001291225 -299.69368429770111 0 0 0 0 -61.351785822800593 16.191837522404967 0 16.191837522404967 -23.459614661689557 0 0 0 0 -2.8414815507557591 1.9075352412537114 0 1.9075352412537114 0.8292555730408111 0 0 0 0 -63.511702352989232 16.390794119572092 0 16.390794119572092 3.2871360709978035 0 0 0 0 5.201163490821969 17.702236273020645 0 17.702236273020645 -13.210539184150321 0 0 0 0 -56.522495187266031 28.706530248004128 0 28.706530248004128 -2.5283525216691487 0 0 0 0 -0.91644480719786259 17.929998408242923 0 17.929998408242923 0.22504022360689646 0 0 0 0 -63.286126715960563 17.830968061753083 0 17.830968061753083 -14.840717308208696 0 0 0 0 -51.220314719335875 28.010202308716543 0 28.010202308716543 -9.6812150484838639 0 0 0 0 -60.370125631714473 20.977716123896244 0 20.977716123896244 -11.961398771425593 0 0 0 0 -28.772537407634218 6.7697173192377136 0 6.7697173192377136 9.172206180089816 0 0 0 0 -4.5386857717043831 26.470333866276903 0 26.470333866276903 -26.270568865366613 0 0 0 0 -2.5682290818731417 24.38463829736429 0 24.38463829736429 -27.081863860454177 0 0 0 0 6.0538985560124274 44.803977382092853 0 44.803977382092853 -28.028593604554771 0 0 0 0 -35.945227650058769 20.770501025193781 0 20.770501025193781 -0.32091924085113988 0 0 0 0 8.898638519670385 29.256386633974216 0 29.256386633974216 -35.383419790305197 0 0 0 0 -60.901780016341945 122.58071777976147 0 122.58071777976147 -30.633267739263829 0 0 0 0 -60.504888328592642 19.366621735833178 0 19.366621735833178 -1.9924584117216 0 0 0 0 -16.476257026719395 27.167589470234816 0 27.167589470234816 6.8252771565466901 0 0 0 0 -7.6007595694663905 14.700143501711409 0 14.700143501711409 -5.3150174388065352 0 0 0 0 0.040538919097571124 12.1375566236986 0 12.1375566236986 -8.5679334621890817 0 0 0 0 -14.478568232969337 21.777810752612822 0 21.777810752612822 -9.9879770550032845 0 0 0 0 -6.7970352349699006 14.643831125875877 0 14.643831125875877 -5.4487307286822357 0 0 0 0 -15.981517254567052 14.649836145378991 0 14.649836145378991 -7.367311700948278 0 0 0 0 -11.945687568474746 17.057343422601249 0 17.057343422601249 -2.132382008246168 0 0 0 0 -2.8341242060421123 23.299021644190134 0 23.299021644190134 -20.328767810648259 0 0 0 0 -36.080928975788993 33.418540166681851 0 33.418540166681851 -21.187290149573528 0 0 0 0 -25.420899362958153 51.061392255303872 0 51.061392255303872 -45.7396124982115 0 0 0 0 -41.749315850640414 39.080742852605908 0 39.080742852605908 -9.6884737808904902 0 0 0 0 -168.4775221987511 50.428351800474047 0 50.428351800474047 22.555726219605276 0 0 0 0 -38.146624804940075 38.763765024690656 0 38.763765024690656 -10.864078799320851 0 0 0 0 -42.711688869883972 37.016354550354812 0 37.016354550354812 -12.937423244659279 0 0 0 0 -17.602338465440852 33.603733547514359 0 33.603733547514359 -24.418208141760459 0 0 0 0 -10.293107936420711 25.358753160975539 0 25.358753160975539 -35.82629952669231 0 0 0 0 2.0461034037653008 35.545560081463918 0 35.545560081463918 -15.521530452097068 0 0 0 0 -12.519864827430567 5.2608307286974707 0 5.2608307286974707 0.99584780732196521 0 0 0 0 -16.501574396534124 27.692318063294806 0 27.692318063294806 6.9230350247380557 0 0 0 0 -16.501574396534124 27.692318063302082 0 27.692318063302082 6.9230350247307797 0 0 0 0 -16.501574396505021 27.692318063294806 0 27.692318063294806 6.9230350247162278 0 0 0 0 -44.718858551764725 36.865519107325099 0 36.865519107325099 -9.4811210719819172 0 0 0 0 -13.814114401946426 33.268171178349803 0 33.268171178349803 -13.553200478618237 0 0 0 0 -6.6513957151328214 23.043627613054014 0 23.043627613054014 -5.8774457294530293 0 0 0 0 2.5482289743813453 30.467912357940804 0 30.467912357940804 0.076035949685319792 0 0 0 0 -17.357489939691732 37.163564858514292 0 37.163564858514292 14.443288702139398 0 0 0 0 -17.063641683671449 10.543540756341827 0 10.543540756341827 9.9524255641044874 0 0 0 0 -22.845040410371439 15.450069455227094 0 15.450069455227094 9.6795311265559576 0 0 0 0 -5.1385183990787482 21.679909916190809 0 21.679909916190809 3.5648166650336179 0 0 0 0 1.4374865923491598 11.066874565139187 0 11.066874565139187 6.0467166544985957 0 0 0 0 -8.7515078167198226 22.399661777619258 0 22.399661777619258 16.448842504374625 0 0 0 0 -7.9134644026668752 7.2584667597995747 0 7.2584667597995747 -5.3497030123283622 0 0 0 0 9.3226188679691404 29.923702381362091 0 29.923702381362091 3.8091308890586788 0 0 0 0 -11.539504507076344 23.493116406109039 0 23.493116406109039 4.7046095040896034 0 0 0 0 -13.981681280558405 23.149877304585971 0 23.149877304585971 41.405875761724019 0 0 0 0 -0.28718936554830066 2.0096082838041553 0 2.0096082838041553 -5.3917447079497975 0 0 0 0 4.5917703096074547 7.508045089573443 0 7.508045089573443 -65.999587415357382 0 0 0 0 16.818785600393312 33.170061407592584 0 33.170061407592584 -47.479689851257717 0 0 0 0 -12.976824764547928 -17.498581511642442 0 -17.498581511642442 -54.452327849081485 0 0 0 0 14.471239399310434 43.537083115952555 0 43.537083115952555 -24.890079427197634 0 0 0 0 3.1482755592587637 29.005871103840036 0 29.005871103840036 -29.966603180480888 0 0 0 0 5.6708004439133219 37.396378763907705 0 37.396378763907705 -26.491833125757694 0 0 0 0 0.94322360990918241 194.54865619989869 0 194.54865619989869 -304.46350186104974 0 0 0 0 -0.97058121385460794 2.8775157616027656 0 2.8775157616027656 0.19283469579686141 0 0 0 0 -20.581244361004792 87.136218866431591 0 87.136218866431591 -354.36916629816733 0 0 0 0 -2.1249972720393657 -0.62190977271911052 0 -0.62190977271911052 2.2784442463855612 0 0 0 0 95.604894589137984 120.64124616515255 0 120.64124616515255 -56.114279226023854 0 0 0 0 132.66397124636569 31.401230942436086 0 31.401230942436086 -208.61206024054582 0 0 0 0 -107.24734101755894 -135.16308410847705 0 -135.16308410847705 -178.61018185479497 0 0 0 0 36.137668280905928 -49.767030949764376 0 -49.767030949764376 -127.75195191776584 0 0 0 0 -4.078525926779065 4.7521700146958761 0 4.7521700146958761 -3.7368276642469098 0 0 0 0 -13.968977169519349 11.875290455236609 0 11.875290455236609 14.034641158477825 0 0 0 0 -1.53362560784214 2.1911799794829534 0 2.1911799794829534 6.6193469445661464 0 0 0 0 3.2661796914107981 9.1892483644423919 0 9.1892483644423919 13.298018300585682 0 0 0 0 0.00508720419020392 5.3098562896466319 0 5.3098562896466319 9.2267941419468116 0 0 0 0 22.68463435715239 16.626005202091619 0 16.626005202091619 10.867713233694303 0 0 0 0 -23.39359441691704 5.033690432851472 0 5.033690432851472 6.2083857677826018 0 0 0 0 -1.0673967183290358 1.8926830923494009 0 1.8926830923494009 4.4367320260386265 0 0 0 0 38.920982012212335 34.659239662968503 0 34.659239662968503 27.235231406491948 0 0 0 0 -43.331500157612027 4.8729227289459232 0 4.8729227289459232 13.83051872530632 0 0 0 0 0.052889540558680892 22.061464090835216 0 22.061464090835216 38.272908975599421 0 0 0 0 13.827631791929889 33.899986199694467 0 33.899986199694467 46.982019252565806 0 0 0 0 58.093842753092758 56.877323554233953 0 56.877323554233953 49.788615837973339 0 0 0 0 17.135303505550837 41.573341724978491 0 41.573341724978491 43.893938740749945 0 0 0 0 0.00045227114605950192 63.225459665710332 0 63.225459665710332 104.54195442560012 0 0 0 0 1.3916923855867935 80.064524416924542 0 80.064524416924542 133.28058565810079 0 0 0 0 132.9683222271924 118.63615139651847 0 118.63615139651847 68.390665934177377 0 0 0 0 -0.93779905124676333 1.9507732751174274 0 1.9507732751174274 2.1680383392073708 0 0 0 0 -63.549082446712418 -7.8923973698092595 0 -7.8923973698092595 7.3365265034008189 0 0 0 0 -40.765878811653238 20.504384693942484 0 20.504384693942484 34.064664462362998 0 0 0 0 -53.598184811955434 62.819137095029873 0 62.819137095029873 -6.2439664535190786 0 0 0 0 -31.322926567852846 25.96472545386132 0 25.96472545386132 -5.2403262278085094 0 0 0 0 -19.138862089559552 34.78464891576732 0 34.78464891576732 -6.8874790062836837 0 0 0 0 -59.387248255578697 71.154998663005983 0 71.154998663005983 16.402181026875041 0 0 0 0 -60.657493655235157 86.839804391827784 0 86.839804391827784 3.6052808080949035 0 0 0 0 -50.570443387536216 46.224004724344923 0 46.224004724344923 69.378269534703577 0 0 0 0 -48.193610203335993 107.20719314893358 0 107.20719314893358 72.086582327044084 0 0 0 0 -7.8310898764902959 131.26930860433276 0 131.26930860433276 20.622247163477368 0 0 0 0 -12.493434838324902 112.0975738480829 0 112.0975738480829 -29.764319293350127 0 0 0 0 -58.010003175775637 77.873679377724329 0 77.873679377724329 20.688761531964701 0 0 0 0 -50.388415357684607 80.220543888158616 0 80.220543888158616 -45.610658407655137 0 0 0 0 -38.115243816835573 133.05967370240342 0 133.05967370240342 -112.43601662125002 0 0 0 0 -20.946063067534851 69.296644629536104 0 69.296644629536104 -113.01739135733442 0 0 0 0 -14.203485951955372 107.45684347370661 0 107.45684347370661 -44.334031337857596 0 0 0 0 8.6126749628092512 38.434882026038395 0 38.434882026038395 -77.577529890471851 0 0 0 0 -0.027198382175374774 76.673580494034141 0 76.673580494034141 8.1698888724313292 0 0 0 0 38.609612624415604 50.846827352832861 0 50.846827352832861 -7.3955992127375794 0 0 0 0 10.101301768700068 28.272773668875743 0 28.272773668875743 20.347137305871001 0 0 0 0 6.8478958030900685 3.7292652624928451 0 3.7292652624928451 -10.798984138877131 0 0 0 0 -1.6211008343083222 0.25371950327400583 0 0.25371950327400583 2.3805478422703885 0 0 0 0 21.721561164857121 16.295160736084654 0 16.295160736084654 18.274545837637561 0 0 0 0 8.1893095642590197 16.911272130702855 0 16.911272130702855 15.327511111659987 0 0 0 0 0.036810078658163548 22.779343040012463 0 22.779343040012463 31.113819068188604 0 0 0 0 1.5312181539775338 -9.47210136630747 0 -9.47210136630747 -50.007100139453541 0 0 0 0 -2.4168124904111608 -0.71186102210100088 0 -0.71186102210100088 2.1973162211669859 0 0 0 0 7.3427115969825536 6.5036402330297278 0 6.5036402330297278 -8.5630799291939184 0 0 0 0 -19.927624999574618 -1.031444025291421 0 -1.031444025291421 88.79946453384764 0 0 0 0 -20.122076315630693 41.651675872228225 0 41.651675872228225 111.58726356684929 0 0 0 0 -9.114593208199949 5.7396216944944172 0 5.7396216944944172 -55.356632382055977 0 0 0 0 -11.292788782549906 28.302551998938725 0 28.302551998938725 -16.975655206137162 0 0 0 0 -2.6086988423826014 18.821213519978016 0 18.821213519978016 12.39043230384371 0 0 0 0 -40.396443261633976 2.2469086848759616 0 2.2469086848759616 14.34138531856297 0 0 0 0 -0.13757767532083243 1.5953979959500799 0 1.5953979959500799 0.083772788089447658 0 0 0 0 -19.766649729150231 54.061573083235999 0 54.061573083235999 73.477741237584269 0 0 0 0 -47.005366726865759 30.01046941387176 0 30.01046941387176 206.15927062899937 0 0 0 0 -31.742924980790121 -3.5711341548230848 0 -3.5711341548230848 129.64402970505762 0 0 0 0 13.318063546845224 -39.467337200694601 0 -39.467337200694601 82.256673538046016 0 0 0 0 26.063709740832564 -5.6575350412203989 0 -5.6575350412203989 -40.225728985213209 0 0 0 0 19.899539195614125 -25.603325662120369 0 -25.603325662120369 -25.16082584796095 0 0 0 0 12.224980397633772 2.9453540195245296 0 2.9453540195245296 -34.447640855287318 0 0 0 0 7.7548365455586463 -4.6927492334725684 0 -4.6927492334725684 -22.286224843468517 0 0 0 0 21.81454258957092 -15.721676815886894 0 -15.721676815886894 -23.931650971746421 0 0 0 0 -21.627614250901388 1.0546172505273717 0 1.0546172505273717 -25.538738865128835 0 0 0 0 -8.5426606274559163 1.5271840491259354 0 1.5271840491259354 -4.4614783783254097 0 0 0 0 -1.4313460936499247 1.5451402192675943 0 1.5451402192675943 0.080968904819542331 0 0 0 0 -28.643285074504092 9.010664934583474 0 9.010664934583474 -1.786484306154307 0 0 0 0 -0.59168923627733605 9.9751232812079991 0 9.9751232812079991 -1.8221421300299596 0 0 0 0 -28.061873707702034 3.4574081802347791 0 3.4574081802347791 22.934126906955498 0 0 0 0 -1.8698391804615611 2.7414276302671965 0 2.7414276302671965 5.6169596440799978 0 0 0 0 -8.6838599387748729 4.4416744254157123 0 4.4416744254157123 6.7513000201145701 0 0 0 0 -12.220481117132294 3.3409167527861428 0 3.3409167527861428 0.13432532480874215 0 0 0 0 -1.5055671546900413 1.8065538847260996 0 1.8065538847260996 -0.48081426279992456 0 0 0 0 -11.137627664051251 0.93374273213703418 0 0.93374273213703418 -1.828740404893324 0 0 0 0 -8.4105602349953301 3.0842308983666058 0 3.0842308983666058 5.2628244604182868 0 0 0 0 11.126968722820038 27.162530640398131 0 27.162530640398131 -95.117051117966184 0 0 0 0 -46.155582526611397 17.201960702950601 0 17.201960702950601 52.943040676276723 0 0 0 0 11.151265354157658 25.492907819301763 0 25.492907819301763 18.079570637390134 0 0 0 0 0.098512358863303007 0.033477534354354077 0 0.033477534354354077 1.7363205064366838 0 0 0 0 -197.80103583654272 74.39962256234503 0 74.39962256234503 97.936117340323108 0 0 0 0 24.671044211871049 -19.662882616652496 0 -19.662882616652496 -48.620081079738156 0 0 0 0 -164.52468931600743 -56.338268625593628 0 -56.338268625593628 18.960410624895303 0 0 0 0 -2.4973084163956401 0.57496913807916172 0 0.57496913807916172 1.3591558498498379 0 0 0 0 -28.189120043254661 93.700909392807262 0 93.700909392807262 -11.424452611317975 0 0 0 0 -428.36611223923683 88.272112123868283 0 88.272112123868283 35.040096286109474 0 0 0 0 -26.305838172774656 2.2001362458545373 0 2.2001362458545373 17.77854509257304 0 0 0 0 72.034638742828975 25.449571920078597 0 25.449571920078597 -60.101823393168161 0 0 0 0 -1.8733514626784782 8.0722885717234476 0 8.0722885717234476 3.1771331756474126 0 0 0 0 72.70079817212536 171.69545163821022 0 171.69545163821022 202.49033705047077 0 0 0 0 2.945314839574678 0.270419898535458 0 0.270419898535458 0.586022935227966 0 0 0 0 -47.350351979643165 -0.3588405482514645 0 -0.3588405482514645 40.283998482031166 0 0 0 0 4.1307896532671293 16.059324056473997 0 16.059324056473997 10.737344043474877 0 0 0 0 -15.700849225453567 41.85103663029804 0 41.85103663029804 22.922824900539126 0 0 0 0 -16.512687559879851 44.553245241346303 0 44.553245241346303 75.582966533533181 0 0 0 0 92.73163357458543 -19.340280040720245 0 -19.340280040720245 37.412235279931338 0 0 0 0 76.025714451883687 40.296982692311758 0 40.296982692311758 -0.69452643516706303 0 0 0 0 14.283811795787187 52.076114464129205 0 52.076114464129205 33.982938000466675 0 0 0 0 29.442001654679189 73.153789573247195 0 73.153789573247195 40.686362045846181 0 0 0 0 -0.75694999837446275 2.2740738928518738 0 2.2740738928518738 0.1954089953376581 0 0 0 0 28.704686292156111 46.477127029640542 0 46.477127029640542 13.835814165885495 0 0 0 0 -5.1477038308948977 25.076879227748577 0 25.076879227748577 20.713650293007959 0 0 0 0 37.047595804251614 30.036217169528754 0 30.036217169528754 12.190831124200486 0 0 0 0 42.295827935100533 13.83568169332284 0 13.83568169332284 11.983706126149627 0 0 0 0 10.495658394171187 18.735965053956534 0 18.735965053956534 -34.058198723942041 0 0 0 0 -0.056180661980761215 28.272211521176359 0 28.272211521176359 5.7939343267862569 0 0 0 0 -42.500987550141872 167.28247770218513 0 167.28247770218513 548.13921855996705 0 0 0 0 -4.1739069531977293 -36.35471854565003 0 -36.35471854565003 -68.353142170155479 0 0 0 0 0.38817311311214553 -1.5388234988783083 0 -1.5388234988783083 0.98010010200371767 0 0 0 0 28.126304000063101 106.8258979885868 0 106.8258979885868 144.07805108095272 0 0 0 0 0.15150346029932471 275.54046392720397 0 275.54046392720397 232.42519576091581 0 0 0 0 63.498449328108109 186.00927287340164 0 186.00927287340164 180.69078256116336 0 0 0 0 -53.213706836191704 235.09086757811747 0 235.09086757811747 175.93598934974216 0 0 0 0 -0.016678039297403302 287.66161025185465 0 287.66161025185465 -55.212378386262571 0 0 0 0 -0.14576984352606814 279.87421954780621 0 279.87421954780621 -424.21914465281043 0 0 0 0 -15.170161917179939 89.608796327200253 0 89.608796327200253 -257.99110819953785 0 0 0 0 -57.520768150876393 118.91140839601758 0 118.91140839601758 -325.35700330774853 0 0 0 0 76.507148628614232 270.78789967559442 0 270.78789967559442 -308.04964552962338 0 0 0 0 0.21637801523237954 -0.074058221394778911 0 -0.074058221394778911 -0.44536747860417381 0 0 0 0 -273.92470576326014 91.363298839882191 0 91.363298839882191 413.28749905766745 0 0 0 0 89.89885936284918 107.87928053501764 0 107.87928053501764 -839.18209362116977 0 0 0 0 3.1270494451193258 7.9894590920597182 0 7.9894590920597182 -4.327836817391213 0 0 0 0 41.295480317668989 33.218249732017284 0 33.218249732017284 -157.60474465191464 0 0 0 0 -10.184868809490581 93.391955126455287 0 93.391955126455287 -150.17628597054136 0 0 0 0 -4.2669148542336188 40.927238745622162 0 40.927238745622162 6.6211824710117071 0 0 0 0 1.3822332751742579 1.3493003087522197 0 1.3493003087522197 0.059708968344490465 0 0 0 0 31.604998279392021 153.67048189769048 0 153.67048189769048 -440.91851765584033 0 0 0 0 2.0901052395493025 52.272772245243686 0 52.272772245243686 125.0667038524989 0 0 0 0 -9.1313739996403456 229.78963975333318 0 229.78963975333318 -196.91506794588361 0 0 0 0 -38.219731865065114 98.822370309349935 0 98.822370309349935 -201.88249116572115 0 0 0 0 -30.655562772801204 126.67786258788874 0 126.67786258788874 -99.640149656668655 0 0 0 0 -66.330622688197764 145.37762028775614 0 145.37762028775614 -107.01245993489283 0 0 0 0 -91.410774825257249 178.5691371398716 0 178.5691371398716 -111.43236241967588 0 0 0 0 -44.672100995241635 245.56375736164591 0 245.56375736164591 -39.1602574189601 0 0 0 0 -217.97544206901512 260.85370439691178 0 260.85370439691178 -22.998774125662749 0 0 0 0 -53.591193429710984 239.71012583448828 0 239.71012583448828 -59.543376575518778 0 0 0 0 147.1900443413615 289.94160619332979 0 289.94160619332979 -55.443427860082011 0 0 0 0 285.0379692872084 165.72119203405055 0 165.72119203405055 56.319287471447751 0 0 0 0 0.11686253329130558 2.8360032288556454 0 2.8360032288556454 0.75270972135518832 0 0 0 0 -293.78358667680664 241.97124672820007 0 241.97124672820007 -190.39517013379373 0 0 0 0 -384.89851385100337 261.72304840830475 0 261.72304840830475 -2.1189540323466645 0 0 0 0 -166.22016465552588 121.76188205756625 0 121.76188205756625 -93.933757952556334 0 0 0 0 -280.13155531450684 29.538467804514767 0 29.538467804514767 -167.30562182556605 0 0 0 0 14.203909241832712 25.680992865949179 0 25.680992865949179 6.2028475520166637 0 0 0 0 57.71341708717955 -137.54032841145272 0 -137.54032841145272 -50.656590122488751 0 0 0 0 -66.153227964765392 96.348901036742973 0 96.348901036742973 15.338522069607279 0 0 0 0 -42.984620750386966 348.45420643324906 0 348.45420643324906 -73.639338467111429 0 0 0 0 -248.04398117949313 63.79956905810468 0 63.79956905810468 21.939005158274085 0 0 0 0 -85.843121736717876 59.748977197086788 0 59.748977197086788 -25.540084774896968 0 0 0 0 -118.85485036444152 137.51034322627856 0 137.51034322627856 -65.070350189198507 0 0 0 0 9.5197448613614881 24.959307134159218 0 24.959307134159218 -8.5030280025571869 0 0 0 0 -76.317602120703668 74.62918042014644 0 74.62918042014644 -15.776502054268349 0 0 0 0 105.48085717709182 -28.619058848757049 0 -28.619058848757049 -167.79663348472968 0 0 0 0 26.039078926958609 65.918311988309142 0 65.918311988309142 -60.497665239970956 0 0 0 0 -66.485193643254746 86.613143679054204 0 86.613143679054204 -29.524783937202301 0 0 0 0 6.0522587296012773 -1.9269595042742083 0 -1.9269595042742083 -0.35734154674801744 0 0 0 0 -82.582061714550946 -31.218425922568713 0 -31.218425922568713 31.704812832686002 0 0 0 0 -0.84727066777187332 -1.0065297773213189 0 -1.0065297773213189 -2.6783007011563598 0 0 0 0 -456.60048029958125 108.08963813045557 0 108.08963813045557 41.547985062497901 0 0 0 0 172.74209733098178 -27.659903698962808 0 -27.659903698962808 -64.836594208580209 0 0 0 0 86.555708210304147 -40.622813592977764 0 -40.622813592977764 30.167697813611994 0 0 0 0 -116.38823596773727 -141.00600927999403 0 -141.00600927999403 -127.6574164777121 0 0 0 0 16.4891086514981 113.86480262083933 0 113.86480262083933 -205.16518962019472 0 0 0 0 68.890081921988894 30.865648145840169 0 30.865648145840169 -42.03432180568052 0 0 0 0 -232.23315086754155 101.67934129846617 0 101.67934129846617 78.122775643241766 0 0 0 0 3.0445638663577768 0.62305980662932825 0 0.62305980662932825 -11.421355142915246 0 0 0 0 40.308338250113593 42.100853269639629 0 42.100853269639629 17.248179984657327 0 0 0 0 -73.469132135011023 243.13165921402106 0 243.13165921402106 76.36210461409064 0 0 0 0 -83.15319880449897 60.120509278955979 0 60.120509278955979 13.27706341384328 0 0 0 0 0.51307421899250016 18.154168201654471 0 18.154168201654471 -5.9745964933852296 0 0 0 0 -6.5246374512950069 2.5610451547510991 0 2.5610451547510991 -0.78352050189926103 0 0 0 0 -85.448918956157286 -3.777151383641467 0 -3.777151383641467 -81.473393608343031 0 0 0 0 53.318153237021761 10.034061733742419 0 10.034061733742419 -43.461952487356029 0 0 0 0 104.02973102295073 190.00835398695745 0 190.00835398695745 55.225819486702676 0 0 0 0 19.7693666924024 182.52628686207026 0 182.52628686207026 140.4376017987347 0 0 0 0 2.835788043042804 26.665708608417404 0 26.665708608417404 -14.347159744171279 0 0 0 0 -58.54661570454482 346.93343041521439 0 346.93343041521439 -16.740693911695416 0 0 0 0 -5.1809972008800571 5.1319788689627899 0 5.1319788689627899 7.5504739652164545 0 0 0 0 13.513580675236881 74.781285065750126 0 74.781285065750126 -90.228793462789326 0 0 0 0 -4.051419625771814 -71.695731769763825 0 -71.695731769763825 -138.92347293358762 0 0 0 0 18.654368684994637 16.508615069226465 0 16.508615069226465 11.920828912305353 0 0 0 0 7.2410294021246955 80.027703473402653 0 80.027703473402653 -37.760738042503363 0 0 0 0 -8.1370575862383703 77.739362529271602 0 77.739362529271602 -29.726739869343874 0 0 0 0 12.931667464770726 8.216838598906179 0 8.216838598906179 -23.9329299224446 0 0 0 0 20.856204022100428 50.332315301217022 0 50.332315301217022 -9.1667104355728952 0 0 0 0 30.392940124351298 40.834972817156086 0 40.834972817156086 -47.782583782071015 0 0 0 0 48.479966327387956 17.581895896531933 0 17.581895896531933 -32.752002359375183 0 0 0 0 48.393891251238529 18.79497573304252 0 18.79497573304252 -25.341710069929832 0 0 0 0 105.8938204922888 -13.954828808604361 0 -13.954828808604361 -32.955129937516176 0 0 0 0 55.219933017957374 27.266493397994054 0 27.266493397994054 -47.175068108859705 0 0 0 0 26.132125442265533 17.976387819297088 0 17.976387819297088 -33.610466539925255 0 0 0 0 54.101021751601365 19.359670329056826 0 19.359670329056826 -48.316312478375039 0 0 0 0 13.889565810430213 37.677699191382999 0 37.677699191382999 -45.284598470374476 0 0 0 0 5.1521240556030534 25.498066341075173 0 25.498066341075173 -54.97551706910599 0 0 0 0 10.73208108934341 34.361292545661854 0 34.361292545661854 -48.641672409861712 0 0 0 0 -28.422088862149394 51.693644647544716 0 51.693644647544716 -49.11900450057874 0 0 0 0 -10.65225187674514 54.031668119463575 0 54.031668119463575 -50.947910822724225 0 0 0 0 7.5476027643308043 35.861597514303867 0 35.861597514303867 -46.076710495326552 0 0 0 0 17.664522345046862 37.556723173620412 0 37.556723173620412 -31.216940894293657 0 0 0 0 12.919329938900773 44.502972417612909 0 44.502972417612909 -34.758129514986649 0 0 0 0 24.724802934710169 25.684762026110548 0 25.684762026110548 -39.837233706999541 0 0 0 0 39.31043987472367 40.525241203305995 0 40.525241203305995 -46.171070667245658 0 0 0 0 25.974155601390521 51.300883770580185 0 51.300883770580185 -13.084068213982391 0 0 0 0 151.19950149828219 24.320763007763162 0 24.320763007763162 -86.284170517727034 0 0 0 0 118.87858792960469 43.311748995231028 0 43.311748995231028 -84.607050888967933 0 0 0 0 34.373305827291915 28.998056589171028 0 28.998056589171028 -45.174630799243459 0 0 0 0 50.222356500227761 53.971946800447768 0 53.971946800447768 -29.617773645608395 0 0 0 0 27.859694630402373 99.468135210234323 0 99.468135210234323 -103.13815949110904 0 0 0 0 -33.814822485815967 64.635667799024304 0 64.635667799024304 46.276861414247833 0 0 0 0 30.434665454755304 72.119744358657044 0 72.119744358657044 -36.393847448480301 0 0 0 0 34.863118627545191 51.579468425596133 0 51.579468425596133 -13.771225634862276 0 0 0 0 27.198577929309977 63.270114719980484 0 63.270114719980484 18.268025024255621 0 0 0 0 57.878031657295651 76.360689109435043 0 76.360689109435043 16.345977283443972 0 0 0 0 40.680977632655413 27.063736684345713 0 27.063736684345713 -32.03848169776029 0 0 0 0 69.975973501324916 58.849177565662103 0 58.849177565662103 -65.349309348530369 0 0 0 0 116.80796284416283 -24.261563277905225 0 -24.261563277905225 -101.99983835411695 0 0 0 0 47.874118791469073 25.170013599688971 0 25.170013599688971 -35.36025719197842 0 0 0 0 49.980142580199754 45.265301322686355 0 45.265301322686355 60.692306447614101 0 0 0 0 12.60431242109189 35.98158154025441 0 35.98158154025441 59.661953027251002 0 0 0 0 -374.48390552216733 276.6371171222745 0 276.6371171222745 -39.391852808766998 0 0 0 0 16.823044266267466 33.419961277731375 0 33.419961277731375 21.980260754526626 0 0 0 0 -340.34539414051687 298.38828271191596 0 298.38828271191596 -95.542272515223885 0 0 0 0 -309.1779392529279 205.89333924328821 0 205.89333924328821 24.689463845443242 0 0 0 0 -397.84420200886962 303.69691381095618 0 303.69691381095618 -18.518920233866083 0 0 0 0 -187.02254785381956 198.06437953844215 0 198.06437953844215 -73.957887907061377 0 0 0 0 -335.7647156307612 297.8097275221844 0 297.8097275221844 -65.007818554659025 0 0 0 0 -238.71522002949496 228.67593948025751 0 228.67593948025751 -103.7393674128798 0 0 0 0 -250.91037956974469 217.03470748287509 0 217.03470748287509 -60.88724830627325 0 0 0 0 -352.99388854807694 211.51623496533011 0 211.51623496533011 -43.868126024841331 0 0 0 0 -338.884831121155 346.88342344874036 0 346.88342344874036 -228.84568697349459 0 0 0 0 -353.87097357008315 298.28657289723378 0 298.28657289723378 -293.21707939961925 0 0 0 0 -763.05712701799348 169.77935930374952 0 169.77935930374952 -279.75826474239511 0 0 0 0 -860.89654615597101 510.97568139739451 0 510.97568139739451 -416.26370432482508 0 0 0 0 -895.00375673043891 218.60580950016447 0 218.60580950016447 80.905567820329452 0 0 0 0 8.6682056169290149 8.6709549169526028 0 8.6709549169526028 -4.2200989418920045 0 0 0 0 -852.83128246958222 562.25899802352433 0 562.25899802352433 -236.2602717524278 0 0 0 0 12.44660379433742 0.20037204678527587 0 0.20037204678527587 -17.318454244257566 0 0 0 0 -796.82661641515733 404.22931394591069 0 404.22931394591069 -247.60354915561038 0 0 0 0 -805.4129707114771 391.36429888101702 0 391.36429888101702 -260.89453001902439 0 0 0 0 -388.82070275751175 206.2940418234939 0 206.2940418234939 -150.61926344915992 0 0 0 0 -345.13359896221664 294.79065037924738 0 294.79065037924738 -306.60991420596838 0 0 0 0 -144.56770264339866 85.715333222831759 0 85.715333222831759 -323.25476440828061 0 0 0 0 -219.95401681857766 425.03050866330886 0 425.03050866330886 -388.02278243447654 0 0 0 0 -617.27808013446338 577.34489240713447 0 577.34489240713447 -420.61457344985683 0 0 0 0 -336.64540675259195 -2022.7096767392795 0 -2022.7096767392795 -1171.6884472871025 0 0 0 0 -183.91224828122358 131.21862504900491 0 131.21862504900491 -73.2626189024013 0 0 0 0 -9.9103439564205473 102.92274158108557 0 102.92274158108557 -182.50117757933913 0 0 0 0 146.53399198171974 71.010070968670334 0 71.010070968670334 -82.898456178987999 0 0 0 0 26.920913545407529 -95.026927051101666 0 -95.026927051101666 118.64259074313304 0 0 0 0 -528.98850548213522 200.49006859845758 0 200.49006859845758 821.64908902065508 0 0 0 0 -51.075482681632593 66.471810856805462 0 66.471810856805462 -40.399987467487442 0 0 0 0 -328.95674906001659 355.56075254383177 0 355.56075254383177 617.11115744683048 0 0 0 0 50.957647449540673 15.327339935065538 0 15.327339935065538 336.62649396096094 0 0 0 0 -48.815199701198509 69.541393918448364 0 69.541393918448364 -43.826398726581189 0 0 0 0 288.73680285448791 612.6343397617602 0 612.6343397617602 193.45360129062101 0 0 0 0 -129.55007761447632 -68.699546737465425 0 -68.699546737465425 -72.018111123477865 0 0 0 0 1267.238196117949 564.94094909501291 0 564.94094909501291 -2977.4200738218788 0 0 0 0 -70.061786602800566 245.44901564635074 0 245.44901564635074 596.94488642579381 0 0 0 0 56.37105013497785 38.223663435637718 0 38.223663435637718 188.09469444768911 0 0 0 0 -29.570871703799412 62.23672223411883 0 62.23672223411883 -42.588931665181818 0 0 0 0 -191.07281582119322 154.00063382407825 0 154.00063382407825 579.01824077153469 0 0 0 0 -441.1450751254888 99.359171439049533 0 99.359171439049533 588.27894580418251 0 0 0 0 -161.90169936172606 -139.51822133822134 0 -139.51822133822134 722.28219369842554 0 0 0 0 -222.34139611751016 -38.206148896410014 0 -38.206148896410014 565.56984025292331 0 0 0 0 -166.54867435029882 -114.73277883922856 0 -114.73277883922856 585.64192171961986 0 0 0 0 -243.68082783205318 6.6182125640261802 0 6.6182125640261802 412.75700704073824 0 0 0 0 -46.965045081014978 -270.67519493781583 0 -270.67519493781583 704.76482296545873 0 0 0 0 -113.51576066801499 -125.01680724796461 0 -125.01680724796461 388.43400442256825 0 0 0 0 -19.953203365090303 -159.75290924042929 0 -159.75290924042929 389.53769181346615 0 0 0 0 -431.4340745874797 -159.80339861518587 0 -159.80339861518587 -348.22631006932352 0 0 0 0 -36.014383440535312 151.02362584119055 0 151.02362584119055 59.527894819271751 0 0 0 0 57.667050318537804 84.733585503221548 0 84.733585503221548 -54.882961593917571 0 0 0 0 154.60066732840642 -142.65902168643515 0 -142.65902168643515 -23.844037982140435 0 0 0 0 -33.80371634101175 49.524449371827359 0 49.524449371827359 235.55085327777488 0 0 0 0 -57.463077788619557 -86.878808409783232 0 -86.878808409783232 258.76971892977599 0 0 0 0 14.936181833323644 100.91073833921109 0 100.91073833921109 74.411775736349227 0 0 0 0 38.988649692011677 232.69856986841478 0 232.69856986841478 283.38154934124032 0 0 0 0 -5.8821069222103688 29.031365548264148 0 29.031365548264148 -68.518704626269027 0 0 0 0 -29.73979898723212 48.675350144116237 0 48.675350144116237 56.305195668035594 0 0 0 0 -11.47109799655729 58.588399436834045 0 58.588399436834045 -36.683467795642869 0 0 0 0 6.3640853085034479 27.13709587013966 0 27.13709587013966 35.195268188636618 0 0 0 0 -253.00754239043454 165.60832917987136 0 165.60832917987136 235.64012151626594 0 0 0 0 -447.46366059036518 58.80228766228538 0 58.80228766228538 199.76291895910254 0 0 0 0 2.5501861620638948 8.6851410602524766 0 8.6851410602524766 1.7378893997125431 0 0 0 0 -58.934501050163817 96.784727204732917 0 96.784727204732917 -60.923391930817161 0 0 0 0 -131.37674115239861 223.85737900078311 0 223.85737900078311 -217.49795471863763 0 0 0 0 17.987268547490423 17.050507636760514 0 17.050507636760514 -27.083221257078094 0 0 0 0 -23.961481618851394 62.015562545762805 0 62.015562545762805 -46.224677032165346 0 0 0 0 12.307494172353472 46.355077858956065 0 46.355077858956065 -39.462879409104062 0 0 0 0 -13.119658962757967 73.730599415895995 0 73.730599415895995 -6.9707884992494655 0 0 0 0 36.567329232915654 53.042572371807182 0 53.042572371807182 -38.143277602044691 0 0 0 0 -34.931742153232335 76.270287145162001 0 76.270287145162001 -44.692098269151757 0 0 0 0 49.140249287447659 76.035882167809177 0 76.035882167809177 -56.951415871677455 0 0 0 0 36.689613554335665 105.14014429387589 0 105.14014429387589 75.298899497480306 0 0 0 0 23.926423046834145 35.590970568106457 0 35.590970568106457 -39.126277884865303 0 0 0 0 32.751481542123656 62.066353786700347 0 62.066353786700347 -58.189723746862001 0 0 0 0 29.133518018657924 65.836295980989235 0 65.836295980989235 35.007908164661785 0 0 0 0 53.663172574135388 95.248442257929128 0 95.248442257929128 18.025329229079944 0 0 0 0 26.787606006510032 80.133787617425696 0 80.133787617425696 20.354551792908751 0 0 0 0 4.838647988515504 48.175690187101011 0 48.175690187101011 -51.626087847366534 0 0 0 0 26.750897998073924 133.56211523692491 0 133.56211523692491 0.81781301747105317 0 0 0 0 0.05715932440944016 177.87899935329187 0 177.87899935329187 29.960121655563853 0 0 0 0 -62.666934533583117 87.156997533631511 0 87.156997533631511 51.124482132232515 0 0 0 0 -36.643076852793456 113.0267975584793 0 113.0267975584793 76.542311712997616 0 0 0 0 -13.119735435966504 80.333385739407277 0 80.333385739407277 6.7468304920039373 0 0 0 0 -8.530858835685649 102.20183523926607 0 102.20183523926607 34.014702399741509 0 0 0 0 -23.036979820841225 85.636865813543409 0 85.636865813543409 15.208516807775595 0 0 0 0 7.0136677835835144 55.052911123286322 0 55.052911123286322 -4.4675443321248167 0 0 0 0 4.8779907386488048 94.878923997643142 0 94.878923997643142 18.252169675005462 0 0 0 0 -27.996943946171086 75.83100940217264 0 75.83100940217264 12.210222457943019 0 0 0 0 -4.3765888777998043 58.784260419652128 0 58.784260419652128 -21.550059874571161 0 0 0 0 10.392951498761249 62.206440988004942 0 62.206440988004942 -12.422419237191207 0 0 0 0 -11.758932231343351 42.244233025587164 0 42.244233025587164 -26.821828567968623 0 0 0 0 -8.5389737912919372 25.446459167244029 0 25.446459167244029 -74.598199766158359 0 0 0 0 9.7296598579085583 7.0406966783644833 0 7.0406966783644833 3.9047371265967996 0 0 0 0 -40.614544680080144 10.702117024469771 0 10.702117024469771 17.281200623270706 0 0 0 0 -9.1332161405989609 76.549007370106665 0 76.549007370106665 -82.930680411678622 0 0 0 0 5.939653405156804 8.4043110064955613 0 8.4043110064955613 7.0564626737920619 0 0 0 0 8.4742682878932101 52.037227328739391 0 52.037227328739391 -90.310449855744082 0 0 0 0 0.68139234677073546 54.73011620764737 0 54.73011620764737 -41.497982930472062 0 0 0 0 -38.235897810474853 26.454545529224561 0 26.454545529224561 -35.716811516158486 0 0 0 0 -43.947490447433665 50.989325882175763 0 50.989325882175763 -4.4838366706753732 0 0 0 0 3.453521887131501 198.64383684242421 0 198.64383684242421 -342.2300457973015 0 0 0 0 -50.28643307267339 1.5747581417672336 0 1.5747581417672336 32.554412241646787 0 0 0 0 -29.206105375560583 68.696796594413172 0 68.696796594413172 12.734242723206989 0 0 0 0 5.8515340020694282 4.7236017810743078 0 4.7236017810743078 2.1539451180356224 0 0 0 0 4.6974918448426024 5.1573195714107811 0 5.1573195714107811 4.645620021481065 0 0 0 0 62.179484217864228 26.232038793728861 0 26.232038793728861 -32.371555542697024 0 0 0 0 -76.39334624777257 28.620703073684126 0 28.620703073684126 -225.08406850751635 0 0 0 0 -202.53566037245037 84.774066796951047 0 84.774066796951047 39.290034126941464 0 0 0 0 -152.62501800531754 111.66850576220713 0 111.66850576220713 -117.25057015988568 0 0 0 0 58.428021758474642 177.52864772926841 0 177.52864772926841 -358.4106612515352 0 0 0 0 87.537031408523035 23.641398274769017 0 23.641398274769017 -103.87415038945619 0 0 0 0 13.33486464098678 157.96467329623192 0 157.96467329623192 -80.844796709076036 0 0 0 0 108.00666013653972 -61.254262897615263 0 -61.254262897615263 -266.26639696823258 0 0 0 0 -2.00737595026294 87.400404233336303 0 87.400404233336303 10.153546421090141 0 0 0 0 -2.2722498018447368 8.2900480576099653 0 8.2900480576099653 -74.777429158406449 0 0 0 0 -37.204144269460812 16.83352668425141 0 16.83352668425141 64.373014418390085 0 0 0 0 -36.003569020715076 175.35278473242579 0 175.35278473242579 -24.352045862291561 0 0 0 0 94.924334262261254 60.781939182799761 0 60.781939182799761 -162.817318513793 0 0 0 0 -125.7009532328666 127.84981542157766 0 127.84981542157766 -159.6834484562205 0 0 0 0 -7.7674837658087199 13.320924376086623 0 13.320924376086623 -269.08892698111595 0 0 0 0 -22.728118291008286 84.953837703196768 0 84.953837703196768 -123.6549467464647 0 0 0 0 2.0992106672537147 1.8986083554418229 0 1.8986083554418229 1.0223938299278217 0 0 0 0 48.877478273359884 170.81369396904847 0 170.81369396904847 -380.87089033467237 0 0 0 0 -520.74093634038582 161.53518881014315 0 161.53518881014315 540.02899546800472 0 0 0 0 445.38160977924417 271.86605157032318 0 271.86605157032318 3.8593732130684657 0 0 0 0 133.20534861533088 -7.9647988147225988 0 -7.9647988147225988 -14.333685698980844 0 0 0 0 1.1631842922053011 1.9338180510168854 0 1.9338180510168854 2.2502011876053416 0 0 0 0 -39.823105683861741 -107.12636327258406 0 -107.12636327258406 326.86956640516291 0 0 0 0 -329.3514632546503 111.52699072043106 0 111.52699072043106 352.47993388146278 0 0 0 0 9.3378648357195999 33.271966060001176 0 33.271966060001176 -10.117728169756276 0 0 0 0 746.78059603006113 -54.820377675816417 0 -54.820377675816417 166.30666612676578 0 0 0 0 -89.22568944691011 94.893629637976119 0 94.893629637976119 -54.108358867277275 0 0 0 0 -55.655650325266421 62.332905482305151 0 62.332905482305151 -32.339204487525365 0 0 0 0 -118.28360975960095 118.32537751767813 0 118.32537751767813 -35.394179241600796 0 0 0 0 -10.276157496162341 -12.229379068536218 0 -12.229379068536218 -73.135249246901367 0 0 0 0 -138.75944955898331 5.3748927135852682 0 5.3748927135852682 17.219038245268166 0 0 0 0 -32.207534423694597 -45.495592347651836 0 -45.495592347651836 41.27547028864501 0 0 0 0 23.312595176321338 37.323142094777722 0 37.323142094777722 53.6398374944838 0 0 0 0 -33.771563980539213 -66.178934882598696 0 -66.178934882598696 44.759951904937225 0 0 0 0 -16.355389224823739 -123.72679383503055 0 -123.72679383503055 -183.97417307150317 0 0 0 0 -207.10436152981856 161.24698742754845 0 161.24698742754845 -10.279778045851344 0 0 0 0 27.475191230292694 28.848919907981326 0 28.848919907981326 -258.07620562739612 0 0 0 0 -47.236757433624007 98.211388953466667 0 98.211388953466667 0.16675547977501992 0 0 0 0 13.848265178676229 47.042759174022649 0 47.042759174022649 -61.783701710164678 0 0 0 0 427.9169684756198 -15.542553019156912 0 -15.542553019156912 116.18364444814506 0 0 0 0 -54.67874114512118 52.598418291894312 0 52.598418291894312 -39.588359743215165 0 0 0 0 -26.423768874301459 216.43914100868278 0 216.43914100868278 19.038569421038119 0 0 0 0 16.885548444435699 201.58725940654222 0 201.58725940654222 -165.27084128224669 0 0 0 0 2.9188663213717518 60.243249194390955 0 60.243249194390955 -155.27672006320813 0 0 0 0 -28.521511719744012 54.273634192728423 0 54.273634192728423 -40.651024027727544 0 0 0 0 -49.825678617181524 55.183548027305818 0 55.183548027305818 -33.333606313966563 0 0 0 0 -66.853749695987062 61.116164054546971 0 61.116164054546971 -35.307075546035776 0 0 0 0 -119.41781776292919 120.97134337315219 0 120.97134337315219 -60.320337030345399 0 0 0 0 -25.317819784278981 78.879139302793192 0 78.879139302793192 -50.589172328132918 0 0 0 0 -52.576094289721368 68.579446536483374 0 68.579446536483374 -15.541610125706939 0 0 0 0 -28.434400877378721 43.23371383441463 0 43.23371383441463 0.86496590711612953 0 0 0 0 -25.351070136392082 75.050349236025795 0 75.050349236025795 -36.689476411243959 0 0 0 0 -19.992671100524603 66.608679124582522 0 66.608679124582522 -37.692450515925884 0 0 0 0 -4.2227962334727636 44.961937233352728 0 44.961937233352728 32.059072742391436 0 0 0 0 -7.8010329707758501 63.034986674734682 0 63.034986674734682 15.035651849231726 0 0 0 0 -20.605146107397211 29.395830590713885 0 29.395830590713885 13.39228436383641 0 0 0 0 -0.057506057208016159 32.968389038698632 0 32.968389038698632 11.707641661772783 0 0 0 0 3.5159534733482545 31.279139360700995 0 31.279139360700995 -12.557541953000481 0 0 0 0 -7.7588127305352828 63.041948707657866 0 63.041948707657866 -4.5387838009705774 0 0 0 0 -15.458191191224614 23.597077005888877 0 23.597077005888877 -7.7813102808650001 0 0 0 0 -31.120508332234749 49.180553433179739 0 49.180553433179739 6.5340842518635327 0 0 0 0 -20.244744612025368 34.611440459160818 0 34.611440459160818 19.069389303725245 0 0 0 0 38.275449780536292 3.4320438088398078 0 3.4320438088398078 -74.758552302228054 0 0 0 0 21.926420494361082 45.670379178998701 0 45.670379178998701 -11.046102983978926 0 0 0 0 -2.0944131411538578 26.616231571272973 0 26.616231571272973 -24.951204342327628 0 0 0 0 3.2400926092719828 22.387263128452602 0 22.387263128452602 -33.922642871678107 0 0 0 0 54.103486063599121 51.493030068195367 0 51.493030068195367 -74.77097190747736 0 0 0 0 -11.986683067582774 43.862653769190899 0 43.862653769190899 -19.28393771651406 0 0 0 0 37.233568855084741 144.42801042228893 0 144.42801042228893 10.444574501463649 0 0 0 0 152.70623147883452 116.38841980000871 0 116.38841980000871 -74.973817600097391 0 0 0 0 136.75830460534053 88.071101023444498 0 88.071101023444498 -119.39039770551608 0 0 0 0 5.398112004474811 1.950677899593245 0 1.950677899593245 -5.3891651290086884 0 0 0 0 136.46385140987695 144.33084393272293 0 144.33084393272293 -114.83272605767706 0 0 0 0 227.32211760683276 261.01536888902774 0 261.01536888902774 95.723296498501441 0 0 0 0 165.77082419744693 84.409905686261482 0 84.409905686261482 -31.08486450224882 0 0 0 0 203.25996289474278 110.59420001299441 0 110.59420001299441 -140.12781250983244 0 0 0 0 191.61293122079223 96.381570999277756 0 96.381570999277756 -84.51271933800308 0 0 0 0 210.19006166496547 77.427480160309642 0 77.427480160309642 -119.07562314750976 0 0 0 0 219.07097100728424 93.71682310680626 0 93.71682310680626 -107.04783989355201 0 0 0 0 206.54389798827469 117.13639486077591 0 117.13639486077591 -62.674943477672059 0 0 0 0 162.91191302391235 50.420279212525202 0 50.420279212525202 -113.69633805277408 0 0 0 0 115.13510917837266 28.816436272813007 0 28.816436272813007 -123.46522147667565 0 0 0 0 190.93753784218279 44.808128665012191 0 44.808128665012191 -131.62812726892298 0 0 0 0 123.16784778554575 13.350069552194327 0 13.350069552194327 -129.73271676502191 0 0 0 0 210.44563452166039 40.36523786993348 0 40.36523786993348 -141.0204370507272 0 0 0 0 220.4005528272246 94.263957134215161 0 94.263957134215161 -107.88065613716026 0 0 0 0 201.64975801602122 80.783923040144145 0 80.783923040144145 -108.4064718078007 0 0 0 0 235.81689084417394 89.784488881273774 0 89.784488881273774 -121.93886963144178 0 0 0 0 271.34379978687502 115.302534465387 0 115.302534465387 -106.72100000458886 0 0 0 0 238.71080241122399 61.584709598035261 0 61.584709598035261 -114.4210274752113 0 0 0 0 234.99604028489557 121.67888969380874 0 121.67888969380874 -79.032459012640174 0 0 0 0 217.37160672183222 32.768624531394835 0 32.768624531394835 -157.80503000412136 0 0 0 0 218.11534986805054 75.067615967651363 0 75.067615967651363 -119.20590847448329 0 0 0 0 233.08931828792265 85.172294129632064 0 85.172294129632064 -35.223990415572189 0 0 0 0 251.69435442585382 89.228837330112583 0 89.228837330112583 -140.8471037365307 0 0 0 0 316.98418566017062 94.057737995375646 0 94.057737995375646 -119.93742436416505 0 0 0 0 309.67438135143129 173.16491978045815 0 173.16491978045815 -65.675166240020189 0 0 0 0 226.90220715629403 178.3780309392605 0 178.3780309392605 -2.1468588102434296 0 0 0 0 196.91817966126109 136.54676076181931 0 136.54676076181931 -19.727594814205077 0 0 0 0 212.63976495793759 156.64645261645637 0 156.64645261645637 -22.367008214001544 0 0 0 0 233.56576276457054 137.43211770631024 0 137.43211770631024 -71.949379070327268 0 0 0 0 233.60698570500244 117.16637643583817 0 117.16637643583817 -87.338033725915011 0 0 0 0 234.98697451554472 115.31311019336863 0 115.31311019336863 -86.053584407898597 0 0 0 0 -138.96029081656889 -64.644631755552837 0 -64.644631755552837 -74.326830326812342 0 0 0 0 68.067624788673129 -30.927565855381545 0 -30.927565855381545 -142.97374245620449 0 0 0 0 -45.872225943265221 -59.036048319521797 0 -59.036048319521797 -119.74709635326872 0 0 0 0 -59.173373873956734 -8.2997437370067928 0 -8.2997437370067928 -67.402133636758663 0 0 0 0 -18.213532018358819 -4.074985977873439 0 -4.074985977873439 -71.404526782222092 0 0 0 0 93.563389797629497 -24.985141072480474 0 -24.985141072480474 -132.06351313233608 0 0 0 0 63.685589551867452 -3.3704044751066249 0 -3.3704044751066249 -97.081073742796434 0 0 0 0 75.802515901741572 -41.567591586805065 0 -41.567591586805065 -153.46164768311428 0 0 0 0 130.64990090939682 -2.3074312727549113 0 -2.3074312727549113 -141.06999505481508 0 0 0 0 157.57771479297662 28.872334583531483 0 28.872334583531483 -109.57052746613044 0 0 0 0 168.55471802625107 24.411677407362731 0 24.411677407362731 -200.00817401596578 0 0 0 0 94.754542104696156 10.451714056252968 0 10.451714056252968 -116.78190711696516 0 0 0 0 194.82825545602827 -3.496098174189683 0 -3.496098174189683 -150.24642582246452 0 0 0 0 108.49019446142484 5.74124523314822 0 5.74124523314822 -241.30507675406989 0 0 0 0 -22.855018570175162 -130.82381567868288 0 -130.82381567868288 -196.359978935041 0 0 0 0 -172.2831470639594 -214.25778599758451 0 -214.25778599758451 -218.8255001004145 0 0 0 0 36.158641526388237 -123.1240935429887 0 -123.1240935429887 -417.03160094839404 0 0 0 0 -4.9572723280493705 4.3468948007272061 0 4.3468948007272061 2.2290500123316406 0 0 0 0 103.88855077003245 477.30031268810126 0 477.30031268810126 320.73929666874892 0 0 0 0 -0.93599267431818589 4.5710081456962186 0 4.5710081456962186 -5.7329261415575843 0 0 0 0 93.232077050008229 235.03423980124353 0 235.03423980124353 -369.05650939699262 0 0 0 0 -339.89720523016513 169.61012894291343 0 169.61012894291343 78.837528145159013 0 0 0 0 116.51866249455634 62.097406808352389 0 62.097406808352389 278.6638655433926 0 0 0 0 63.280315077307023 237.00804863533631 0 237.00804863533631 40.695049173868028 0 0 0 0 320.18446355373453 121.4938761036392 0 121.4938761036392 44.769423148722126 0 0 0 0 3.584897257394914 5.0502202312854934 0 5.0502202312854934 11.7254659999453 0 0 0 0 31.720696168329596 17.963201862883579 0 17.963201862883579 -1.0058658571724663 0 0 0 0 391.68631238373928 210.79227994437679 0 210.79227994437679 -32.670604303733853 0 0 0 0 380.96207457422861 45.209842920914525 0 45.209842920914525 -24.578327580828045 0 0 0 0 -6.2714541216157542 5.8805322815858503 0 5.8805322815858503 4.3435968612885745 0 0 0 0 138.38247267397674 112.7273227523583 0 112.7273227523583 126.62955988360045 0 0 0 0 29.239063476445153 18.779237800070405 0 18.779237800070405 3.8366751481808024 0 0 0 0 93.942343525064643 94.486879593714548 0 94.486879593714548 165.21987245381388 0 0 0 0 165.37770866556457 183.14185054391965 0 183.14185054391965 184.3829231193522 0 0 0 0 -8.5815088007730083 -0.11390247299277689 0 -0.11390247299277689 17.040556397492765 0 0 0 0 300.16015123567195 343.68663769739942 0 343.68663769739942 260.79920548327118 0 0 0 0 -3.8342932041284143 4.977089507725438 0 4.977089507725438 -4.604119338026635 0 0 0 0 -29.837527640309418 -39.478227830320975 0 -39.478227830320975 252.75271099664678 0 0 0 0 -423.96983543955139 10.176475541498803 0 10.176475541498803 113.17394187098034 0 0 0 0 193.92045135256922 -88.845922651911678 0 -88.845922651911678 -105.66540659676684 0 0 0 0 -373.79365141472226 378.04842489680595 0 378.04842489680595 391.25704285215579 0 0 0 0 86.236191722717194 -114.05249772798561 0 -114.05249772798561 -632.29910159559222 0 0 0 0 -3.3530556030956546 2.0073508116513707 0 2.0073508116513707 -0.90880551139611043 0 0 0 0 -547.19279319174166 302.83393912338397 0 302.83393912338397 414.28657256130828 0 0 0 0 -31.950066009490911 54.50240408708305 0 54.50240408708305 -22.800108250579797 0 0 0 0 -8.7268689464253839 -17.557648173038615 0 -17.557648173038615 -147.81630762693385 0 0 0 0 13.502249514460345 180.39453401289029 0 180.39453401289029 -125.78560582244245 0 0 0 0 -13.3585634588635 157.55143311672873 0 157.55143311672873 -139.77197973782313 0 0 0 0 42.89323401870206 149.50666830028786 0 149.50666830028786 -234.77678142895456 0 0 0 0 33.394052607589401 208.79535855579888 0 208.79535855579888 -144.36357935772685 0 0 0 0 55.093777440401027 130.34222324410803 0 130.34222324410803 -128.86137593472813 0 0 0 0 199.20826427334396 575.96491215690912 0 575.96491215690912 -404.59535024645447 0 0 0 0 280.3594512741256 330.14859945827629 0 330.14859945827629 -698.25552788638743 0 0 0 0 50.582762901540264 142.65974641346838 0 142.65974641346838 -264.34149739643908 0 0 0 0 -46.105473727897333 146.55410756997298 0 146.55410756997298 150.09843683934014 0 0 0 0 4.7993306559219491 480.15247686128714 0 480.15247686128714 15.79530647584761 0 0 0 0 224.52716904479439 -467.66490073885598 0 -467.66490073885598 795.30036911685602 0 0 0 0 352.53017139712756 140.01067831119144 0 140.01067831119144 66.345659709433676 0 0 0 0 2.3966603182727297 4.4441178079894144 0 4.4441178079894144 16.128644111959176 0 0 0 0 261.83545519224572 -334.5185097736321 0 -334.5185097736321 302.0296321437927 0 0 0 0 -28.29867012386967 -249.56637533895264 0 -249.56637533895264 1322.3690628212062 0 0 0 0 -110.99861720792251 -122.75680258663488 0 -122.75680258663488 694.28599593164836 0 0 0 0 -9.1190681029256666 -270.15672834263387 0 -270.15672834263387 903.8629612607765 0 0 0 0 229.28049476907108 548.20204706068034 0 548.20204706068034 466.10121317765152 0 0 0 0 -989.16274421873823 -115.95127917100035 0 -115.95127917100035 663.43851718724181 0 0 0 0 -338.060878082626 -15.118240953965142 0 -15.118240953965142 -43.390631438131095 0 0 0 0 -2.3091949125778015 2.357932245241507 0 2.357932245241507 2.4806464425368802 0 0 0 0 712.20694440993975 782.65085248740979 0 782.65085248740979 532.3892408770771 0 0 0 0 272.5796493293019 184.2050510202389 0 184.2050510202389 276.94990930164477 0 0 0 0 108.21066194570085 316.05531322513343 0 316.05531322513343 238.89258843187417 0 0 0 0 257.49000507134588 302.81916949834158 0 302.81916949834158 256.73270219261758 0 0 0 0 -91.693973165209172 102.39224985201145 0 102.39224985201145 -43.181906624984549 0 0 0 0 -5.3014099316587959 5.0971484588711427 0 5.0971484588711427 4.6622985193840236 0 0 0 0 1.0069643735535863 -1.3605542655167113 0 -1.3605542655167113 1.6153347973778978 0 0 0 0 297.64933313478832 -72.227062664416735 0 -72.227062664416735 -243.24673278728733 0 0 0 0 11.106828479802061 -258.20628891646629 0 -258.20628891646629 -187.37638346285894 0 0 0 0 92.411465303451735 26.780758319347996 0 26.780758319347996 -16.269585940674006 0 0 0 0 -166.63893987386564 -205.64468781769028 0 -205.64468781769028 213.86857611476444 0 0 0 0 0.14367553669657696 -2.2862069874512017 0 -2.2862069874512017 4.8932304852491768 0 0 0 0 83.127193754960899 108.30099227510073 0 108.30099227510073 71.977095389794158 0 0 0 0 -48.929344406002201 291.69129473548674 0 291.69129473548674 339.77101852077612 0 0 0 0 -150.04610268207762 136.29803446227015 0 136.29803446227015 1007.7360584530688 0 0 0 0 195.01597846444929 88.944882374060398 0 88.944882374060398 233.45961863161938 0 0 0 0 158.14315938155778 -266.09639777854318 0 -266.09639777854318 309.21177114149759 0 0 0 0 -787.60922067061438 523.20667993347161 0 523.20667993347161 1474.1878137714812 0 0 0 0 760.8704910040542 -483.69950076178793 0 -483.69950076178793 794.83601810711843 0 0 0 0 -130.11263382871402 35.829642479948234 0 35.829642479948234 673.15581378247589 0 0 0 0 -110.1508499639458 167.45074527076213 0 167.45074527076213 998.26780574158693 0 0 0 0 -97.719421070403769 92.119540010156925 0 92.119540010156925 1454.5531167801455 0 0 0 0 434.37949944566208 643.53084760195634 0 643.53084760195634 855.31985617376631 0 0 0 0 -158.6231831733021 321.02194027036603 0 321.02194027036603 673.4475623810722 0 0 0 0 209.50924723033677 222.18086075338215 0 222.18086075338215 219.895794185868 0 0 0 0 -68.56555885556736 312.70247637971624 0 312.70247637971624 210.77594070821942 0 0 0 0 116.7520618087248 404.4523869260766 0 404.4523869260766 -188.96926847851137 0 0 0 0 -39.994945421203738 198.05815917556902 0 198.05815917556902 -143.73801636768621 0 0 0 0 93.692542733217124 178.29474518288043 0 178.29474518288043 -400.57573253723967 0 0 0 0 23.282110510783241 257.59264234367583 0 257.59264234367583 -183.21458715933841 0 0 0 0 152.0611241674269 92.353655097198498 0 92.353655097198498 -557.37633460588404 0 0 0 0 118.56970134881959 -298.91498069189225 0 -298.91498069189225 -60.104703796998365 0 0 0 0 -485.72504701575963 476.60683432932274 0 476.60683432932274 -90.845580089917348 0 0 0 0 -0.71987566371586809 -1.3860634324297081 0 -1.3860634324297081 -3.6267579527737439 0 0 0 0 -1.1357607299432857 -35.50546932762154 0 -35.50546932762154 -141.39443381721503 0 0 0 0 -177.29747204381738 299.81320477796544 0 299.81320477796544 -201.88832346361596 0 0 0 0 453.91919838832473 -195.43527746195468 0 -195.43527746195468 -227.37396083964268 0 0 0 0 24.94430911728341 78.011593256935157 0 78.011593256935157 -360.06842727036565 0 0 0 0 104.91645903732569 158.66770925810852 0 158.66770925810852 -388.58152006569435 0 0 0 0 -167.61471328763014 -49.28465945484254 0 -49.28465945484254 80.05561893399863 0 0 0 0 4.1464383747704971 4.9832389938023027 0 4.9832389938023027 4.6884834996584743 0 0 0 0 27.091647667853977 87.318775361220105 0 87.318775361220105 29.095839613379212 0 0 0 0 275.00059356872953 -88.503855761213345 0 -88.503855761213345 -96.282518614258152 0 0 0 0 163.30454057465977 188.78579402108153 0 188.78579402108153 -132.22625781782699 0 0 0 0 -0.1992178948073402 -2.7405664718486662 0 -2.7405664718486662 -11.761887893803703 0 0 0 0 -129.44408528810163 161.53589379523328 0 161.53589379523328 -161.20993559532144 0 0 0 0 53.539690966703347 52.157260375039186 0 52.157260375039186 -225.67402994004078 0 0 0 0 30.912938093861158 79.987806069213548 0 79.987806069213548 -90.899787253438262 0 0 0 0 94.125594299708609 152.32433718609173 0 152.32433718609173 68.526111950079212 0 0 0 0 -20.059513901993341 -5.2542425673746038 0 -5.2542425673746038 9.5615300010686042 0 0 0 0 8.7355081316018186 55.226307457181974 0 55.226307457181974 -25.792656746874854 0 0 0 0 61.512941942208272 63.965080799651332 0 63.965080799651332 -147.47166307706357 0 0 0 0 70.140991750980902 21.047984061175157 0 21.047984061175157 -120.58051525702467 0 0 0 0 22.345120987556584 70.016229022658081 0 70.016229022658081 -127.52873693584115 0 0 0 0 44.186931615789945 77.218206677687704 0 77.218206677687704 -135.31623318544007 0 0 0 0 358.40283120288586 252.82307128002503 0 252.82307128002503 -0.41851541214055032 0 0 0 0 115.76506060386237 92.162960096446113 0 92.162960096446113 -132.20006265866687 0 0 0 0 87.694127908105656 28.840456065170656 0 28.840456065170656 -108.16504342114786 0 0 0 0 35.753177793136274 39.977871178365604 0 39.977871178365604 -77.366929003968835 0 0 0 0 -6.9068800340846792 25.345800440669336 0 25.345800440669336 -91.173830491316039 0 0 0 0 35.327080529954401 29.188731869639014 0 29.188731869639014 -97.929609880106 0 0 0 0 -18.409395460803353 62.107718577070045 0 62.107718577070045 -41.17306178725994 0 0 0 0 46.437694893706066 -12.462437526508438 0 -12.462437526508438 -32.502440533760819 0 0 0 0 1.8000834906491789 -3.5178924045178519 0 -3.5178924045178519 -18.86760811955736 0 0 0 0 316.49714378106 246.58807779151903 0 246.58807779151903 -33.253539137120242 0 0 0 0 3.5926152425491864 0.32564005839046217 0 0.32564005839046217 -4.0959129758752937 0 0 0 0 25.650464150581683 -39.67315751670867 0 -39.67315751670867 -31.091936694836477 0 0 0 0 205.14077293904847 -0.95193460246082395 0 -0.95193460246082395 -91.200043751807243 0 0 0 0 305.68364646322516 515.29512101847286 0 515.29512101847286 39.887537803952 0 0 0 0 617.19225252945785 537.74095626176336 0 537.74095626176336 39.397341836200212 0 0 0 0 466.95938078872132 335.4778492056721 0 335.4778492056721 229.51989963607411 0 0 0 0 1.4660765833210831 4.18765339175593 0 4.18765339175593 0.92306158384798209 0 0 0 0 1.8622345693816555 1.5956361958784413 0 1.5956361958784413 -2.4607785214745377 0 0 0 0 657.20479065297695 73.099529933198937 0 73.099529933198937 -95.841311136231525 0 0 0 0 -9.8545748094038572 3.0848937247574213 0 3.0848937247574213 85.98054447506729 0 0 0 0 35.813842143830698 -41.334980838957563 0 -41.334980838957563 71.895963221642887 0 0 0 0 7.6569423074534484 13.560746230381923 0 13.560746230381923 -5.0845055030477226 0 0 0 0 -16.981400542863412 24.442279209193657 0 24.442279209193657 114.88288156953058 0 0 0 0 -20.397812014896772 81.879164489626419 0 81.879164489626419 133.94668083573924 0 0 0 0 -153.93339572707919 340.09232257540862 0 340.09232257540862 -163.6831021174512 0 0 0 0 26.58255156344967 129.56400516873691 0 129.56400516873691 31.378129747958155 0 0 0 0 5.4488736204948509 44.923248717255774 0 44.923248717255774 83.526023154561699 0 0 0 0 24.119578256715613 44.686534625743661 0 44.686534625743661 6.2808404969546245 0 0 0 0 1.417361619920058 13.698531912325109 0 13.698531912325109 -0.82832046671755677 0 0 0 0 32.775672472518636 3.7696552311244886 0 3.7696552311244886 -22.122033667386859 0 0 0 0 3.7227798868261743 21.78765028520138 0 21.78765028520138 -2.4426687786981347 0 0 0 0 2.237917748883774 26.844052698550513 0 26.844052698550513 42.808426209216123 0 0 0 0 -5.2795156235570175 -13.982324359768427 0 -13.982324359768427 29.499625324708177 0 0 0 0 8.9944828931256779 42.876243724211236 0 42.876243724211236 -197.26424283498636 0 0 0 0 -2.5120320879284463 1.1234852924747543 0 1.1234852924747543 0.084886001684139956 0 0 0 0 -3.5831942061713562 31.050596609054082 0 31.050596609054082 -1.2294995252304943 0 0 0 0 6.8390065863605685 13.762859395874997 0 13.762859395874997 12.952816493317812 0 0 0 0 -2.1051670356991963 24.369152579474758 0 24.369152579474758 -2.119501151406439 0 0 0 0 8.6380954980704701 20.377572505582066 0 20.377572505582066 -4.3909076001364156 0 0 0 0 9.6125682472441554 11.1611718757853 0 11.1611718757853 4.4902287748055585 0 0 0 0 53.77624845151081 89.7642216011252 0 89.7642216011252 -77.278729662881233 0 0 0 0 8.8798674450226827 26.127404874379863 0 26.127404874379863 -5.3916381823655684 0 0 0 0 -101.77011811401462 227.68211462670297 0 227.68211462670297 -31.156636714731576 0 0 0 0 -68.284690968277573 -96.791227978254028 0 -96.791227978254028 43.105399574462353 0 0 0 0 7.2546570641823678 7.5383311099403159 0 7.5383311099403159 6.9688192682003489 0 0 0 0 51.584315504420374 -7.454603257625422 0 -7.454603257625422 -27.069887620746158 0 0 0 0 -41.11711997637758 72.943306254255731 0 72.943306254255731 -0.18955593614373356 0 0 0 0 -5.1575015365233412 14.430698208016111 0 14.430698208016111 -10.296033321352297 0 0 0 0 -2.4600543547494453 22.437731048496062 0 22.437731048496062 10.916567161992134 0 0 0 0 9.1993559945333345 12.882694065750854 0 12.882694065750854 13.663953486208271 0 0 0 0 -23.795179133914644 43.186356280035398 0 43.186356280035398 -24.204486281581922 0 0 0 0 -193.0879798402093 50.271703376994992 0 50.271703376994992 94.636726446435205 0 0 0 0 -63.967244360595942 45.879254875704646 0 45.879254875704646 -2.6364553114399314 0 0 0 0 -37.950414507446112 1.9578150394372642 0 1.9578150394372642 -77.261054711343604 0 0 0 0 -3.8008657037719047 0.51338109146988131 0 0.51338109146988131 3.2518084506124296 0 0 0 0 -164.57853574830369 148.93569730952731 0 148.93569730952731 -49.658120988169685 0 0 0 0 -140.77908373684477 180.38112438168901 0 180.38112438168901 -39.427389534394024 0 0 0 0 -385.96201565839874 173.64601063961891 0 173.64601063961891 57.219618969626026 0 0 0 0 -317.20359066039236 440.20456181955524 0 440.20456181955524 5.2660688631949597 0 0 0 0 -189.87372917270113 232.28930019603285 0 232.28930019603285 -99.108365088637584 0 0 0 0 -239.82066348857188 130.33499105427472 0 130.33499105427472 -26.634748515367392 0 0 0 0 -363.82701463415287 353.26536890918214 0 353.26536890918214 -114.51838432485874 0 0 0 0 -665.95000943763262 537.03210270709314 0 537.03210270709314 -21.398774520785082 0 0 0 0 -709.43290318764775 149.16829634028909 0 149.16829634028909 120.47129861404574 0 0 0 0 -639.1070348572066 254.60682062259548 0 254.60682062259548 0.31107022216019686 0 0 0 0 -1014.0747415616679 368.58222422119798 0 368.58222422119798 -34.04924472435232 0 0 0 0 -179.05138781979804 -107.6366507084258 0 -107.6366507084258 -77.239414072675572 0 0 0 0 -239.24885284068296 309.5653092306311 0 309.5653092306311 -483.74414425442228 0 0 0 0 -6.7671869040920001 4.8265946985995782 0 4.8265946985995782 0.89320546411696711 0 0 0 0 -414.52752579891239 603.78732170875446 0 603.78732170875446 -199.75989830379149 0 0 0 0 -362.91283069634937 318.22423879440521 0 318.22423879440521 160.87423624900111 0 0 0 0 -395.93455711038769 184.14509933600493 0 184.14509933600493 -308.79433548441739 0 0 0 0 -122.99807186597172 694.71991285759577 0 694.71991285759577 94.269933613104513 0 0 0 0 -311.09936087802635 451.86203773150555 0 451.86203773150555 -65.142775540865841 0 0 0 0 -345.65952141152593 541.7506232973501 0 541.7506232973501 -286.21771400135185 0 0 0 0 -347.51935565071472 633.41472552981577 0 633.41472552981577 -37.38568614567339 0 0 0 0 -386.98144377934295 800.04768813895316 0 800.04768813895316 -635.24631209776271 0 0 0 0 -54.951363497453713 703.06548015776934 0 703.06548015776934 -1539.2515141803233 0 0 0 0 -118.64877243863884 213.50199380175036 0 213.50199380175036 -347.74456985559664 0 0 0 0 -251.99801730115723 377.03069782994135 0 377.03069782994135 -305.02233624394285 0 0 0 0 -193.37450374350738 319.83526181017805 0 319.83526181017805 -625.0600136376172 0 0 0 0 -80.93316919013705 210.72294142122109 0 210.72294142122109 -251.18805734960188 0 0 0 0 -198.68574937696394 207.44916093289794 0 207.44916093289794 -227.0327646404694 0 0 0 0 -180.42079862855462 222.18759206750838 0 222.18759206750838 -140.57540242379764 0 0 0 0 -101.91350787609554 91.08437384658464 0 91.08437384658464 -165.87264956857143 0 0 0 0 4.7998020922958062 7.5871829488713161 0 7.5871829488713161 9.6024888818975853 0 0 0 0 -79.678268701012712 218.17850431925035 0 218.17850431925035 -223.12675690240212 0 0 0 0 -175.78088688044227 307.59625401284575 0 307.59625401284575 -294.11724830458934 0 0 0 0 -234.88074346507346 303.42897299660399 0 303.42897299660399 -170.96864692130475 0 0 0 0 41.210546994247125 51.728632485501294 0 51.728632485501294 -46.535039182941546 0 0 0 0 7.0138513200682269 11.411406494795358 0 11.411406494795358 13.656489729182084 0 0 0 0 -155.64418504822243 95.060957465793763 0 95.060957465793763 -65.663130198401632 0 0 0 0 -90.234939758702239 131.59763198835572 0 131.59763198835572 -135.8738594835886 0 0 0 0 -237.89471431526181 203.36870323272888 0 203.36870323272888 -104.72453127373592 0 0 0 0 57.540867787502066 -104.24836961726396 0 -104.24836961726396 4.7854147277312222 0 0 0 0 3.7137097910791397 2.3789732487834954 0 2.3789732487834954 0.23841792611594315 0 0 0 0 -101.46267598373561 205.28496671017001 0 205.28496671017001 -17.355424169276375 0 0 0 0 153.87201220148563 84.826741640281398 0 84.826741640281398 -114.50408846014761 0 0 0 0 -142.58008496395632 -32.537837491814571 0 -32.537837491814571 82.0095651698648 0 0 0 0 -34.04221542776213 36.793018590353313 0 36.793018590353313 -263.63458537030965 0 0 0 0 -195.01006815837172 156.81800672784448 0 156.81800672784448 -20.973582080303458 0 0 0 0 -135.97602731325605 -218.42047016617653 0 -218.42047016617653 65.34163196782356 0 0 0 0 123.08962950514251 245.0857408136053 0 245.0857408136053 -152.49775945374859 0 0 0 0 -227.24058500172396 65.130495182354935 0 65.130495182354935 -294.54669302127149 0 0 0 0 33.641582468226261 -74.500450272618764 0 -74.500450272618764 -0.0063107397854764713 0 0 0 0 128.49956849761293 587.60857395017229 0 587.60857395017229 -169.01507346730796 0 0 0 0 0.01965219249731831 2.2416479704640864 0 2.2416479704640864 7.006207600566313 0 0 0 0 162.86843271357066 -197.71801108024374 0 -197.71801108024374 -245.64489405273707 0 0 0 0 -16.999882381176576 176.85265655929106 0 176.85265655929106 -132.73541994471452 0 0 0 0 -356.05868656366511 567.50552086595417 0 567.50552086595417 -126.08902971143834 0 0 0 0 -463.4991825447687 267.21555360696584 0 267.21555360696584 -56.967556422576308 0 0 0 0 -0.54026592655529271 1.2693258110840588 0 1.2693258110840588 3.1696664094531286 0 0 0 0 -20.646297127532307 343.36149113322608 0 343.36149113322608 -268.81835154465807 0 0 0 0 -160.74077195451537 366.24182863387978 0 366.24182863387978 -76.387186983862193 0 0 0 0 -193.34515380489756 271.13731863740395 0 271.13731863740395 195.24628684049821 0 0 0 0 -95.10283220592828 431.73235421614663 0 431.73235421614663 -16.475007494431338 0 0 0 0 -122.35934933590761 288.37080493995745 0 288.37080493995745 196.46640229840705 0 0 0 0 -250.2887932660451 116.86969671005136 0 116.86969671005136 522.05762464457075 0 0 0 0 -160.66996203265444 257.45260977032012 0 257.45260977032012 165.32644236469059 0 0 0 0 -206.36644475923094 91.95301494661544 0 91.95301494661544 167.61185550919618 0 0 0 0 -268.72706735413885 -15.158636020583799 0 -15.158636020583799 600.4508402030915 0 0 0 0 -203.64829870199901 56.61655399450683 0 56.61655399450683 482.49982624929544 0 0 0 0 -234.60747993976111 81.86204766202718 0 81.86204766202718 743.78607434325386 0 0 0 0 -551.75652573518892 -18.469385402477201 0 -18.469385402477201 491.75300825794693 0 0 0 0 -409.75494692735083 -197.09867282601044 0 -197.09867282601044 64.637206090381369 0 0 0 0 -243.72874404994218 24.065587324268563 0 24.065587324268563 435.40139946489944 0 0 0 0 -244.53350391092681 51.053322862673667 0 51.053322862673667 431.40074646647554 0 0 0 0 -1.4004278347150887 0.055172720571391665 0 0.055172720571391665 5.6103350521821653 0 0 0 0 223.79437666571903 56.33150063829089 0 56.33150063829089 118.36365232958633 0 0 0 0 3.5440098079452582 264.55208119150848 0 264.55208119150848 587.46892635551194 0 0 0 0 -130.00107885587749 52.274302124724272 0 52.274302124724272 473.78013899405778 0 0 0 0 -0.0066488816332537226 3.0020799310161692 0 3.0020799310161692 5.6340460230445615 0 0 0 0 43.777799258823507 51.410246642361017 0 51.410246642361017 -90.949384795829246 0 0 0 0 29.908244643399144 79.143624524599488 0 79.143624524599488 -105.84555408224696 0 0 0 0 157.60398229801649 -114.5943819260865 0 -114.5943819260865 -39.1131870366371 0 0 0 0 -78.984997505896899 400.43777932346165 0 400.43777932346165 146.63314928752516 0 0 0 0 -164.82385318337765 115.97272919865645 0 115.97272919865645 -223.19461254361522 0 0 0 0 137.80634585671942 248.87914976909269 0 248.87914976909269 -320.22157560172491 0 0 0 0 -144.05779894575244 35.307313639936183 0 35.307313639936183 484.0073517427445 0 0 0 0 148.50170102621632 337.21285749381241 0 337.21285749381241 110.14505000509962 0 0 0 0 361.53827373778859 990.07582019372967 0 990.07582019372967 -902.73283257060393 0 0 0 0 -897.13045782469271 383.34537629207261 0 383.34537629207261 111.64274262777235 0 0 0 0 -149.41455178542674 78.059201441734331 0 78.059201441734331 -1010.5141331196355 0 0 0 0 -197.60487205832032 705.54580145364889 0 705.54580145364889 -938.27520349116639 0 0 0 0 811.11158653151506 -702.75899102978656 0 -702.75899102978656 -830.72013362249709 0 0 0 0 957.36246734668384 81.205260938106221 0 81.205260938106221 -1530.3822531980622 0 0 0 0 0.48864817754812861 2.753356680935795 0 2.753356680935795 -15.404619192165768 0 0 0 0 -917.39074521453585 535.95927664019109 0 535.95927664019109 -136.14119749962265 0 0 0 0 -153.12485889290383 527.36708174347405 0 527.36708174347405 -558.72991616449144 0 0 0 0 -13.258607026778918 436.87381259704853 0 436.87381259704853 -789.51227462977113 0 0 0 0 -80.438575813197531 293.29536371933864 0 293.29536371933864 -289.45531944950562 0 0 0 0 -71.095833166073135 341.46066801507914 0 341.46066801507914 -456.8531258448711 0 0 0 0 -308.16650909348573 490.0880381559582 0 490.0880381559582 -475.64460297818005 0 0 0 0 -138.42583299236139 358.98388949322907 0 358.98388949322907 -846.82777455498581 0 0 0 0 71.73427092521888 375.18128861235346 0 375.18128861235346 -0.8333842546089727 0 0 0 0 -135.45215228109737 417.6386984297751 0 417.6386984297751 -511.0642940370908 0 0 0 0 -208.70456469191413 379.15833914844552 0 379.15833914844552 -509.00829016186617 0 0 0 0 -27.604369447573845 140.77653329005989 0 140.77653329005989 505.47399530217081 0 0 0 0 -1.6408064375386573 10.321601944260721 0 10.321601944260721 2.8029781617930958 0 0 0 0 -91.033735706369043 259.03238082931057 0 259.03238082931057 1116.2315046112708 0 0 0 0 94.694630866506486 281.14931380410417 0 281.14931380410417 113.63390101696859 0 0 0 0 -1.2276765990937406 5.6787717237018569 0 5.6787717237018569 0.54968620601495033 0 0 0 0 2.8416927914440748 294.81732120292145 0 294.81732120292145 126.36682481925163 0 0 0 0 170.22317743289022 531.00263414309666 0 531.00263414309666 -968.18464299594052 0 0 0 0 -105.20327606838691 492.42410026985817 0 492.42410026985817 -69.998013904172694 0 0 0 0 -93.095562279264414 102.87325424400478 0 102.87325424400478 155.24846583179169 0 0 0 0 65.59748450560437 92.574601900982088 0 92.574601900982088 -72.876209867433943 0 0 0 0 -74.195219686800556 70.285037563215155 0 70.285037563215155 -173.04432197007827 0 0 0 0 -3.8074247054138084 16.267895003065178 0 16.267895003065178 -28.65667686938707 0 0 0 0 0.92705557159075624 15.833448261419733 0 15.833448261419733 -5.1817254061789448 0 0 0 0 -75.748737326743139 100.09321213548901 0 100.09321213548901 -100.80541091742634 0 0 0 0 888.58136663563346 1611.3827523806649 0 1611.3827523806649 -1200.024309786284 0 0 0 0 -572.3338033757318 -287.15517581823224 0 -287.15517581823224 1805.3738837984511 0 0 0 0 -1927.7304948863239 1187.0576957312223 0 1187.0576957312223 -0.33427877607937262 0 0 0 0 0.0064676329686221834 13.551901355149838 0 13.551901355149838 -9.1449844319396725 0 0 0 0 -1139.2680930562274 1474.5863453708062 0 1474.5863453708062 -1413.8010004193929 0 0 0 0 -2.3235346496801412 1.5847386578966365 0 1.5847386578966365 0.2764614559599039 0 0 0 0 -348.83282291803334 -125.85904317590757 0 -125.85904317590757 1730.8369816823633 0 0 0 0 240.78557978948083 812.49185760984801 0 812.49185760984801 -1227.5916476073762 0 0 0 0 -385.49551197971596 277.37157858753199 0 277.37157858753199 -198.64020055436413 0 0 0 0 -7.1447089865902882 19.905011773329562 0 19.905011773329562 -27.239201385435763 0 0 0 0 93.082241062395042 198.34669896197011 0 198.34669896197011 -154.81616505334387 0 0 0 0 -424.39129389061418 249.79534497739951 0 249.79534497739951 -146.6266506044185 0 0 0 0 -4.8313557316875233 6.1700192457057454 0 6.1700192457057454 -11.299238123198194 0 0 0 0 115.22284304002096 -160.84782579066814 0 -160.84782579066814 -352.37271279830384 0 0 0 0 -3460.5011030450187 624.06326803703269 0 624.06326803703269 151.69049765169621 0 0 0 0 -2292.2021085560955 2132.0994224338392 0 2132.0994224338392 -622.37197344141896 0 0 0 0 3.3030867905799823 1721.0151239050301 0 1721.0151239050301 -1147.5102937727497 0 0 0 0 -783.39701520562812 2213.0954474676255 0 2213.0954474676255 -972.7682128573324 0 0 0 0 -1066.3126518727513 1805.2717490225405 0 1805.2717490225405 -563.71230867813574 0 0 0 0 -967.09288152652152 1672.6262526466162 0 1672.6262526466162 -869.85141830299108 0 0 0 0 -288.81344649243692 1221.9162572181995 0 1221.9162572181995 -631.66859433686659 0 0 0 0 -1.4264069004748308 1016.1572401004996 0 1016.1572401004996 -1015.4464283583293 0 0 0 0 -109.41049536593709 843.1294448659919 0 843.1294448659919 -1272.5161704771454 0 0 0 0 -156.84426672440895 577.87810786822956 0 577.87810786822956 -1155.107502283885 0 0 0 0 -189.72825337576796 868.03090288153362 0 868.03090288153362 -758.19635407888563 0 0 0 0 -385.30994537686638 576.28955678531565 0 576.28955678531565 -1128.0913949433307 0 0 0 0 -661.98811790905165 908.71279857600894 0 908.71279857600894 -761.498387781161 0 0 0 0 -687.76461017661495 559.12863230823859 0 559.12863230823859 -634.67767722882854 0 0 0 0 -660.9440282857995 869.19707279821694 0 869.19707279821694 -351.95378152956255 0 0 0 0 -0.1427964044236063 -4.007663635458556 0 -4.007663635458556 -20.632028206819172 0 0 0 0 1174.5790289491415 -84.622638832093799 0 -84.622638832093799 161.35104951066023 0 0 0 0 -992.37067758325429 1326.3847141933002 0 1326.3847141933002 -726.72877271336074 0 0 0 0 1699.0485680585662 -661.32092276060757 0 -661.32092276060757 -582.86232007978833 0 0 0 0 1027.1633417457106 -521.65034408040947 0 -521.65034408040947 14.432803456089459 0 0 0 0 -550.30011343064689 873.97073950849153 0 873.97073950849153 -1017.3216798082722 0 0 0 0 -596.43366158177196 530.69804454526457 0 530.69804454526457 -501.65017703548074 0 0 0 0 -64.466561667744827 -113.90842497053018 0 -113.90842497053018 -175.18903865526227 0 0 0 0 17.592911775151151 -4.0685750194825232 0 -4.0685750194825232 -32.79063826231868 0 0 0 0 1.9804741242839015 0.50139128164627778 0 0.50139128164627778 -56.520222689239205 0 0 0 0 -1.5222949265881667 2.1747484740705261 0 2.1747484740705261 -8.2913888854276081 0 0 0 0 397.97656211623371 526.00099849631511 0 526.00099849631511 -75.603908026256249 0 0 0 0 848.40007593254268 302.96377828670666 0 302.96377828670666 -138.05061950620438 0 0 0 0 95.408107505301814 406.42932667967762 0 406.42932667967762 221.40201260090544 0 0 0 0 -25.617105979253523 55.901992620067702 0 55.901992620067702 -39.68873927819638 0 0 0 0 1.1745828744515343 10.610712072187937 0 10.610712072187937 -13.443543444667853 0 0 0 0 -16.609629378444879 23.069893383624731 0 23.069893383624731 -21.168011555695557 0 0 0 0 -1.0796716182477439 4.6538652865932804 0 4.6538652865932804 -24.777935435277698 0 0 0 0 8.4582767171104933 16.623014017141486 0 16.623014017141486 -21.548876524990192 0 0 0 0 -7.953382177842542 3.415400695551817 0 3.415400695551817 -6.1822442579891828 0 0 0 0 8.7466841582936468 27.3714305122121 0 27.3714305122121 -6.2828623843015521 0 0 0 0 -0.045600505213000277 36.536982038886983 0 36.536982038886983 15.768476162134903 0 0 0 0 11.601011085658683 21.370352703226672 0 21.370352703226672 -37.903622782991079 0 0 0 0 190.96502913645236 465.54718422083897 0 465.54718422083897 -1795.3939509838528 0 0 0 0 -4.2399348118401861 0.93772685429286895 0 0.93772685429286895 -1.2038407089823551 0 0 0 0 -423.99366630207805 268.3925346490214 0 268.3925346490214 -113.99856397362964 0 0 0 0 62.626370261335978 244.40973291726368 0 244.40973291726368 -666.60379860139801 0 0 0 0 60.02198385642987 136.85575682320632 0 136.85575682320632 19.949799641213758 0 0 0 0 45.166728303594027 130.64053756326393 0 130.64053756326393 138.23675981147608 0 0 0 0 147.10323200913945 81.237922559734216 0 81.237922559734216 -85.798321009919164 0 0 0 0 -37.850421293814179 166.44357494142514 0 166.44357494142514 460.67366094905447 0 0 0 0 65.573854293584191 73.980441102283294 0 73.980441102283294 103.49771859644079 0 0 0 0 59.178335805449024 31.23460331231945 0 31.23460331231945 193.18698886157472 0 0 0 0 1.2816908649674588 57.430808818229707 0 57.430808818229707 183.07394900610234 0 0 0 0 25.290557493276538 97.773933129721627 0 97.773933129721627 139.0794016678592 0 0 0 0 47.982335771768703 66.485864938469604 0 66.485864938469604 99.268981802750204 0 0 0 0 48.473967181528735 75.201888612771199 0 75.201888612771199 44.234887069796969 0 0 0 0 27.887745788936627 109.38926066966087 0 109.38926066966087 24.027137823017256 0 0 0 0 10.420848805821091 14.726696949255114 0 14.726696949255114 17.848024791044992 0 0 0 0 61.817401372276436 76.67790579994471 0 76.67790579994471 -4.7115093891043216 0 0 0 0 58.203647866463854 56.250939320798182 0 56.250939320798182 31.772800026868154 0 0 0 0 60.532609939885333 67.133021241325423 0 67.133021241325423 48.075681020302 0 0 0 0 30.578759884276224 119.99675383287831 0 119.99675383287831 36.121089662836312 0 0 0 0 33.757353840317592 111.8880427189506 0 111.8880427189506 121.29808169555508 0 0 0 0 36.646702532933887 115.82792590330428 0 115.82792590330428 27.439938365921989 0 0 0 0 -19.309621999660521 63.741388914273557 0 63.741388914273557 118.78984959323861 0 0 0 0 23.340550634515409 34.096568546367052 0 34.096568546367052 78.481601117273385 0 0 0 0 54.722324750571261 104.90389073192637 0 104.90389073192637 -9.5524928274389822 0 0 0 0 34.527665832647472 -1.866601899266243 0 -1.866601899266243 26.451332760014338 0 0 0 0 69.969255027234396 2.9191790482387034 0 2.9191790482387034 -134.43937820522729 0 0 0 0 4.4099357333821203 9.2943683441662586 0 9.2943683441662586 3.1712718599347482 0 0 0 0 7.0438166611238557 80.769760936062085 0 80.769760936062085 68.435563538252609 0 0 0 0 31.084124888111546 67.276967649610015 0 67.276967649610015 16.610974436629476 0 0 0 0 32.183013632959046 41.324340002702471 0 41.324340002702471 -18.898003329278225 0 0 0 0 3.0404260695941616 34.2482459677137 0 34.2482459677137 -3.2315577434960687 0 0 0 0 39.636782384522839 58.387743833594712 0 58.387743833594712 32.323364998600496 0 0 0 0 26.798527582281167 63.131266396776482 0 63.131266396776482 12.723598188658798 0 0 0 0 48.598553956250726 76.365050110052834 0 76.365050110052834 10.267202613846166 0 0 0 0 43.669351911260037 87.680116545483543 0 87.680116545483543 32.739184350983123 0 0 0 0 40.294294318162429 61.860613422788447 0 61.860613422788447 19.608535469073104 0 0 0 0 38.714515505880627 41.269741054355109 0 41.269741054355109 -0.20818907264037989 0 0 0 0 22.9118528394647 49.378310081425298 0 49.378310081425298 62.576419612927566 0 0 0 0 -0.35184540574983458 8.1424058910936736 0 8.1424058910936736 18.762004874633135 0 0 0 0 28.203946832729343 6.257644320212421 0 6.257644320212421 -75.393928138953925 0 0 0 0 29.592186506349861 64.079591350224291 0 64.079591350224291 8.2447471731720725 0 0 0 0 28.079758965230226 33.650928603569582 0 33.650928603569582 13.627319183820532 0 0 0 0 3.2704187438230292 61.727261451895174 0 61.727261451895174 -128.9391486830209 0 0 0 0 16.175405865301855 45.631079077233153 0 45.631079077233153 -31.270114937033213 0 0 0 0 10.073167290666293 28.999609408393766 0 28.999609408393766 8.2897817929308673 0 0 0 0 29.624138395646948 36.22866912441323 0 36.22866912441323 -12.539701466019508 0 0 0 0 20.686817545963041 32.676063665324797 0 32.676063665324797 -5.1241581202154691 0 0 0 0 12.016976042339603 20.103062819347045 0 20.103062819347045 -27.114232893461107 0 0 0 0 14.684182718250213 34.445540231292398 0 34.445540231292398 -26.46428962333448 0 0 0 0 48.438686139840229 -110.56094062764896 0 -110.56094062764896 -66.010383092943812 0 0 0 0 6.9942012831879765 42.384810627925617 0 42.384810627925617 -11.535874612945918 0 0 0 0 15.456036340101718 42.293696200433715 0 42.293696200433715 -14.132714855702943 0 0 0 0 43.871245735084813 115.27764051096165 0 115.27764051096165 -65.616015455278102 0 0 0 0 3.6344654871686544 38.256973489988013 0 38.256973489988013 -7.6460840425511378 0 0 0 0 8.1397156055413689 31.671399758673942 0 31.671399758673942 -1.6535606629622635 0 0 0 0 6.6137278936448638 29.824149502266664 0 29.824149502266664 -2.5299108237541077 0 0 0 0 20.887156185816821 20.181746515328996 0 20.181746515328996 -3.6889586195479751 0 0 0 0 30.826124760910488 28.143822104850187 0 28.143822104850187 -8.4967370611557271 0 0 0 0 15.688758619361579 30.13762520300952 0 30.13762520300952 -8.521857601739157 0 0 0 0 15.712472417965728 28.796546529436455 0 28.796546529436455 -12.912892182655924 0 0 0 0 -302.89685237888762 -316.98247496313707 0 -316.98247496313707 148.43381162481546 0 0 0 0 -3.571249856618123 2.7073406876453845 0 2.7073406876453845 -3.3608674146101407 0 0 0 0 50.750601166939077 59.480199675017502 0 59.480199675017502 -18.397864873710205 0 0 0 0 -28.239667754595075 7.9591718902847788 0 7.9591718902847788 -8.1195838978601387 0 0 0 0 -2.2963167609731712 14.865773620625589 0 14.865773620625589 -13.308159390255099 0 0 0 0 -20.15490990833996 -15.63807122354774 0 -15.63807122354774 39.05470541795512 0 0 0 0 0.55716768093431845 0.1905527728313956 0 0.1905527728313956 -2.0708896672113326 0 0 0 0 43.583668642500015 65.467596109248461 0 65.467596109248461 -93.83632212903467 0 0 0 0 50.672710277768601 2.8307633604708826 0 2.8307633604708826 -49.752468014354235 0 0 0 0 13.575484187229904 39.262833346769185 0 39.262833346769185 -89.537514280746109 0 0 0 0 20.48954484688511 34.848606910774834 0 34.848606910774834 -166.9254238960275 0 0 0 0 -24.926241158035737 56.333322529841098 0 56.333322529841098 -87.593025336682331 0 0 0 0 18.21327346652609 13.217713255250601 0 13.217713255250601 -72.466394112576381 0 0 0 0 55.532711210385514 -2.387009480240522 0 -2.387009480240522 -183.61856163361517 0 0 0 0 2.8087664676234407 4.1149924884308291 0 4.1149924884308291 -16.556669473992187 0 0 0 0 23.303573686720181 64.867029220543714 0 64.867029220543714 -45.81476335650737 0 0 0 0 -13.652479169951079 -5.028429917016183 0 -5.028429917016183 -81.582518751878524 0 0 0 0 -34.064079261665938 41.604013297120218 0 41.604013297120218 -39.924339018150931 0 0 0 0 -1.6412704506428444 33.342309465203101 0 33.342309465203101 -50.459082564695336 0 0 0 0 -48.228668783896865 43.587725102996046 0 43.587725102996046 -140.96671206360043 0 0 0 0 42.374805394337955 44.731809770694781 0 44.731809770694781 -42.892205512114742 0 0 0 0 19.444536946798884 39.672742688123307 0 39.672742688123307 -47.076539933216488 0 0 0 0 5.4877290679569342 30.212900334983715 0 30.212900334983715 -45.39472257597663 0 0 0 0 54.400404476472431 -91.199028343398822 0 -91.199028343398822 -77.801995325542521 0 0 0 0 -51.521546315342178 112.98768219493923 0 112.98768219493923 -145.91999581355776 0 0 0 0 27.385097045267912 -23.641911814065679 0 -23.641911814065679 -61.376506017932115 0 0 0 0 13.579539394971363 29.863158847089537 0 29.863158847089537 -20.979463183827392 0 0 0 0 16.75842490694993 23.338502551183254 0 23.338502551183254 -11.323404868138638 0 0 0 0 6.4304379924894182 31.852809315047949 0 31.852809315047949 -36.396795675253365 0 0 0 0 22.907946939787969 22.518914109875723 0 22.518914109875723 -23.804407629250839 0 0 0 0 -38.930716324535297 110.340277858224 0 110.340277858224 -90.826303430127155 0 0 0 0 -7.9347505178886877 18.177525671964759 0 18.177525671964759 12.417126169420953 0 0 0 0 19.731510083570356 2.5677165417546348 0 2.5677165417546348 -120.59213938365792 0 0 0 0 190.58915223016083 174.77182461120901 0 174.77182461120901 56.651283024120858 0 0 0 0 87.693646279151835 180.7002968483248 0 180.7002968483248 49.287983067701134 0 0 0 0 -22.624873438510576 53.175659889109738 0 53.175659889109738 16.078103350369929 0 0 0 0 80.292153979589045 114.44628962962452 0 114.44628962962452 -53.467912152998906 0 0 0 0 27.134016411241646 118.03831401808566 0 118.03831401808566 80.159008511938737 0 0 0 0 6.9766750420426433 58.8099445564294 0 58.8099445564294 -86.439938030154735 0 0 0 0 206.01277414891229 81.296105698340398 0 81.296105698340398 -140.7109300409611 0 0 0 0 165.84655389420686 210.81324113765004 0 210.81324113765004 -89.951241134542215 0 0 0 0 202.5355845309532 177.36277869410151 0 177.36277869410151 -169.62960673327689 0 0 0 0 22.967647830048008 56.441421451799215 0 56.441421451799215 -64.052160318555252 0 0 0 0 -21.716324870376411 64.866442058308166 0 64.866442058308166 -43.611056817662757 0 0 0 0 18.674873708646224 16.771274452947608 0 16.771274452947608 -8.3290978358125614 0 0 0 0 16.718368320861373 61.782596921999357 0 61.782596921999357 -40.675123147280829 0 0 0 0 -2.8092102846180751 46.649287282012665 0 46.649287282012665 -47.154377099368503 0 0 0 0 0.35606056603019853 18.905445022716645 0 18.905445022716645 -54.949423216515584 0 0 0 0 77.560665359801533 72.98513068293687 0 72.98513068293687 -52.939037189556984 0 0 0 0 7.2581608990089173 92.700426264269566 0 92.700426264269566 -88.038784791438957 0 0 0 0 29.596922034590079 72.586971576012729 0 72.586971576012729 -9.559012482608523 0 0 0 0 58.80337629152973 -12.87294715247117 0 -12.87294715247117 -188.43151319664776 0 0 0 0 9.214454631459704 6.7129092196864733 0 6.7129092196864733 -9.3170972898193938 0 0 0 0 2.8122573765663219 82.894012688473595 0 82.894012688473595 -43.772607351085753 0 0 0 0 58.1342161325706 28.545187916679424 0 28.545187916679424 -85.873041315673618 0 0 0 0 44.38065289802671 74.91598049858294 0 74.91598049858294 -173.40660602876233 0 0 0 0 14.307242360139789 14.097434605260336 0 14.097434605260336 -9.6551702851254788 0 0 0 0 -16.116245519981931 47.708257070335094 0 47.708257070335094 -51.182110474794172 0 0 0 0 -16.247239351228927 61.180583303896128 0 61.180583303896128 -57.010915928469331 0 0 0 0 3.9055392963382509 33.359859485343534 0 33.359859485343534 -41.677865038232596 0 0 0 0 84.28401136053094 60.116910621120041 0 60.116910621120041 -114.13281892425584 0 0 0 0 51.317441084820757 75.077774599580152 0 75.077774599580152 -43.714821370147547 0 0 0 0 -3.6129315806260465 4.7063917586851431 0 4.7063917586851431 -5.8679331130818966 0 0 0 0 20.660554392685299 -2.7763144444252248 0 -2.7763144444252248 -46.718148845713586 0 0 0 0 16.293156800828001 17.706969359143841 0 17.706969359143841 -22.666807154833805 0 0 0 0 9.7439639550418811 27.714737497519845 0 27.714737497519845 -36.424593806205536 0 0 0 0 6.9674644766582077 18.610025972098207 0 18.610025972098207 -32.48122670325219 0 0 0 0 4.5770634223226807 47.543696671324142 0 47.543696671324142 -22.516919383240747 0 0 0 0 -9.2807687054878301 29.77956633653384 0 29.77956633653384 -24.980402685666554 0 0 0 0 -36.049632973619737 66.205812078420422 0 66.205812078420422 -26.9637287655205 0 0 0 0 -3.5742175223676895 47.581196446442846 0 47.581196446442846 -22.305947206215933 0 0 0 0 7.7541172230667144 40.7330792656212 0 40.7330792656212 -30.75798761950864 0 0 0 0 17.756040794727596 24.732528816542981 0 24.732528816542981 -25.700000684591942 0 0 0 0 14.542945764747856 33.528239993807802 0 33.528239993807802 -16.071747207723092 0 0 0 0 14.759012272239488 39.545067546219798 0 39.545067546219798 -24.291052556945942 0 0 0 0 21.950118186330528 18.298037685417775 0 18.298037685417775 -34.493754264839332 0 0 0 0 10.025827705590928 40.90271896115155 0 40.90271896115155 6.3897829440393252 0 0 0 0 15.446031251503882 30.609730829955879 0 30.609730829955879 -34.059831950435182 0 0 0 0 8.2822187971542007 40.896629234448483 0 40.896629234448483 -21.826969296598691 0 0 0 0 12.107252065768989 44.796303874085424 0 44.796303874085424 -28.409439093135006 0 0 0 0 18.364389449069051 9.7224968818239077 0 9.7224968818239077 -12.787189095258213 0 0 0 0 8.2722874887158468 24.665777664906273 0 24.665777664906273 -31.748863046035694 0 0 0 0 19.400398558608686 2.4354600495025807 0 2.4354600495025807 -42.676632710054037 0 0 0 0 16.177791441095906 38.546294897743792 0 38.546294897743792 -20.000919256308407 0 0 0 0 52.159716898268016 -30.566586603687028 0 -30.566586603687028 -135.85486109442718 0 0 0 0 -4.0564877790202445 24.771070176318972 0 24.771070176318972 -30.538599458115641 0 0 0 0 -2.6847354705478921 19.383682417059518 0 19.383682417059518 -26.42401690922155 0 0 0 0 -14.058511269852715 23.005250755177258 0 23.005250755177258 -22.27309532536492 0 0 0 0 -70.997188619559893 -27.855238945936435 0 -27.855238945936435 -88.480046298616799 0 0 0 0 -4.3454407518811422 5.7565931180481229 0 5.7565931180481229 -0.20597130063517 0 0 0 0 10.971890224533126 29.51600185391726 0 29.51600185391726 -27.539097146065615 0 0 0 0 2.8450684909687141 18.190874163959556 0 18.190874163959556 2.7506794741567901 0 0 0 0 -20.689564944368797 27.071391651762227 0 27.071391651762227 -4.7894744696453557 0 0 0 0 3.5101331444320749 32.774918449652432 0 32.774918449652432 -48.259540036553517 0 0 0 0 0.24098646725178696 26.579520957544446 0 26.579520957544446 -34.857243591734004 0 0 0 0 -6.9820581344392849 45.85110306376373 0 45.85110306376373 -32.463990800726606 0 0 0 0 3.4222572582553141 18.744920034810441 0 18.744920034810441 4.0779758103445118 0 0 0 0 4.3714737898080784 48.94616337214029 0 48.94616337214029 -43.251263739788556 0 0 0 0 260.81863048729747 46.672537248095978 0 46.672537248095978 -119.58218241398572 0 0 0 0 116.50944334568339 105.15461414564015 0 105.15461414564015 -22.831212014520133 0 0 0 0 407.15006588370738 194.41719365243989 0 194.41719365243989 -39.106084974540863 0 0 0 0 24.410092278829325 49.76999450349922 0 49.76999450349922 -109.90835692693508 0 0 0 0 2.5523182121125814 -0.89601162388997579 0 -0.89601162388997579 -1.5259428303309761 0 0 0 0 14.564543954076271 -15.3875840056171 0 -15.3875840056171 -106.89883694524451 0 0 0 0 434.80799248542735 95.961097933972269 0 95.961097933972269 5.9506391204631655 0 0 0 0 400.67473943330492 275.10990698164414 0 275.10990698164414 138.25225683096505 0 0 0 0 6.9961924963157731 3.8523186150376958 0 3.8523186150376958 -2.642381458478301 0 0 0 0 434.67752968008244 148.69610588890646 0 148.69610588890646 -23.118673049648351 0 0 0 0 -5.086744841843938 14.195805227234814 0 14.195805227234814 -24.309686329739634 0 0 0 0 584.66744795886189 93.984440449283284 0 93.984440449283284 -7.6826136931267683 0 0 0 0 0.63288100692813387 2.2122398047589051 0 2.2122398047589051 -4.0779283144919702 0 0 0 0 436.11001646145087 33.429609972597973 0 33.429609972597973 -186.56798063030874 0 0 0 0 598.42037429770608 -66.166021539265785 0 -66.166021539265785 -119.61314839364786 0 0 0 0 8.0541721315694303 -10.863852533762838 0 -10.863852533762838 287.59124795751268 0 0 0 0 -232.68741668787879 240.02089562116453 0 240.02089562116453 66.384130983380601 0 0 0 0 -317.09893565590164 -90.346487891251854 0 -90.346487891251854 152.01135808901017 0 0 0 0 170.9967938712125 205.29047265128247 0 205.29047265128247 117.89631071676558 0 0 0 0 52.693740926884402 -17.224901183266411 0 -17.224901183266411 -85.939634516733349 0 0 0 0 3.740772728270052 13.286814923521426 0 13.286814923521426 -12.910067788507394 0 0 0 0 -87.862801754664815 -251.3535056778901 0 -251.3535056778901 -200.13448446436087 0 0 0 0 -200.56506906766299 341.56129541386508 0 341.56129541386508 1031.6453722126716 0 0 0 0 -171.44170607453816 398.15032236780826 0 398.15032236780826 -496.69234827200853 0 0 0 0 156.09017929635343 -69.611867974329243 0 -69.611867974329243 -772.85922018778001 0 0 0 0 -862.37885676120277 316.39820202725241 0 316.39820202725241 -747.13087789209385 0 0 0 0 -7.0255357416514421 12.188293041974546 0 12.188293041974546 -9.4686135846748698 0 0 0 0 85.456097307055416 -7.4045744604086394 0 -7.4045744604086394 -303.23275852254301 0 0 0 0 133.00753600623466 -131.71817102283057 0 -131.71817102283057 -149.65725962963188 0 0 0 0 167.81246421917317 166.69819539500043 0 166.69819539500043 -226.12085897551879 0 0 0 0 19.375845323161229 185.53275470681729 0 185.53275470681729 -179.33831528036899 0 0 0 0 10.302145665888929 146.04059181466982 0 146.04059181466982 -180.7298236605202 0 0 0 0 -79.263918491715231 163.22819705955044 0 163.22819705955044 -155.5356612064661 0 0 0 0 28.403317276835878 104.74426730066079 0 104.74426730066079 -193.87019794483422 0 0 0 0 2.5820774833674065 -0.88769474843932983 0 -0.88769474843932983 0.081882043814421657 0 0 0 0 170.16800843815963 174.46833945316575 0 174.46833945316575 -141.90668608225315 0 0 0 0 -0.77277086366046177 12.441025395894265 0 12.441025395894265 -10.246857535069225 0 0 0 0 9.0854739263734672 2.4674240941299814 0 2.4674240941299814 1.1717416186516112 0 0 0 0 -93.368509688979998 -21.999675299791875 0 -21.999675299791875 25.472548797111813 0 0 0 0 26.799346580226484 26.20276619570177 0 26.20276619570177 -20.157678130205568 0 0 0 0 -2.4307150083400835 2.4038575749704947 0 2.4038575749704947 -6.2549489713865967 0 0 0 0 -307.48238926640806 187.6259551645835 0 187.6259551645835 -64.846478076828134 0 0 0 0 179.22984815752534 -328.43141641637521 0 -328.43141641637521 -1123.286271826335 0 0 0 0 -149.12038897115599 213.08737084839959 0 213.08737084839959 -123.18970563165203 0 0 0 0 -10.542744856113131 -407.82567470626418 0 -407.82567470626418 -640.70074100873717 0 0 0 0 -82.988348045548264 487.10691292975207 0 487.10691292975207 879.10648863822735 0 0 0 0 210.6327908234889 39.151874577548369 0 39.151874577548369 682.63276273757037 0 0 0 0 -4.8835200302317574 4.7565421636586436 0 4.7565421636586436 -3.4814164803314398 0 0 0 0 27.751892297457744 -760.27633446208165 0 -760.27633446208165 -507.91073236785451 0 0 0 0 29.125549741536815 645.63276350754677 0 645.63276350754677 1031.7609182915257 0 0 0 0 474.41280774058214 404.07112719411452 0 404.07112719411452 533.2289830763948 0 0 0 0 -163.77378899498717 -12.681177050622864 0 -12.681177050622864 588.2414137955675 0 0 0 0 236.35804080473736 -34.964823222998348 0 -34.964823222998348 90.716094768853509 0 0 0 0 -93.264746955699593 311.08798598636531 0 311.08798598636531 452.45813260789146 0 0 0 0 -43.858676932866601 23.290160949472678 0 23.290160949472678 0.90977632344239012 0 0 0 0 -144.19059156438084 65.112457787676476 0 65.112457787676476 476.23734511281873 0 0 0 0 -32.377266378651257 112.92621102873272 0 112.92621102873272 140.28277334174345 0 0 0 0 62.141620931432044 514.14937516257305 0 514.14937516257305 298.15123994457099 0 0 0 0 64.826860224631673 402.95069862296805 0 402.95069862296805 -261.6015231286874 0 0 0 0 -6.2035173961266992 163.39635492797242 0 163.39635492797242 198.15650367478884 0 0 0 0 -11.718741150113601 50.543277666150516 0 50.543277666150516 10.320488048579136 0 0 0 0 2.5463741797611155 53.096462130874286 0 53.096462130874286 18.876384296326492 0 0 0 0 118.7699913725337 264.45484057342765 0 264.45484057342765 89.512322037648119 0 0 0 0 -1.9953759637817825 47.468382137181315 0 47.468382137181315 28.184872949936889 0 0 0 0 -24.373120079862929 42.794924990075742 0 42.794924990075742 59.52877258846911 0 0 0 0 -3.9620741495720893 51.486610465965704 0 51.486610465965704 18.903642071543292 0 0 0 0 -1.5470047352282563 58.441695342920866 0 58.441695342920866 16.37079852152965 0 0 0 0 -4.4414773671451258 60.751206294946314 0 60.751206294946314 23.682427278523392 0 0 0 0 -35.828108512146144 26.672250418072181 0 26.672250418072181 29.397127235026325 0 0 0 0 -4.7781812115690627 61.344982484493812 0 61.344982484493812 22.636015440177289 0 0 0 0 -11.869561456031079 26.187251830560854 0 26.187251830560854 18.917197654165648 0 0 0 0 89.492115626835584 194.43260922928857 0 194.43260922928857 142.83175457176549 0 0 0 0 -59.051033261261182 -10.069742244764711 0 -10.069742244764711 160.50549481276721 0 0 0 0 -31.662211011260055 40.674172053756656 0 40.674172053756656 9.3265005477444447 0 0 0 0 -10.916132805882881 4.143253543912266 0 4.143253543912266 1.1262478842115087 0 0 0 0 -22.45906967798868 16.195977426162774 0 16.195977426162774 -0.01283313064429592 0 0 0 0 -26.157693056297347 40.441435648284589 0 40.441435648284589 9.5112344462132512 0 0 0 0 0.52785428270726698 54.233358184301323 0 54.233358184301323 24.575265646722983 0 0 0 0 -34.573826090840157 41.337592399635469 0 41.337592399635469 24.177864836154185 0 0 0 0 -43.032873680756893 12.813774721034861 0 12.813774721034861 36.699717888466694 0 0 0 0 -137.72458500461653 81.683194188248308 0 81.683194188248308 282.83878301938603 0 0 0 0 -21.626652180735618 114.77446302143335 0 114.77446302143335 193.14256031407422 0 0 0 0 -36.480412567208987 -14.873105485174165 0 -14.873105485174165 61.187413098276011 0 0 0 0 -22.977484148897929 36.988583397496768 0 36.988583397496768 -35.327820786018492 0 0 0 0 -41.0413083632302 36.836645531795511 0 36.836645531795511 -18.374252622863423 0 0 0 0 -33.729266750220432 32.698178758473027 0 32.698178758473027 -20.465197622872751 0 0 0 0 -12.074613170740122 58.017849107130132 0 58.017849107130132 5.2209613735758467 0 0 0 0 -41.149955486689578 56.291975067921157 0 56.291975067921157 -11.229177545763378 0 0 0 0 -35.190112561163915 5.1318017319067621 0 5.1318017319067621 -44.288300805055769 0 0 0 0 6.8016765492724005 9.656145792423505 0 9.656145792423505 -9.1037947275324527 0 0 0 0 -16.427318717425806 64.28817390959739 0 64.28817390959739 25.262548712853459 0 0 0 0 -5.758531727033926 25.507441974604383 0 25.507441974604383 -6.5351145595053453 0 0 0 0 3.4333450550329871 66.117452597725787 0 66.117452597725787 25.199760454161151 0 0 0 0 12.866710857291764 54.261058825743021 0 54.261058825743021 35.754142445817706 0 0 0 0 -13.869355164904846 69.100654674482939 0 69.100654674482939 33.420090163301211 0 0 0 0 -2.9946714240577421 78.788186766629224 0 78.788186766629224 24.66373313873919 0 0 0 0 0.99012758928438416 77.90945537918742 0 77.90945537918742 46.963400913895384 0 0 0 0 0.73258652214281028 74.412062230547235 0 74.412062230547235 25.305998900046689 0 0 0 0 -7.0986476567195496 85.575869893720665 0 85.575869893720665 31.554427463030152 0 0 0 0 -4.2896097374868987 87.048200817567704 0 87.048200817567704 20.328852578386432 0 0 0 0 -11.796725609914574 91.719915102396044 0 91.719915102396044 23.520241248363163 0 0 0 0 -11.668403554639525 61.444777695618342 0 61.444777695618342 27.566847763941041 0 0 0 0 -4.3828538900515923 73.154373417732131 0 73.154373417732131 0.48481263296707766 0 0 0 0 -6.952331237065664 77.299411613486882 0 77.299411613486882 20.119221450127952 0 0 0 0 -5.0671518136441591 73.696207089815289 0 73.696207089815289 14.589462314055709 0 0 0 0 -1.7200967241296894 84.504888487615972 0 84.504888487615972 15.986969319550553 0 0 0 0 -5.8398131350040785 81.585749297475559 0 81.585749297475559 15.366370039650064 0 0 0 0 -2.3833431888560881 81.693059377297686 0 81.693059377297686 9.0453720914956648 0 0 0 0 2.3731147739426959 18.303296013054691 0 18.303296013054691 9.5673808877582758 0 0 0 0 10.501253111870028 83.805867263185064 0 83.805867263185064 14.747242785507297 0 0 0 0 18.291487191042222 41.084868604685695 0 41.084868604685695 42.184706937106796 0 0 0 0 77.508280408037535 93.889372860739968 0 93.889372860739968 -63.791489924013149 0 0 0 0 -65.097221527728834 55.369266215740936 0 55.369266215740936 41.687274654657813 0 0 0 0 -66.07558432646465 57.32400970034405 0 57.32400970034405 38.050534290625365 0 0 0 0 -60.833797112674802 112.17999423784931 0 112.17999423784931 57.251974555882043 0 0 0 0 -2.1880591396329692 93.479297326062806 0 93.479297326062806 17.235543944349047 0 0 0 0 33.307693156573805 107.0264605174234 0 107.0264605174234 7.678639386445866 0 0 0 0 -2.3676773475308437 96.312874150484276 0 96.312874150484276 25.372962279499916 0 0 0 0 -62.177608416748626 103.40946022573371 0 103.40946022573371 51.299822606059024 0 0 0 0 4.2105268607918234 25.243816053715335 0 25.243816053715335 4.1128276454783474 0 0 0 0 -139.16939168590761 132.54942088390089 0 132.54942088390089 54.415419380922685 0 0 0 0 -135.74958039871126 -1.4179349801925127 0 -1.4179349801925127 18.359335305809509 0 0 0 0 -27.037652797339433 60.255414125882453 0 60.255414125882453 30.930552843965415 0 0 0 0 10.163782976333096 61.929587931583228 0 61.929587931583228 20.657054819228506 0 0 0 0 52.406318476003435 46.807304010826556 0 46.807304010826556 4.3222784667595988 0 0 0 0 -7.2924567617055578 39.293387882022948 0 39.293387882022948 27.819346130342012 0 0 0 0 12.666790674509684 22.68801436774811 0 22.68801436774811 17.653176933170471 0 0 0 0 181.58792602627 -161.73806552822498 0 -161.73806552822498 17.246618405296431 0 0 0 0 36.638187675543968 39.879213997447145 0 39.879213997447145 16.538263623160489 0 0 0 0 -139.60700945863209 57.846056886402948 0 57.846056886402948 288.6701520711722 0 0 0 0 -400.844844585788 17.150192864853125 0 17.150192864853125 145.78136281652041 0 0 0 0 0.31167560135327221 410.91357433479243 0 410.91357433479243 -928.07731597351813 0 0 0 0 334.13750329222967 64.068874748674716 0 64.068874748674716 -484.07518472687661 0 0 0 0 356.18836035261666 -28.665264537208714 0 -28.665264537208714 -185.13972871570149 0 0 0 0 -11.929420747226686 71.86506870828498 0 71.86506870828498 14.996352835114521 0 0 0 0 12.363525536792134 44.78919937798041 0 44.78919937798041 19.732472794601108 0 0 0 0 13.97096919860827 42.375015540664414 0 42.375015540664414 31.381158931958609 0 0 0 0 21.642943453727639 76.31858238658242 0 76.31858238658242 23.617991791528766 0 0 0 0 15.389207790387445 149.43878849344037 0 149.43878849344037 26.375317546528095 0 0 0 0 -13.434412000474595 58.650303843231612 0 58.650303843231612 75.25813774570284 0 0 0 0 -142.03543667681151 32.977563962609565 0 32.977563962609565 217.41467603216006 0 0 0 0 -7.0154702554136747 206.96462145132682 0 206.96462145132682 -76.107254746782587 0 0 0 0 -203.7459531994682 318.18292850522266 0 318.18292850522266 -70.322945903135405 0 0 0 0 70.365980779461097 220.34464988468972 0 220.34464988468972 -187.56662643393793 0 0 0 0 -464.08617436786881 363.81185522346641 0 363.81185522346641 -93.506423827464459 0 0 0 0 -245.74493699887535 219.36850744092226 0 219.36850744092226 -250.10977556961006 0 0 0 0 -133.16039842792088 270.85803776299872 0 270.85803776299872 -67.401193966186838 0 0 0 0 -31.044491266191471 -10.923634727167155 0 -10.923634727167155 55.10240451466052 0 0 0 0 -5.3185452537800302 56.910967585990875 0 56.910967585990875 -19.487467929520903 0 0 0 0 108.55821858815034 49.997814132555504 0 49.997814132555504 119.25017621470579 0 0 0 0 -93.853365598071832 438.44686707509754 0 438.44686707509754 -227.74767346951558 0 0 0 0 -6.5050689941870843 5.5326207211333234 0 5.5326207211333234 23.411154599216683 0 0 0 0 -10.492727766274434 23.73646753108568 0 23.73646753108568 -0.16864622365064008 0 0 0 0 -389.45628371712155 4.0301027983623499 0 4.0301027983623499 79.09530634660041 0 0 0 0 -6.4766530857959879 126.20816673534136 0 126.20816673534136 -235.58424830711101 0 0 0 0 -11.663012600816728 42.644804178969935 0 42.644804178969935 -73.387125982699217 0 0 0 0 98.515100177784916 -44.901656418456696 0 -44.901656418456696 238.27359658974456 0 0 0 0 -20.467247004199756 26.194177746576955 0 26.194177746576955 26.21651975913403 0 0 0 0 77.001902644988149 204.74064333364367 0 204.74064333364367 -154.90689481576555 0 0 0 0 -292.13677410003947 151.09738935869245 0 151.09738935869245 251.78699033279554 0 0 0 0 43.97030486339645 -14.709239002899267 0 -14.709239002899267 316.03776334610302 0 0 0 0 -89.373164998803986 303.47390297608217 0 303.47390297608217 29.449672290036688 0 0 0 0 -329.36337475973414 154.33227828312374 0 154.33227828312374 1.0517971185836359 0 0 0 0 -52.446485903783469 55.174513692531036 0 55.174513692531036 -327.24006640451262 0 0 0 0 36.117557083449356 94.392128476469225 0 94.392128476469225 -217.27655758432229 0 0 0 0 -87.007859964556701 156.53326241621471 0 156.53326241621471 -21.459036288335483 0 0 0 0 -3.1662927024978416 53.708976422766398 0 53.708976422766398 55.023248288833614 0 0 0 0 -77.29168598321121 183.7188850807288 0 183.7188850807288 50.936318677595409 0 0 0 0 92.728613015329756 144.32054798641548 0 144.32054798641548 -53.969412392176309 0 0 0 0 -358.73858050768558 250.2165016964268 0 250.2165016964268 175.02617672004999 0 0 0 0 536.76975145628239 49.700096594668139 0 49.700096594668139 -157.69335358285753 0 0 0 0 1.5621927164300331 5.5093827729082676 0 5.5093827729082676 7.8570195175319952 0 0 0 0 -35.474178363961983 -32.999403120529678 0 -32.999403120529678 225.25101678628926 0 0 0 0 -26.866687798381463 0.62508249401071225 0 0.62508249401071225 -8.2270087079959922 0 0 0 0 -33.375544322640053 62.027964195956883 0 62.027964195956883 -79.602007999059424 0 0 0 0 84.654269004920934 76.024807095071083 0 76.024807095071083 -76.459056887237239 0 0 0 0 71.583529665247625 -4.4334916325042286 0 -4.4334916325042286 90.903451386191591 0 0 0 0 -67.30450626288075 87.356797427288257 0 87.356797427288257 71.618676386741754 0 0 0 0 -9.5624430003946443 16.753811893643274 0 16.753811893643274 18.416429690844751 0 0 0 0 -62.098114123175037 149.94052692719197 0 149.94052692719197 -36.530337952790433 0 0 0 0 -17.728173116578432 42.080280575893511 0 42.080280575893511 60.431227306144848 0 0 0 0 -42.0862525816774 143.76481744887769 0 143.76481744887769 -91.19103379756416 0 0 0 0 16.457824306141013 46.959633935166785 0 46.959633935166785 -21.471914798991293 0 0 0 0 -148.77672809634532 134.81603749757051 0 134.81603749757051 -13.302789613298955 0 0 0 0 -182.24530843164757 163.13872852856002 0 163.13872852856002 17.807298054525745 0 0 0 0 -79.919982077626628 159.10231034417666 0 159.10231034417666 36.467866702070751 0 0 0 0 -65.699591591437638 215.87412087213306 0 215.87412087213306 -12.148754936184559 0 0 0 0 -55.323687097625225 173.65720056866849 0 173.65720056866849 -63.98374971163139 0 0 0 0 -37.6926158706774 178.49220915872866 0 178.49220915872866 -98.851398795421119 0 0 0 0 -18.58376261718513 61.784406638063956 0 61.784406638063956 -228.54711433986085 0 0 0 0 -83.02575968443125 271.10123012895929 0 271.10123012895929 -297.49629650467614 0 0 0 0 -128.65457839837472 205.4203542524192 0 205.4203542524192 -384.69320722715929 0 0 0 0 -195.16621784678864 54.62444939406123 0 54.62444939406123 -726.55232989235083 0 0 0 0 -112.66341931562783 191.9702430556008 0 191.9702430556008 -75.12914962429204 0 0 0 0 -256.35747067356715 244.58536429381638 0 244.58536429381638 -84.744736550404923 0 0 0 0 -29.884759120301169 178.66930204678647 0 178.66930204678647 -137.34932459809352 0 0 0 0 -50.617688605663716 182.0924160979157 0 182.0924160979157 -28.353663974063238 0 0 0 0 -131.44138896359073 244.38821062889474 0 244.38821062889474 -64.730507600717829 0 0 0 0 -119.70234207213798 167.75601193505281 0 167.75601193505281 58.256826791941421 0 0 0 0 -49.798890654579736 152.21997535960691 0 152.21997535960691 7.2528645270494962 0 0 0 0 -201.63539345857862 178.84847136240569 0 178.84847136240569 9.4466949712377755 0 0 0 0 -6.6217017240528548 6.4456082469397451 0 6.4456082469397451 4.2630603811831804 0 0 0 0 -138.68287550476089 51.853168833200471 0 51.853168833200471 12.658960383880185 0 0 0 0 19.681771299394313 65.939418864167237 0 65.939418864167237 -9.0230168772977777 0 0 0 0 -83.706462896407174 77.557225997694331 0 77.557225997694331 22.126327069709077 0 0 0 0 -50.774198352679377 96.568169842517818 0 96.568169842517818 6.1433456843224121 0 0 0 0 -1.8681790288101183 109.13084548377083 0 109.13084548377083 30.263422314194031 0 0 0 0 -2.5513466368211084 48.337076583360613 0 48.337076583360613 47.646483363292646 0 0 0 0 57.44522399379639 148.46458976989379 0 148.46458976989379 219.09312907059211 0 0 0 0 146.63379619785701 190.60792236533598 0 190.60792236533598 139.38191369644483 0 0 0 0 91.358293424593285 -62.162001170043368 0 -62.162001170043368 295.40348749165423 0 0 0 0 30.838145610803622 10.792758571726154 0 10.792758571726154 -58.757456749968696 0 0 0 0 -204.79159279182204 70.195995605376083 0 70.195995605376083 8.9843672956340015 0 0 0 0 -525.6446717093786 110.9100816543214 0 110.9100816543214 85.575555601040833 0 0 0 0 -255.03975250053918 265.60691795877938 0 265.60691795877938 -170.70659526408417 0 0 0 0 -20.353975477082713 -105.2985405522777 0 -105.2985405522777 -28.252483639342245 0 0 0 0 -259.77222231983615 -120.92248345795088 0 -120.92248345795088 112.09870735005825 0 0 0 0 -628.05406536525697 50.476729639427504 0 50.476729639427504 134.53448359439062 0 0 0 0 -111.87594011912006 -232.16337065330299 0 -232.16337065330299 -473.32352012081537 0 0 0 0 0.1957843991083692 0.77178781435895871 0 0.77178781435895871 0.86756001619912126 0 0 0 0 0.78298605415774603 2.7028031553380316 0 2.7028031553380316 -0.98743191855899681 0 0 0 0 39.572696011629887 309.04915024351794 0 309.04915024351794 -1068.9951799657429 0 0 0 0 173.68814583802305 85.269652249247883 0 85.269652249247883 -768.3830903552589 0 0 0 0 -594.52110530328355 581.16588241391582 0 581.16588241391582 -380.08074897929328 0 0 0 0 -935.03844249540998 226.40856716566486 0 226.40856716566486 -250.08178498933557 0 0 0 0 -61.721758604093338 395.06655869890528 0 395.06655869890528 -389.50364265276585 0 0 0 0 -279.95364028407494 435.8047365329403 0 435.8047365329403 -383.23213524959283 0 0 0 0 -465.53043670326588 728.42363965540426 0 728.42363965540426 -803.37430782499723 0 0 0 0 -48.115975157939829 309.7773467192892 0 309.7773467192892 -249.74276239503524 0 0 0 0 97.360802166920621 240.8549295174671 0 240.8549295174671 -264.26102361292578 0 0 0 0 142.89287261263235 191.9224327178672 0 191.9224327178672 -430.92771356040612 0 0 0 0 151.93449345394038 93.326861709909281 0 93.326861709909281 -100.92008517411887 0 0 0 0 177.49453243393145 116.2035029850631 0 116.2035029850631 -84.074847831681836 0 0 0 0 94.278273266769247 50.691973963024793 0 50.691973963024793 24.704582532751374 0 0 0 0 93.198019807517994 84.695472180319484 0 84.695472180319484 -15.361806112690829 0 0 0 0 274.05042540014256 -125.67352366870909 0 -125.67352366870909 -173.58731768559664 0 0 0 0 167.39032748478348 -3.9308745947855641 0 -3.9308745947855641 -91.345625163870864 0 0 0 0 116.91063022913295 114.35268244263716 0 114.35268244263716 -185.5833053428214 0 0 0 0 103.82828670711388 89.023342057214904 0 89.023342057214904 134.27991553673928 0 0 0 0 114.67698654618653 57.546631466015242 0 57.546631466015242 47.901325385362725 0 0 0 0 45.849302795242693 124.49321475402758 0 124.49321475402758 112.77038048104441 0 0 0 0 2.372227558909799 77.670515210251324 0 77.670515210251324 62.540868477903132 0 0 0 0 54.544502096066935 204.19170405638943 0 204.19170405638943 174.93227384721104 0 0 0 0 -27.058276247495087 179.46198694947816 0 179.46198694947816 58.86364219022289 0 0 0 0 -29.792335850681411 126.41095708883222 0 126.41095708883222 115.17593100984959 0 0 0 0 -66.764444287793594 151.3589883606146 0 151.3589883606146 322.44487294780265 0 0 0 0 -105.15936497234361 167.77540153341761 0 167.77540153341761 158.24419175130606 0 0 0 0 -56.077067431444448 110.56274724459945 0 110.56274724459945 157.47423604567302 0 0 0 0 -67.523572512003739 206.44987555123589 0 206.44987555123589 105.92396933378768 0 0 0 0 -91.548088395726154 186.23226124810753 0 186.23226124810753 26.394249996359576 0 0 0 0 -158.26614039271954 111.60202763909911 0 111.60202763909911 103.13560039174627 0 0 0 0 -156.5713189671701 108.31441054174911 0 108.31441054174911 -27.237887474519084 0 0 0 0 -239.61789474842226 119.17662750671298 0 119.17662750671298 233.86190241754957 0 0 0 0 -249.68429938480131 70.539157703148703 0 70.539157703148703 233.67931336663605 0 0 0 0 -309.73161283304944 108.4175567593411 0 108.4175567593411 213.09151851462957 0 0 0 0 -212.5365369184583 182.20928311125681 0 182.20928311125681 230.34567727004469 0 0 0 0 -211.99462464280441 126.67718377387791 0 126.67718377387791 31.243839596165344 0 0 0 0 -173.87593698068304 32.650538799745846 0 32.650538799745846 14.386601085803704 0 0 0 0 -209.9862345027941 -23.809828265817487 0 -23.809828265817487 -12.697530412464403 0 0 0 0 -183.21838517248398 39.527323235153744 0 39.527323235153744 14.293894679774894 0 0 0 0 -184.400584370047 55.532200809371716 0 55.532200809371716 69.090253488669987 0 0 0 0 -185.83384539885446 15.933344493139884 0 15.933344493139884 52.316363393234496 0 0 0 0 -235.26129052888791 40.880407570566604 0 40.880407570566604 110.06653793410806 0 0 0 0 -236.13541872010683 78.672812152457482 0 78.672812152457482 207.76490060598735 0 0 0 0 189.79900065804395 333.59710038718913 0 333.59710038718913 349.4526149284211 0 0 0 0 -248.45807596683017 -54.686742044741095 0 -54.686742044741095 41.723039967968361 0 0 0 0 -1.0841516561465454 -0.10712636766169226 0 -0.10712636766169226 2.2672423139303248 0 0 0 0 -57.587900918319065 7.866417180368444 0 7.866417180368444 61.806056313027511 0 0 0 0 -1.2188753530713399 -1.1407049214828788 0 -1.1407049214828788 4.7472060591556442 0 0 0 0 -40.338618785728613 73.530890408339474 0 73.530890408339474 88.153479079570388 0 0 0 0 11.876125861850596 147.2433731915371 0 147.2433731915371 281.14799737815611 0 0 0 0 89.963500035730249 193.80042473420326 0 193.80042473420326 287.21494805180555 0 0 0 0 -18.357285677924665 68.286851365264738 0 68.286851365264738 27.478830563492011 0 0 0 0 -38.741812755223691 52.208272402307557 0 52.208272402307557 38.43266849979409 0 0 0 0 59.288279424763459 73.840474040523986 0 73.840474040523986 26.03523607020179 0 0 0 0 -27.222872389742406 60.292158326352364 0 60.292158326352364 33.07714613256212 0 0 0 0 5.2995942029982608 15.455470169871003 0 15.455470169871003 16.496539124490425 0 0 0 0 18.230858582652218 22.259413501324161 0 22.259413501324161 54.428859734995058 0 0 0 0 11.626252035778066 85.177812837274701 0 85.177812837274701 46.549728021054761 0 0 0 0 10.40096231404641 34.737766283188648 0 34.737766283188648 48.44794625353461 0 0 0 0 -3.249174176387271 21.068615732997792 0 21.068615732997792 19.707983081600446 0 0 0 0 81.182803470859653 72.501611026476894 0 72.501611026476894 -4.4412309888575692 0 0 0 0 41.533902112665984 39.415639211299307 0 39.415639211299307 1.1388437432595069 0 0 0 0 14.292659647151361 9.4866809350087706 0 9.4866809350087706 -14.02530216917836 0 0 0 0 6.3274073743956691 33.351601141761471 0 33.351601141761471 7.1160605489181066 0 0 0 0 -11.670419644462527 42.43318121691118 0 42.43318121691118 45.958437078363204 0 0 0 0 -0.69728308558330454 34.668781648719388 0 34.668781648719388 41.505781951237395 0 0 0 0 10.83445581281407 63.807823882491263 0 63.807823882491263 8.5316994734019147 0 0 0 0 107.04432238813388 60.984948792058276 0 60.984948792058276 9.7343319997489743 0 0 0 0 -146.61114685289795 40.371082352910889 0 40.371082352910889 -18.027717494696844 0 0 0 0 0.95471613464647476 22.155335766279741 0 22.155335766279741 3.1246455887799103 0 0 0 0 4.0762846006165852 12.40318187263955 0 12.40318187263955 27.655848339505354 0 0 0 0 3.566746516680098 38.251612321458339 0 38.251612321458339 35.519806059087614 0 0 0 0 36.938429163361434 100.94789669013426 0 100.94789669013426 -76.910008108156035 0 0 0 0 -160.24110556492451 4.0951463375749881 0 4.0951463375749881 261.28844442607806 0 0 0 0 -222.98647588176391 -47.933401106156452 0 -47.933401106156452 277.93303610356816 0 0 0 0 -229.91582143219421 -11.085153421670839 0 -11.085153421670839 118.56236768124654 0 0 0 0 182.73419215293688 -183.44546828073362 0 -183.44546828073362 -704.8262858473463 0 0 0 0 0.75941899279704472 0.72401773932480751 0 0.72401773932480751 5.9703460564568047 0 0 0 0 51.886024456147425 55.943807161711447 0 55.943807161711447 109.41645042641903 0 0 0 0 -2.075138772768458 46.601960514881966 0 46.601960514881966 26.371650037598329 0 0 0 0 -1.1958147088273847 3.2929182569485747 0 3.2929182569485747 19.370663246132381 0 0 0 0 306.3772072447282 85.80891259197233 0 85.80891259197233 -128.08874534938514 0 0 0 0 -277.00413580175882 147.65372518613367 0 147.65372518613367 1242.4349395832396 0 0 0 0 -131.3674800423978 230.17209221301164 0 230.17209221301164 -247.22551100446753 0 0 0 0 -339.90680600569067 72.169973530371863 0 72.169973530371863 466.88001128018368 0 0 0 0 -165.9732448568102 493.2177717129598 0 493.2177717129598 251.77697901680949 0 0 0 0 -238.78394059566926 -101.38119153006119 0 -101.38119153006119 -259.88402594974127 0 0 0 0 -510.99751864794598 -84.504279473312636 0 -84.504279473312636 94.634492248689639 0 0 0 0 -0.32232918752047368 2.6014062985893744 0 2.6014062985893744 7.4984757218821585 0 0 0 0 48.486276424144307 24.643890095165261 0 24.643890095165261 245.29914199014456 0 0 0 0 600.15104990974578 303.16347748991393 0 303.16347748991393 -241.72529347233649 0 0 0 0 -12.550122292260202 39.569183585655665 0 39.569183585655665 47.700160593254395 0 0 0 0 40.050334488689259 42.791005481150933 0 42.791005481150933 15.640609459551342 0 0 0 0 23.684426797397464 59.467254618572042 0 59.467254618572042 54.185510546834848 0 0 0 0 25.486909873649751 24.752619824209305 0 24.752619824209305 -15.238929633032114 0 0 0 0 2.8080371430378932 17.594290843459206 0 17.594290843459206 -4.8142428010700087 0 0 0 0 18.125022421184667 64.270602164926004 0 64.270602164926004 51.016706036112737 0 0 0 0 13.536224795370799 81.289560518300277 0 81.289560518300277 36.097070519366753 0 0 0 0 13.09610326110851 43.950647986486729 0 43.950647986486729 29.96148339825595 0 0 0 0 52.66604729048413 101.88644277842104 0 101.88644277842104 41.812128509525792 0 0 0 0 46.919429265064537 92.464650503126904 0 92.464650503126904 58.80971998066525 0 0 0 0 25.892211267104358 66.661513917861157 0 66.661513917861157 52.879839731358516 0 0 0 0 6.5764078218784192 18.638184457717699 0 18.638184457717699 -18.59142983331725 0 0 0 0 42.379957708031725 61.642338126228424 0 61.642338126228424 35.775493510009255 0 0 0 0 62.645152176477495 67.111389289344515 0 67.111389289344515 25.485004700094578 0 0 0 0 26.457481334708213 20.185059259617475 0 20.185059259617475 -32.421592997693324 0 0 0 0 -4.2627054679281606 20.70272971205997 0 20.70272971205997 -6.7217350212236511 0 0 0 0 28.882755447220916 104.33683363689852 0 104.33683363689852 108.75532522223511 0 0 0 0 109.32258761622234 32.154188437110861 0 32.154188437110861 64.271328946837457 0 0 0 0 1.1296720844986865 2.0738016534880757 0 2.0738016534880757 -1.5296223860531768 0 0 0 0 122.7021946898567 103.889286289952 0 103.889286289952 -354.80753317964263 0 0 0 0 -215.18490656583072 126.45234764398447 0 126.45234764398447 -32.66757548811438 0 0 0 0 -305.21393951013306 127.83112012939819 0 127.83112012939819 -212.27827500885724 0 0 0 0 0.99627348030910667 -1.049649014566576 0 -1.049649014566576 -2.8089767425444734 0 0 0 0 18.744800816139104 284.76360159192882 0 284.76360159192882 -15.396574946775218 0 0 0 0 79.039583454956301 21.873830077580351 0 21.873830077580351 -49.158588065154618 0 0 0 0 -61.862073492437048 -140.15500636680372 0 -140.15500636680372 -179.04398172254332 0 0 0 0 62.351094611174631 60.594525072228862 0 60.594525072228862 22.830612548852514 0 0 0 0 7.3916769721689732 14.736134308085411 0 14.736134308085411 -30.993776133706149 0 0 0 0 36.84288372910305 67.49649757140287 0 67.49649757140287 39.33090281666955 0 0 0 0 35.071551869441464 48.819088906922843 0 48.819088906922843 22.931533709059295 0 0 0 0 51.447198076784844 58.458570604081615 0 58.458570604081615 28.133136632794049 0 0 0 0 5.3741626752680514 34.493281095333209 0 34.493281095333209 19.018524440413273 0 0 0 0 -392.45567917252629 56.615827528621594 0 56.615827528621594 580.10426110667322 0 0 0 0 120.17230520602607 -237.89681560866302 0 -237.89681560866302 -208.24178944074083 0 0 0 0 9.9520015004003355 14.641605543978656 0 14.641605543978656 -12.231612720655647 0 0 0 0 -313.36428546117349 -20.694409469373568 0 -20.694409469373568 119.4754410200112 0 0 0 0 -280.27871368473279 155.68050641891023 0 155.68050641891023 343.01662287134968 0 0 0 0 154.85648193864836 388.35033487090186 0 388.35033487090186 192.45419474394294 0 0 0 0 -71.119384430610808 171.36889712838456 0 171.36889712838456 -15.856553347024601 0 0 0 0 331.11900061638153 110.85895904054632 0 110.85895904054632 -168.91713677532971 0 0 0 0 -206.792667789814 97.882047002385661 0 97.882047002385661 228.19752712048648 0 0 0 0 -75.94118824814359 158.09330750218942 0 158.09330750218942 54.963133849421865 0 0 0 0 -98.998203590730554 -4.3454952750034863 0 -4.3454952750034863 -35.896109372475621 0 0 0 0 -120.08012216582938 72.510732430768257 0 72.510732430768257 -30.130986236588797 0 0 0 0 -16.329931932457839 70.334646452247398 0 70.334646452247398 -71.720886773618986 0 0 0 0 -27.556549203698523 33.178703144134488 0 33.178703144134488 -170.03178271061188 0 0 0 0 103.80693701721611 181.6692938679771 0 181.6692938679771 -130.02710229685181 0 0 0 0 33.738047446997371 -28.178695635640906 0 -28.178695635640906 -227.61372266616672 0 0 0 0 -13.568814170495898 47.698379923480388 0 47.698379923480388 -253.94571697356878 0 0 0 0 -96.111727193689148 -28.084597175671661 0 -28.084597175671661 -28.430541228706716 0 0 0 0 -167.80298869631952 -256.89989900618093 0 -256.89989900618093 -185.06343636392558 0 0 0 0 -87.318865241511958 -0.13565678676241077 0 -0.13565678676241077 -87.238852928934648 0 0 0 0 171.53692770225462 16.644212505605537 0 16.644212505605537 24.221170529352094 0 0 0 0 47.017658274267887 46.82069551233144 0 46.82069551233144 17.374866017184104 0 0 0 0 -19.936353613053004 34.231547896781699 0 34.231547896781699 9.8128201427154806 0 0 0 0 15.909664252061049 8.3904756370517006 0 8.3904756370517006 -2.0631472949553427 0 0 0 0 -305.23574772424763 -340.23436043696711 0 -340.23436043696711 -171.46521684280015 0 0 0 0 -249.2867801568791 17.263676804024726 0 17.263676804024726 -166.85986354536726 0 0 0 0 93.409312823060645 13.354533810707835 0 13.354533810707835 -10.947653727955185 0 0 0 0 -25.807398195271446 34.768969039931967 0 34.768969039931967 -12.887955660328487 0 0 0 0 134.40021776000503 290.04994170475402 0 290.04994170475402 -101.07772641105112 0 0 0 0 37.308750181084179 13.897378835608833 0 13.897378835608833 -20.87692758515368 0 0 0 0 43.916332830269425 12.455491120706938 0 12.455491120706938 -23.398473579654819 0 0 0 0 -70.308208056419971 -1.2741835078486474 0 -1.2741835078486474 -46.079335142436321 0 0 0 0 -26.433487445415224 22.372990083657875 0 22.372990083657875 -13.872365320863764 0 0 0 0 45.956139836284024 40.495444939185973 0 40.495444939185973 -11.614929039096751 0 0 0 0 10.083324364051805 31.000098972275737 0 31.000098972275737 -11.667452440480702 0 0 0 0 -10.788243925009738 28.503231398848584 0 28.503231398848584 -2.0579965896540671 0 0 0 0 27.392388292668329 24.358974056100124 0 24.358974056100124 -13.280576001037844 0 0 0 0 26.480270608753926 6.1501004277306492 0 6.1501004277306492 -22.846786470687221 0 0 0 0 5.5532794583987268 4.625969178821606 0 4.625969178821606 -11.635042336905428 0 0 0 0 -1.1592109288146375 3.0073506761772784 0 3.0073506761772784 5.5282590649763392 0 0 0 0 35.015816726612684 32.691050124700268 0 32.691050124700268 15.386790368735092 0 0 0 0 25.760507521721593 17.92050537475734 0 17.92050537475734 16.914985491952393 0 0 0 0 10.852561276940833 30.593178253962833 0 30.593178253962833 21.165801754250424 0 0 0 0 33.17994365713912 79.311595787554324 0 79.311595787554324 28.382449571799953 0 0 0 0 121.85376744806672 85.305419047734176 0 85.305419047734176 1.3379395642696181 0 0 0 0 61.34510036832944 33.439811599804671 0 33.439811599804671 -0.64208759139000904 0 0 0 0 36.870068066380554 65.479541580709338 0 65.479541580709338 -18.13108757934242 0 0 0 0 50.78796651311859 47.427539018142852 0 47.427539018142852 4.8054641806083964 0 0 0 0 -30.659460604234482 37.510705380780564 0 37.510705380780564 15.756593563506613 0 0 0 0 3.0491897259544309 1.1083644522644995 0 1.1083644522644995 -5.5211945283623436 0 0 0 0 -10.526263750383805 -33.207487870575278 0 -33.207487870575278 -46.139947282063076 0 0 0 0 -31.361782153715467 53.904788079173159 0 53.904788079173159 -2.9682524717791239 0 0 0 0 -38.360942109458847 44.270417637402716 0 44.270417637402716 86.72732852927129 0 0 0 0 -57.961041681297502 20.867738990007638 0 20.867738990007638 92.915368899790337 0 0 0 0 -73.014167778605042 43.242602068574342 0 43.242602068574342 65.963166237008409 0 0 0 0 -173.01274028733314 19.058152968987997 0 19.058152968987997 96.918389053564169 0 0 0 0 -174.14882360433694 34.805977633364819 0 34.805977633364819 77.05319381157824 0 0 0 0 -166.95755193594232 3.3830352578988823 0 3.3830352578988823 54.752508036603103 0 0 0 0 -189.84061609504715 18.884179104295526 0 18.884179104295526 44.460445492819417 0 0 0 0 -175.73287639812679 30.091240442708113 0 30.091240442708113 72.026955941066262 0 0 0 0 -197.86789602421049 9.1032340562887839 0 9.1032340562887839 80.630681636102963 0 0 0 0 -189.99386885354033 18.324135394013865 0 18.324135394013865 71.527285665564705 0 0 0 0 -229.81646431435365 12.965323072305182 0 12.965323072305182 76.987777173708309 0 0 0 0 -177.20441655383911 38.171248175334767 0 38.171248175334767 89.018440811574692 0 0 0 0 -124.42770245159591 61.600219923069744 0 61.600219923069744 26.563525130593916 0 0 0 0 -195.10454040623881 9.9981445180346782 0 9.9981445180346782 52.021558073771303 0 0 0 0 -186.82214885894064 -24.920349674546742 0 -24.920349674546742 12.917251198261511 0 0 0 0 -146.98431587703817 14.355452989788319 0 14.355452989788319 51.589396045596914 0 0 0 0 -147.24227860757674 10.597348956835049 0 10.597348956835049 -2.8247074919490842 0 0 0 0 -93.260854606502107 5.4927651798570878 0 5.4927651798570878 -41.270415271865204 0 0 0 0 -138.88161517584376 -63.49706213871832 0 -63.49706213871832 -66.63907479615591 0 0 0 0 -129.09512640970206 -40.944665473143687 0 -40.944665473143687 -46.123688535706606 0 0 0 0 -84.244821342334035 -14.924978120703599 0 -14.924978120703599 -36.368942549532221 0 0 0 0 -150.61867905067265 -26.006519637638121 0 -26.006519637638121 12.184154644492082 0 0 0 0 -70.258484022764605 -34.661244770279154 0 -34.661244770279154 -54.121617578006408 0 0 0 0 -18.940383311593905 -81.112937559344573 0 -81.112937559344573 -76.443681284668855 0 0 0 0 -131.76549886949942 -54.742542045627488 0 -54.742542045627488 -55.983664408995537 0 0 0 0 -3.1510510981341993 3.2860005392093967 0 3.2860005392093967 -0.37588934749339842 0 0 0 0 10.187998081288242 -1.0101790911248827 0 -1.0101790911248827 -58.859023520752089 0 0 0 0 -3.5702497766645882 11.546884436185699 0 11.546884436185699 -6.0212374781784774 0 0 0 0 -0.13832433469124794 2.228076654030879 0 2.228076654030879 -3.3317768804286629 0 0 0 0 -420.21879182442353 35.343309131349088 0 35.343309131349088 -1.5855172158117057 0 0 0 0 -339.80020248869914 -155.77908509593908 0 -155.77908509593908 -87.67986212442338 0 0 0 0 -223.17065202273443 -20.630193831482757 0 -20.630193831482757 -16.95808477456012 0 0 0 0 -254.05574438553776 -5.0213549503314425 0 -5.0213549503314425 43.302657176012872 0 0 0 0 -226.04622772940638 -79.397409649995097 0 -79.397409649995097 -23.174901709520782 0 0 0 0 -101.09548352521961 32.447276099235751 0 32.447276099235751 1.581261411520245 0 0 0 0 -202.19049561417069 123.77036729325937 0 123.77036729325937 -58.682551456615329 0 0 0 0 -232.34504779594135 22.066332539921859 0 22.066332539921859 -46.517633716872297 0 0 0 0 31.083688178179727 59.205186417115328 0 59.205186417115328 -108.93607217580575 0 0 0 0 -76.493503728292126 82.097118578480149 0 82.097118578480149 -78.766093466299935 0 0 0 0 -8.7418486907990882 90.751806707201467 0 90.751806707201467 -97.983813152372022 0 0 0 0 -149.45379472680361 268.61646728277265 0 268.61646728277265 362.85137190071691 0 0 0 0 -177.93647725449409 107.70036993524991 0 107.70036993524991 107.9521478756651 0 0 0 0 30.604915222575073 129.68278358061798 0 129.68278358061798 -80.206709726429835 0 0 0 0 -3.5468007297458826 96.917750496519147 0 96.917750496519147 -76.17463989603857 0 0 0 0 -92.003364159265402 138.72743578233349 0 138.72743578233349 -53.161233932260075 0 0 0 0 -41.182915858949855 150.2762910825877 0 150.2762910825877 -51.487222418014426 0 0 0 0 -331.41754785757075 51.942140534862119 0 51.942140534862119 91.779922035544587 0 0 0 0 -306.98852069491477 5.5579649977153167 0 5.5579649977153167 72.39568974004942 0 0 0 0 -364.86643072504376 -23.782433672633488 0 -23.782433672633488 137.74478351450671 0 0 0 0 -253.31720735637646 -16.008358259568922 0 -16.008358259568922 3.7691330621310044 0 0 0 0 -360.24097383672779 7.6750351170485374 0 7.6750351170485374 92.223541152576217 0 0 0 0 -461.40162364630669 6.0254931002200465 0 6.0254931002200465 93.44223528360817 0 0 0 0 -375.63298154068616 112.51495382258508 0 112.51495382258508 38.710785380448215 0 0 0 0 -265.28872646759919 108.89913231980609 0 108.89913231980609 -240.87269071557967 0 0 0 0 -393.41377465702681 -70.122510800967575 0 -70.122510800967575 9.0324088451307034 0 0 0 0 -136.6074500333998 140.97020848451211 0 140.97020848451211 -45.139064230803342 0 0 0 0 -0.24329375460956815 13.254437763401882 0 13.254437763401882 2.1138409783984287 0 0 0 0 73.955997174576623 44.278044425471307 0 44.278044425471307 -85.583473882972612 0 0 0 0 -87.357577544549713 0.79714796404732624 0 0.79714796404732624 24.09876427843119 0 0 0 0 6.8172963886727729 3.3160136432497822 0 3.3160136432497822 -2.0615747239856148 0 0 0 0 -250.35080428965011 16.807459724033833 0 16.807459724033833 41.231633664265246 0 0 0 0 -17.170573264886116 -69.215479931776827 0 -69.215479931776827 -101.37862206691352 0 0 0 0 -7.6010032523997353 20.40701629404721 0 20.40701629404721 -11.918686228341073 0 0 0 0 -26.833293667605176 4.4629816696979105 0 4.4629816696979105 5.9736305272381287 0 0 0 0 -242.32442958079628 -30.832137630932266 0 -30.832137630932266 -55.202939387352671 0 0 0 0 -12.446640103108209 10.384573606321013 0 10.384573606321013 -6.3517133536653887 0 0 0 0 -17.87801960705724 19.722259786438372 0 19.722259786438372 5.9736305272381287 0 0 0 0 -3.7172605918216179 -0.14831423551176215 0 -0.14831423551176215 0.59648040934035862 0 0 0 0 -25.664666207405389 16.956876141626708 0 16.956876141626708 -0.019588501490943599 0 0 0 0 -55.492414870263019 13.145241220569005 0 13.145241220569005 10.860630693430721 0 0 0 0 2.994454995248816 8.2746165907592513 0 8.2746165907592513 -4.9065886676689843 0 0 0 0 -259.31870740094746 -37.765983755081834 0 -37.765983755081834 -14.758411225746386 0 0 0 0 -538.85191177377146 77.165745496256022 0 77.165745496256022 284.40651552798226 0 0 0 0 -484.03127699535253 -122.83598942629033 0 -122.83598942629033 65.26073163766705 0 0 0 0 -302.22090881543772 -109.25996845281952 0 -109.25996845281952 -45.208808060531737 0 0 0 0 -4.8798199427289717 2.674814441491975 0 2.674814441491975 -2.9718706705543241 0 0 0 0 -761.8363392600113 -576.61830413486314 0 -576.61830413486314 -214.37105295070432 0 0 0 0 4.3451566647092932 20.139019090136344 0 20.139019090136344 0.026802368251082953 0 0 0 0 -1039.4598658935502 -13.96647998422668 0 -13.96647998422668 318.25726541776385 0 0 0 0 -343.03365788771043 439.66584496315045 0 439.66584496315045 229.97567096869898 0 0 0 0 -174.91354022062296 139.69416268278292 0 139.69416268278292 124.64747636887478 0 0 0 0 -67.260293129449565 6.1245658090592769 0 6.1245658090592769 225.43997177034908 0 0 0 0 1.4785201186878112 15.943306425360788 0 15.943306425360788 9.5336947596515529 0 0 0 0 -0.36513750621452346 -4.685293742295471 0 -4.685293742295471 2.3028332199028227 0 0 0 0 124.06931622152479 43.382610263499373 0 43.382610263499373 -17.277849649719428 0 0 0 0 297.73564602442457 -4.2029773957001453 0 -4.2029773957001453 -32.931207433553936 0 0 0 0 146.47428181468786 60.578593698810437 0 60.578593698810437 -8.6898274882696569 0 0 0 0 94.454470710069018 69.758876405550836 0 69.758876405550836 -7.1889948455354897 0 0 0 0 -0.084574285927001114 2.385743994600972 0 2.385743994600972 6.859257470047794 0 0 0 0 85.114144506189405 24.337342450386132 0 24.337342450386132 5.0608364527724916 0 0 0 0 2.119467252371301 -0.30131733351714729 0 -0.30131733351714729 -2.3960436174565984 0 0 0 0 138.29235330198389 27.803919088280963 0 27.803919088280963 -1.6615099639311666 0 0 0 0 -1.7532858854077631 -1.0725130201056743 0 -1.0725130201056743 0.94652996310207982 0 0 0 0 -5.7932041838976147 32.385466575489772 0 32.385466575489772 21.873349487359519 0 0 0 0 1.8922684701246908 -12.945037256155047 0 -12.945037256155047 28.904533133711084 0 0 0 0 -24.559976716896927 3.3139790255372645 0 3.3139790255372645 19.704772435638006 0 0 0 0 49.287443819053806 36.521187079400988 0 36.521187079400988 -7.7690150562993949 0 0 0 0 18.893613958800415 24.739082619017381 0 24.739082619017381 -2.2965588756705984 0 0 0 0 6.5199001850967164 8.1270003665639763 0 8.1270003665639763 -13.791936012429687 0 0 0 0 13.897171621385496 60.542389503854793 0 60.542389503854793 -16.184890094795264 0 0 0 0 8.2487853061684291 20.637075299135176 0 20.637075299135176 -2.8194009260841995 0 0 0 0 3.018068265589136 42.055565604879121 0 42.055565604879121 -22.504054473392898 0 0 0 0 4.1920767288756906 54.053205375275866 0 54.053205375275866 18.668643158074701 0 0 0 0 5.5489320733074834 1.379415305827365 0 1.379415305827365 -5.0637171920827484 0 0 0 0 26.795580156587221 14.757387775926873 0 14.757387775926873 33.44400757108815 0 0 0 0 34.999741682826425 24.139532899836922 0 24.139532899836922 -30.873028279704158 0 0 0 0 1.1035868631610448 -1.4134535856651311 0 -1.4134535856651311 -1.7600007497141519 0 0 0 0 -94.486117223736073 -0.95844661145383725 0 -0.95844661145383725 -4.6171542188890271 0 0 0 0 -56.868028250162752 70.494674637451681 0 70.494674637451681 4.3384294927818701 0 0 0 0 14.200125710052816 16.521427544350445 0 16.521427544350445 -6.3826115414558444 0 0 0 0 -13.432619965082267 44.699535032050335 0 44.699535032050335 -8.80909283587971 0 0 0 0 -68.643082506656356 48.782105828257045 0 48.782105828257045 1.2548878687957767 0 0 0 0 14.517064096919057 22.774841752914654 0 22.774841752914654 -80.402706180713722 0 0 0 0 79.992925056955528 18.752169353344925 0 18.752169353344925 -30.50316048192326 0 0 0 0 15.529974065699207 35.308806551405723 0 35.308806551405723 6.897280544777459 0 0 0 0 -0.12283999489769748 -2.4529685835117689 0 -2.4529685835117689 0.40848212179167831 0 0 0 0 121.91272717571178 -1.6109423088691983 0 -1.6109423088691983 -26.612932466799975 0 0 0 0 5.1747936867286626 36.484244978400966 0 36.484244978400966 0.054301275849866215 0 0 0 0 -25.134155561576335 21.746221345329104 0 21.746221345329104 4.3137938770887558 0 0 0 0 -54.890781422593136 29.509799077040952 0 29.509799077040952 -6.7746525210677646 0 0 0 0 -40.134100915517593 39.497280830990348 0 39.497280830990348 -0.02913921151048271 0 0 0 0 -23.840574591749828 19.759215375008353 0 19.759215375008353 -10.69446657881781 0 0 0 0 0.51708146316478221 0.95282796316982399 0 0.95282796316982399 4.022500607855136 0 0 0 0 -13.924243131572439 46.227669496758608 0 46.227669496758608 -40.070903993473621 0 0 0 0 -10.910950809410451 25.2548030121593 0 25.2548030121593 -9.0107117384759476 0 0 0 0 168.1573241883616 50.708372175315162 0 50.708372175315162 3.1957823886023107 0 0 0 0 609.78534806043535 -59.28253128373035 0 -59.28253128373035 -35.634471164041315 0 0 0 0 -0.33182379409307927 -0.87906864041073618 0 -0.87906864041073618 2.0868084231206581 0 0 0 0 226.67588142259774 213.00330429132737 0 213.00330429132737 0.032231009210767179 0 0 0 0 36.314048635407744 -17.550959576499736 0 -17.550959576499736 -1.7786241275462089 0 0 0 0 -289.57987222244265 212.13669754261355 0 212.13669754261355 0.22060070392071904 0 0 0 0 -0.21900679875092699 -1.1545256188991999 0 -1.1545256188991999 0.50759383697069893 0 0 0 0 189.57140362231985 109.96905176470318 0 109.96905176470318 -74.560779164725318 0 0 0 0 -32.042382753777929 187.26487066460686 0 187.26487066460686 0.21506112544950773 0 0 0 0 -361.14764153168835 266.06371178644622 0 266.06371178644622 64.763258321210742 0 0 0 0 66.768195050883151 269.84007100430608 0 269.84007100430608 57.050513345951913 0 0 0 0 372.98687231034637 21.61586552654353 0 21.61586552654353 -58.544127738685347 0 0 0 0 124.4841010122982 180.82928501642164 0 180.82928501642164 -27.585479772649705 0 0 0 0 -11.970081491856035 83.648364828535705 0 83.648364828535705 21.822240138088091 0 0 0 0 -14.852406952704769 150.71754417114425 0 150.71754417114425 -39.719406736738165 0 0 0 0 -148.89118593321291 66.26668127949597 0 66.26668127949597 33.253174117897288 0 0 0 0 -64.420799763613104 116.08021428013308 0 116.08021428013308 -24.207566647361091 0 0 0 0 -204.80301722164234 115.5009302874405 0 115.5009302874405 26.616815133835189 0 0 0 0 -49.070867702091846 67.138962241507215 0 67.138962241507215 2.9955944197718054 0 0 0 0 116.74061429189351 82.93720557468987 0 82.93720557468987 -43.466131762317673 0 0 0 0 -89.095938146070694 93.900688423389511 0 93.900688423389511 -11.236069262995443 0 0 0 0 -56.513901716924011 84.169245012861211 0 84.169245012861211 -6.2369177517102798 0 0 0 0 -120.86069155203222 101.29235712334048 0 101.29235712334048 -9.8693573481723433 0 0 0 0 144.54600371658125 87.171490955071931 0 87.171490955071931 -26.169578398159501 0 0 0 0 -70.340027438523975 107.59207778543714 0 107.59207778543714 -9.1813789363077376 0 0 0 0 0.03502987126022461 0.15185414840779288 0 0.15185414840779288 0.42816012157140904 0 0 0 0 -77.664566392527831 90.152462588791423 0 90.152462588791423 -28.844341051692027 0 0 0 0 0.04048686789551148 0.2178604270861797 0 0.2178604270861797 0.30884888533802268 0 0 0 0 113.36630067035003 94.058600354150258 0 94.058600354150258 -10.398112969021895 0 0 0 0 122.65565424258284 80.884918311365709 0 80.884918311365709 0.73331484939262737 0 0 0 0 115.7006536047229 178.49590350165818 0 178.49590350165818 -34.853966229304206 0 0 0 0 -0.15852339058584697 -0.73716357482707195 0 -0.73716357482707195 0.3135233725862463 0 0 0 0 369.28687383301985 72.015211717833154 0 72.015211717833154 -48.498767358760233 0 0 0 0 -325.48288804591493 125.07184733597114 0 125.07184733597114 29.847037064886536 0 0 0 0 -67.123319219854238 103.40602132541972 0 103.40602132541972 -35.101111664931523 0 0 0 0 -92.654732522716586 121.3427575307287 0 121.3427575307287 -38.399651334766531 0 0 0 0 -127.7854663022772 56.796927648472774 0 56.796927648472774 -36.397556250238267 0 0 0 0 -43.897806652223608 58.819911289623633 0 58.819911289623633 -13.583667760860408 0 0 0 0 -69.725577961836279 70.907083915786643 0 70.907083915786643 -19.163979169912636 0 0 0 0 -33.744718008252676 82.581994974672853 0 82.581994974672853 -32.560751937540772 0 0 0 0 -10.756911155882335 52.2552191999348 0 52.2552191999348 -27.971577887896274 0 0 0 0 38.066857359661299 34.832707001762174 0 34.832707001762174 -22.135333921818528 0 0 0 0 -25.187536585863199 69.793757472598372 0 69.793757472598372 19.650953755175578 0 0 0 0 -133.61335145742487 170.32116031873738 0 170.32116031873738 -16.197448377446563 0 0 0 0 -11.9906836049704 65.138895994496124 0 65.138895994496124 -37.565447647108726 0 0 0 0 -44.565951914853031 46.671583496243329 0 46.671583496243329 125.32781157296267 0 0 0 0 9.5771535333788052 102.54464233844919 0 102.54464233844919 -2.1934868061944144 0 0 0 0 42.138569548944361 -24.919018660337315 0 -24.919018660337315 90.572591011066834 0 0 0 0 51.777789932622909 99.324606042129744 0 99.324606042129744 28.198406279505434 0 0 0 0 72.083936760205916 17.725888761326132 0 17.725888761326132 -4.5909318302728934 0 0 0 0 77.442333074741327 101.279110837997 0 101.279110837997 -95.345231344967033 0 0 0 0 16.565630482230617 24.138587774802133 0 24.138587774802133 26.700226818368606 0 0 0 0 97.039577556160111 -12.838601937553904 0 -12.838601937553904 -63.520538516822853 0 0 0 0 47.09374018422659 81.691136678247858 0 81.691136678247858 46.69384326148429 0 0 0 0 -1.300536940640086 59.878598390276238 0 59.878598390276238 93.316446791344788 0 0 0 0 1.1549739300045374 1.7579472640488234 0 1.7579472640488234 -1.2315840144122774 0 0 0 0 5.6862865983148367 88.725091133350361 0 88.725091133350361 100.35557470768981 0 0 0 0 15.907649124790623 38.892471170125646 0 38.892471170125646 31.539159224921605 0 0 0 0 27.457815518622738 36.581577509747149 0 36.581577509747149 31.540544473857153 0 0 0 0 1.1771861534461152 2.3381671180344199 0 2.3381671180344199 -1.6393324109010337 0 0 0 0 48.559020663287811 29.93313531435706 0 29.93313531435706 -0.079121351096546277 0 0 0 0 46.438927971052181 32.509335922310129 0 32.509335922310129 -12.714136012684321 0 0 0 0 32.550727187953157 36.612880947927806 0 36.612880947927806 1.6605085747723933 0 0 0 0 121.01409862648143 19.972252606632537 0 19.972252606632537 -21.978412997035775 0 0 0 0 68.835918734773259 68.459359547445274 0 68.459359547445274 -65.305879214283777 0 0 0 0 51.498413704292034 68.412680391222239 0 68.412680391222239 24.176357477379497 0 0 0 0 -5.182722809324332 59.143586273850815 0 59.143586273850815 75.790193053369876 0 0 0 0 -6.5487849271507912 84.833404246128339 0 84.833404246128339 3.7118116222700337 0 0 0 0 127.69296046169438 152.35844468107098 0 152.35844468107098 3.3150282116257586 0 0 0 0 365.12573539404843 384.9081839146038 0 384.9081839146038 -71.08485490232124 0 0 0 0 347.19140967100793 348.19164859743614 0 348.19164859743614 74.367021801503142 0 0 0 0 53.716487973603762 270.26022584617021 0 270.26022584617021 167.12219550475857 0 0 0 0 -44.392411799507499 161.85092912941764 0 161.85092912941764 113.28043831589457 0 0 0 0 -55.87295394875764 218.51469796437596 0 218.51469796437596 111.37850747935772 0 0 0 0 18.518090369615493 201.09632664508536 0 201.09632664508536 82.60314505896531 0 0 0 0 -2.7740585466981047 10.162405878358797 0 10.162405878358797 -6.0665611889427851 0 0 0 0 -21.081022698968098 27.493998770547478 0 27.493998770547478 42.154326572243008 0 0 0 0 -164.32689187193162 -27.564844381207877 0 -27.564844381207877 53.729130975552835 0 0 0 0 -144.91849414833359 188.70069098495878 0 188.70069098495878 134.85806799917191 0 0 0 0 8.3687188291605707 28.769253717873653 0 28.769253717873653 -2.4576435156777734 0 0 0 0 -6.1449813291324107 9.417660949285942 0 9.417660949285942 0.99242564557218316 0 0 0 0 -9.246583942862344 13.261376007714716 0 13.261376007714716 3.1268304937984794 0 0 0 0 0.54654028692129941 32.999795653544425 0 32.999795653544425 -1.8845621941891295 0 0 0 0 5.2180412026684806 19.59261342306074 0 19.59261342306074 20.376954381861651 0 0 0 0 -39.972498856986476 113.94803338090787 0 113.94803338090787 14.04598689978593 0 0 0 0 -70.766613480778688 113.41690085676964 0 113.41690085676964 160.44836758828023 0 0 0 0 -56.090268587504397 1.407731831757701 0 1.407731831757701 183.36627235422202 0 0 0 0 -35.608353057444219 8.8989330056811013 0 8.8989330056811013 -1.7218151538836537 0 0 0 0 -19.117576940081562 6.5922122520059929 0 6.5922122520059929 30.049203404603759 0 0 0 0 25.805791242124542 -76.062584223836893 0 -76.062584223836893 117.70960135800851 0 0 0 0 -0.4693169878840493 0.72261334429364865 0 0.72261334429364865 2.0476330409236425 0 0 0 0 -39.116161716707211 55.021444118596264 0 55.021444118596264 -11.638964244542876 0 0 0 0 -11.81816464001782 18.650562428831599 0 18.650562428831599 12.791134568214488 0 0 0 0 -8.6439180599736574 15.179068927915068 0 15.179068927915068 15.518783526611514 0 0 0 0 -12.867373124577853 28.306432739363061 0 28.306432739363061 24.989407877109102 0 0 0 0 2.6030795692627504 26.961145504978973 0 26.961145504978973 11.656156628969001 0 0 0 0 4.9498222404229129 5.1874850372516192 0 5.1874850372516192 4.9406080169121083 0 0 0 0 -90.52646100389029 -27.951322388122207 0 -27.951322388122207 35.743332386118709 0 0 0 0 37.262656476685152 31.643159388884669 0 31.643159388884669 4.771725256141508 0 0 0 0 24.096738747992276 75.056558767042588 0 75.056558767042588 46.2828854026302 0 0 0 0 -10.408167085149197 4.6676268152193643 0 4.6676268152193643 8.9977782848978336 0 0 0 0 -4.0602264710584404 18.091777631080259 0 18.091777631080259 20.862886123334818 0 0 0 0 -4.8079035170667339 18.826386600023397 0 18.826386600023397 51.586089357559104 0 0 0 0 -9.1380845753442372 29.294750386376109 0 29.294750386376109 49.66703116465942 0 0 0 0 46.31872486237171 2.7341486855875701 0 2.7341486855875701 23.841963027458405 0 0 0 0 -17.923701474257541 11.004983554230421 0 11.004983554230421 6.2164890341664432 0 0 0 0 -8.3559016693325248 15.990796244092053 0 15.990796244092053 -4.4531856658359175 0 0 0 0 -7.9847933250152892 14.548555463045886 0 14.548555463045886 -1.8404474606795702 0 0 0 0 -21.426878131096601 7.0957365747162839 0 7.0957365747162839 29.94173539953772 0 0 0 0 -5.8314504713447768 4.3500630987013409 0 4.3500630987013409 6.0758863254520463 0 0 0 0 -9.6225676552930963 5.2499472013150807 0 5.2499472013150807 3.4574770584586076 0 0 0 0 -27.154276725566888 19.594101334907464 0 19.594101334907464 2.8271387432614574 0 0 0 0 -30.327823129829994 30.715196720950189 0 30.715196720950189 -7.5967674035091477 0 0 0 0 13.265255030473121 19.387118256477024 0 19.387118256477024 17.089263658733159 0 0 0 0 24.148361619277694 28.326464344510896 0 28.326464344510896 -55.71051290082687 0 0 0 0 2.8094846813458929 5.9739568030194121 0 5.9739568030194121 -6.9028391518901913 0 0 0 0 236.12605494485069 64.38109228038229 0 64.38109228038229 14.76594468249823 0 0 0 0 244.0909510019942 21.417558774050576 0 21.417558774050576 -19.186758438212564 0 0 0 0 185.06498943706242 195.2721554267373 0 195.2721554267373 25.181271140827448 0 0 0 0 480.93811709639704 64.333377472339635 0 64.333377472339635 -63.839413171313936 0 0 0 0 88.003472295541997 18.029026398777205 0 18.029026398777205 13.803571794080199 0 0 0 0 730.70595493066935 461.4816316255492 0 461.4816316255492 -72.137779724202119 0 0 0 0 1092.0668829177966 998.8521445716533 0 998.8521445716533 656.0020059949602 0 0 0 0 1461.8235474628314 -124.96783750093527 0 -124.96783750093527 -41.3292580133093 0 0 0 0 -76.757986102832547 214.60462538491993 0 214.60462538491993 717.91020868888154 0 0 0 0 7.2705346052502691 5.9814223590718996 0 5.9814223590718996 6.6599417665053409 0 0 0 0 579.82904405218255 789.75483042093401 0 789.75483042093401 593.33406857678801 0 0 0 0 1388.5660291711424 518.24088834505528 0 518.24088834505528 -15.038892917436897 0 0 0 0 830.03876195660996 -39.632903657768111 0 -39.632903657768111 696.8314697501628 0 0 0 0 -112.94929374632449 30.078078582257149 0 30.078078582257149 -3.9087130928819533 0 0 0 0 -36.783680587316212 25.214022232690695 0 25.214022232690695 -8.4657714211207349 0 0 0 0 178.37501828156155 -29.830945984598657 0 -29.830945984598657 -33.87192297411093 0 0 0 0 308.16322844148112 258.0638535595499 0 258.0638535595499 110.11516484949243 0 0 0 0 58.676340334141969 168.87450498311591 0 168.87450498311591 317.54251349774131 0 0 0 0 -1.0256881072516233 1.4061559848870431 0 1.4061559848870431 -2.9889148425162375 0 0 0 0 -189.16879025970957 47.720192226763174 0 47.720192226763174 9.8650450324130361 0 0 0 0 -191.37067854112468 8.1416666633572277 0 8.1416666633572277 -69.594388764890027 0 0 0 0 -613.89131942868244 11.528532851174532 0 11.528532851174532 131.10445726882608 0 0 0 0 484.34064584665157 361.64280745536598 0 361.64280745536598 127.13281345421274 0 0 0 0 0.17212794695755562 -0.077553469814191089 0 -0.077553469814191089 -0.72319712820083737 0 0 0 0 531.49489227301979 409.9359919503695 0 409.9359919503695 167.7374621711424 0 0 0 0 614.34677764738308 442.56845755576614 0 442.56845755576614 104.8671774018585 0 0 0 0 580.18868170841142 394.54520426334057 0 394.54520426334057 60.097198779709288 0 0 0 0 151.01880830323353 232.87890512288141 0 232.87890512288141 0.14842752494515563 0 0 0 0 773.89741002608775 398.99783609219958 0 398.99783609219958 -15.952080019438142 0 0 0 0 687.27587660403981 350.9754319025169 0 350.9754319025169 -0.06467988237272948 0 0 0 0 858.08209774655711 184.89980301370542 0 184.89980301370542 -105.71191196757718 0 0 0 0 429.85454739341185 285.48752504714867 0 285.48752504714867 -0.19525719258672325 0 0 0 0 332.62367391405814 195.89907364768078 0 195.89907364768078 135.32138924593892 0 0 0 0 -199.65079254154168 185.33385007857555 0 185.33385007857555 186.78855816558644 0 0 0 0 301.45214329193277 287.48424788367993 0 287.48424788367993 -116.73497931071142 0 0 0 0 115.20322571532392 2.7662864534468099 0 2.7662864534468099 -40.272091662962339 0 0 0 0 -603.02734131796319 76.125134646134029 0 76.125134646134029 25.48693555216596 0 0 0 0 -234.5699662955949 260.70633777973853 0 260.70633777973853 0.11357962893672646 0 0 0 0 -576.68169661792763 351.57998102164242 0 351.57998102164242 -50.800016279012198 0 0 0 0 -201.85720238156227 515.08924340739031 0 515.08924340739031 -715.58994244916539 0 0 0 0 -898.8350405398794 443.86886058725486 0 443.86886058725486 -48.374409936775919 0 0 0 0 -871.5496466774739 152.87214432515611 0 152.87214432515611 43.82511804731439 0 0 0 0 -205.22407127702911 263.9308996077732 0 263.9308996077732 -548.34473339893157 0 0 0 0 -695.60587919398859 747.15291428736236 0 747.15291428736236 9.6643841301338398 0 0 0 0 -954.93088168832037 309.87861345422425 0 309.87861345422425 -88.603070412078523 0 0 0 0 -6.1588779051277882 2.7405372400230732 0 2.7405372400230732 2.3513270406772051 0 0 0 0 -1.9393218620385184 5.2898844756383454 0 5.2898844756383454 0.53539073150683691 0 0 0 0 -239.09624402207555 66.1982603917495 0 66.1982603917495 536.92093230380669 0 0 0 0 -59.546131275482367 -174.03957157224067 0 -174.03957157224067 578.01182095524928 0 0 0 0 -299.62411439937796 350.97164376002547 0 350.97164376002547 272.35792462631071 0 0 0 0 178.00047329314339 448.6532315014083 0 448.6532315014083 750.31073030651169 0 0 0 0 726.71946037603084 509.49506538913556 0 509.49506538913556 37.226790467524552 0 0 0 0 652.91891129950386 334.84687903451595 0 334.84687903451595 -44.938448754212004 0 0 0 0 174.09486671518403 532.14596296402669 0 532.14596296402669 -59.386682511489198 0 0 0 0 1920.3761439651835 1050.782746352932 0 1050.782746352932 -0.81104679786221823 0 0 0 0 6.8257219202531729 3.8812218242015319 0 3.8812218242015319 3.3826447797956121 0 0 0 0 2152.8731741337469 725.52956941298908 0 725.52956941298908 -119.4765254198719 0 0 0 0 1535.2569139078305 -249.81680383071398 0 -249.81680383071398 -11.661292021293775 0 0 0 0 698.09401635750692 471.10106482220726 0 471.10106482220726 -141.5056355575357 0 0 0 0 131.67326654687713 -211.84467029700318 0 -211.84467029700318 75.313557680266968 0 0 0 0 -132.03339993938062 138.75927744214277 0 138.75927744214277 21.450757437065477 0 0 0 0 -168.20304835550542 84.537518939334404 0 84.537518939334404 166.90604492084822 0 0 0 0 -137.44676147893915 120.65450332395994 0 120.65450332395994 -0.3835715783352498 0 0 0 0 -226.98944956243849 276.26389784226376 0 276.26389784226376 -200.45292863772193 0 0 0 0 -439.60309770469939 249.71190441124054 0 249.71190441124054 0.048832348663852373 0 0 0 0 -205.29688984860877 176.38395916102309 0 176.38395916102309 -183.44760592267357 0 0 0 0 11.807780220581119 13.242132425732549 0 13.242132425732549 7.7413776014071232 0 0 0 0 -59.541580573360079 70.434061150674097 0 70.434061150674097 290.40602923758706 0 0 0 0 1.3790588596000362 10.002130409500751 0 10.002130409500751 337.31678579456639 0 0 0 0 -135.24553600605304 95.380829999056004 0 95.380829999056004 392.38869822672496 0 0 0 0 -35.920871700345742 89.729008480091579 0 89.729008480091579 302.33503594346985 0 0 0 0 -120.7843491287822 181.98318430284417 0 181.98318430284417 221.38832774466573 0 0 0 0 11.712268136062448 138.66610132241112 0 138.66610132241112 172.01781047065742 0 0 0 0 -36.950685156113764 7.2390198697663664 0 7.2390198697663664 1.925337784185345 0 0 0 0 -46.282673191224603 9.808232905154 0 9.808232905154 -28.15524716724758 0 0 0 0 35.153384227920469 -96.099311681515246 0 -96.099311681515246 103.73376575512521 0 0 0 0 801.5701756080307 65.074611947628 0 65.074611947628 -96.575443540466949 0 0 0 0 129.17244966942326 200.13109268251992 0 200.13109268251992 123.71753507913672 0 0 0 0 -60.943278727849247 21.688071058495552 0 21.688071058495552 15.01578849645739 0 0 0 0 -37.150410824044513 11.091950364896917 0 11.091950364896917 0.049112674836308656 0 0 0 0 -11.617445040628809 150.81796508480693 0 150.81796508480693 190.61848073646252 0 0 0 0 -4.4267351359124589 0.61804389089982692 0 0.61804389089982692 -0.051748528849600461 0 0 0 0 4.6998147636259091 107.26462530365097 0 107.26462530365097 164.9900648150724 0 0 0 0 10.845554967863336 92.294155140210933 0 92.294155140210933 113.31262420018902 0 0 0 0 14.034942487279864 8.835143299366365 0 8.835143299366365 -5.5455102276819019 0 0 0 0 -21.040853587871855 40.611979467931576 0 40.611979467931576 9.5934161576377051 0 0 0 0 557.44222768152395 -189.60313889775716 0 -189.60313889775716 37.787898082839092 0 0 0 0 53.166259368241299 66.751610350096598 0 66.751610350096598 -0.45449970860499889 0 0 0 0 15.988166644687681 78.858878432227357 0 78.858878432227357 79.586379526997916 0 0 0 0 2021.9531405043963 1495.8411557554355 0 1495.8411557554355 908.52638977047172 0 0 0 0 776.75778356883757 1156.5165603617133 0 1156.5165603617133 1025.4441373898881 0 0 0 0 1342.250752634438 1099.7469383030038 0 1099.7469383030038 244.28994111665816 0 0 0 0 2257.2514259613672 680.81751890201849 0 680.81751890201849 421.17888668336673 0 0 0 0 1335.7122010148964 1123.4772108749762 0 1123.4772108749762 790.9093037974817 0 0 0 0 693.05197594610217 205.41342172310397 0 205.41342172310397 357.14806716046587 0 0 0 0 61.205517557008704 97.822997597587346 0 97.822997597587346 90.375572379081859 0 0 0 0 58.867851386329676 117.78984697314445 0 117.78984697314445 64.440519758514711 0 0 0 0 54.39911005912893 125.6783190820679 0 125.6783190820679 60.26517749732011 0 0 0 0 53.753281601248091 120.80340495053679 0 120.80340495053679 73.798305183430784 0 0 0 0 62.305044561180694 113.61894998518255 0 113.61894998518255 69.080117322679143 0 0 0 0 48.893320640502679 110.34819351881742 0 110.34819351881742 79.755102113762405 0 0 0 0 52.929219602310695 121.45851231640336 0 121.45851231640336 73.317869683611207 0 0 0 0 41.129489706435379 106.57419188996937 0 106.57419188996937 71.54824279359309 0 0 0 0 33.875687110458784 120.15275365090565 0 120.15275365090565 91.554353988030925 0 0 0 0 29.510034037790319 129.69227225471695 0 129.69227225471695 93.448993619211251 0 0 0 0 33.005577709507634 125.25148173177149 0 125.25148173177149 98.872912806182285 0 0 0 0 41.303124266162968 132.3278555662273 0 132.3278555662273 93.732251149835065 0 0 0 0 39.870296967905233 125.5462146896898 0 125.5462146896898 75.551994070905494 0 0 0 0 43.327802144707675 141.39358482429816 0 141.39358482429816 71.063129232330539 0 0 0 0 43.200643817445098 141.05120290807463 0 141.05120290807463 77.497358241729671 0 0 0 0 20.152003659170077 161.01689460597117 0 161.01689460597117 106.12463060420123 0 0 0 0 17.726924614700692 146.72959114634432 0 146.72959114634432 143.06731359412515 0 0 0 0 20.870826258540774 175.46355664176917 0 175.46355664176917 72.482263185462216 0 0 0 0 41.531249440831743 152.10897827063309 0 152.10897827063309 58.100055364513537 0 0 0 0 45.754834422049953 161.75665112760544 0 161.75665112760544 72.902692719042534 0 0 0 0 57.701839443350764 124.96506307709933 0 124.96506307709933 28.479914363204443 0 0 0 0 58.405019551162695 119.26650374561723 0 119.26650374561723 68.089617083125631 0 0 0 0 84.23857710709035 102.98144893589051 0 102.98144893589051 46.624835317677935 0 0 0 0 81.538155033679686 137.36785760601924 0 137.36785760601924 -16.816777423213352 0 0 0 0 98.089753345858298 129.3991862066614 0 129.3991862066614 -28.715277039977082 0 0 0 0 95.454596587584547 133.78786035671874 0 133.78786035671874 -177.40964175120462 0 0 0 0 98.943212476280678 19.302248360894737 0 19.302248360894737 -125.24572145975981 0 0 0 0 37.25839853468915 196.7322129092563 0 196.7322129092563 -36.891655906409142 0 0 0 0 6.4806182134507253 221.09407104698766 0 221.09407104698766 -54.668524294917006 0 0 0 0 33.44436559544647 188.48521805911878 0 188.48521805911878 24.30019673530478 0 0 0 0 -37.282732600868258 189.10691291160038 0 189.10691291160038 167.14518120694538 0 0 0 0 -27.036380757503139 160.44584646618569 0 160.44584646618569 187.3465973699349 0 0 0 0 -139.7215470957135 272.20103600026778 0 272.20103600026778 102.515781407943 0 0 0 0 -124.30349919600644 151.56795495974984 0 151.56795495974984 144.86340710497461 0 0 0 0 -166.94081902811058 223.72988207518938 0 223.72988207518938 239.37594304994127 0 0 0 0 -374.15404613974943 280.46762089593904 0 280.46762089593904 85.219289724846021 0 0 0 0 42.370916814395969 32.297782969741093 0 32.297782969741093 -224.12051383950529 0 0 0 0 -15.238494759141872 336.29816132467749 0 336.29816132467749 -367.979318907368 0 0 0 0 -318.09138669544882 280.9638358371667 0 280.9638358371667 -134.91704052315617 0 0 0 0 33.769674194947378 20.888613011600498 0 20.888613011600498 16.684246752785981 0 0 0 0 10.536379706926885 14.739626975636313 0 14.739626975636313 11.428876923915112 0 0 0 0 356.6577909990383 605.56353818386924 0 605.56353818386924 207.88224747264758 0 0 0 0 436.80002896389669 765.68611159735883 0 765.68611159735883 496.51959201112186 0 0 0 0 9.7613827056480176 -13.053765409097281 0 -13.053765409097281 58.548237244824179 0 0 0 0 400.51564678816425 -742.85603682396845 0 -742.85603682396845 407.19671680642932 0 0 0 0 -70.054064177209511 71.751609105398529 0 71.751609105398529 111.73066507446492 0 0 0 0 124.95641133977551 25.594235919368657 0 25.594235919368657 114.13639426659574 0 0 0 0 70.076535726133443 42.563704598229378 0 42.563704598229378 41.575852118432522 0 0 0 0 40.091446998654419 18.610799134457011 0 18.610799134457011 22.442989788367413 0 0 0 0 41.537354531097876 51.882349655293112 0 51.882349655293112 18.900952536610802 0 0 0 0 3.3204926002045916 7.5046824904515859 0 7.5046824904515859 6.9511980786467831 0 0 0 0 38.543708510942906 10.543020183598856 0 10.543020183598856 -7.2119189581135288 0 0 0 0 32.068886137122036 41.138074463061457 0 41.138074463061457 51.98382010217756 0 0 0 0 6.5696655547239722 -6.5308633346369902 0 -6.5308633346369902 -17.272583098334493 0 0 0 0 41.583743430441253 43.702271470940843 0 43.702271470940843 -13.222504725277375 0 0 0 0 -61.429349088304662 114.90078759243625 0 114.90078759243625 178.56466235521657 0 0 0 0 89.852270828812834 78.837770323902078 0 78.837770323902078 14.643762519703159 0 0 0 0 56.194892736147267 76.770497798795986 0 76.770497798795986 27.738303583981178 0 0 0 0 -50.643876477355661 179.22009528572744 0 179.22009528572744 4.3267893817283039 0 0 0 0 43.047416104076547 40.269930571495934 0 40.269930571495934 122.88478898483299 0 0 0 0 96.022522107225086 125.40299359905111 0 125.40299359905111 -183.62600637848664 0 0 0 0 107.57770363774762 106.96935686161305 0 106.96935686161305 -32.292689020225225 0 0 0 0 59.145200188764647 128.09159270016426 0 128.09159270016426 35.508659284772875 0 0 0 0 88.456201919158048 114.65724590626633 0 114.65724590626633 -35.320938184526312 0 0 0 0 76.427401039831238 109.24228441168452 0 109.24228441168452 99.813922195353371 0 0 0 0 50.04845924112405 54.189950716758233 0 54.189950716758233 -19.473884438169321 0 0 0 0 50.403973548623981 85.98660299374751 0 85.98660299374751 83.099730291491142 0 0 0 0 309.7917744176043 479.80389264944461 0 479.80389264944461 23.634937197237377 0 0 0 0 413.68607824867786 544.51524313726986 0 544.51524313726986 96.476461402595305 0 0 0 0 333.08481425066225 441.88165498727903 0 441.88165498727903 3.8956126749399118 0 0 0 0 -269.91308644202945 223.77699627914626 0 223.77699627914626 187.31836297130212 0 0 0 0 -39.873980571280754 507.94015480173039 0 507.94015480173039 333.49370129016643 0 0 0 0 -153.68040287256554 181.63161451854103 0 181.63161451854103 -213.26434529773542 0 0 0 0 -171.50805888739478 219.27920138277841 0 219.27920138277841 182.85613302343518 0 0 0 0 182.45756573609424 262.38578501212032 0 262.38578501212032 -168.96511070446286 0 0 0 0 -193.70827835708189 173.52593050119776 0 173.52593050119776 -189.41142219279573 0 0 0 0 -130.5832745846169 337.50148003493086 0 337.50148003493086 -192.08956972358283 0 0 0 0 -263.73704152422943 184.55323711557503 0 184.55323711557503 1034.0507101472904 0 0 0 0 -194.36199311985183 253.69004281691014 0 253.69004281691014 514.15693902752901 0 0 0 0 527.68403655444217 417.02812049297791 0 417.02812049297791 -660.64580630852652 0 0 0 0 -332.82064268404338 209.82028847858965 0 209.82028847858965 2114.8390509833553 0 0 0 0 12.078788964809952 9.1768955629910209 0 9.1768955629910209 4.4262866355533674 0 0 0 0 705.05768245435775 884.26667940189509 0 884.26667940189509 96.797530391289911 0 0 0 0 473.11542503321266 480.18908467620531 0 480.18908467620531 -76.108018646133132 0 0 0 0 -51.267204838635507 365.13719494662064 0 365.13719494662064 867.9943137332375 0 0 0 0 -35.4641460714613 125.33970973167379 0 125.33970973167379 -32.669656992409728 0 0 0 0 359.30574205508674 -324.83029089559932 0 -324.83029089559932 480.61992697610549 0 0 0 0 953.19674776845886 264.49109809364381 0 264.49109809364381 8.0603273837332381 0 0 0 0 511.8985054892687 826.53169046669427 0 826.53169046669427 908.03819800778001 0 0 0 0 422.61518602544675 298.42822492390769 0 298.42822492390769 -230.04436933765828 0 0 0 0 160.70652546697875 -32.620379265972588 0 -32.620379265972588 34.851940297040528 0 0 0 0 -71.027670369207954 -393.67565051707788 0 -393.67565051707788 -113.7951587620546 0 0 0 0 157.08377149717103 73.057946599245042 0 73.057946599245042 -263.68150315212552 0 0 0 0 42.030310540691971 5.9060659685019345 0 5.9060659685019345 -286.84794798040275 0 0 0 0 108.9630604039744 111.38230632055274 0 111.38230632055274 -384.88287721069355 0 0 0 0 14.933995882812415 37.779085776395121 0 37.779085776395121 16.308298855156011 0 0 0 0 -28.639725306335095 80.79179009055224 0 80.79179009055224 -86.315620597593806 0 0 0 0 24.365473856415086 14.572524402751213 0 14.572524402751213 -20.573996448538082 0 0 0 0 0.37076095631077877 67.215828796987552 0 67.215828796987552 11.773173367748456 0 0 0 0 3.0607368645215196 49.480744595329583 0 49.480744595329583 -19.62644304627257 0 0 0 0 -1.322979791034868 16.87669218886731 0 16.87669218886731 -123.17034649875859 0 0 0 0 -3.853810029016131 53.104240118947928 0 53.104240118947928 -70.008741915400606 0 0 0 0 14.802314510150609 30.337983972203801 0 30.337983972203801 -39.082953778419323 0 0 0 0 72.780526431983162 25.172256813617423 0 25.172256813617423 -49.906832615641179 0 0 0 0 7.6724291031732719 53.916180962900398 0 53.916180962900398 -43.407819275897054 0 0 0 0 19.615521906111098 35.143682452544454 0 35.143682452544454 -38.04029688234732 0 0 0 0 -141.29671208641594 139.08998861904911 0 139.08998861904911 -234.36667009174562 0 0 0 0 -10.280478825861792 41.696108907512098 0 41.696108907512098 -39.404910787092376 0 0 0 0 27.212360921676513 27.584458575763591 0 27.584458575763591 23.288426157634206 0 0 0 0 -8.4446577235570928 3.6230665845266827 0 3.6230665845266827 7.7786778329686115 0 0 0 0 83.606056405187701 110.49109231999319 0 110.49109231999319 37.402675372693921 0 0 0 0 -50.569710953312097 609.52601553381828 0 609.52601553381828 -264.59687250247225 0 0 0 0 17.531821358810703 -36.693372919304238 0 -36.693372919304238 -18.969744299727608 0 0 0 0 0.96918010929357479 1.8380356229645258 0 1.8380356229645258 -55.857459734412259 0 0 0 0 2.2559980035734597 -0.97196307500750834 0 -0.97196307500750834 -2.3102422296866791 0 0 0 0 -62.101143356783723 66.950040613097372 0 66.950040613097372 4.4608975123992423 0 0 0 0 -542.44599965490488 -371.37833512483485 0 -371.37833512483485 121.72131350490963 0 0 0 0 391.66458961360331 21.714151896158 0 21.714151896158 70.269736693062441 0 0 0 0 165.67534858323233 248.47022797771933 0 248.47022797771933 -324.22875533160277 0 0 0 0 63.630048985600297 191.52571623985204 0 191.52571623985204 287.48185465438291 0 0 0 0 -460.7995095681581 44.66621393675814 0 44.66621393675814 961.59202764419751 0 0 0 0 -415.65180473824694 243.4468113034518 0 243.4468113034518 1317.4485836031672 0 0 0 0 41.737281723606429 681.74862866208423 0 681.74862866208423 1287.4434539552749 0 0 0 0 9.3822804638795247 10.359674172433628 0 10.359674172433628 12.339471125319363 0 0 0 0 1132.646560823523 533.56264167262998 0 533.56264167262998 160.74238712750957 0 0 0 0 1065.0073200241241 1118.0680837757463 0 1118.0680837757463 516.70434072522039 0 0 0 0 256.70441636102623 1243.9193377481424 0 1243.9193377481424 1076.5512232700094 0 0 0 0 -30.829217724449336 903.85266891645006 0 903.85266891645006 864.81935455049097 0 0 0 0 379.09038275700561 704.74177939017159 0 704.74177939017159 268.61893317807699 0 0 0 0 388.16663253267893 888.02216562680564 0 888.02216562680564 646.84395787658286 0 0 0 0 292.13355187188426 743.24295202497888 0 743.24295202497888 479.3241362846602 0 0 0 0 472.2816611420094 602.12938608336117 0 602.12938608336117 366.63574962436542 0 0 0 0 777.64686783636716 166.36953879077919 0 166.36953879077919 124.17252974052099 0 0 0 0 293.73976400849642 177.21463442275854 0 177.21463442275854 30.742176875370205 0 0 0 0 58.204769287454837 -123.31569462669722 0 -123.31569462669722 -59.989295994557324 0 0 0 0 308.09933384187752 145.44031161276507 0 145.44031161276507 93.17696841416182 0 0 0 0 591.58476683792105 24.622428524307907 0 24.622428524307907 -123.76394057970174 0 0 0 0 441.53735930136645 329.27238844165913 0 329.27238844165913 177.07528902159538 0 0 0 0 82.051389004212979 -7.0325966665368469 0 -7.0325966665368469 -171.34573974965315 0 0 0 0 70.79148847743545 54.560804728206676 0 54.560804728206676 -116.63683866729843 0 0 0 0 111.09943477170964 41.857521065619949 0 41.857521065619949 -114.36612524854718 0 0 0 0 2.3449416743703466 -18.313107524830997 0 -18.313107524830997 46.3657256561211 0 0 0 0 110.4279742777544 48.941851912153652 0 48.941851912153652 -179.18775928643527 0 0 0 0 -826.32181228111949 -383.48763311231596 0 -383.48763311231596 980.41747811942332 0 0 0 0 5.4781057477644026 633.17055908642715 0 633.17055908642715 759.59114332047466 0 0 0 0 370.20322441459211 550.36431868328509 0 550.36431868328509 761.57394763427874 0 0 0 0 326.32807236097869 -295.16641461822292 0 -295.16641461822292 -411.23577284142084 0 0 0 0 -261.33213022706695 1389.0658959359289 0 1389.0658959359289 1343.3496536701059 0 0 0 0 6.6419015994970607 1.3019744420945898 0 1.3019744420945898 0.017909930862757051 0 0 0 0 1494.0657568508079 1605.7030696541356 0 1605.7030696541356 874.9308277535165 0 0 0 0 -492.1896943101201 -859.09785171126714 0 -859.09785171126714 306.28529579010501 0 0 0 0 4.9033037196366251 -7.5174203290754917 0 -7.5174203290754917 16.990148069818417 0 0 0 0 577.9912216007142 319.08129118179932 0 319.08129118179932 632.66204583705803 0 0 0 0 1303.547854472668 476.00850447040193 0 476.00850447040193 511.86324543938099 0 0 0 0 378.16758640912303 712.42010554175067 0 712.42010554175067 753.26236360848998 0 0 0 0 471.8582329987812 498.70870733526135 0 498.70870733526135 310.35035588980827 0 0 0 0 175.5103748180627 -56.042691603597632 0 -56.042691603597632 -208.27292063055211 0 0 0 0 299.03751434138212 491.93781661557296 0 491.93781661557296 555.61332791423774 0 0 0 0 45.431590542921185 -290.32011223315203 0 -290.32011223315203 486.09279551664076 0 0 0 0 338.06944327518613 -274.53411246012183 0 -274.53411246012183 -403.4035736898586 0 0 0 0 365.2877135765807 1344.2120970292744 0 1344.2120970292744 1664.8706727094395 0 0 0 0 -475.0656115877573 -202.82057642675136 0 -202.82057642675136 1724.7458722304291 0 0 0 0 37.455958393358742 -91.119049510223704 0 -91.119049510223704 -92.753073810774367 0 0 0 0 23.747294012765451 -10.690119199567562 0 -10.690119199567562 81.32538946083514 0 0 0 0 -204.4355584091827 284.7600933697031 0 284.7600933697031 347.80736392784456 0 0 0 0 226.89714640289094 355.3490894077986 0 355.3490894077986 176.80796414832002 0 0 0 0 134.43320384745311 591.76138779005123 0 591.76138779005123 679.5671793717047 0 0 0 0 15.285645671008751 155.94019333442702 0 155.94019333442702 549.68882890998793 0 0 0 0 196.0254808013724 162.97890672611902 0 162.97890672611902 -243.90949928456394 0 0 0 0 -382.39093845244497 -320.6800154190496 0 -320.6800154190496 53.633073288445303 0 0 0 0 0.26530284346105049 1.1582413300573364 0 1.1582413300573364 -2.9110817948302667 0 0 0 0 40.562897595082177 141.36263791181045 0 141.36263791181045 -34.458984639109985 0 0 0 0 73.836318715930247 27.359477499594504 0 27.359477499594504 -188.81452718397486 0 0 0 0 21.497109658111867 40.519805608596926 0 40.519805608596926 21.557079317310126 0 0 0 0 23.873988728019327 34.1261723377376 0 34.1261723377376 -10.0846228198224 0 0 0 0 69.42554019044519 78.720696006637809 0 78.720696006637809 41.78581355093047 0 0 0 0 66.620817879844253 58.258767545430601 0 58.258767545430601 28.326955939672189 0 0 0 0 20.178629023062364 19.401408717231533 0 19.401408717231533 2.0885817924512651 0 0 0 0 34.442194102211943 48.685654233508103 0 48.685654233508103 -14.735295816282814 0 0 0 0 43.718593772279462 43.931249775494379 0 43.931249775494379 -4.685363970989556 0 0 0 0 22.217007351247815 32.937479467157004 0 32.937479467157004 -8.2464795520668304 0 0 0 0 21.42311030212295 38.809663867315976 0 38.809663867315976 -39.429684511937012 0 0 0 0 35.627510535829401 33.980020634046582 0 33.980020634046582 -25.533731868003088 0 0 0 0 32.800669169760567 17.954471632666802 0 17.954471632666802 0.52451041247171304 0 0 0 0 -0.61770371241800603 82.035600496608822 0 82.035600496608822 -41.030234155856306 0 0 0 0 104.03850353161397 208.62143943593401 0 208.62143943593401 -39.561607863430254 0 0 0 0 291.59746995281603 68.342709021315386 0 68.342709021315386 -652.37247116113213 0 0 0 0 102.55820757519137 56.329953562395794 0 56.329953562395794 19.503130991085101 0 0 0 0 -79.141206876283832 -159.31525092541415 0 -159.31525092541415 -209.85776286598843 0 0 0 0 57.464173020307499 51.809455261511175 0 51.809455261511175 29.363657382498786 0 0 0 0 5.6575289106285709 50.205464266387111 0 50.205464266387111 17.399125467580518 0 0 0 0 28.821364832198014 35.616990576469107 0 35.616990576469107 0.84777087739712442 0 0 0 0 -12.521181846278466 18.879439506166918 0 18.879439506166918 -6.6200930482306717 0 0 0 0 -15.171197225518767 19.525825213641028 0 19.525825213641028 -5.3080350268084047 0 0 0 0 10.981334718831931 34.537621323077474 0 34.537621323077474 11.083737962697342 0 0 0 0 42.313806665319134 252.36602338777448 0 252.36602338777448 182.86879422079437 0 0 0 0 180.89061320293695 205.36679223360625 0 205.36679223360625 12.351026354277565 0 0 0 0 -8.6475319378514541 20.904299365925908 0 20.904299365925908 1.6439216719736578 0 0 0 0 -3.7553065502545877 16.761584264753552 0 16.761584264753552 -11.018898326143443 0 0 0 0 2.2613208015536657 28.545770442662615 0 28.545770442662615 -0.035750222120441322 0 0 0 0 17.274500878002073 42.754056207571921 0 42.754056207571921 -1.6410809669250739 0 0 0 0 20.251500322745414 35.009499396101091 0 35.009499396101091 -4.5155724258147529 0 0 0 0 22.7502398354045 37.052617454322899 0 37.052617454322899 -4.6684067641836009 0 0 0 0 18.116162318532588 34.893213333543827 0 34.893213333543827 -3.8835179880115902 0 0 0 0 19.581842575149494 36.579131902537483 0 36.579131902537483 -4.4537963578986819 0 0 0 0 18.277524168238472 25.00990086621459 0 25.00990086621459 14.374731886783465 0 0 0 0 -82.070671396293619 -53.500754123972001 0 -53.500754123972001 -630.59098897686272 0 0 0 0 -1.0582310519581881 13.425687923698632 0 13.425687923698632 -11.091578141851443 0 0 0 0 25.789807483957702 25.810822069213827 0 25.810822069213827 -14.559641612686391 0 0 0 0 21.354140702129371 29.663992452753519 0 29.663992452753519 -0.46659303989144973 0 0 0 0 24.692730231618043 21.270235625637724 0 21.270235625637724 -1.524648218517541 0 0 0 0 24.850977289485073 17.115316755798226 0 17.115316755798226 11.049387960801155 0 0 0 0 27.414209972430399 30.650134183739283 0 30.650134183739283 -31.89857990798555 0 0 0 0 21.687566528929892 30.202944130267497 0 30.202944130267497 -7.7034666404179006 0 0 0 0 21.913744067500375 35.129331910342444 0 35.129331910342444 7.5944619696638256 0 0 0 0 13.764063624519622 20.212798042353825 0 20.212798042353825 -3.4779325934432563 0 0 0 0 10.094480489388459 11.14281443132495 0 11.14281443132495 -16.357078110558405 0 0 0 0 21.199943127965525 31.392807672389608 0 31.392807672389608 -0.47941487869138655 0 0 0 0 11.491421195586923 16.454460030152021 0 16.454460030152021 -12.839251568588388 0 0 0 0 8.0781893502850259 14.027908774909331 0 14.027908774909331 -9.2872507027237248 0 0 0 0 20.836423292101244 29.142214135064933 0 29.142214135064933 -28.146708073094487 0 0 0 0 15.660784488129138 26.596141175994489 0 26.596141175994489 -3.679663633389282 0 0 0 0 26.684554644067248 17.190054942850111 0 17.190054942850111 -3.301605685861432 0 0 0 0 46.223720296136889 19.136718246656528 0 19.136718246656528 -50.919375335797668 0 0 0 0 -36.360921731618873 66.92467064599623 0 66.92467064599623 -28.403218079911312 0 0 0 0 0.42549544817594587 7.8091682597088123 0 7.8091682597088123 -1.9986171327014688 0 0 0 0 0.17497715652280021 25.575491367155337 0 25.575491367155337 -32.384018016266054 0 0 0 0 8.1304202218928037 25.901282034891789 0 25.901282034891789 -19.371821042387779 0 0 0 0 9.9288368034249288 22.726011171864229 0 22.726011171864229 -13.069647859774705 0 0 0 0 16.108416991962557 26.444332235858951 0 26.444332235858951 -20.402744511751621 0 0 0 0 6.4457248151429667 22.090535927702149 0 22.090535927702149 -13.438240740651963 0 0 0 0 11.864567098476343 23.593880297786129 0 23.593880297786129 -8.9073584525569061 0 0 0 0 20.066413307639621 15.228704537045317 0 15.228704537045317 1.5350622027437097 0 0 0 0 24.700822116392374 33.176359496632358 0 33.176359496632358 -51.557907654911105 0 0 0 0 19.034900779101918 31.173772468589505 0 31.173772468589505 -20.84843947738409 0 0 0 0 25.147816161228548 32.917482283424761 0 32.917482283424761 -51.527263740803846 0 0 0 0 32.119677136437531 34.604604450669285 0 34.604604450669285 -67.881113702736911 0 0 0 0 8.9384606390340196 26.231635030817415 0 26.231635030817415 -56.931284024278852 0 0 0 0 -9.0247532860266801 56.585324442967249 0 56.585324442967249 -31.380036272537836 0 0 0 0 -17.255391624759795 77.970298371750687 0 77.970298371750687 -85.990465819673773 0 0 0 0 29.725130402861005 25.896140056583789 0 25.896140056583789 -5.4142480669363948 0 0 0 0 -16.026003025806858 74.383368203350983 0 74.383368203350983 -98.936342796354438 0 0 0 0 19.391200766759049 12.633838289779803 0 12.633838289779803 -16.451909776501651 0 0 0 0 11.564880146118412 54.534059454304952 0 54.534059454304952 5.7243959179177182 0 0 0 0 19.145689758897788 40.614340471049218 0 40.614340471049218 -24.176735650326009 0 0 0 0 6.242816123041294 37.477430947095669 0 37.477430947095669 -18.790412317173235 0 0 0 0 21.72310232541713 37.216157312090218 0 37.216157312090218 -31.847524980737944 0 0 0 0 27.149166300086335 69.775876971952584 0 69.775876971952584 -9.2071744631102774 0 0 0 0 11.061522126180378 28.821635500053077 0 28.821635500053077 -21.277401841625114 0 0 0 0 14.873525562456052 49.279275670240168 0 49.279275670240168 -5.9507368814774964 0 0 0 0 24.146566494859144 46.692424026969093 0 46.692424026969093 -52.646978766384564 0 0 0 0 16.197620516916686 25.272376811009963 0 25.272376811009963 -28.748199007277435 0 0 0 0 9.7686275041596673 39.318696495547556 0 39.318696495547556 -31.998879903861962 0 0 0 0 780.37327022971874 839.81261874866027 0 839.81261874866027 -731.21517698038951 0 0 0 0 967.52720537805726 1173.5810203709589 0 1173.5810203709589 -454.77971616121795 0 0 0 0 768.87969762840657 1094.8687396744208 0 1094.8687396744208 -687.01173847512109 0 0 0 0 462.62165420946985 1088.2861041660799 0 1088.2861041660799 -374.12661145396851 0 0 0 0 660.7889614083324 969.51661839488952 0 969.51661839488952 -766.3114348798299 0 0 0 0 643.39412847100903 953.51080164435552 0 953.51080164435552 -813.17493313727027 0 0 0 0 883.47947520190792 582.62637352411912 0 582.62637352411912 -1893.8784578918517 0 0 0 0 472.32558920982956 836.23996563004221 0 836.23996563004221 -785.46310281194746 0 0 0 0 953.95551539462758 833.97190227266765 0 833.97190227266765 -785.45927870867331 0 0 0 0 682.93655369826774 647.78081700415623 0 647.78081700415623 23.851954974015825 0 0 0 0 900.71836540950608 1074.4003082850359 0 1074.4003082850359 33.252331942539797 0 0 0 0 733.81535445669942 526.73565853380478 0 526.73565853380478 -455.74708137405105 0 0 0 0 858.44209113436227 1504.8977013260956 0 1504.8977013260956 786.29124120809047 0 0 0 0 768.54678368837995 1098.3007097354966 0 1098.3007097354966 672.4431001886478 0 0 0 0 731.21263031085255 936.38210906728818 0 936.38210906728818 1392.3096137291504 0 0 0 0 1678.4350729931466 1579.5929765134242 0 1579.5929765134242 978.33040317154155 0 0 0 0 -425.16098231271462 -105.30907092075722 0 -105.30907092075722 519.43306078530077 0 0 0 0 1216.1878033053581 747.67413640762607 0 747.67413640762607 -92.022837828641059 0 0 0 0 470.24389360276837 903.13168256190511 0 903.13168256190511 -366.00128935592511 0 0 0 0 894.88506470808352 1363.3255534643577 0 1363.3255534643577 131.63729979166237 0 0 0 0 113.39776385143705 520.82963797121738 0 520.82963797121738 18.498665817285655 0 0 0 0 -54.812196693812439 698.35583350172965 0 698.35583350172965 1197.7745247340135 0 0 0 0 17.131000331719406 293.69659349641006 0 293.69659349641006 327.78243421814113 0 0 0 0 12.817266301209202 243.68842427485606 0 243.68842427485606 -235.47279000228446 0 0 0 0 111.61244829749921 468.4369106100421 0 468.4369106100421 -152.00390165172939 0 0 0 0 -75.819398823252413 66.006189360807184 0 66.006189360807184 141.63130033500784 0 0 0 0 33.341869654781476 54.313425203250517 0 54.313425203250517 -422.71035192714044 0 0 0 0 -13.69405129035701 8.3224735206837295 0 8.3224735206837295 -5.4509268876461192 0 0 0 0 -64.162639398775354 464.42046590633981 0 464.42046590633981 -1954.1543211453281 0 0 0 0 166.41059435169154 471.60785606164791 0 471.60785606164791 -971.18595277010172 0 0 0 0 -226.25902714732365 1037.3522376051515 0 1037.3522376051515 -640.22657865315705 0 0 0 0 -577.30386320991238 1310.3718346825408 0 1310.3718346825408 -1191.8012117953476 0 0 0 0 -376.41445508901234 934.55269949923422 0 934.55269949923422 -512.51006263017189 0 0 0 0 123.23994042437698 812.46600281319115 0 812.46600281319115 -530.85589155377238 0 0 0 0 187.71482986559568 975.93210152797838 0 975.93210152797838 -153.80560306750886 0 0 0 0 120.06762507557141 454.16007758480555 0 454.16007758480555 -128.59870767583925 0 0 0 0 -1516.986325126134 1554.2163598416919 0 1554.2163598416919 -1004.5558655918549 0 0 0 0 -1695.7197695424402 1132.4849789032014 0 1132.4849789032014 -351.03777082041233 0 0 0 0 -888.09173422600725 1613.6722344467125 0 1613.6722344467125 -1331.9067171632123 0 0 0 0 -1531.9363375861994 1947.1772493512663 0 1947.1772493512663 -95.858492441417184 0 0 0 0 -969.49272283488244 1163.7294708599729 0 1163.7294708599729 -468.78565497722593 0 0 0 0 -1126.1592871767352 1261.958370478591 0 1261.958370478591 -329.23668135532353 0 0 0 0 -860.96806797388126 1027.1799407849976 0 1027.1799407849976 -208.72074809458718 0 0 0 0 -1207.2670131198538 996.45321056526154 0 996.45321056526154 -62.465275732727605 0 0 0 0 -1288.4762887108373 1048.2210325963824 0 1048.2210325963824 -40.874152308417251 0 0 0 0 -1452.1625078473153 1327.9452846463755 0 1327.9452846463755 -453.71409514785046 0 0 0 0 -1501.5432821264549 716.13702002720674 0 716.13702002720674 444.01382544118678 0 0 0 0 -2804.3846644447185 1171.5677406453178 0 1171.5677406453178 618.59142246866577 0 0 0 0 -1325.7993261764641 545.34031814881018 0 545.34031814881018 596.51278779310269 0 0 0 0 -1490.6331499041989 -590.91599635918101 0 -590.91599635918101 1074.3288170861342 0 0 0 0 -2431.5006781217671 -169.46966323301604 0 -169.46966323301604 1416.0988373282889 0 0 0 0 -1.9822162304659514 0.72156822843307111 0 0.72156822843307111 -1.6471115073441709 0 0 0 0 -1590.7545359936339 1449.0652546202327 0 1449.0652546202327 -547.09853024697804 0 0 0 0 -1311.1744642667909 1612.6519710190623 0 1612.6519710190623 -1058.4230567218328 0 0 0 0 -1310.8107826504347 -0.64097091625808389 0 -0.64097091625808389 104.08898816938927 0 0 0 0 -2.9874692135745136 19.712403858261496 0 19.712403858261496 -7.6055940750738955 0 0 0 0 -6.1484493196248877 13.444829983278851 0 13.444829983278851 -9.2073064918295131 0 0 0 0 8.0242261192030355 6.2531571467122795 0 6.2531571467122795 -4.8912965666113166 0 0 0 0 -11.033355386609287 7.828252197073823 0 7.828252197073823 -3.6998948930904945 0 0 0 0 -738.76808975156018 203.03333279790604 0 203.03333279790604 -1423.0347889243249 0 0 0 0 -206.09151797798404 323.87580459763558 0 323.87580459763558 543.64122272186432 0 0 0 0 -23.708999195718206 50.045357292670815 0 50.045357292670815 268.64203139144956 0 0 0 0 -424.17455474946473 299.09888462395611 0 299.09888462395611 234.19404751899856 0 0 0 0 -3.9941731014696416 278.41527570467588 0 278.41527570467588 125.95865170349134 0 0 0 0 -253.73039900438744 150.79947090155474 0 150.79947090155474 96.420551740404335 0 0 0 0 -113.42347027290089 234.82564733585968 0 234.82564733585968 -98.397206670299056 0 0 0 0 -688.98766698213149 432.59043462999398 0 432.59043462999398 114.19681044098979 0 0 0 0 -441.16560067919636 244.08193528199081 0 244.08193528199081 187.59962618607096 0 0 0 0 -1003.6540207504004 211.96122645166906 0 211.96122645166906 331.00181693989725 0 0 0 0 -156.50465679853369 -178.41589249946264 0 -178.41589249946264 346.30930892206379 0 0 0 0 -842.00883167449501 403.03314460314868 0 403.03314460314868 335.46025135074888 0 0 0 0 -1029.3145670118683 714.95776635978837 0 714.95776635978837 65.300926787022036 0 0 0 0 -1076.3712452700129 812.76739988818008 0 812.76739988818008 189.87946014826593 0 0 0 0 -720.80806265415231 744.03680856100073 0 744.03680856100073 -152.27783187820751 0 0 0 0 -627.84826088314003 508.67546099105675 0 508.67546099105675 160.16946401705354 0 0 0 0 -394.66202802278713 575.77079780659187 0 575.77079780659187 -66.17727138104965 0 0 0 0 -125.37758680610568 274.38143448529809 0 274.38143448529809 -407.53111883488236 0 0 0 0 -459.75176327493318 466.68973996985369 0 466.68973996985369 -150.8870786660118 0 0 0 0 -363.55534074138268 325.07531418286817 0 325.07531418286817 -44.017075144998671 0 0 0 0 -145.30568859183404 168.24905664988546 0 168.24905664988546 -129.28384693719818 0 0 0 0 86.76360590487316 46.745691493682102 0 46.745691493682102 22.190441059408471 0 0 0 0 25.197141962584283 212.48101244103236 0 212.48101244103236 -294.6474518037503 0 0 0 0 162.28137267069178 756.94977871852279 0 756.94977871852279 -578.16948079389113 0 0 0 0 13.061217396061693 892.66585694089372 0 892.66585694089372 -360.54078939955798 0 0 0 0 -310.12296880250506 952.28148829042038 0 952.28148829042038 -353.81262236676412 0 0 0 0 -421.86285746374051 1099.7393098995635 0 1099.7393098995635 -490.12596565864533 0 0 0 0 -712.02720834220236 841.20915086131936 0 841.20915086131936 -46.342391424361267 0 0 0 0 -263.54062297454948 599.53316765670024 0 599.53316765670024 -360.37463396303247 0 0 0 0 -385.22705430865244 631.19684798626804 0 631.19684798626804 -368.46407287418697 0 0 0 0 699.87548000122479 768.11019782520452 0 768.11019782520452 -648.30420225249691 0 0 0 0 21.760731575617683 405.26987947460657 0 405.26987947460657 -764.05025522843789 0 0 0 0 1067.9926097870848 858.06073774147444 0 858.06073774147444 -1124.5272816483484 0 0 0 0 -147.98552703405585 413.46388586745707 0 413.46388586745707 882.30369746824726 0 0 0 0 -441.58317031401384 -226.68270206573652 0 -226.68270206573652 2470.9298296984434 0 0 0 0 -8.7275573068429821 5.1903073212432673 0 5.1903073212432673 -2.102367658469106 0 0 0 0 2587.5046550785919 750.37612515641376 0 750.37612515641376 -684.57694659731351 0 0 0 0 16.6338772502545 13.067317319833485 0 13.067317319833485 8.0944896570203326 0 0 0 0 -453.42032565551563 -155.13512038551926 0 -155.13512038551926 863.27961644607785 0 0 0 0 1179.863339168769 1086.5936288239027 0 1086.5936288239027 -599.77670873371972 0 0 0 0 -442.81748588053597 277.65129029767195 0 277.65129029767195 988.55885255878457 0 0 0 0 52.388240328177162 34.81084218852763 0 34.81084218852763 18.391181567519816 0 0 0 0 -225.29418160851856 559.49373409031796 0 559.49373409031796 -642.81694516961579 0 0 0 0 -92.144301728094433 383.3645521750841 0 383.3645521750841 835.24136822305445 0 0 0 0 8.1434959857724607 406.93177259522054 0 406.93177259522054 839.86652767810847 0 0 0 0 -9.2842272415546176 87.727957229071762 0 87.727957229071762 784.31486567613319 0 0 0 0 -474.2266312853244 -260.56473944695244 0 -260.56473944695244 725.80621093926311 0 0 0 0 276.98178118382202 -1.2254678808385506 0 -1.2254678808385506 370.59785035018285 0 0 0 0 382.88755458948117 383.12363591520807 0 383.12363591520807 702.429630719751 0 0 0 0 65.596158016152913 396.48661290808013 0 396.48661290808013 1390.9202607696498 0 0 0 0 28.101773178333133 12.263369617140327 0 12.263369617140327 -9.1509632343953982 0 0 0 0 -82.001919255773828 436.18111426122414 0 436.18111426122414 884.19763123268058 0 0 0 0 -33.705486667704264 18.548041752234781 0 18.548041752234781 -0.98331783387930471 0 0 0 0 40.752975560804771 119.28235177791066 0 119.28235177791066 85.355145301866287 0 0 0 0 2.1050213241142046 95.314270662347553 0 95.314270662347553 -0.14143360742309596 0 0 0 0 -1.9198579223957495 106.32940134846103 0 106.32940134846103 84.403732344610034 0 0 0 0 54.266485165942868 118.86971356280628 0 118.86971356280628 -46.932420144352363 0 0 0 0 83.75597628662581 49.99523923826564 0 49.99523923826564 -64.338552010640342 0 0 0 0 -15.486835717779666 40.89372412735888 0 40.89372412735888 -11.798787690447995 0 0 0 0 62.833201285646282 89.516776113821379 0 89.516776113821379 -20.454104658550932 0 0 0 0 25.82655705930847 20.039847977721365 0 20.039847977721365 -49.734378428773198 0 0 0 0 256.74709135088051 446.16578139508783 0 446.16578139508783 498.36232633141481 0 0 0 0 125.92864447158354 189.65580646109811 0 189.65580646109811 281.88492878280886 0 0 0 0 82.777326726842148 79.192061917978208 0 79.192061917978208 94.095153481277521 0 0 0 0 315.42935383428994 205.81098313071561 0 205.81098313071561 -153.67708815795777 0 0 0 0 58.80660501641978 147.96275690442417 0 147.96275690442417 117.84544492298483 0 0 0 0 321.6465726098977 345.35301884402725 0 345.35301884402725 153.77237121739745 0 0 0 0 296.3950317868439 263.04930866864379 0 263.04930866864379 58.714903097999922 0 0 0 0 1804.2646499609473 1906.9297508223754 0 1906.9297508223754 1405.6489330026743 0 0 0 0 1394.6526040466852 1414.3818999419527 0 1414.3818999419527 1575.3108102820406 0 0 0 0 14.292174658875894 15.036753366663362 0 15.036753366663362 -41.781785069056326 0 0 0 0 294.88043124469522 65.491188658930824 0 65.491188658930824 9.9367578675010009 0 0 0 0 1097.6937609444649 1112.9324723521277 0 1112.9324723521277 1266.176449821065 0 0 0 0 1874.0932657914382 1432.5750525701224 0 1432.5750525701224 1077.1041034694717 0 0 0 0 1187.0580812087501 1519.9211064600167 0 1519.9211064600167 1278.0762432234696 0 0 0 0 1571.0150177835785 1681.7044306648968 0 1681.7044306648968 1493.2610139164535 0 0 0 0 1562.0123929653819 1183.7502171253218 0 1183.7502171253218 1133.563940965425 0 0 0 0 664.90723663658719 300.24335878772399 0 300.24335878772399 -70.341775558401423 0 0 0 0 -390.3622990642325 -327.57049713365996 0 -327.57049713365996 -149.7724258647213 0 0 0 0 -88.850038939748629 198.59151978787122 0 198.59151978787122 613.40073098895664 0 0 0 0 -723.55009710681043 362.63372084676666 0 362.63372084676666 1890.4873889382288 0 0 0 0 -61.355011051140536 64.519222020812776 0 64.519222020812776 -183.31322862800153 0 0 0 0 6.8409460334266043 12.140089522927298 0 12.140089522927298 -27.811109423927832 0 0 0 0 552.05445968259301 572.77646071487834 0 572.77646071487834 -1126.3310101814568 0 0 0 0 101.35200489872659 131.42365066281491 0 131.42365066281491 -155.80377377543482 0 0 0 0 264.53596501256106 870.38550747226327 0 870.38550747226327 -438.86864638021871 0 0 0 0 760.47519984127575 1805.1173341336325 0 1805.1173341336325 1316.9894832705104 0 0 0 0 570.5396556206108 836.89850899407236 0 836.89850899407236 -513.36943595179764 0 0 0 0 1252.1905395236381 1545.9295352427835 0 1545.9295352427835 72.10693306470057 0 0 0 0 1304.1249652621809 1815.4465308785639 0 1815.4465308785639 1375.9422673138979 0 0 0 0 59.102535605794401 -527.18871064268387 0 -527.18871064268387 -1752.6404660199814 0 0 0 0 1.066591460054255 5.3432354441476662 0 5.3432354441476662 -9.3559204069060229 0 0 0 0 1336.9389603062737 924.90990284584404 0 924.90990284584404 942.47108921652034 0 0 0 0 927.19381713420216 974.66177636503085 0 974.66177636503085 1177.7464058065234 0 0 0 0 1543.565129083363 1063.2232458911531 0 1063.2232458911531 951.93186290898302 0 0 0 0 1194.0342855300551 1136.2770820833866 0 1136.2770820833866 1214.1777262647302 0 0 0 0 1141.15188033903 1235.2994972588695 0 1235.2994972588695 640.06064236120437 0 0 0 0 800.38799072650727 859.41248875260499 0 859.41248875260499 1199.402629833929 0 0 0 0 586.60340422217996 1205.9555301778673 0 1205.9555301778673 748.6381949434799 0 0 0 0 701.13029038582681 982.33714685956238 0 982.33714685956238 -286.9187999292626 0 0 0 0 592.29159560019252 396.63611671008039 0 396.63611671008039 -60.007456016952347 0 0 0 0 568.75779672029603 348.84605761717103 0 348.84605761717103 124.50623382115009 0 0 0 0 199.34017231929465 44.992606071740738 0 44.992606071740738 -240.06594545967528 0 0 0 0 211.41444576760932 81.61668415323129 0 81.61668415323129 61.614021433604648 0 0 0 0 349.14018515503267 -41.272436881678004 0 -41.272436881678004 -129.4185400360293 0 0 0 0 273.03190869766695 359.68446530662186 0 359.68446530662186 468.34417966057663 0 0 0 0 477.26729081234953 98.351284426036727 0 98.351284426036727 -126.45295273515512 0 0 0 0 802.05784851468343 483.96414873120739 0 483.96414873120739 309.11340180540719 0 0 0 0 756.45756591125246 860.97305166861952 0 860.97305166861952 858.28607796039432 0 0 0 0 1544.1189289328249 1515.3999891202475 0 1515.3999891202475 935.76957161081373 0 0 0 0 1312.9745845588186 1046.8548834791363 0 1046.8548834791363 1000.2126559299977 0 0 0 0 1227.3812200398852 1605.2779313700476 0 1605.2779313700476 1144.1177136017941 0 0 0 0 327.25428807982098 638.78371437869646 0 638.78371437869646 687.19160644827571 0 0 0 0 1375.3426182355324 1564.7697319234958 0 1564.7697319234958 737.20345165293838 0 0 0 0 852.74430441372533 1262.3456651204579 0 1262.3456651204579 980.71430697092001 0 0 0 0 -365.08003650947649 -181.341692197886 0 -181.341692197886 10.694004088647489 0 0 0 0 401.31217149394797 665.22305273756137 0 665.22305273756137 600.08677899235045 0 0 0 0 49.580730149918963 1075.4601869614671 0 1075.4601869614671 865.38775679907849 0 0 0 0 11.569856288146624 6.1710976494484697 0 6.1710976494484697 3.3366621512692376 0 0 0 0 -116.10566252572607 -284.95125130863016 0 -284.95125130863016 254.41263589175651 0 0 0 0 972.4274427649143 -275.37717132917169 0 -275.37717132917169 151.9445546944844 0 0 0 0 30.145999587852202 14.424116352198737 0 14.424116352198737 4.6535687307768256 0 0 0 0 81.586331199490814 492.31023422718135 0 492.31023422718135 -865.44689706694953 0 0 0 0 329.28396369904658 50.802106851340795 0 50.802106851340795 -915.33226145314984 0 0 0 0 96.125382737925975 -15.121778193730279 0 -15.121778193730279 -265.61850142831099 0 0 0 0 186.03698704509588 133.66464091913804 0 133.66464091913804 -555.40960417357564 0 0 0 0 230.75641159294173 -23.652884496565093 0 -23.652884496565093 -317.4905081007455 0 0 0 0 77.05015628842375 -106.49451228187172 0 -106.49451228187172 -338.12074796360685 0 0 0 0 -212.79754618069273 -73.601296514440037 0 -73.601296514440037 -214.52407130828942 0 0 0 0 -322.79290439879696 260.6066056471318 0 260.6066056471318 -332.71175341631897 0 0 0 0 166.88459836340917 -16.617248091148213 0 -16.617248091148213 -400.45229313493473 0 0 0 0 352.73007863592647 -97.470080202139798 0 -97.470080202139798 -356.96749620887567 0 0 0 0 349.59033361840557 -92.157278696413414 0 -92.157278696413414 -388.20601407642243 0 0 0 0 204.08426677959505 -135.25993933016434 0 -135.25993933016434 -341.41712302443193 0 0 0 0 433.44005698799447 -41.333570796756248 0 -41.333570796756248 -301.91839756208356 0 0 0 0 462.98966208632919 -71.747453869858873 0 -71.747453869858873 -366.55590820053476 0 0 0 0 347.54113698229776 -94.981564720452297 0 -94.981564720452297 -347.46224581923889 0 0 0 0 325.47854253552214 -82.089479043930623 0 -82.089479043930623 -356.30876653557061 0 0 0 0 401.93910731676442 -68.360216137822135 0 -68.360216137822135 -365.19018276441784 0 0 0 0 323.57128261952312 -86.688760297474801 0 -86.688760297474801 -312.5114574743493 0 0 0 0 259.79650995499105 -138.90978252775676 0 -138.90978252775676 -351.2702678779533 0 0 0 0 307.05562633351656 -96.977340282057412 0 -96.977340282057412 -309.90582899743458 0 0 0 0 285.72131856000487 -78.492898581971531 0 -78.492898581971531 -226.00031881162431 0 0 0 0 274.38364489501691 34.02242468293116 0 34.02242468293116 -205.00413967277564 0 0 0 0 254.03939116361289 -42.45253782114014 0 -42.45253782114014 -130.51126470326562 0 0 0 0 129.68563358869687 -12.958829806100766 0 -12.958829806100766 54.293044619378634 0 0 0 0 278.26541736959189 155.77947493000102 0 155.77947493000102 -144.22441499440902 0 0 0 0 248.3494318608864 -119.39541468594689 0 -119.39541468594689 -275.85713861443583 0 0 0 0 -28.613084878150403 121.96741686309178 0 121.96741686309178 179.27214806341726 0 0 0 0 119.50920908894295 94.34422821264161 0 94.34422821264161 77.385595665778965 0 0 0 0 -20.685723091797087 64.496988888205607 0 64.496988888205607 78.762108281203012 0 0 0 0 52.044298093507678 85.684112716164236 0 85.684112716164236 -14.390202104477794 0 0 0 0 -3.8274669558052921 54.020065043575286 0 54.020065043575286 -9.8562337652961958 0 0 0 0 39.693102209435892 120.59083841962274 0 120.59083841962274 -50.510077793347591 0 0 0 0 11.889726723766131 22.983439138675067 0 22.983439138675067 8.3753794105993791 0 0 0 0 89.36602391093038 77.21038883170695 0 77.21038883170695 -14.501124307085774 0 0 0 0 -14.962636794967693 45.204308763575682 0 45.204308763575682 -37.784919514022477 0 0 0 0 226.55453669755661 317.01999656314365 0 317.01999656314365 198.38615017725169 0 0 0 0 49.341817116193852 170.42426904780586 0 170.42426904780586 299.56836127425049 0 0 0 0 149.59389722498599 135.11291072163294 0 135.11291072163294 79.706726214299124 0 0 0 0 31.324802702297944 11.584541120872743 0 11.584541120872743 -57.192827360827721 0 0 0 0 1636.6399683385539 1600.4403017769835 0 1600.4403017769835 1533.7075646999583 0 0 0 0 1614.6820639526923 1300.7665476687762 0 1300.7665476687762 1342.0593646528941 0 0 0 0 305.34236246207001 406.60962666190244 0 406.60962666190244 504.88149216812599 0 0 0 0 172.11347186115745 2.2028054135844286 0 2.2028054135844286 -361.02186981499108 0 0 0 0 -0.2599036721411494 -2.1442141769250185 0 -2.1442141769250185 0.62643758387197579 0 0 0 0 1882.066466770324 1751.9536933428608 0 1751.9536933428608 1162.1006283278693 0 0 0 0 508.3161130293156 332.47685069777071 0 332.47685069777071 87.975492887257133 0 0 0 0 1954.8472376244463 1360.3159730830157 0 1360.3159730830157 1149.4795834405741 0 0 0 0 23.186171641884883 15.043213978990366 0 15.043213978990366 -51.598515786667434 0 0 0 0 1859.0902740720849 1151.3310433682273 0 1151.3310433682273 1027.1301888324087 0 0 0 0 1789.3409530392164 1576.9890896965735 0 1576.9890896965735 829.40988811879652 0 0 0 0 1833.0850936346542 1386.8361381877257 0 1386.8361381877257 1364.5688596947075 0 0 0 0 1754.496698034387 1076.6580694252025 0 1076.6580694252025 1656.7819844418555 0 0 0 0 1256.0331180546709 1414.4343744936123 0 1414.4343744936123 1742.0188633290672 0 0 0 0 1489.5880433036509 777.56196182911663 0 777.56196182911663 69.558631724365114 0 0 0 0 202.7453048027819 513.1723827852984 0 513.1723827852984 162.44954139673428 0 0 0 0 1977.454581547634 1395.1555829442223 0 1395.1555829442223 664.52475411829073 0 0 0 0 1260.9358862444133 1142.807384251435 0 1142.807384251435 342.68377088097623 0 0 0 0 1132.4397708010965 1527.6754228985956 0 1527.6754228985956 1101.9790680822043 0 0 0 0 1235.9536500213908 1541.4110088203233 0 1541.4110088203233 1563.9902005384356 0 0 0 0 1487.4823010888576 1489.7886762095586 0 1489.7886762095586 1105.924391780025 0 0 0 0 226.92939104335423 62.629490148282287 0 62.629490148282287 84.481558252402465 0 0 0 0 1904.234096637847 1496.0155326513559 0 1496.0155326513559 967.03245548767154 0 0 0 0 1179.8452497784237 1763.644689501074 0 1763.644689501074 908.01572870629025 0 0 0 0 47.035525508210412 112.62278664173209 0 112.62278664173209 77.081656899325026 0 0 0 0 1845.5923921758122 1704.3381915111013 0 1704.3381915111013 880.77600439432717 0 0 0 0 2212.6860320830601 1431.7911209997255 0 1431.7911209997255 953.520072945641 0 0 0 0 51.817925103780304 10.588837580565325 0 10.588837580565325 -57.622994439834429 0 0 0 0 -26.693564851555653 61.265295219221294 0 61.265295219221294 76.513567217105589 0 0 0 0 -0.0041304299409432588 9.5801752400999192 0 9.5801752400999192 2.6072518975785215 0 0 0 0 912.08266829924833 -448.21546359430795 0 -448.21546359430795 -841.44249723153189 0 0 0 0 1882.6556751641911 666.61582849896513 0 666.61582849896513 438.81356803269591 0 0 0 0 153.96876820702164 199.13942379364744 0 199.13942379364744 118.77221051792003 0 0 0 0 2821.826286374624 1356.8016916974811 0 1356.8016916974811 409.77144026302267 0 0 0 0 2783.1156215600777 1503.4391544503342 0 1503.4391544503342 561.55273515620502 0 0 0 0 2418.5484252058013 1097.474025153002 0 1097.474025153002 501.31548051191567 0 0 0 0 2641.3410991913261 1704.4642698402167 0 1704.4642698402167 155.0772557811797 0 0 0 0 2535.3623891918542 1295.8173733863223 0 1295.8173733863223 -338.64090727223083 0 0 0 0 2523.1240243777265 1324.7988316350402 0 1324.7988316350402 792.16378326011181 0 0 0 0 2300.5867322342638 1800.85876401719 0 1800.85876401719 1083.9673559627263 0 0 0 0 1881.6984179062929 1533.9520663041621 0 1533.9520663041621 922.89057532192965 0 0 0 0 509.5300458592319 1240.5150681079976 0 1240.5150681079976 1129.1590869438005 0 0 0 0 1850.3823866521993 1726.8824715504461 0 1726.8824715504461 635.22666991228471 0 0 0 0 18.740325863677313 5.2294399514819361 0 5.2294399514819361 -1.7191172734468694 0 0 0 0 988.25408540451099 -127.51271146004729 0 -127.51271146004729 -1481.3004548069748 0 0 0 0 1747.333838708817 1952.0951650285206 0 1952.0951650285206 1484.4734489487673 0 0 0 0 167.96285219728907 -76.470969686954959 0 -76.470969686954959 -334.51002660312224 0 0 0 0 1172.8857777154262 1137.9573129778801 0 1137.9573129778801 364.55095890662051 0 0 0 0 769.17485213608597 184.86292209081876 0 184.86292209081876 -1096.656482353872 0 0 0 0 558.99461160752981 265.36563549870334 0 265.36563549870334 -302.91081489995122 0 0 0 0 479.23245422673062 500.81782784078678 0 500.81782784078678 -797.5841936301149 0 0 0 0 484.49501165925176 603.44487472798937 0 603.44487472798937 -348.2808102464187 0 0 0 0 -21.90157645540603 204.33211196689808 0 204.33211196689808 -523.55612661797204 0 0 0 0 -443.87238211848307 -646.22291170409881 0 -646.22291170409881 -1641.6981431398599 0 0 0 0 -13.774594787915703 534.02751835731033 0 534.02751835731033 -798.04742197615269 0 0 0 0 -462.49962637745193 373.01644389914873 0 373.01644389914873 -548.21344693649735 0 0 0 0 7.9154930389514533 2.6778632112888197 0 2.6778632112888197 -4.7617144659660653 0 0 0 0 -18.472380773971963 284.95121265353009 0 284.95121265353009 -555.46531619296366 0 0 0 0 -150.71572650371854 275.84291972437859 0 275.84291972437859 -200.92421579603251 0 0 0 0 38.026552623510028 5.1175646939689159 0 5.1175646939689159 -5.0009530966758007 0 0 0 0 -288.59334581287749 308.22349269746701 0 308.22349269746701 -199.5920793395635 0 0 0 0 -135.66022982920458 541.19746541504355 0 541.19746541504355 0.019765478144108783 0 0 0 0 325.98545686098078 258.54827171732904 0 258.54827171732904 -291.73453697365767 0 0 0 0 -99.621677550081586 326.83610189343563 0 326.83610189343563 -301.55042052309727 0 0 0 0 785.20954084951882 722.01633494490488 0 722.01633494490488 -0.028376032052619848 0 0 0 0 1255.8228301422187 428.08424046235086 0 428.08424046235086 -503.49802599449481 0 0 0 0 2342.2173161386036 1090.6915472572946 0 1090.6915472572946 -464.81610239485599 0 0 0 0 929.49354294998921 896.22430072160205 0 896.22430072160205 227.58956227067392 0 0 0 0 732.46451883388363 502.97520764313958 0 502.97520764313958 -170.98614637761784 0 0 0 0 518.9300127799288 476.86164916557755 0 476.86164916557755 -114.82843989249523 0 0 0 0 599.70058149381657 473.08020968064375 0 473.08020968064375 -118.8566411324573 0 0 0 0 283.00606370609603 202.37725192087237 0 202.37725192087237 -340.57789296950796 0 0 0 0 588.90376398227818 326.99860645178705 0 326.99860645178705 -336.97630907437997 0 0 0 0 -588.4919527518141 194.12902946810209 0 194.12902946810209 -145.8656865518933 0 0 0 0 141.66641616964262 -109.22585580865962 0 -109.22585580865962 -511.22652656104765 0 0 0 0 382.4241593699262 112.18358831298974 0 112.18358831298974 -585.15333058458054 0 0 0 0 817.25957231117354 524.57268322630262 0 524.57268322630262 -314.49311152059272 0 0 0 0 485.34125229562051 -105.97258041215537 0 -105.97258041215537 -201.09323872077948 0 0 0 0 -1475.6265279910149 1209.6768103592185 0 1209.6768103592185 184.69845557960798 0 0 0 0 770.93417583206246 608.14049994609377 0 608.14049994609377 -322.56740599342447 0 0 0 0 829.00088130490622 1828.2848501931585 0 1828.2848501931585 211.63604618058889 0 0 0 0 15.237509953031775 10.047913109528082 0 10.047913109528082 5.151380741327344 0 0 0 0 7.1298664812684933 8.5955326187585328 0 8.5955326187585328 6.7691659901877301 0 0 0 0 272.7443878386257 -170.80413813699124 0 -170.80413813699124 -220.86342996191524 0 0 0 0 606.92599105797126 -43.569836389244301 0 -43.569836389244301 -238.06561591301579 0 0 0 0 477.27161123738551 -41.941362850808218 0 -41.941362850808218 -251.31973350018961 0 0 0 0 501.07436529012921 -22.775415936175705 0 -22.775415936175705 -242.11886446949211 0 0 0 0 537.14362949530914 -75.329971805618698 0 -75.329971805618698 -296.09308338561095 0 0 0 0 347.48233870716649 -89.609380750596756 0 -89.609380750596756 -296.18602068917244 0 0 0 0 500.36880795583056 -98.779790189160849 0 -98.779790189160849 -305.87757140872418 0 0 0 0 71.156435284137842 -173.78084141836007 0 -173.78084141836007 -220.72594407221186 0 0 0 0 133.14593233959749 -547.15149206158821 0 -547.15149206158821 -1527.009658327559 0 0 0 0 -3051.6703510663428 1427.3154676160921 0 1427.3154676160921 2529.6891453464486 0 0 0 0 744.69112079868501 1613.5147559186153 0 1613.5147559186153 1934.7546139713377 0 0 0 0 1117.9332535402209 1143.5980495385302 0 1143.5980495385302 321.87296880502254 0 0 0 0 184.45212921586062 651.50770990399178 0 651.50770990399178 533.96575938872411 0 0 0 0 -28.038844696406159 -299.47220907942756 0 -299.47220907942756 -906.99783518768527 0 0 0 0 7.5203521986418878 -0.13544113354001297 0 -0.13544113354001297 -0.69829150676993379 0 0 0 0 259.92439436188306 506.11371252913341 0 506.11371252913341 408.62732457072707 0 0 0 0 192.61006992970943 -541.1361035518712 0 -541.1361035518712 -1443.9315580524417 0 0 0 0 21.279151853619368 3.3867766716743404 0 3.3867766716743404 -1.4430190476123812 0 0 0 0 23.763707126370718 -6.978703929020412 0 -6.978703929020412 -786.91172515184735 0 0 0 0 513.31352912418674 -128.12479343839118 0 -128.12479343839118 -681.80345658960869 0 0 0 0 -555.30891522387083 -470.24173576768317 0 -470.24173576768317 -706.10100614849944 0 0 0 0 88.848336340379319 -195.22663341950465 0 -195.22663341950465 -2385.9182555240986 0 0 0 0 8.0946681910625529 4.0373531798927473 0 4.0373531798927473 1.364646131125312 0 0 0 0 217.24934342537745 47.007492723387259 0 47.007492723387259 -1.0629526853244897 0 0 0 0 219.3996150432431 88.649255156524305 0 88.649255156524305 50.481447561709501 0 0 0 0 402.40667008131277 481.61209970541313 0 481.61209970541313 381.75090087256103 0 0 0 0 169.46694157809543 203.72644030702213 0 203.72644030702213 51.855684006572119 0 0 0 0 594.06394295583596 323.56978750533017 0 323.56978750533017 57.697054808476878 0 0 0 0 313.49664397101878 43.093457067698182 0 43.093457067698182 -65.651605053935782 0 0 0 0 0.47354842533528085 1.2306172572776326 0 1.2306172572776326 1.4750019481996048 0 0 0 0 -531.9521175606078 439.49110353878677 0 439.49110353878677 -0.27687745358707616 0 0 0 0 664.58979195190477 419.14431757408238 0 419.14431757408238 0.21691160735645099 0 0 0 0 1137.636976561178 -50.212932153299334 0 -50.212932153299334 -73.890788629693816 0 0 0 0 926.63408498748504 391.77380043927951 0 391.77380043927951 -145.28236100956565 0 0 0 0 427.80471237497477 334.95902036154439 0 334.95902036154439 28.880479144587298 0 0 0 0 375.15374003599482 173.69058746429528 0 173.69058746429528 -169.52810510151903 0 0 0 0 733.30821163228757 201.41597047905816 0 201.41597047905816 -148.24632704239048 0 0 0 0 588.50232534865427 373.58251659760208 0 373.58251659760208 -102.39882863253297 0 0 0 0 566.62747270920227 315.0022239870741 0 315.0022239870741 -249.65867186569085 0 0 0 0 420.71895562820282 361.54620496526331 0 361.54620496526331 -138.96340921694355 0 0 0 0 66.939219574911476 266.47745683669109 0 266.47745683669109 -214.57912425421819 0 0 0 0 45.618538576258288 129.36988774022029 0 129.36988774022029 -245.15080383091481 0 0 0 0 30.01525223788849 359.52225141227973 0 359.52225141227973 -0.12836350950965425 0 0 0 0 -92.908208880260645 215.0719840191814 0 215.0719840191814 -104.16437536376179 0 0 0 0 -448.98204804577836 186.15432119745674 0 186.15432119745674 -59.955240358183801 0 0 0 0 -308.92059461759345 283.3244944785838 0 283.3244944785838 0.10475088376447825 0 0 0 0 18.514527555002132 9.0424423369622673 0 9.0424423369622673 -63.483257101532217 0 0 0 0 -262.52414537207642 228.92015634439122 0 228.92015634439122 -55.394083372913883 0 0 0 0 13.006275758183591 10.859318722594487 0 10.859318722594487 7.4372830640901668 0 0 0 0 -397.4050363217757 503.40759234870347 0 503.40759234870347 -283.81091698850014 0 0 0 0 -335.39761871363589 251.69067598850233 0 251.69067598850233 -47.145601410913514 0 0 0 0 -244.40866179794102 217.16362980622944 0 217.16362980622944 -303.51573431176075 0 0 0 0 104.20301209989702 247.07354265351023 0 247.07354265351023 -403.72608293851954 0 0 0 0 1386.7009028968678 -1318.6927891123705 0 -1318.6927891123705 -303.45413878741965 0 0 0 0 16.780699681477572 14.417943869751042 0 14.417943869751042 10.211786561271424 0 0 0 0 200.72659911992378 368.15889096019964 0 368.15889096019964 749.59437308202905 0 0 0 0 40.738496786219912 -108.39492014632742 0 -108.39492014632742 -46.977501326211495 0 0 0 0 -36.286100363991864 -73.895038334885612 0 -73.895038334885612 61.638016228058405 0 0 0 0 -32.78884330089204 23.761359130639903 0 23.761359130639903 250.99107381384238 0 0 0 0 3.733807652923133 -17.288709059923349 0 -17.288709059923349 22.909704673482338 0 0 0 0 -32.59578088287526 24.153131247905549 0 24.153131247905549 68.41260420467006 0 0 0 0 90.773157862522567 123.39395363935273 0 123.39395363935273 11.160828119638609 0 0 0 0 82.574126976513071 64.492883664759574 0 64.492883664759574 -128.45983711263398 0 0 0 0 293.47284321763436 201.83040416185395 0 201.83040416185395 -110.15391404351976 0 0 0 0 342.59777390284216 83.481219653338485 0 83.481219653338485 -223.81945196414017 0 0 0 0 513.67227105205529 193.6304261424084 0 193.6304261424084 -146.99002703902624 0 0 0 0 427.93498570664087 166.16647219161678 0 166.16647219161678 -144.11911010783297 0 0 0 0 425.01790634653298 47.937845314125298 0 47.937845314125298 -256.06933327866136 0 0 0 0 584.296484639548 -17.268779862235533 0 -17.268779862235533 -306.99437997506902 0 0 0 0 555.02084903770083 150.27277605610288 0 150.27277605610288 -180.18787580373464 0 0 0 0 478.21065343497321 129.62588170683011 0 129.62588170683011 -155.44001512189425 0 0 0 0 826.48193157938658 101.16064464098599 0 101.16064464098599 -161.90935526043177 0 0 0 0 718.1101011084902 285.19317410563417 0 285.19317410563417 -57.158583350013942 0 0 0 0 907.68730072849576 384.45813619727778 0 384.45813619727778 -52.27527807187289 0 0 0 0 267.25986925832694 302.48190880651964 0 302.48190880651964 179.16658275430382 0 0 0 0 -69.16930302118999 -117.52442697648075 0 -117.52442697648075 -77.571907756653673 0 0 0 0 -30.130366373085963 57.147729776798769 0 57.147729776798769 -520.97360750861117 0 0 0 0 -45.707268717873376 -28.959218174786656 0 -28.959218174786656 -191.22054095684143 0 0 0 0 -31.451213096974243 -17.152834482425533 0 -17.152834482425533 -125.1443257689034 0 0 0 0 -73.554568176907196 35.512375566104311 0 35.512375566104311 -66.0495369565906 0 0 0 0 -33.869320486875949 -28.862405043506442 0 -28.862405043506442 29.467608560065855 0 0 0 0 -40.833594434170664 -45.918567451019044 0 -45.918567451019044 1.8879154535279667 0 0 0 0 -22.509542184896873 103.00142961878419 0 103.00142961878419 54.44984516716795 0 0 0 0 1.9815501326443865 3.3063428215956776 0 3.3063428215956776 -10.039130554209294 0 0 0 0 626.7427525162102 334.60377956534558 0 334.60377956534558 -51.760824236393091 0 0 0 0 6.7037844608496755 1.5410877931064419 0 1.5410877931064419 -7.9032080329170356 0 0 0 0 652.43321437258419 80.134667236161476 0 80.134667236161476 -12.772978796623647 0 0 0 0 20.276491646582144 21.311495734320488 0 21.311495734320488 10.546466112773487 0 0 0 0 8.2738015157920017 6.4661822219386522 0 6.4661822219386522 -0.0023697913711657748 0 0 0 0 945.11293611377914 -2.0178455961649888 0 -2.0178455961649888 9.7326195821842703 0 0 0 0 1.2198306652543636 1.0557991617978644 0 1.0557991617978644 1.6198606879435431 0 0 0 0 5.0100624531054478 1.7993964246474548 0 1.7993964246474548 -1.3099377268233638 0 0 0 0 912.45577628168076 283.54058843387065 0 283.54058843387065 -48.933569174259901 0 0 0 0 490.1277228918043 475.22016157966573 0 475.22016157966573 -0.30970198832801543 0 0 0 0 107.97472191204361 385.94673047033939 0 385.94673047033939 162.39877243552473 0 0 0 0 95.902646793836993 237.23605139772621 0 237.23605139772621 -77.166802373743849 0 0 0 0 400.29576154513052 247.13337028540263 0 247.13337028540263 78.222039745684015 0 0 0 0 -897.49132687315796 604.14584853788983 0 604.14584853788983 141.78612112175324 0 0 0 0 -454.02228177827783 525.75708028720692 0 525.75708028720692 0.61947558615882026 0 0 0 0 -859.06816160562448 513.78081061740522 0 513.78081061740522 73.292037453571538 0 0 0 0 -669.41399905000071 332.396360000399 0 332.396360000399 138.74274981388589 0 0 0 0 -1504.1928991961904 533.28489974405238 0 533.28489974405238 -208.26891847744264 0 0 0 0 -1395.094574041661 680.29512049417281 0 680.29512049417281 -526.62512388444156 0 0 0 0 -1108.4542939494495 683.33253218935533 0 683.33253218935533 -154.34204731011414 0 0 0 0 -1146.7611951953322 346.81094834460282 0 346.81094834460282 -22.247125163004966 0 0 0 0 -1571.2625375860807 350.00394540725392 0 350.00394540725392 -237.18261403453653 0 0 0 0 -924.6755125340278 455.06264643965551 0 455.06264643965551 -231.67417564937205 0 0 0 0 -476.40586567972059 375.44792639603838 0 375.44792639603838 -235.78948392120947 0 0 0 0 -780.7585764176074 206.7731808393055 0 206.7731808393055 -258.78320656617871 0 0 0 0 -407.49159323078675 577.97549507470012 0 577.97549507470012 -491.53779203852173 0 0 0 0 -552.05176821639179 725.13400759725482 0 725.13400759725482 -306.71671480130317 0 0 0 0 -785.53775003709598 514.11930815600499 0 514.11930815600499 -202.79353267298393 0 0 0 0 -1146.2290195231908 499.10320203650917 0 499.10320203650917 -549.46221178842825 0 0 0 0 -855.46444225705272 281.86270466933638 0 281.86270466933638 -741.77204968690057 0 0 0 0 -620.83441264492649 488.32609424877046 0 488.32609424877046 -697.17358064840664 0 0 0 0 -1238.6115114840504 1013.4689017659839 0 1013.4689017659839 219.33411592021002 0 0 0 0 -1502.7727549856208 -184.75335731784071 0 -184.75335731784071 -1386.3687844187371 0 0 0 0 -748.91854503902141 1784.8119062779588 0 1784.8119062779588 -2306.2984948797093 0 0 0 0 -2844.7321629820872 695.18677044069773 0 695.18677044069773 -457.85641699840198 0 0 0 0 67.045603427952301 209.51096399476592 0 209.51096399476592 465.08791193572688 0 0 0 0 725.88819080838584 535.7200138322296 0 535.7200138322296 45.140931037894916 0 0 0 0 -42.582795606111176 520.71308018113632 0 520.71308018113632 -232.97928390293964 0 0 0 0 -475.29063818808936 397.25303066397464 0 397.25303066397464 178.46097159896453 0 0 0 0 -393.71686283859344 665.39533208087596 0 665.39533208087596 16.388981839641929 0 0 0 0 -47.854464288662712 935.49598291584698 0 935.49598291584698 -424.11224321561167 0 0 0 0 87.63294643520203 22.373256231905543 0 22.373256231905543 -851.21898951675394 0 0 0 0 -55.252625688313856 972.38012688822346 0 972.38012688822346 126.31056422833717 0 0 0 0 0.40086070652910166 2.3085119405683656 0 2.3085119405683656 -5.0868298776183565 0 0 0 0 -179.67535150143522 531.89756590282923 0 531.89756590282923 -954.48245541666256 0 0 0 0 -431.16454650675587 591.05101129336981 0 591.05101129336981 -728.25564898217272 0 0 0 0 -461.20015754299129 504.39098305025982 0 504.39098305025982 -641.71156963997055 0 0 0 0 -157.14227635685529 558.32766771627939 0 558.32766771627939 -780.63915227767575 0 0 0 0 -1.9762273691939924 8.5933504183827623 0 8.5933504183827623 8.559337663602065 0 0 0 0 -402.94991081294575 469.44188586849305 0 469.44188586849305 -653.78327236812038 0 0 0 0 -768.54577631935535 822.46861267396162 0 822.46861267396162 -599.74701369382092 0 0 0 0 -350.14065480252611 797.54620398425322 0 797.54620398425322 -608.56338325293837 0 0 0 0 -272.53105331044935 530.74682686643064 0 530.74682686643064 -815.16907562394044 0 0 0 0 -256.56011191602011 466.46713801339502 0 466.46713801339502 -722.65765744895907 0 0 0 0 -369.7597946237438 519.18664529803209 0 519.18664529803209 -730.21751951993792 0 0 0 0 -295.38817293015381 549.01629481440068 0 549.01629481440068 -719.84788336761994 0 0 0 0 -1494.6128533987794 1954.3199241976145 0 1954.3199241976145 -1341.4757804436231 0 0 0 0 -1992.8832495044262 1378.5939829334711 0 1378.5939829334711 -272.11497132658405 0 0 0 0 -2175.4757549884489 1565.789008030737 0 1565.789008030737 -401.11255292210262 0 0 0 0 -1151.4734276923409 760.02984746512084 0 760.02984746512084 -313.23490567088811 0 0 0 0 -1.1315738789954253 4.3444094694627964 0 4.3444094694627964 2.3337436297368583 0 0 0 0 -1262.2968235875887 1503.501395372281 0 1503.501395372281 -1554.3974654179838 0 0 0 0 -660.56487731880043 331.31982240509387 0 331.31982240509387 264.40428391939213 0 0 0 0 -158.30711425928894 536.41602126645739 0 536.41602126645739 -256.0179962346665 0 0 0 0 -750.8020613126937 810.73422201784706 0 810.73422201784706 -1334.0258817752474 0 0 0 0 -914.96377609100819 594.21014191434006 0 594.21014191434006 -631.44822746459977 0 0 0 0 -813.04696793932817 791.51675649218669 0 791.51675649218669 -623.74531028732827 0 0 0 0 -879.82161294909747 594.71677775623539 0 594.71677775623539 -622.35696589381405 0 0 0 0 -1191.6181388607365 744.85914320791926 0 744.85914320791926 -435.8726183706458 0 0 0 0 2.5928685451799538 178.29976364958566 0 178.29976364958566 -276.66981697782467 0 0 0 0 -721.29744210809804 299.98945129560889 0 299.98945129560889 -175.52104330308794 0 0 0 0 -555.33175951005978 371.81067890013219 0 371.81067890013219 -366.79741509373343 0 0 0 0 -886.24164636599016 758.16751234269759 0 758.16751234269759 -358.20866637923609 0 0 0 0 -871.46831047812884 825.02343403816849 0 825.02343403816849 -446.63613476027967 0 0 0 0 -802.30370875772496 770.4201383926993 0 770.4201383926993 -465.33094627049286 0 0 0 0 -859.17701048639719 720.89791934800451 0 720.89791934800451 -473.3426820414752 0 0 0 0 -185.81170795479557 436.86112964281165 0 436.86112964281165 -523.002797805093 0 0 0 0 -513.14805968907967 244.74370512201494 0 244.74370512201494 23.405574983946281 0 0 0 0 -19.280401532552503 3.3086179036289138 0 3.3086179036289138 3.1073126460993805 0 0 0 0 -0.34504739303696397 3.0362661966631492 0 3.0362661966631492 2.4931134972602678 0 0 0 0 20.929517253651284 -133.09579248595401 0 -133.09579248595401 334.72222887580574 0 0 0 0 -1.0106025204068771 7.2394036062861318 0 7.2394036062861318 8.3507565513328643 0 0 0 0 -319.02144176341244 -208.43327549629976 0 -208.43327549629976 627.0114719851008 0 0 0 0 -875.30870073201731 793.69573289221626 0 793.69573289221626 -802.07506905921036 0 0 0 0 -847.19755215563782 884.70415127465822 0 884.70415127465822 -525.21809806265082 0 0 0 0 -805.34420646823128 819.15117682409618 0 819.15117682409618 -427.99386381419754 0 0 0 0 -855.53104597589117 777.66496007768728 0 777.66496007768728 -413.25450033773086 0 0 0 0 -720.49439967463331 1063.0717065659428 0 1063.0717065659428 -1180.2847759787692 0 0 0 0 -1283.1684669391834 887.3809187118859 0 887.3809187118859 -500.42751038163806 0 0 0 0 -1235.2598907796055 574.7949454637419 0 574.7949454637419 -324.75237231646315 0 0 0 0 -460.38284172395652 553.78076413281815 0 553.78076413281815 -691.72147127561038 0 0 0 0 -299.47701912951015 389.90211375067156 0 389.90211375067156 -439.95820731362619 0 0 0 0 2.2223767002558645 7.6660110866690587 0 7.6660110866690587 6.7600577838755953 0 0 0 0 -287.2810703664145 428.721611237248 0 428.721611237248 -603.77760421068319 0 0 0 0 270.46729721304291 -40.69913733987778 0 -40.69913733987778 284.66361638009039 0 0 0 0 -189.55392630013375 280.24170136431349 0 280.24170136431349 -460.09737248381134 0 0 0 0 -222.27485494724533 268.57238251108356 0 268.57238251108356 -598.33668755269036 0 0 0 0 -241.00463771594514 236.33301111328183 0 236.33301111328183 -493.41627638150385 0 0 0 0 -366.80924022410181 632.87165677732264 0 632.87165677732264 -796.30319816728297 0 0 0 0 -477.41831475095751 362.92744058345306 0 362.92744058345306 -722.42394816371961 0 0 0 0 -298.43671110972355 436.22425220030709 0 436.22425220030709 -694.28273560130037 0 0 0 0 -519.42008258576971 529.88844383912874 0 529.88844383912874 -668.64626053150278 0 0 0 0 -198.93918383018172 501.03387313167332 0 501.03387313167332 -950.45433994379709 0 0 0 0 -194.48756276526547 423.54510838825809 0 423.54510838825809 -605.4249876911199 0 0 0 0 -195.09233010111348 382.96636959335592 0 382.96636959335592 -684.02253846768872 0 0 0 0 -271.88556493420037 327.21437641208468 0 327.21437641208468 -656.04007361684489 0 0 0 0 -254.39768521647784 460.68879223897238 0 460.68879223897238 -717.06157237602019 0 0 0 0 -305.73919677030062 351.94340305354854 0 351.94340305354854 -876.5084100679087 0 0 0 0 -196.03883858560584 479.97487648186507 0 479.97487648186507 -568.47011895288597 0 0 0 0 -257.12485331170319 578.04748036706587 0 578.04748036706587 -700.52602983775978 0 0 0 0 -0.080469084102986699 2.7999462727298976 0 2.7999462727298976 2.5085149823245558 0 0 0 0 -299.55365451039688 -592.3427239296434 0 -592.3427239296434 -249.14053436898394 0 0 0 0 -397.8475029184483 746.16180388420617 0 746.16180388420617 -433.19541760662105 0 0 0 0 -270.44850172840233 760.62160146209499 0 760.62160146209499 -841.05093663042499 0 0 0 0 -149.58667752196197 287.73207711728173 0 287.73207711728173 -462.96248229742014 0 0 0 0 6.07795789575394 9.9445080630831484 0 9.9445080630831484 7.7487882576435396 0 0 0 0 124.32011307206994 1175.5096927531413 0 1175.5096927531413 297.8261582807645 0 0 0 0 -498.03545637095522 629.63767567963805 0 629.63767567963805 -173.38042404092266 0 0 0 0 -291.14642857763101 356.87001562865044 0 356.87001562865044 -242.17749668219767 0 0 0 0 -380.2159254605067 686.4369040884776 0 686.4369040884776 -256.53391607501544 0 0 0 0 -270.82440658740234 562.06489637857885 0 562.06489637857885 -342.66724319584318 0 0 0 0 -295.52041394732078 644.1933088980004 0 644.1933088980004 -588.907166586112 0 0 0 0 -297.66006703657331 520.57212538892054 0 520.57212538892054 -401.31526251780451 0 0 0 0 -690.31179931131919 266.41781188839377 0 266.41781188839377 -149.39813084500565 0 0 0 0 -96.263972835280583 267.13371540132357 0 267.13371540132357 -219.65259151370265 0 0 0 0 -114.17622621869668 264.36544980663894 0 264.36544980663894 -120.21851184984553 0 0 0 0 90.716493481930229 57.581636208196869 0 57.581636208196869 -181.78178521670816 0 0 0 0 16.211653072590707 208.78814442740259 0 208.78814442740259 -326.13097473900416 0 0 0 0 -27.926692968030693 182.24205857720517 0 182.24205857720517 -269.44836011208827 0 0 0 0 95.416407163720578 66.38291858950106 0 66.38291858950106 -289.9830622974041 0 0 0 0 202.58066093327579 133.16496894347802 0 133.16496894347802 -216.11169224559853 0 0 0 0 242.98576317336119 -19.891799035132863 0 -19.891799035132863 -258.58108559206084 0 0 0 0 -222.23933631944237 487.34076032293524 0 487.34076032293524 -526.65737349288247 0 0 0 0 -157.82469839070109 387.3772557816992 0 387.3772557816992 -376.60489409051661 0 0 0 0 -67.069695097306976 199.54088599202805 0 199.54088599202805 -247.58333465824671 0 0 0 0 -213.37806163966889 332.48424115134549 0 332.48424115134549 -349.99082641073619 0 0 0 0 -15.639152725934764 216.23883815120644 0 216.23883815120644 -374.70847200229764 0 0 0 0 -93.779277960580657 236.47857966218726 0 236.47857966218726 -343.39278003651998 0 0 0 0 -127.68169804173522 312.11490849635447 0 312.11490849635447 -480.06936182679055 0 0 0 0 -94.649524169319193 319.13191535745864 0 319.13191535745864 -495.53836422043969 0 0 0 0 -50.151050978507556 196.72335154398024 0 196.72335154398024 -423.59089420866803 0 0 0 0 -35.242835612727504 215.08037942778901 0 215.08037942778901 -401.39951025464688 0 0 0 0 22.946711609612976 113.65165081431041 0 113.65165081431041 -303.00403662212193 0 0 0 0 45.931717920087976 158.42844695235544 0 158.42844695235544 -415.27970451061265 0 0 0 0 63.697302892935113 131.17544495708717 0 131.17544495708717 -332.30176238689455 0 0 0 0 52.823194467055146 107.91860214929329 0 107.91860214929329 -376.9610315302416 0 0 0 0 -29.922096283749852 214.18736175974118 0 214.18736175974118 -393.76026887728949 0 0 0 0 155.36985681798978 29.5742905198058 0 29.5742905198058 -263.06176290937583 0 0 0 0 170.15913135297887 72.795024734848994 0 72.795024734848994 -344.31970622374502 0 0 0 0 110.79612868071126 115.49360894762503 0 115.49360894762503 -351.63739276083652 0 0 0 0 169.73426607723377 42.936768317398673 0 42.936768317398673 -336.98004610612406 0 0 0 0 203.36455457596458 56.306741342035821 0 56.306741342035821 -347.57487769770887 0 0 0 0 277.14781655138358 -24.80874549478176 0 -24.80874549478176 -320.13778326619649 0 0 0 0 226.90372187097091 -13.174411674386647 0 -13.174411674386647 -315.85880663286662 0 0 0 0 310.12904222440557 -6.3386372088134522 0 -6.3386372088134522 -341.65929126218543 0 0 0 0 329.41732158942614 -63.091949622219545 0 -63.091949622219545 -318.74155215670726 0 0 0 0 268.86354953238333 -35.874596082911012 0 -35.874596082911012 -322.13828228690545 0 0 0 0 263.90444663766539 -1.0449195734836394 0 -1.0449195734836394 -330.10602219318389 0 0 0 0 381.49628943580319 22.767941460770089 0 22.767941460770089 -327.86833684163867 0 0 0 0 280.75045738944027 18.543266980632325 0 18.543266980632325 -341.21168853625932 0 0 0 0 287.08728526561026 104.86105881301773 0 104.86105881301773 -230.18548622980597 0 0 0 0 285.68281889924401 89.317643194379343 0 89.317643194379343 -287.46606562266243 0 0 0 0 389.72467017151939 20.125333397139912 0 20.125333397139912 -327.09089870293974 0 0 0 0 417.73521667284513 61.980981180655363 0 61.980981180655363 -266.40578645386267 0 0 0 0 477.06045145005919 -15.454942940028559 0 -15.454942940028559 -347.07462447372382 0 0 0 0 350.16883927884919 -26.858147319595446 0 -26.858147319595446 -329.68617590740905 0 0 0 0 16.387596908120031 94.252288238501933 0 94.252288238501933 -354.98180049688381 0 0 0 0 51.724723402730888 155.21914850277972 0 155.21914850277972 -258.01164237891498 0 0 0 0 159.81066349036701 63.263209353885031 0 63.263209353885031 -337.54166517186877 0 0 0 0 177.17360237170215 94.572104574770492 0 94.572104574770492 -281.1155789886252 0 0 0 0 111.68251816333213 142.10671145765809 0 142.10671145765809 -117.58393232191702 0 0 0 0 120.29875393622206 90.535668335884111 0 90.535668335884111 -181.53090961175621 0 0 0 0 48.540647471869306 50.604949454726011 0 50.604949454726011 -244.54007446528703 0 0 0 0 -34.940192355119507 51.044435636336857 0 51.044435636336857 -289.68910240498371 0 0 0 0 -13.397851767178508 128.49431265621388 0 128.49431265621388 -149.57344272365299 0 0 0 0 -47.954846366337733 204.56807205172663 0 204.56807205172663 -382.03218438110343 0 0 0 0 -140.34966171529959 288.96975344519888 0 288.96975344519888 -530.84943208764162 0 0 0 0 -64.128729213998668 154.24318062006205 0 154.24318062006205 -426.63749694041326 0 0 0 0 -148.20988723424671 233.79799686825572 0 233.79799686825572 -454.38021860460503 0 0 0 0 -2.2898596376398928 273.95431848211228 0 273.95431848211228 -671.23870589204307 0 0 0 0 -75.198033435503021 143.19179683470429 0 143.19179683470429 -437.3569994049758 0 0 0 0 -186.14146120772466 282.86109714543045 0 282.86109714543045 -520.51515881647356 0 0 0 0 -262.21383400590275 479.95807751544635 0 479.95807751544635 -686.8270221413477 0 0 0 0 -174.14972541236784 439.93224605242722 0 439.93224605242722 -699.19620668765856 0 0 0 0 -318.64225402721786 555.83959023201896 0 555.83959023201896 -728.87144275287847 0 0 0 0 -313.23875618867169 477.13124087315009 0 477.13124087315009 -648.80809420073638 0 0 0 0 -339.09769410260742 375.45962982102992 0 375.45962982102992 -606.38630850269692 0 0 0 0 -227.64933615422342 391.58046358962747 0 391.58046358962747 -628.71964774308435 0 0 0 0 -312.61161056561104 526.88799627813569 0 526.88799627813569 -707.78762622011709 0 0 0 0 -183.98392283187422 251.66763713440741 0 251.66763713440741 -522.25490411672217 0 0 0 0 -208.44048743114399 379.97543550295086 0 379.97543550295086 -612.16542001436756 0 0 0 0 -147.06837880323292 263.30059275410895 0 263.30059275410895 -530.73312157222244 0 0 0 0 -110.24196166659021 300.18828535365537 0 300.18828535365537 -493.78826714050956 0 0 0 0 -66.365817198311561 171.39532429791871 0 171.39532429791871 -443.90284918988982 0 0 0 0 -127.38763590490271 289.54139778101671 0 289.54139778101671 -499.06998329042108 0 0 0 0 -85.899036372633418 161.68526370605105 0 161.68526370605105 -429.37022358874674 0 0 0 0 0.1490390781982569 1204.8242808384675 0 1204.8242808384675 -272.93658005857606 0 0 0 0 3.1036759190874648 4.205234891683034 0 4.205234891683034 2.3646274204975413 0 0 0 0 -439.34803959588226 466.36597225509149 0 466.36597225509149 1071.8624698442363 0 0 0 0 -385.98756450292422 205.74762147315414 0 205.74762147315414 976.60031520308257 0 0 0 0 51.597419476676805 1333.1852884953269 0 1333.1852884953269 312.99831082105811 0 0 0 0 48.710100794371101 1078.6675215690484 0 1078.6675215690484 2960.421936903002 0 0 0 0 976.35932627358488 1835.2521056223177 0 1835.2521056223177 1.5572536274121376 0 0 0 0 -0.7311697492557474 1940.4325083031438 0 1940.4325083031438 1498.376310683685 0 0 0 0 156.93578257388435 659.12377006201859 0 659.12377006201859 -154.87580315308151 0 0 0 0 4.6331735336684119 2.6396718793811829 0 2.6396718793811829 -0.8980669081500281 0 0 0 0 641.69138094800292 1277.9672355393341 0 1277.9672355393341 1956.771406284628 0 0 0 0 182.66174239898828 487.33102366919411 0 487.33102366919411 664.21956444125681 0 0 0 0 8.9558341879760235 4.1939524287091103 0 4.1939524287091103 -2.2358259571386014 0 0 0 0 708.03781462972438 1197.5892932612842 0 1197.5892932612842 944.19956004619598 0 0 0 0 957.14177752175601 611.39707934124453 0 611.39707934124453 1004.9053896817386 0 0 0 0 577.08726355520776 969.91052256965486 0 969.91052256965486 1200.850850732073 0 0 0 0 1375.3120958309883 882.97768230194197 0 882.97768230194197 528.99474017064495 0 0 0 0 1787.6289152106328 548.0581437623041 0 548.0581437623041 -1763.4505985107971 0 0 0 0 1963.087306911606 652.23867915815208 0 652.23867915815208 -461.51965648037731 0 0 0 0 2551.9818265311624 1384.5811055334998 0 1384.5811055334998 -977.09922764566727 0 0 0 0 882.93952223901579 1062.8106709038402 0 1062.8106709038402 636.92012076622996 0 0 0 0 891.04550801810183 1035.7495692155171 0 1035.7495692155171 149.48270004421647 0 0 0 0 -165.46594758926949 1050.9789152221711 0 1050.9789152221711 971.25364153447299 0 0 0 0 -367.59164649144805 366.94977417513292 0 366.94977417513292 -205.86435916563642 0 0 0 0 266.50240243547887 307.60776255725796 0 307.60776255725796 585.40184884937389 0 0 0 0 8.5489142024891578 7.5839448500009752 0 7.5839448500009752 0.9287621280709395 0 0 0 0 168.344463289548 358.61816793614344 0 358.61816793614344 962.65541398497589 0 0 0 0 5.4729937114211964 3.652386966463709 0 3.652386966463709 0.037187849876222145 0 0 0 0 1004.9438041676767 1244.4398810938837 0 1244.4398810938837 1868.218141827565 0 0 0 0 -7.6214926545633261 16.141905145014036 0 16.141905145014036 43.246472034682114 0 0 0 0 -69.307278809072159 164.22806668303383 0 164.22806668303383 -198.29483327802882 0 0 0 0 1356.9985417109347 1138.3046548647817 0 1138.3046548647817 680.42165576161642 0 0 0 0 626.86734393570077 -26.707320076773613 0 -26.707320076773613 815.60127469303188 0 0 0 0 -124.79471687701152 148.19683170905137 0 148.19683170905137 -178.63275510977837 0 0 0 0 -65.142940329686098 15.010868286393816 0 15.010868286393816 -157.39218687726679 0 0 0 0 -146.44766518604592 292.58883991530456 0 292.58883991530456 -441.15858322317945 0 0 0 0 -81.63440597384033 448.50663086424174 0 448.50663086424174 -268.15620868935366 0 0 0 0 -296.05651935828882 443.628925408329 0 443.628925408329 -191.74450905597769 0 0 0 0 2.9359776109080546 5.0426069790375578 0 5.0426069790375578 15.623630476475455 0 0 0 0 -1156.5791162920577 485.04956079581461 0 485.04956079581461 479.80395079618029 0 0 0 0 4190.9088476554534 1210.5292246355311 0 1210.5292246355311 -638.78024562159408 0 0 0 0 -320.94694025045374 244.30239616470317 0 244.30239616470317 -206.36436433246126 0 0 0 0 2497.639425164467 564.2351148945454 0 564.2351148945454 192.111445341121 0 0 0 0 599.82050066870579 405.73431933761458 0 405.73431933761458 1.044316287872789 0 0 0 0 1728.8869900354075 1936.7796094430705 0 1936.7796094430705 1760.4860874166916 0 0 0 0 3324.040300176348 1984.1065247453516 0 1984.1065247453516 379.62756073768833 0 0 0 0 496.65094319610216 928.5174657630123 0 928.5174657630123 1868.566362131548 0 0 0 0 1249.4845401501916 1631.4343766282291 0 1631.4343766282291 1915.960985172198 0 0 0 0 7.0181779755377249 4.1708888336635539 0 4.1708888336635539 -1.5704638001760571 0 0 0 0 495.53635403920816 1160.6650842121289 0 1160.6650842121289 69.220475987109239 0 0 0 0 813.15503187540162 2253.475909468485 0 2253.475909468485 1076.1321033701097 0 0 0 0 -633.3497696045597 1031.8007959544921 0 1031.8007959544921 1051.0816275539546 0 0 0 0 -68.98032186792625 745.51047739028218 0 745.51047739028218 -92.96788063616259 0 0 0 0 -466.81957045543095 696.77730093659193 0 696.77730093659193 507.05809565637537 0 0 0 0 -453.07251603790064 768.90687541507214 0 768.90687541507214 -102.06789344211575 0 0 0 0 -252.67611884521466 801.50444036724002 0 801.50444036724002 5.3028098384602345 0 0 0 0 -502.64997177235637 936.70028817923594 0 936.70028817923594 216.67105248762891 0 0 0 0 -758.33521434324939 665.35195614759505 0 665.35195614759505 -1.0594180259286077 0 0 0 0 -1239.4139168317197 677.20145300916192 0 677.20145300916192 103.48208581988547 0 0 0 0 -929.11964740535768 729.26164339802926 0 729.26164339802926 284.86975311558126 0 0 0 0 -799.72342611523345 654.18662431260236 0 654.18662431260236 104.28578064255998 0 0 0 0 -1432.8683817581914 1094.9521965790191 0 1094.9521965790191 -502.87017170942272 0 0 0 0 -844.36598981090356 708.17333331333793 0 708.17333331333793 -248.93225694302237 0 0 0 0 -818.83767798281406 926.474998455074 0 926.474998455074 -169.94672931838431 0 0 0 0 -304.45430219982518 562.97297646509833 0 562.97297646509833 -534.97147818029771 0 0 0 0 -165.28943573853758 653.78773437150448 0 653.78773437150448 -764.67065873215324 0 0 0 0 107.29981948419299 19.164484199573053 0 19.164484199573053 -596.71390206199067 0 0 0 0 50.015215544655803 269.65984621644748 0 269.65984621644748 -1491.8986888548825 0 0 0 0 -1584.9981803275296 1566.2620755757562 0 1566.2620755757562 -1473.6458225011884 0 0 0 0 -324.18443272278091 802.30707470995549 0 802.30707470995549 -2122.1333912399605 0 0 0 0 -24.036764455615241 6.8444967311082223 0 6.8444967311082223 -4.3943814138711943 0 0 0 0 -788.0312733809842 882.61668167503376 0 882.61668167503376 -1014.0482309257204 0 0 0 0 -801.27472431621572 907.46457715642464 0 907.46457715642464 -747.17480246850755 0 0 0 0 -1139.9950223736014 426.46216647459369 0 426.46216647459369 765.01820533948921 0 0 0 0 -517.27787200130842 138.33692642366805 0 138.33692642366805 -263.56792913833488 0 0 0 0 -1644.6361888534229 745.68021433750982 0 745.68021433750982 301.91612740818528 0 0 0 0 279.89244321913702 247.07515856916689 0 247.07515856916689 -38.024431383542833 0 0 0 0 146.06552479427046 -252.67268304249228 0 -252.67268304249228 137.8682430963745 0 0 0 0 -496.27026703961019 239.64004291673336 0 239.64004291673336 -131.44464846281335 0 0 0 0 -285.65034952278074 -86.448185475397622 0 -86.448185475397622 -51.198678089265741 0 0 0 0 -937.43638621176069 348.18881639345727 0 348.18881639345727 -116.15781311025785 0 0 0 0 -329.44088591673062 285.34773817422683 0 285.34773817422683 -388.08913584273978 0 0 0 0 -171.36230430214982 -160.25511451708098 0 -160.25511451708098 127.0199587872703 0 0 0 0 -17.329974885425742 0.84115145741844799 0 0.84115145741844799 2.0347854197122501 0 0 0 0 -7.3118218908839481 39.295788193308908 0 39.295788193308908 94.771747268547188 0 0 0 0 -30.777833160114824 60.592324575976818 0 60.592324575976818 292.00504242396892 0 0 0 0 65.145767533636899 -11.035785274427326 0 -11.035785274427326 -74.163270005723462 0 0 0 0 61.452511018909718 5.6075081156450324 0 5.6075081156450324 -147.56714407842082 0 0 0 0 78.987390293776116 27.462877613506862 0 27.462877613506862 14.029618809203384 0 0 0 0 -19.683047633546835 16.270733900763759 0 16.270733900763759 7.8192995797520553 0 0 0 0 -23.655449573474471 69.703640473409905 0 69.703640473409905 53.282804473070428 0 0 0 0 -93.737848825032415 62.391996601672872 0 62.391996601672872 72.776469237574929 0 0 0 0 4.2411518359761962 71.842062016140801 0 71.842062016140801 16.784020205007209 0 0 0 0 -297.46578248060905 160.77497829580352 0 160.77497829580352 131.38227807730436 0 0 0 0 -319.21973880655423 174.05422374465343 0 174.05422374465343 345.31898781389464 0 0 0 0 -131.2918928139261 42.380068854417914 0 42.380068854417914 80.314805900823558 0 0 0 0 85.036113778531103 205.99406738212926 0 205.99406738212926 133.79630794821423 0 0 0 0 -8.6232602415546644 67.374880897324772 0 67.374880897324772 28.594613323160814 0 0 0 0 -20.828126905210581 39.801054009819126 0 39.801054009819126 16.297693938863908 0 0 0 0 125.74231039530423 147.0197116442796 0 147.0197116442796 -528.23351846197329 0 0 0 0 33.742254112730933 71.176220144422786 0 71.176220144422786 -26.721222458814736 0 0 0 0 -5.542925059463661 67.366161258956751 0 67.366161258956751 24.406880554098706 0 0 0 0 149.46843580799771 87.283951297315156 0 87.283951297315156 -4.2349738635239191 0 0 0 0 409.88607973650505 -45.303183426527539 0 -45.303183426527539 28.302130233232674 0 0 0 0 -42.169489475905721 92.372723537468119 0 92.372723537468119 84.283830116015451 0 0 0 0 149.51476895065571 64.044569435907761 0 64.044569435907761 -153.33271514740045 0 0 0 0 143.84347931359662 131.69573376392509 0 131.69573376392509 5.0965420696229558 0 0 0 0 60.882385750992398 249.23037232743445 0 249.23037232743445 252.79691042919876 0 0 0 0 -160.17564855646924 159.95910538722819 0 159.95910538722819 -8.7378906382946298 0 0 0 0 -58.985291929800582 29.181326147818453 0 29.181326147818453 3.3315607161320386 0 0 0 0 14.076127207793036 11.208728509698034 0 11.208728509698034 7.7021191840604288 0 0 0 0 1350.6760989023605 894.81572262161717 0 894.81572262161717 390.51229818905995 0 0 0 0 637.84650775145565 -295.45661916465906 0 -295.45661916465906 121.7005845576623 0 0 0 0 1435.4836669658544 657.65245380411579 0 657.65245380411579 869.66245459199854 0 0 0 0 20.107117323386774 157.33273592013211 0 157.33273592013211 995.25361416486703 0 0 0 0 826.70340383922303 814.28902641127934 0 814.28902641127934 228.6882247824833 0 0 0 0 1259.0518022079268 199.90475798075022 0 199.90475798075022 -347.27053795062238 0 0 0 0 725.34555009248288 260.61843118346223 0 260.61843118346223 -396.26404688968614 0 0 0 0 757.79000930985785 209.30551856226521 0 209.30551856226521 -317.44868181335551 0 0 0 0 1029.5865746317722 276.11641250077082 0 276.11641250077082 -395.92529260472907 0 0 0 0 367.55811601119785 758.81081080224249 0 758.81081080224249 406.1230056904169 0 0 0 0 -358.60676697089366 310.4727308335805 0 310.4727308335805 502.83089437134913 0 0 0 0 1093.6173671083961 710.94609836738164 0 710.94609836738164 -95.774286904776091 0 0 0 0 5.1438942975709665 5.5295652311237831 0 5.5295652311237831 2.7393358418095204 0 0 0 0 764.3025204485275 43.717927816220254 0 43.717927816220254 -343.99731427185179 0 0 0 0 525.04818497823726 37.41613090512692 0 37.41613090512692 -311.95481314499193 0 0 0 0 -122.82813681976404 276.11825378399226 0 276.11825378399226 29.499935518404527 0 0 0 0 -279.793065534177 364.9205740920188 0 364.9205740920188 -155.21564102619232 0 0 0 0 7.1629558514937059 9.6774671473058191 0 9.6774671473058191 8.0315255743668388 0 0 0 0 -109.30838634272368 125.3890972934314 0 125.3890972934314 -23.972849089546798 0 0 0 0 -137.44835147072445 351.40912241218757 0 351.40912241218757 -183.88474975215286 0 0 0 0 0.24449598144565243 273.50117637538278 0 273.50117637538278 -235.55085914886877 0 0 0 0 -224.87726770959853 190.70312043417653 0 190.70312043417653 -190.70352415805246 0 0 0 0 -0.42492801228218013 126.66732534680705 0 126.66732534680705 -173.75163002601403 0 0 0 0 -519.07457755027281 -112.51711377636821 0 -112.51711377636821 313.10878059327661 0 0 0 0 -196.49251088611345 784.6397177752151 0 784.6397177752151 -361.82152762079932 0 0 0 0 -108.32979156574584 362.23791374985194 0 362.23791374985194 861.66763056976197 0 0 0 0 3.143218541725048 4.6781481881277571 0 4.6781481881277571 4.1793900123298044 0 0 0 0 -811.09879287300282 299.85718218176407 0 299.85718218176407 1023.1161214711246 0 0 0 0 96.605909435384092 350.06063057179199 0 350.06063057179199 -39.347174254369747 0 0 0 0 96.60590943536954 350.06063057178108 0 350.06063057178108 -39.347174254351557 0 0 0 0 96.605909435325884 350.06063057180654 0 350.06063057180654 -39.347174254355195 0 0 0 0 8.5881315120755062 1.6270885161093069 0 1.6270885161093069 -0.8548191553516773 0 0 0 0 1.3263545788358897 22.131651887604676 0 22.131651887604676 2.3380970073021672 0 0 0 0 -2.3690163916144229 10.71128561997557 0 10.71128561997557 5.2366012161801336 0 0 0 0 9.7279915390699898 8.5183859034332272 0 8.5183859034332272 5.2981094154820312 0 0 0 0 5.2557287445524707 20.394324019165651 0 20.394324019165651 2.5471365721414259 0 0 0 0 -8.106327648612762 0.65198674173899462 0 0.65198674173899462 3.1941050834750939 0 0 0 0 -76.123738074908033 412.66028987689788 0 412.66028987689788 651.40832817231421 0 0 0 0 -57.24967417139851 395.69352618293851 0 395.69352618293851 656.39693708204868 0 0 0 0 -19.564906036466709 365.27419772620124 0 365.27419772620124 473.40295700373099 0 0 0 0 -0.55084152045126256 415.94547762000042 0 415.94547762000042 428.37995935537765 0 0 0 0 -419.22109316488059 591.81631836383076 0 591.81631836383076 602.24651202729729 0 0 0 0 -4.4050343986818916 302.94304194694632 0 302.94304194694632 658.53650594848932 0 0 0 0 140.3910197434634 582.78839993994188 0 582.78839993994188 384.87078969170398 0 0 0 0 -4.0608245966588754 -0.047942699470581829 0 -0.047942699470581829 2.1477430998645133 0 0 0 0 73.903087737038732 42.852461818532902 0 42.852461818532902 39.522405922623875 0 0 0 0 452.11273971693299 384.82095419027792 0 384.82095419027792 136.22233521324961 0 0 0 0 468.34297705274366 713.18213174659832 0 713.18213174659832 436.53141560418953 0 0 0 0 871.1737479783551 496.44178577818093 0 496.44178577818093 155.4261208722819 0 0 0 0 860.04603201385908 595.15297636889591 0 595.15297636889591 556.32201771792461 0 0 0 0 0.30953775202773093 3.6854912170489627 0 3.6854912170489627 5.4643683160973637 0 0 0 0 -459.54026353338122 114.56334541690376 0 114.56334541690376 189.14012437080964 0 0 0 0 276.52072693753871 -103.67119325653766 0 -103.67119325653766 39.452422221896995 0 0 0 0 -313.70981098051243 40.445596968934751 0 40.445596968934751 23.879565436298435 0 0 0 0 0.017820206212564749 5.7627463360928459 0 5.7627463360928459 13.821974064907266 0 0 0 0 128.13761544322915 24.988905669528322 0 24.988905669528322 -54.954099153510469 0 0 0 0 102.80545426865865 14.947082043125192 0 14.947082043125192 30.624867772887228 0 0 0 0 48.412371420519776 45.180862152024929 0 45.180862152024929 39.475268196763068 0 0 0 0 60.895759812716278 14.109214466388948 0 14.109214466388948 30.774688531084394 0 0 0 0 73.799932475274545 3.1975981591458549 0 3.1975981591458549 -26.609086577198468 0 0 0 0 0.23748083634707529 6.1177083506582619 0 6.1177083506582619 19.649129967000135 0 0 0 0 128.46338291555003 -0.59199072368210182 0 -0.59199072368210182 -84.664372714926003 0 0 0 0 45.294274036903516 55.035111725577735 0 55.035111725577735 -20.72477464160329 0 0 0 0 -209.90832407302059 44.566963300524321 0 44.566963300524321 18.399748636002187 0 0 0 0 105.76985209037957 31.002200007946158 0 31.002200007946158 -82.965790208909311 0 0 0 0 -209.61405006675341 43.171072390214249 0 43.171072390214249 22.720943752852691 0 0 0 0 -106.97623647286673 38.145728228722874 0 38.145728228722874 22.134596534355296 0 0 0 0 81.786659030003648 118.26396302580542 0 118.26396302580542 -86.799822181994386 0 0 0 0 48.365604985090613 127.80648001546797 0 127.80648001546797 12.012583293779244 0 0 0 0 92.289320324249275 81.561806804580556 0 81.561806804580556 21.690859024456586 0 0 0 0 62.159629255511391 138.61014646992044 0 138.61014646992044 4.7360977547941729 0 0 0 0 42.870445677959651 120.20691113186876 0 120.20691113186876 15.923942835492198 0 0 0 0 17.580548421039566 148.93341420884462 0 148.93341420884462 5.8777141679165652 0 0 0 0 -205.46190373792842 42.822906180825811 0 42.822906180825811 15.458790467557264 0 0 0 0 57.425082415269571 124.66025197694398 0 124.66025197694398 5.2120009149512043 0 0 0 0 -0.28095769303175955 69.047493788325355 0 69.047493788325355 20.134398119893632 0 0 0 0 -206.24194247479318 45.030091408152657 0 45.030091408152657 9.8605131597396394 0 0 0 0 -91.898643261878789 115.89621262921575 0 115.89621262921575 51.315704237793398 0 0 0 0 -0.35914983279995782 69.755161513605543 0 69.755161513605543 19.193310409202923 0 0 0 0 -321.90220309283904 7.2369599445846688 0 7.2369599445846688 -45.199823108756391 0 0 0 0 -329.20332421275816 37.041742812129087 0 37.041742812129087 -73.06138547862065 0 0 0 0 -86.670466756972019 29.54117215536462 0 29.54117215536462 43.116732808688539 0 0 0 0 -39.852223732566927 113.65168317670032 0 113.65168317670032 20.65657700067095 0 0 0 0 -11.228250369458692 151.21077669483202 0 151.21077669483202 47.210344356004498 0 0 0 0 -1.7172114538261667 106.02677245207451 0 106.02677245207451 13.960590336238965 0 0 0 0 1.6166036966606043 163.92367301424383 0 163.92367301424383 57.480539381806011 0 0 0 0 -43.133626215550976 116.67856551596469 0 116.67856551596469 134.41223053686554 0 0 0 0 -13.600069590251223 125.73390046409986 0 125.73390046409986 158.3133541483694 0 0 0 0 34.974974865832337 271.51159004148576 0 271.51159004148576 70.573763852160482 0 0 0 0 1.3299776939155663 153.84960971857151 0 153.84960971857151 181.8480763325424 0 0 0 0 63.872776563905063 187.15568594138313 0 187.15568594138313 -14.971434142422368 0 0 0 0 36.333700195740676 173.02531031776743 0 173.02531031776743 36.121770654299326 0 0 0 0 56.676504555751308 176.41781572918626 0 176.41781572918626 -12.644577248793212 0 0 0 0 51.079818908474408 155.83189720788141 0 155.83189720788141 -21.737508351390716 0 0 0 0 56.870574363863852 157.48287381742193 0 157.48287381742193 -38.425753388262819 0 0 0 0 89.604531580644107 135.49368698186117 0 135.49368698186117 -83.302287073413027 0 0 0 0 95.826945288936258 185.60136283891552 0 185.60136283891552 -53.562444396207866 0 0 0 0 114.77349796454655 172.24534147167833 0 172.24534147167833 -68.183628081795177 0 0 0 0 158.62731785180722 42.989021280204952 0 42.989021280204952 -227.22706758856657 0 0 0 0 146.12790260151087 148.40960262615408 0 148.40960262615408 -81.681782279562867 0 0 0 0 7.8892269134092317 9.7483380642506887 0 9.7483380642506887 10.137155543237469 0 0 0 0 109.73015674272028 140.88851269935549 0 140.88851269935549 -51.430201802046213 0 0 0 0 111.80175044148746 116.68467360484283 0 116.68467360484283 80.642761238384992 0 0 0 0 108.13537435441438 55.046228239386181 0 55.046228239386181 -21.978872038100903 0 0 0 0 147.20844786116504 3.0868776983543285 0 3.0868776983543285 -231.05011337308315 0 0 0 0 129.99864436380449 19.975664833575138 0 19.975664833575138 -238.76063575007356 0 0 0 0 2.490782910193019 -25.10494451216962 0 -25.10494451216962 -19.341906593248194 0 0 0 0 113.53923580370019 -6.3122757544869046 0 -6.3122757544869046 -117.28698834876559 0 0 0 0 90.80482184122593 14.423914573945694 0 14.423914573945694 -126.76006879114721 0 0 0 0 107.55151571895112 48.754219147831463 0 48.754219147831463 -167.49330194871754 0 0 0 0 112.73807407150161 8.27287995077495 0 8.27287995077495 -154.79126387323413 0 0 0 0 126.78347921896057 19.491885377297876 0 19.491885377297876 -150.37066505389521 0 0 0 0 131.33698387605546 -13.200346018416894 0 -13.200346018416894 -172.47432168836531 0 0 0 0 122.43462029345346 64.257959000324718 0 64.257959000324718 -163.7944761208164 0 0 0 0 126.18039266578853 11.575368391931988 0 11.575368391931988 -129.50984179027364 0 0 0 0 178.65289004572696 -9.5043279301235088 0 -9.5043279301235088 -121.05401893064845 0 0 0 0 162.01870532160319 10.531875374001174 0 10.531875374001174 -101.59202957735397 0 0 0 0 255.41706922606681 5.4044964610329771 0 5.4044964610329771 -101.364387833818 0 0 0 0 191.53695512998092 -60.547599557783542 0 -60.547599557783542 -41.784997990474949 0 0 0 0 87.345323692585225 -40.514494877425022 0 -40.514494877425022 -19.172229410045475 0 0 0 0 130.39231492733234 -62.806958670165841 0 -62.806958670165841 -49.044261366230785 0 0 0 0 155.33322930359282 -24.355483198329239 0 -24.355483198329239 -74.947805500396498 0 0 0 0 133.35577410127735 -31.598715281197656 0 -31.598715281197656 -76.209007893966373 0 0 0 0 86.66833534296893 -44.758014634120627 0 -44.758014634120627 -56.407797756688524 0 0 0 0 105.22791725632851 -16.706802715754748 0 -16.706802715754748 -97.328482548877219 0 0 0 0 132.21742693045235 -24.236829463590766 0 -24.236829463590766 -96.593075451237382 0 0 0 0 134.95935737475884 -17.780911228346667 0 -17.780911228346667 -130.65488916071627 0 0 0 0 99.711260886484524 -7.0622335939478944 0 -7.0622335939478944 -114.12136453879793 0 0 0 0 84.833797949700966 -20.009799823037611 0 -20.009799823037611 -73.505275074804558 0 0 0 0 71.404219030271634 -3.9771540990113863 0 -3.9771540990113863 -85.512484219576436 0 0 0 0 63.30477695823356 -28.552715665096912 0 -28.552715665096912 -47.558441677123483 0 0 0 0 46.099038596443279 -11.462867747839482 0 -11.462867747839482 -64.14722756537958 0 0 0 0 67.405037744072615 -22.283477005657915 0 -22.283477005657915 -73.801697510796657 0 0 0 0 6.5634495200793026 -19.403544613502163 0 -19.403544613502163 -24.026347922267178 0 0 0 0 33.348767172778025 -27.225150456128176 0 -27.225150456128176 -22.80618439819591 0 0 0 0 62.119321144360583 1.9743096617421543 0 1.9743096617421543 -114.46746580133913 0 0 0 0 20.186121598700993 56.529897591597546 0 56.529897591597546 8.5737546428135829 0 0 0 0 7.1213278819492789 5.5253360326119889 0 5.5253360326119889 -17.965729744491753 0 0 0 0 34.637577203320689 4.3073073705854767 0 4.3073073705854767 -35.457717794441123 0 0 0 0 -0.44882730788231129 28.24712744957651 0 28.24712744957651 18.042607268245774 0 0 0 0 17.784319425663853 -11.938422076680581 0 -11.938422076680581 -36.229354086037347 0 0 0 0 21.442835788548109 49.583672009084694 0 49.583672009084694 40.653352234890917 0 0 0 0 4.854875986142531 -1.2687490107478574 0 -1.2687490107478574 -9.1801299800806859 0 0 0 0 43.775391318566108 -1.701710523415386 0 -1.701710523415386 -65.300956731553015 0 0 0 0 31.945656773576047 39.762002299226879 0 39.762002299226879 -43.04155608653673 0 0 0 0 19.180624620855951 9.0676337894995811 0 9.0676337894995811 -32.871167701754416 0 0 0 0 22.294603771413676 13.557426784995187 0 13.557426784995187 -45.321561308467608 0 0 0 0 1.8995437786936122 4.311922506879398 0 4.311922506879398 0.29501129346468247 0 0 0 0 37.507280346719199 22.362281896363129 0 22.362281896363129 -78.513475563420798 0 0 0 0 -1.7917581511719618 77.431874688445532 0 77.431874688445532 97.575600605785439 0 0 0 0 7.2599416756420396 30.466986281026038 0 30.466986281026038 55.247482353399391 0 0 0 0 36.513863725835108 66.191787609386665 0 66.191787609386665 3.3190117777703563 0 0 0 0 -26.866948621609993 29.979991055760834 0 29.979991055760834 18.532404864467711 0 0 0 0 -107.38567199336103 46.713555200552946 0 46.713555200552946 26.149069762628642 0 0 0 0 67.221508156686383 41.014570823035996 0 41.014570823035996 -5.8730800328971622 0 0 0 0 104.91848788477364 80.910874664230505 0 80.910874664230505 51.938689103636534 0 0 0 0 32.373201928797982 39.321730601915107 0 39.321730601915107 9.0208622284262674 0 0 0 0 26.638749478383744 23.469185027635788 0 23.469185027635788 -21.805590761698873 0 0 0 0 24.378434036605313 45.846459358121564 0 45.846459358121564 2.4897322158358293 0 0 0 0 34.790780953489815 23.998002747251192 0 23.998002747251192 -24.146537798782717 0 0 0 0 56.382003345817793 8.1104199926849105 0 8.1104199926849105 -65.809028022966459 0 0 0 0 24.200788756733257 38.912787568907774 0 38.912787568907774 15.786757766232057 0 0 0 0 22.82074359485852 30.512678175327906 0 30.512678175327906 -14.346441064143875 0 0 0 0 94.127314242097782 8.9670789546289598 0 8.9670789546289598 -118.70302092110069 0 0 0 0 55.458143541463869 18.552168753872138 0 18.552168753872138 -100.9142360508049 0 0 0 0 57.319026889073314 27.721606013923001 0 27.721606013923001 -16.235229451980342 0 0 0 0 39.934117352007888 0.47688303056929726 0 0.47688303056929726 -67.747570140316384 0 0 0 0 62.782608484250119 18.20826735062991 0 18.20826735062991 -29.768346909427244 0 0 0 0 41.483061225269921 42.017917397133715 0 42.017917397133715 -6.2722750134125818 0 0 0 0 63.016102143654024 60.302933734314522 0 60.302933734314522 24.061522325734984 0 0 0 0 81.226911027496612 51.617759337581695 0 51.617759337581695 18.375081831560237 0 0 0 0 81.210942632926162 37.021386824148067 0 37.021386824148067 -71.16078774156631 0 0 0 0 5.9339156726545763 70.546948654075706 0 70.546948654075706 21.589383659375073 0 0 0 0 148.8627455540659 70.669069464348013 0 70.669069464348013 -14.441535767400637 0 0 0 0 -112.72698021668293 42.231817869605038 0 42.231817869605038 26.715673622878967 0 0 0 0 138.71165245067095 55.614075109209807 0 55.614075109209807 -32.029790680120641 0 0 0 0 -127.08104451838881 23.183775523262739 0 23.183775523262739 304.24178136620321 0 0 0 0 -100.99340025918355 42.609111553923867 0 42.609111553923867 21.796440318867099 0 0 0 0 181.97420953290566 59.676759313531875 0 59.676759313531875 -204.43182370904833 0 0 0 0 -3.1740559971168549 8.7871025992602938 0 8.7871025992602938 24.505962797605662 0 0 0 0 102.8150495608279 -31.116957922204165 0 -31.116957922204165 -23.292679447340106 0 0 0 0 4.2300124582842216 -0.075883596621611815 0 -0.075883596621611815 -0.76667314574653744 0 0 0 0 -68.727778431784827 104.93290726494888 0 104.93290726494888 179.63342298706266 0 0 0 0 -1.7956633181865982 8.3573869986740874 0 8.3573869986740874 -8.3212348654924426 0 0 0 0 0.28790057817576553 1.9982375597892315 0 1.9982375597892315 0.52690334352282697 0 0 0 0 6.0577221139197377 0.59129110436943932 0 0.59129110436943932 -1.7942581817534773 0 0 0 0 -1.8046105028854527 8.0944629695807748 0 8.0944629695807748 4.6255674921994796 0 0 0 0 14.743841376388445 45.951547392556677 0 45.951547392556677 33.876175410929136 0 0 0 0 -0.005207404780679159 20.553978992430643 0 20.553978992430643 -1.7789010768748312 0 0 0 0 -0.52170423443021718 17.731906973858713 0 17.731906973858713 -5.4917821106173506 0 0 0 0 -4.9810513952399447 4.2316925774154015 0 4.2316925774154015 4.775847755984743 0 0 0 0 22.855739065009402 95.1173916753105 0 95.1173916753105 46.266134784600581 0 0 0 0 16.697545425180579 37.817644302580447 0 37.817644302580447 -49.490222198663105 0 0 0 0 8.5334846236150099 9.2260334746515582 0 9.2260334746515582 -1.1289075896291507 0 0 0 0 33.824631797207985 20.786970853159801 0 20.786970853159801 -36.98668238830578 0 0 0 0 40.201803042369193 22.604508983763537 0 22.604508983763537 -33.825885613550781 0 0 0 0 4.8930899414593982 20.271034310699875 0 20.271034310699875 -14.230360877179947 0 0 0 0 9.9725084301171592 15.409157821533881 0 15.409157821533881 -11.804665307325195 0 0 0 0 22.58880168851465 55.166002041042248 0 55.166002041042248 38.229232433397556 0 0 0 0 18.005202680246356 21.839915117034209 0 21.839915117034209 -14.048375257096154 0 0 0 0 4.8498534051998945 13.727328812406526 0 13.727328812406526 -15.305033886245383 0 0 0 0 -1.5643874409320695 4.9161831672451655 0 4.9161831672451655 -13.708741452809321 0 0 0 0 62.461672872377676 -6.7636194989318028 0 -6.7636194989318028 -7.5988869794364291 0 0 0 0 -10.631050396882216 12.039532080425744 0 12.039532080425744 -12.996355005191404 0 0 0 0 45.478438805701444 71.209990315121104 0 71.209990315121104 -7.6921342552996066 0 0 0 0 68.390646287996788 4.1155401522210013 0 4.1155401522210013 -121.4505144929426 0 0 0 0 24.292398990981383 0.14154962391330628 0 0.14154962391330628 -38.874205265929049 0 0 0 0 24.669252160267206 3.529555149263615 0 3.529555149263615 -15.912944528943626 0 0 0 0 -103.94403074881848 -10.35443529074837 0 -10.35443529074837 -32.491537234829593 0 0 0 0 -0.58293449978373246 153.65121472750434 0 153.65121472750434 -155.35524142198847 0 0 0 0 -163.01607386457908 141.15046458351799 0 141.15046458351799 -72.211454064490681 0 0 0 0 -17.05355873775261 69.889303576208476 0 69.889303576208476 -48.708663934141441 0 0 0 0 0.00057938770905252568 -2.0278488565217145 0 -2.0278488565217145 -0.036251597014477888 0 0 0 0 -19.299108484694443 56.680678245436866 0 56.680678245436866 -49.203231521267298 0 0 0 0 0.084677857943461277 62.635650061622073 0 62.635650061622073 -56.518825488907169 0 0 0 0 -42.233157301336178 62.978243556761299 0 62.978243556761299 -43.201535680327652 0 0 0 0 -36.041839360201266 -21.652353439418221 0 -21.652353439418221 7.6045829334761947 0 0 0 0 -55.783396381600369 -101.43923534988485 0 -101.43923534988485 205.80093762926845 0 0 0 0 -60.439469922421267 86.027020249071938 0 86.027020249071938 114.4819116159415 0 0 0 0 -0.032123022960149683 11.490237107936991 0 11.490237107936991 2.5400535036164911 0 0 0 0 3.3951548802092191 0.32745484211715592 0 0.32745484211715592 -1.105238152970287 0 0 0 0 -212.61085919391189 726.40514613262712 0 726.40514613262712 123.93575884926577 0 0 0 0 92.574217745961505 97.283095388695074 0 97.283095388695074 105.70013824909256 0 0 0 0 538.10704642207565 910.03308757558625 0 910.03308757558625 163.60262797262294 0 0 0 0 144.94544332662917 1235.3675317193847 0 1235.3675317193847 -101.75459559787123 0 0 0 0 -114.222885969044 1222.3520746890572 0 1222.3520746890572 471.52180621688149 0 0 0 0 717.86970814281813 901.5449800252245 0 901.5449800252245 -642.26920031625195 0 0 0 0 97.88258937644423 1019.0396752440429 0 1019.0396752440429 990.18651992252489 0 0 0 0 186.69055218693393 1068.0299867524445 0 1068.0299867524445 435.92955681339845 0 0 0 0 -59.817418997277855 1021.0814108252416 0 1021.0814108252416 686.63920976385998 0 0 0 0 -90.53570959310855 630.00258160176236 0 630.00258160176236 528.43136672195396 0 0 0 0 71.821378987937351 1038.5054516834207 0 1038.5054516834207 1527.4571166512833 0 0 0 0 933.60607987474259 1057.5715654905403 0 1057.5715654905403 934.83658159113111 0 0 0 0 425.55822357532088 474.06882158844019 0 474.06882158844019 -1220.5890942011029 0 0 0 0 -153.9145076646455 55.173334079350752 0 55.173334079350752 1732.5441451120387 0 0 0 0 4.3746664317245916 4.5120076123007848 0 4.5120076123007848 3.373331608355798 0 0 0 0 -77.924847513249915 95.152473664116769 0 95.152473664116769 201.05340914666886 0 0 0 0 -73.978111636053654 323.69155106415565 0 323.69155106415565 -0.69491863035727874 0 0 0 0 -99.627739699324593 251.90845050210191 0 251.90845050210191 -9.689560317186988 0 0 0 0 -67.950367582277977 283.20195105021412 0 283.20195105021412 -114.22911297531482 0 0 0 0 -141.48720218470407 186.9142816244821 0 186.9142816244821 -102.97560740458721 0 0 0 0 -283.37329277308891 392.94189655210357 0 392.94189655210357 188.27368915471015 0 0 0 0 -298.48642445203586 533.84272559883175 0 533.84272559883175 657.66794450441739 0 0 0 0 -232.93146928603892 556.51080557432215 0 556.51080557432215 134.94487957620004 0 0 0 0 -345.82541869509669 266.05801955357083 0 266.05801955357083 199.01209808673593 0 0 0 0 -302.71444618128589 671.05334579087139 0 671.05334579087139 296.85296051771002 0 0 0 0 -309.94101849838626 461.87313800422271 0 461.87313800422271 92.622365817362152 0 0 0 0 -440.45393514356692 515.08274193193211 0 515.08274193193211 71.103353341430193 0 0 0 0 -224.44024785048532 267.7371629336194 0 267.7371629336194 -263.73117146798177 0 0 0 0 -290.84303169330997 452.87596972604115 0 452.87596972604115 -227.04729061773105 0 0 0 0 -434.16927482837605 430.77695255681988 0 430.77695255681988 -342.25991864872049 0 0 0 0 -1015.1364428104353 628.33687714677581 0 628.33687714677581 224.46992523696099 0 0 0 0 -740.57559145985215 315.62854558961772 0 315.62854558961772 -313.66675836937793 0 0 0 0 -815.8511776893738 216.96747423878969 0 216.96747423878969 627.38935842766659 0 0 0 0 -240.81826077868027 -337.27054617091562 0 -337.27054617091562 1071.2207843427059 0 0 0 0 -8.3803931135628886 0.85894211480200511 0 0.85894211480200511 0.62162905855026196 0 0 0 0 -409.62978671227029 -42.53391960067529 0 -42.53391960067529 477.91455803770441 0 0 0 0 -521.93116634886246 327.34546353454061 0 327.34546353454061 293.35249612389089 0 0 0 0 -88.332955455596675 70.823327552599949 0 70.823327552599949 641.2304807727869 0 0 0 0 -33.771713679700042 206.44461111229884 0 206.44461111229884 282.2755578918659 0 0 0 0 -156.60792096681689 265.38807597719278 0 265.38807597719278 98.613299340635422 0 0 0 0 -184.65938288337202 247.79178795651023 0 247.79178795651023 280.15660695960355 0 0 0 0 17.769897518272046 321.69675184557855 0 321.69675184557855 -75.576858478998474 0 0 0 0 123.45476102113753 220.64075228164438 0 220.64075228164438 -88.45570303222803 0 0 0 0 -471.44078738316603 364.41968574432394 0 364.41968574432394 67.854246513430553 0 0 0 0 -303.93051269506395 288.59302802904858 0 288.59302802904858 -81.195306789813912 0 0 0 0 -300.20486060058465 580.95989746518171 0 580.95989746518171 -462.63935609134387 0 0 0 0 -532.62870613244741 529.47968019494147 0 529.47968019494147 -307.87972949483083 0 0 0 0 -547.07310541759944 382.51637651003693 0 382.51637651003693 -419.28722595467843 0 0 0 0 -58.285815719602397 477.82148557433356 0 477.82148557433356 -435.59066075824376 0 0 0 0 -708.60489108172624 273.63036364479194 0 273.63036364479194 313.54266245113104 0 0 0 0 -510.53870020451723 215.5601099557316 0 215.5601099557316 225.47867027868779 0 0 0 0 -553.80418427136465 360.53488809552073 0 360.53488809552073 210.74294439973346 0 0 0 0 -722.91617294798925 210.80873877336126 0 210.80873877336126 277.6891085229654 0 0 0 0 -481.08667389281004 171.70436122605167 0 171.70436122605167 129.50805703907099 0 0 0 0 -671.85751308736508 375.86573025629332 0 375.86573025629332 26.404589776488137 0 0 0 0 -560.95578529842896 249.96184304290728 0 249.96184304290728 -101.81227508978918 0 0 0 0 -674.29223728906072 258.1436670173789 0 258.1436670173789 -92.2482426115821 0 0 0 0 -714.12346885290754 504.34937766031362 0 504.34937766031362 -372.69588709831442 0 0 0 0 -613.94816522326801 581.23890743213269 0 581.23890743213269 -940.77843176023453 0 0 0 0 -692.90425260711345 254.04404633476224 0 254.04404633476224 -704.38100044817838 0 0 0 0 -682.18921119385777 313.12809176174915 0 313.12809176174915 -59.562259470505523 0 0 0 0 -645.22262056706677 864.99831436355453 0 864.99831436355453 -610.88255709296209 0 0 0 0 -656.76841908628398 455.71708731506936 0 455.71708731506936 445.67211283338838 0 0 0 0 -1152.571948731802 -1.8301301227184013 0 -1.8301301227184013 -1348.6433341768061 0 0 0 0 -317.61909157815535 1710.597289767371 0 1710.597289767371 -1234.6884651425007 0 0 0 0 -485.31036226994911 517.56400441500591 0 517.56400441500591 -1015.1234211328992 0 0 0 0 19.070456923132923 21.480819470240341 0 21.480819470240341 16.773515882313433 0 0 0 0 -892.32069518609205 514.79978033975931 0 514.79978033975931 -1014.9771665406861 0 0 0 0 -936.11710005927307 559.90736278401164 0 559.90736278401164 -810.86754249469232 0 0 0 0 -1341.4800585865887 1112.9264070025965 0 1112.9264070025965 -1241.7161286248302 0 0 0 0 46.748698671775287 22.525711675065772 0 22.525711675065772 -32.933202064218079 0 0 0 0 39.209426799090579 41.758047950017499 0 41.758047950017499 -70.840958161163144 0 0 0 0 82.115328273070816 13.031997720286942 0 13.031997720286942 -91.569073976321931 0 0 0 0 17.136393049786136 62.408083598642293 0 62.408083598642293 66.584112005967597 0 0 0 0 -88.628996711377113 1.435940906725591 0 1.435940906725591 52.635218723262369 0 0 0 0 31.448741757170026 50.581144588044282 0 50.581144588044282 62.977279647627682 0 0 0 0 -31.562243577143818 62.546087891774732 0 62.546087891774732 16.019698451698787 0 0 0 0 -26.367831404233584 257.24883016281092 0 257.24883016281092 -158.6546170902111 0 0 0 0 331.7284527512893 138.71864353451747 0 138.71864353451747 -174.30582041988237 0 0 0 0 95.883072920903686 53.563061017923829 0 53.563061017923829 -27.443007418797112 0 0 0 0 73.653135071261204 24.972937010503301 0 24.972937010503301 -144.79452446353389 0 0 0 0 -80.431653953943169 288.47850497844047 0 288.47850497844047 -713.32008011967991 0 0 0 0 42.401533858443145 111.92859706920717 0 111.92859706920717 -5.6501605113280675 0 0 0 0 101.61398529235157 -117.55982463527835 0 -117.55982463527835 -51.658568386304978 0 0 0 0 6.6069652095416842 -0.66722119407170055 0 -0.66722119407170055 -10.096715544374035 0 0 0 0 84.316675499324305 58.651311606075808 0 58.651311606075808 -20.373090574339528 0 0 0 0 13.096775829220071 7.75341221631842 0 7.75341221631842 -11.569138382191056 0 0 0 0 114.55386273445038 143.4321153408473 0 143.4321153408473 -189.53053088968591 0 0 0 0 37.509643508805311 139.89291877855612 0 139.89291877855612 -52.700143014662899 0 0 0 0 150.773688418034 67.058691265972811 0 67.058691265972811 -177.22370433088781 0 0 0 0 137.01172024910193 96.132252066312503 0 96.132252066312503 -121.5701652184398 0 0 0 0 228.49175070878118 36.919030822664354 0 36.919030822664354 -158.18526592794296 0 0 0 0 181.60245800296252 90.649832007976329 0 90.649832007976329 -150.447738103554 0 0 0 0 134.90544108405811 167.65327991395725 0 167.65327991395725 -164.25230404613831 0 0 0 0 196.72694139449595 100.20758380680309 0 100.20758380680309 -181.96474349068671 0 0 0 0 217.69226162759151 164.34143154492995 0 164.34143154492995 -82.634595468556654 0 0 0 0 113.03572351597541 104.80007781847962 0 104.80007781847962 -112.33445545826908 0 0 0 0 337.63443757937057 39.726438523712204 0 39.726438523712204 -144.0197730665293 0 0 0 0 238.33492430158367 -0.48218644560074608 0 -0.48218644560074608 -3.8180100847530412 0 0 0 0 653.05979597107944 415.72461501461657 0 415.72461501461657 206.34796755888237 0 0 0 0 24.405412164207519 -78.478039605151935 0 -78.478039605151935 63.830731512163766 0 0 0 0 117.16847773455811 110.91379414928633 0 110.91379414928633 -180.9271814230251 0 0 0 0 141.00713260648263 164.92164317962579 0 164.92164317962579 -245.63143456880789 0 0 0 0 -332.04461442711909 596.76265703729769 0 596.76265703729769 -171.58913359425605 0 0 0 0 19.065672014075858 31.874695967351109 0 31.874695967351109 50.850948505872026 0 0 0 0 842.43711284306482 583.97592175519458 0 583.97592175519458 -320.14481323316249 0 0 0 0 599.26303249183002 553.8419021148502 0 553.8419021148502 29.022177843478858 0 0 0 0 498.34600063791731 -191.57934801895317 0 -191.57934801895317 -852.87105830909877 0 0 0 0 802.26856716758812 700.59677283826113 0 700.59677283826113 -1335.652053420119 0 0 0 0 -630.89727899164336 1557.5510299998759 0 1557.5510299998759 212.86755166856165 0 0 0 0 -346.86892659746809 -219.54795112656575 0 -219.54795112656575 2682.7521527366625 0 0 0 0 788.58401058433083 593.91091858515574 0 593.91091858515574 -166.6688692359312 0 0 0 0 958.00975669896434 1389.062828003196 0 1389.062828003196 -571.66960807541909 0 0 0 0 666.99063955785823 1189.390438085873 0 1189.390438085873 600.54804760025581 0 0 0 0 14.809715011582284 6.4040987867850276 0 6.4040987867850276 0.98515679207410756 0 0 0 0 208.33426602707914 366.99348514190933 0 366.99348514190933 1124.7406337201646 0 0 0 0 1829.7469703717943 901.30652490751527 0 901.30652490751527 -1856.844497510152 0 0 0 0 388.92887228271866 -12.236510862807336 0 -12.236510862807336 -958.20741409230686 0 0 0 0 11.500046721474689 13.438014517418146 0 13.438014517418146 5.873026767656512 0 0 0 0 2224.7070960701312 -135.84047639135679 0 -135.84047639135679 -1810.6606184364864 0 0 0 0 -1676.6729819824068 962.31146914055716 0 962.31146914055716 -136.81132661315496 0 0 0 0 -411.27160087878292 1370.4951552697603 0 1370.4951552697603 -100.14016245271273 0 0 0 0 2062.5992900064593 1599.0204153393934 0 1599.0204153393934 -552.83144818732762 0 0 0 0 575.55109703440939 657.14468075716559 0 657.14468075716559 -679.51466746304504 0 0 0 0 297.11238761382992 542.16494156290719 0 542.16494156290719 -682.79466453697387 0 0 0 0 259.83746715408779 451.09488025790233 0 451.09488025790233 -880.49285666525975 0 0 0 0 -74.389573387852579 572.09393159469801 0 572.09393159469801 -574.42552869522478 0 0 0 0 -33.020100848145375 644.49430654471143 0 644.49430654471143 -750.44525306851574 0 0 0 0 659.05888273889286 678.62847017390959 0 678.62847017390959 -737.09133744150859 0 0 0 0 390.48979500217683 348.57646338684208 0 348.57646338684208 -567.58333354664501 0 0 0 0 1298.5080465943029 1110.2223770599303 0 1110.2223770599303 -408.79597039091004 0 0 0 0 18.42305808092793 25.64633991490723 0 25.64633991490723 19.034842481396709 0 0 0 0 -409.06501194850716 498.97371954953633 0 498.97371954953633 -231.71550874794775 0 0 0 0 -506.31954530539224 935.57627818968103 0 935.57627818968103 -482.29071016676789 0 0 0 0 9.8260515853430093 13.415514728022544 0 13.415514728022544 11.077180474038983 0 0 0 0 2504.1224229190557 995.48921619865541 0 995.48921619865541 -72.493908882296637 0 0 0 0 735.79944163210894 130.79692352836719 0 130.79692352836719 -393.48503040339347 0 0 0 0 328.19426643947372 1036.0931956524582 0 1036.0931956524582 2315.0663311706649 0 0 0 0 1303.5244293715768 2164.706533154842 0 2164.706533154842 1737.2282156271322 0 0 0 0 -1436.637097372266 1558.6583516030632 0 1558.6583516030632 1823.5558552468719 0 0 0 0 216.45373261556597 1664.4510479430037 0 1664.4510479430037 1829.8712125328384 0 0 0 0 1445.124355626991 916.96936718493453 0 916.96936718493453 1076.7590501367231 0 0 0 0 482.12180792597792 1019.0380107943492 0 1019.0380107943492 1153.2147341802411 0 0 0 0 141.03460428537073 382.35423505003746 0 382.35423505003746 850.13764513581555 0 0 0 0 441.50694973233658 577.06173698964358 0 577.06173698964358 583.21161838390253 0 0 0 0 156.31643175068166 -152.40155264624445 0 -152.40155264624445 323.02765332511626 0 0 0 0 479.29126341237861 318.7129112405637 0 318.7129112405637 130.16633521505719 0 0 0 0 28.847842473202036 -44.883291258316603 0 -44.883291258316603 135.77804430333526 0 0 0 0 186.57690765356529 229.8823775782439 0 229.8823775782439 256.88985868592317 0 0 0 0 10.271313771998393 735.93326925222391 0 735.93326925222391 1702.4871409776651 0 0 0 0 -71.493221530261508 162.44465406503332 0 162.44465406503332 1090.9450045868371 0 0 0 0 804.42854647297281 369.79741101916625 0 369.79741101916625 1847.2123456162863 0 0 0 0 246.95461729061208 909.85969179716994 0 909.85969179716994 1341.207570692939 0 0 0 0 1578.4158920484406 1601.8714455274999 0 1601.8714455274999 1457.82619839158 0 0 0 0 558.00603928109194 59.686188144893094 0 59.686188144893094 33.537061169932713 0 0 0 0 3061.8905991046631 1179.1095822056559 0 1179.1095822056559 520.12259429197366 0 0 0 0 -224.69270400096138 1294.0274485395112 0 1294.0274485395112 2419.1966273793705 0 0 0 0 8.6551999016467107 12.632654379685164 0 12.632654379685164 19.036215767649367 0 0 0 0 344.28980259401578 1310.0541287768174 0 1310.0541287768174 1742.7863831754057 0 0 0 0 -853.01253179386913 178.72125885712285 0 178.72125885712285 1247.5148929222105 0 0 0 0 431.46275757379772 309.63198269294116 0 309.63198269294116 -194.7437839131187 0 0 0 0 217.50484651708757 46.281942695558428 0 46.281942695558428 407.61426151530759 0 0 0 0 144.23208410380175 283.35939320726175 0 283.35939320726175 910.95725113327353 0 0 0 0 287.98942618825822 124.54928785179618 0 124.54928785179618 280.78518837896263 0 0 0 0 384.10546014522697 52.560108716790637 0 52.560108716790637 -10.365823320407799 0 0 0 0 412.59055340768828 74.047594545654647 0 74.047594545654647 -56.911902602619193 0 0 0 0 435.3325911097636 402.6137369789958 0 402.6137369789958 458.03679793616971 0 0 0 0 447.83746742708172 148.55564918938398 0 148.55564918938398 237.65766915298445 0 0 0 0 501.94384343206912 449.26210643870036 0 449.26210643870036 587.10365557129626 0 0 0 0 680.11775061103617 940.97704965793491 0 940.97704965793491 1046.697835944582 0 0 0 0 518.52596478596024 481.43573523606392 0 481.43573523606392 521.36893434046942 0 0 0 0 937.03637878769223 927.38370034750369 0 927.38370034750369 678.64276048258853 0 0 0 0 1540.2273606313465 1686.6660881969729 0 1686.6660881969729 1292.2547443734311 0 0 0 0 593.06722995955352 936.27105705047143 0 936.27105705047143 1123.5014309539074 0 0 0 0 2656.756346533919 2114.3006878035249 0 2114.3006878035249 1187.4506335680335 0 0 0 0 1386.155872224721 -47.522461643960924 0 -47.522461643960924 -3793.0726639335408 0 0 0 0 19.774667662685403 12.157955081420027 0 12.157955081420027 1.338623363184329 0 0 0 0 519.99279782368831 1880.3928889870112 0 1880.3928889870112 3929.3206316214928 0 0 0 0 1641.8620573077751 1813.4859219053615 0 1813.4859219053615 815.13558028926491 0 0 0 0 771.12851161374419 -151.80409173444059 0 -151.80409173444059 -932.62273953856266 0 0 0 0 1981.5851111656011 1234.3724124358314 0 1234.3724124358314 -1345.3883986263208 0 0 0 0 470.09512681923661 73.196895266718457 0 73.196895266718457 -928.22509589016408 0 0 0 0 -350.94894615575322 -337.45911279381653 0 -337.45911279381653 -1126.7818499951245 0 0 0 0 481.21980861383054 1238.6048864227923 0 1238.6048864227923 1800.0438782834062 0 0 0 0 -1.5991016460703236 4.4149450723721344 0 4.4149450723721344 -2.1362848931901794 0 0 0 0 465.73197652964882 800.23664213505253 0 800.23664213505253 741.04301989594387 0 0 0 0 1212.7016748976093 1027.3247045113239 0 1027.3247045113239 -441.88840240009267 0 0 0 0 1084.3820978027143 1028.186506103355 0 1028.186506103355 803.82796059040675 0 0 0 0 1115.2682933021351 1017.6850838784994 0 1017.6850838784994 521.95915051020347 0 0 0 0 -5.0297783068932063 9.5464691983844716 0 9.5464691983844716 -7.0176222277215032 0 0 0 0 1036.4230248604072 626.87952143767757 0 626.87952143767757 207.16949473673958 0 0 0 0 968.38751843618229 586.05252703624228 0 586.05252703624228 355.70871045107197 0 0 0 0 1109.1404781743331 609.39287387412696 0 609.39287387412696 111.15269126442945 0 0 0 0 947.71580768340209 404.36812674095563 0 404.36812674095563 9.8252696845811442 0 0 0 0 1057.0780879142694 525.13785091160753 0 525.13785091160753 131.00307145862098 0 0 0 0 844.08027943631896 466.41318901262593 0 466.41318901262593 145.32021305850867 0 0 0 0 939.12848342051439 438.35516300597374 0 438.35516300597374 115.09278567166348 0 0 0 0 930.48215954756597 548.19938351796554 0 548.19938351796554 208.32095291342313 0 0 0 0 377.87210430642881 152.98761258372542 0 152.98761258372542 -21.442942251596833 0 0 0 0 518.13516894225904 153.74282095224953 0 153.74282095224953 -22.469593831798647 0 0 0 0 1189.1398865099618 408.41422629370209 0 408.41422629370209 -182.20320590926713 0 0 0 0 720.94650718149205 116.25821005609578 0 116.25821005609578 -107.63059578630555 0 0 0 0 574.27615015781339 296.17435203874356 0 296.17435203874356 301.80932967326953 0 0 0 0 951.27216781121024 379.76704623697879 0 379.76704623697879 171.56529456796125 0 0 0 0 752.94111386899021 356.06054324499746 0 356.06054324499746 178.27998143687137 0 0 0 0 611.65057021741814 350.81908420751097 0 350.81908420751097 295.91321872827757 0 0 0 0 666.12932730250031 413.05516873930537 0 413.05516873930537 365.96401602524566 0 0 0 0 493.17838225763262 420.64603283740053 0 420.64603283740053 496.76609368995196 0 0 0 0 249.27687859750586 310.27986634996159 0 310.27986634996159 544.52218292958787 0 0 0 0 605.65293509142066 553.10249874521287 0 553.10249874521287 544.18949869443497 0 0 0 0 493.15703038377251 649.11204065740276 0 649.11204065740276 630.95047095281188 0 0 0 0 988.0819046024335 616.98983005775153 0 616.98983005775153 447.69672912057649 0 0 0 0 679.6615444268391 853.77787572953821 0 853.77787572953821 828.06076877000305 0 0 0 0 259.50943370281311 477.74445026349349 0 477.74445026349349 789.22022266234399 0 0 0 0 296.35437819783692 -96.953022661034993 0 -96.953022661034993 914.58336360698877 0 0 0 0 395.82786839133769 452.83634234498459 0 452.83634234498459 552.26718380341481 0 0 0 0 610.00958662039193 1104.8166713326345 0 1104.8166713326345 1310.4271545402953 0 0 0 0 489.23091257968917 113.74489218532472 0 113.74489218532472 -923.7101164740634 0 0 0 0 103.67203369412164 -30.484046130639399 0 -30.484046130639399 389.9072735015734 0 0 0 0 1044.1287955492044 838.76229728487488 0 838.76229728487488 -807.36319942590853 0 0 0 0 273.40842065645847 1187.2461555385453 0 1187.2461555385453 627.70126641201205 0 0 0 0 -129.71815347234951 120.41025856542183 0 120.41025856542183 1475.4355129476776 0 0 0 0 -94.692062696936773 575.93911182689772 0 575.93911182689772 1474.9595411820669 0 0 0 0 41.924911428708583 302.11788497913403 0 302.11788497913403 1052.9085409090912 0 0 0 0 142.98097248998238 193.97149684341275 0 193.97149684341275 852.55761060440273 0 0 0 0 -2.9175546867545847 1.5132793953353172 0 1.5132793953353172 13.048885775995032 0 0 0 0 -0.065774039624585612 -1.4016617713541706 0 -1.4016617713541706 4.0627235298688049 0 0 0 0 -87.813691808580188 -11.728705260857168 0 -11.728705260857168 517.44161136809271 0 0 0 0 1583.6749806178996 1063.0987608880932 0 1063.0987608880932 553.04328659814928 0 0 0 0 134.86722132272553 -2.0437221359679825 0 -2.0437221359679825 -582.58379854849773 0 0 0 0 19.157671685796231 31.260078509527375 0 31.260078509527375 22.621270999588887 0 0 0 0 1.4103026104924368 19.470445545943662 0 19.470445545943662 -3.5963698701197586 0 0 0 0 -99.86504332477125 4.1316699656749734 0 4.1316699656749734 -14.911193648018525 0 0 0 0 -23.634978816141484 24.594811397573707 0 24.594811397573707 4.8796322240433341 0 0 0 0 -92.027713024901459 28.876309435625444 0 28.876309435625444 -53.385577004213701 0 0 0 0 -88.400788583763642 -57.35120068568358 0 -57.35120068568358 -109.79636005058092 0 0 0 0 -83.274970444646897 45.571061300903239 0 45.571061300903239 3.9900484277477517 0 0 0 0 -133.39091417242889 -106.89468481451695 0 -106.89468481451695 331.11384980104049 0 0 0 0 -318.5295979945513 -121.79177000481286 0 -121.79177000481286 -40.373897087014484 0 0 0 0 -23.459208375858509 22.344186986187395 0 22.344186986187395 -13.063044582719769 0 0 0 0 -195.90983031920041 -68.380843879014719 0 -68.380843879014719 21.309483284717317 0 0 0 0 -226.28434452283636 169.85462037396906 0 169.85462037396906 71.775562763068592 0 0 0 0 117.61986202465778 111.32657837889565 0 111.32657837889565 22.636177373715327 0 0 0 0 -183.64644776788191 118.31367679511459 0 118.31367679511459 55.04526128116413 0 0 0 0 -556.03985264827497 220.15982110358163 0 220.15982110358163 51.812802663822367 0 0 0 0 152.71297887184483 251.86116143784602 0 251.86116143784602 40.2094617276299 0 0 0 0 431.27462031508912 16.865248585785594 0 16.865248585785594 50.823334742930001 0 0 0 0 157.17787218582816 339.36420213981364 0 339.36420213981364 -187.78705229658226 0 0 0 0 -6.8556926493075991 6.322816764349767 0 6.322816764349767 -6.3614662888138724 0 0 0 0 2.9186407963944099 -1.4491923741157535 0 -1.4491923741157535 -0.55202123554407478 0 0 0 0 159.75978848020895 499.29296427794179 0 499.29296427794179 -367.36073212786141 0 0 0 0 164.16212136606919 -688.11480204045074 0 -688.11480204045074 -151.1044664984729 0 0 0 0 25.212721371972293 -14.585875080688311 0 -14.585875080688311 -90.009498463681666 0 0 0 0 -276.17367778482731 -973.49744651057699 0 -973.49744651057699 2809.4148595832812 0 0 0 0 -1.9556437136698381 4.5250131525409074 0 4.5250131525409074 3.2325116338623445 0 0 0 0 937.07460026396438 169.64325636911781 0 169.64325636911781 -107.66007387943318 0 0 0 0 330.51021908453549 737.18675136464663 0 737.18675136464663 -562.28435404362972 0 0 0 0 239.0035103730479 873.22187984778066 0 873.22187984778066 -460.69504797574336 0 0 0 0 1745.5003545197251 250.73340685976837 0 250.73340685976837 -3955.2266937367094 0 0 0 0 -2563.9419158501314 777.15981242818361 0 777.15981242818361 -112.9013029501948 0 0 0 0 -84.015655229712138 712.9946272198722 0 712.9946272198722 833.3630436098174 0 0 0 0 -67.231974430149421 373.95247072655184 0 373.95247072655184 -158.28786997721909 0 0 0 0 67.803916972014122 341.91605827119929 0 341.91605827119929 163.43481698338292 0 0 0 0 93.241614439961268 213.14812048590829 0 213.14812048590829 780.92263827302668 0 0 0 0 62.550214733841131 1006.447648596295 0 1006.447648596295 -394.73268897700473 0 0 0 0 178.04897429872653 745.21196506109845 0 745.21196506109845 338.47680793288964 0 0 0 0 202.98387745537912 755.67189737037552 0 755.67189737037552 -240.4910890807223 0 0 0 0 116.259657429051 846.9071323761309 0 846.9071323761309 -177.5116295779153 0 0 0 0 11.627002585941227 640.60850898113495 0 640.60850898113495 -86.743442727222828 0 0 0 0 516.89953416922071 503.02477296236611 0 503.02477296236611 -56.890533774450887 0 0 0 0 340.11394194477907 1121.8022067414195 0 1121.8022067414195 -2149.1588247664713 0 0 0 0 -314.48539033348061 1092.1313149602065 0 1092.1313149602065 -1008.0672085201477 0 0 0 0 489.87512257933849 714.54139124116227 0 714.54139124116227 -889.39342905049125 0 0 0 0 222.68592290848028 1004.2302758114056 0 1004.2302758114056 -606.35671255979105 0 0 0 0 1.5410156928555807 689.05643367788616 0 689.05643367788616 -721.03065516766947 0 0 0 0 1577.9258818419185 805.10124071595419 0 805.10124071595419 -906.80440405119953 0 0 0 0 -0.42953861378017244 -0.4782414446690666 0 -0.4782414446690666 -1.5705979463338906 0 0 0 0 -2223.3286413596361 1306.9893442159882 0 1306.9893442159882 -468.10702779813437 0 0 0 0 509.00002298953768 1201.2581084781859 0 1201.2581084781859 -977.81017377344324 0 0 0 0 -385.14487250069214 478.75861489613999 0 478.75861489613999 -1270.5047894933768 0 0 0 0 33.831080033603939 -195.3138001510124 0 -195.3138001510124 -143.16072550375247 0 0 0 0 675.88010505044804 635.73897742813006 0 635.73897742813006 -2796.8507468112502 0 0 0 0 210.50634536887355 250.21705723949799 0 250.21705723949799 -280.7222332144047 0 0 0 0 27.884939505441565 38.133328222474468 0 38.133328222474468 3.1231127529670797 0 0 0 0 574.5908359985915 544.10123926471351 0 544.10123926471351 -3585.528531431436 0 0 0 0 681.25151920500139 735.84530666639239 0 735.84530666639239 447.54219353385633 0 0 0 0 41.151850546252177 30.812089022925139 0 30.812089022925139 1.6164046092156106 0 0 0 0 -383.41814838884784 621.44987151042665 0 621.44987151042665 -1041.6259784381509 0 0 0 0 -206.16455475658586 19.457579452857317 0 19.457579452857317 -1096.4726700880274 0 0 0 0 -428.49979136911861 606.67672731055791 0 606.67672731055791 -159.51897577891259 0 0 0 0 -495.1175802464968 720.51344498702247 0 720.51344498702247 -49.395951305115886 0 0 0 0 -441.31946019777024 887.7753603697513 0 887.7753603697513 -797.86616869466889 0 0 0 0 -528.35332801908953 356.74427086332071 0 356.74427086332071 -850.58596953279084 0 0 0 0 -0.34248898452642607 774.16226301791721 0 774.16226301791721 -542.3676255293849 0 0 0 0 0.2003178615805159 481.23051627717638 0 481.23051627717638 -1124.4548364467628 0 0 0 0 -478.97692055848165 639.98713945004965 0 639.98713945004965 -547.64802743770088 0 0 0 0 -6.7295966547403339 4.5206793587700531 0 4.5206793587700531 -2.9949870531221876 0 0 0 0 -487.15118926495177 122.94921217530901 0 122.94921217530901 83.747277795599075 0 0 0 0 -118.00453514972469 592.62427987874617 0 592.62427987874617 -1083.5507350060871 0 0 0 0 -202.17025479578479 312.63335131641725 0 312.63335131641725 -275.79726904361451 0 0 0 0 -23.395219108744641 112.63242151658051 0 112.63242151658051 -877.13373654565839 0 0 0 0 -54.773763630340909 -201.87960596758569 0 -201.87960596758569 -118.60783116437233 0 0 0 0 138.26178003919995 60.943930322795438 0 60.943930322795438 -67.320193735693465 0 0 0 0 6.6373089703702135 -25.135095308332893 0 -25.135095308332893 66.014232384583011 0 0 0 0 -478.76360024668975 593.82299423444783 0 593.82299423444783 -559.03643469285453 0 0 0 0 0.10163857564935519 0.78401951773363976 0 0.78401951773363976 -6.5644735797875029 0 0 0 0 183.05960400652839 -71.757724802509358 0 -71.757724802509358 -370.3240427779092 0 0 0 0 -309.72226527355087 617.02175698950123 0 617.02175698950123 -468.02455036820902 0 0 0 0 -309.89512420867686 593.57052067127188 0 593.57052067127188 -668.72904774275958 0 0 0 0 -465.01135117275408 585.72351672978766 0 585.72351672978766 -58.402004268860765 0 0 0 0 -436.90804572457273 659.49570379490433 0 659.49570379490433 -452.65516841576709 0 0 0 0 -512.55206834184355 298.46854416380665 0 298.46854416380665 -551.26470745694314 0 0 0 0 -829.12392617692967 560.60670084515004 0 560.60670084515004 -163.80508963720058 0 0 0 0 -374.26809500920353 422.97395539546415 0 422.97395539546415 -122.45983616524063 0 0 0 0 -363.19532584455737 332.55019065234046 0 332.55019065234046 200.57205489242551 0 0 0 0 49.743622578498616 377.98105527730513 0 377.98105527730513 235.37306334740424 0 0 0 0 50.775399563208339 385.29769736301205 0 385.29769736301205 -236.40224781856159 0 0 0 0 74.625144694771734 -15.817847180678655 0 -15.817847180678655 -417.1828510477244 0 0 0 0 127.07272646434285 110.06814751616912 0 110.06814751616912 -119.35731601815496 0 0 0 0 -168.05932329094503 262.03402903511233 0 262.03402903511233 -85.801217344895122 0 0 0 0 123.30332737669232 45.945732606229285 0 45.945732606229285 -580.95060870030647 0 0 0 0 -168.42116229848762 233.39175218532546 0 233.39175218532546 -700.97222638584208 0 0 0 0 -188.23192035847023 9.9848948158505664 0 9.9848948158505664 -154.28609746649454 0 0 0 0 -0.24437252233135309 -0.43458347919739992 0 -0.43458347919739992 -2.6792925448901173 0 0 0 0 -224.71640803024701 -124.32367257873486 0 -124.32367257873486 -73.403947655286174 0 0 0 0 -72.237803057585552 -173.11002224070398 0 -173.11002224070398 122.23492722255469 0 0 0 0 -0.68154453539308246 -1.7648067452385447 0 -1.7648067452385447 -9.30186116064354 0 0 0 0 -17.263270131952595 177.99553829745855 0 177.99553829745855 121.09970534412754 0 0 0 0 -54.635960206650282 -38.331064356902921 0 -38.331064356902921 10.915995902854775 0 0 0 0 -139.68744772743196 35.367423935633468 0 35.367423935633468 53.09774920468044 0 0 0 0 58.850399554859905 -79.15221408162688 0 -79.15221408162688 -6.6653985883604037 0 0 0 0 -10.17815434365184 -33.135638625582942 0 -33.135638625582942 -33.137483501363022 0 0 0 0 -14.719980364894582 -38.891014605386772 0 -38.891014605386772 19.251213611692947 0 0 0 0 116.06383889691642 -51.863620338608598 0 -51.863620338608598 -79.119369380649005 0 0 0 0 -83.619604110630462 -12.1807013869402 0 -12.1807013869402 -18.669818810916695 0 0 0 0 -11.715188853162545 -134.09961506399486 0 -134.09961506399486 -108.9957021058799 0 0 0 0 114.70443377183983 -11.727163682788159 0 -11.727163682788159 84.194120829299209 0 0 0 0 306.71557283118455 29.486182654211007 0 29.486182654211007 -82.635627665507855 0 0 0 0 186.72599112331955 -81.280661353996493 0 -81.280661353996493 -35.86444130284508 0 0 0 0 223.87998681897443 6.2396687217465114 0 6.2396687217465114 -0.35772857807751279 0 0 0 0 274.22833446036384 -50.556796858310918 0 -50.556796858310918 61.662959498255077 0 0 0 0 330.07252396443801 194.82946625753357 0 194.82946625753357 218.89091506497425 0 0 0 0 462.0289627597931 144.90085134766048 0 144.90085134766048 182.60559858693523 0 0 0 0 149.45963572632536 45.082744185799129 0 45.082744185799129 67.689551088915323 0 0 0 0 465.84995799835451 270.12564483989991 0 270.12564483989991 83.776483364934393 0 0 0 0 332.01098566195287 384.78088063822725 0 384.78088063822725 1.2695416422516246 0 0 0 0 480.40038146381994 523.60469501056832 0 523.60469501056832 454.89038827850618 0 0 0 0 782.30984442867521 442.69278077919307 0 442.69278077919307 354.37424053553696 0 0 0 0 848.54016912680527 889.31715265234743 0 889.31715265234743 627.76636609099478 0 0 0 0 200.23417001690541 260.59449121108992 0 260.59449121108992 317.35478708659866 0 0 0 0 446.26848055356095 637.61717458190378 0 637.61717458190378 242.81142177818037 0 0 0 0 631.07169864929165 421.02652690362174 0 421.02652690362174 395.93484724050359 0 0 0 0 1129.8519442805336 763.10625612108743 0 763.10625612108743 319.36396565724317 0 0 0 0 804.58119410794461 584.06706496322568 0 584.06706496322568 306.16100536741965 0 0 0 0 592.93970075608559 567.98975559925907 0 567.98975559925907 285.52558046388003 0 0 0 0 633.72166741033288 882.55429862237543 0 882.55429862237543 714.46493921018737 0 0 0 0 -5.7678958202925799 10.064094721203375 0 10.064094721203375 -8.3477152382013244 0 0 0 0 -116.67994252290373 391.72509157243258 0 391.72509157243258 629.41006596183797 0 0 0 0 -3.202911108205484 4.8626348922052358 0 4.8626348922052358 -3.03015890225889 0 0 0 0 -376.54781240636657 908.52680716358918 0 908.52680716358918 564.20630310682577 0 0 0 0 -352.56113796541467 630.31792891664372 0 630.31792891664372 178.4356017453174 0 0 0 0 -280.34677494487551 975.16140330401504 0 975.16140330401504 90.089966092192299 0 0 0 0 -197.27832019340349 758.71276839800112 0 758.71276839800112 275.80626825257059 0 0 0 0 -350.66858314229466 428.30447271428784 0 428.30447271428784 489.9397567878068 0 0 0 0 -399.54034791762388 544.94996497678403 0 544.94996497678403 229.67032089809072 0 0 0 0 -37.605142713910027 405.02978150415765 0 405.02978150415765 544.05377921738364 0 0 0 0 -60.117516428646923 507.14872928152545 0 507.14872928152545 188.27929448290524 0 0 0 0 -533.30043375679816 413.65523610105083 0 413.65523610105083 339.98299663530997 0 0 0 0 -303.72402587983379 587.0125029937135 0 587.0125029937135 236.21946329544153 0 0 0 0 -576.10540009883698 500.40232895429472 0 500.40232895429472 171.71053419324744 0 0 0 0 -725.27210605684377 495.89336884385739 0 495.89336884385739 192.68170937521427 0 0 0 0 -664.38750820813584 431.20611916570306 0 431.20611916570306 58.461145696874155 0 0 0 0 -744.61300300717994 513.2103633592269 0 513.2103633592269 190.20997187064859 0 0 0 0 -719.84889370344172 461.2813495383798 0 461.2813495383798 311.77900854365771 0 0 0 0 -711.03547407271253 439.72878523101645 0 439.72878523101645 307.14471476120525 0 0 0 0 -589.94241011422127 404.33923819752818 0 404.33923819752818 191.02915254268373 0 0 0 0 -375.84666036893395 680.41910263792579 0 680.41910263792579 82.969625844085385 0 0 0 0 -594.52789675926033 429.93207306091244 0 429.93207306091244 -193.83104524319515 0 0 0 0 -656.8843093234791 447.63026265297049 0 447.63026265297049 -27.576103935118226 0 0 0 0 -648.83166111656465 1129.449997299962 0 1129.449997299962 -294.3817484260544 0 0 0 0 -939.92399039455631 661.67184317251122 0 661.67184317251122 -23.175621465972654 0 0 0 0 3.678451564684508 8.7424717600018624 0 8.7424717600018624 9.3189444391097354 0 0 0 0 -520.65122529071959 467.13865094963421 0 467.13865094963421 -494.8102988647006 0 0 0 0 -0.97460109219537117 604.0028154451129 0 604.0028154451129 -760.24451685281019 0 0 0 0 -723.65284711830463 376.34506556848737 0 376.34506556848737 1173.4595760070188 0 0 0 0 2.3647623954035737 4.3213224154339827 0 4.3213224154339827 3.615052362968342 0 0 0 0 -720.30179837342439 323.71502410404992 0 323.71502410404992 280.99318655584102 0 0 0 0 -720.81944183692758 621.27675313641635 0 621.27675313641635 568.34197624810622 0 0 0 0 -348.44311156345066 835.03948391445738 0 835.03948391445738 0.45355831136566849 0 0 0 0 -0.63543474845910508 1090.6032834970686 0 1090.6032834970686 313.70087436542599 0 0 0 0 -343.90541661069437 693.68205669247618 0 693.68205669247618 -140.72876295366405 0 0 0 0 -62.198106829877361 49.432605719978255 0 49.432605719978255 -40.691400870674443 0 0 0 0 -16.05346885335166 49.654700916178626 0 49.654700916178626 -41.969152851606395 0 0 0 0 16.831735308245698 -27.546640240424267 0 -27.546640240424267 20.471767369508598 0 0 0 0 -4.2156381970489747 47.273174030256314 0 47.273174030256314 10.148178288585768 0 0 0 0 -484.87541708433173 500.56426384738421 0 500.56426384738421 -162.29953547699915 0 0 0 0 21.738827715169464 17.768624327236466 0 17.768624327236466 -25.800680529225247 0 0 0 0 -489.6072113365708 443.92801958961206 0 443.92801958961206 -191.03161957697739 0 0 0 0 9.4489164417238669 9.9472777463205233 0 9.9472777463205233 10.763391315000892 0 0 0 0 -0.042772755659825634 33.301041850780166 0 33.301041850780166 -36.560345378891725 0 0 0 0 -19.801312144343683 14.160094197410217 0 14.160094197410217 -8.024422050701105 0 0 0 0 -34.40950647360296 47.82779721319821 0 47.82779721319821 -29.411046696353878 0 0 0 0 3.6771692799305953 3.9135158031617863 0 3.9135158031617863 -1.5195918997039612 0 0 0 0 0.70475064531120779 -0.76849260687195908 0 -0.76849260687195908 0.85965690930814631 0 0 0 0 -0.067045651070657186 12.171088485973087 0 12.171088485973087 15.587873945958563 0 0 0 0 -269.23424985707607 -207.23721513634246 0 -207.23721513634246 913.96338188797745 0 0 0 0 1.7871783993125945 4.0544796527678102 0 4.0544796527678102 6.3813612395689319 0 0 0 0 -804.69597790017724 535.52627019860483 0 535.52627019860483 1576.0852161101193 0 0 0 0 0.054878268702595066 989.1776368800829 0 989.1776368800829 28.553648695760785 0 0 0 0 -797.23451919810941 570.75954567642395 0 570.75954567642395 739.49607452589771 0 0 0 0 -819.97220367746195 166.30163925567467 0 166.30163925567467 25.489335479585861 0 0 0 0 -397.19428706311737 148.80765772881568 0 148.80765772881568 -59.406640034480915 0 0 0 0 -746.72925313553424 334.23785977210719 0 334.23785977210719 852.56345923474692 0 0 0 0 -770.40870652570811 462.17896716105633 0 462.17896716105633 261.04436269832149 0 0 0 0 -605.17911748656479 811.2093786424266 0 811.2093786424266 971.35567748205358 0 0 0 0 -848.6022354422139 309.2833541406477 0 309.2833541406477 922.16177857942603 0 0 0 0 1.6939977259409602 4.7079767515959361 0 4.7079767515959361 4.9625398148592126 0 0 0 0 -345.71921397274855 1059.3769328788258 0 1059.3769328788258 -443.89862628238916 0 0 0 0 -351.39978370747122 925.16760166332824 0 925.16760166332824 229.3749660451067 0 0 0 0 -155.67615504629066 432.23064687062924 0 432.23064687062924 84.987664877364296 0 0 0 0 -375.71780441152077 418.36902899503184 0 418.36902899503184 576.89428443000907 0 0 0 0 -568.25495938478707 523.32594507036902 0 523.32594507036902 64.874416583566926 0 0 0 0 -303.16676747677411 302.85221460866342 0 302.85221460866342 -203.10749102452974 0 0 0 0 -676.93341553490609 533.01322593134319 0 533.01322593134319 276.00719191884218 0 0 0 0 -377.13286614364188 587.32060022040787 0 587.32060022040787 -711.6491230071224 0 0 0 0 -542.47024931812484 719.51020674563006 0 719.51020674563006 -152.3763633410199 0 0 0 0 -478.39321374200517 467.7279097504761 0 467.7279097504761 -244.84593008780575 0 0 0 0 -413.88285341087612 652.85320120189135 0 652.85320120189135 -719.47925277912509 0 0 0 0 17.033358647167915 73.379032788490804 0 73.379032788490804 -8.67811872749553 0 0 0 0 -1022.4351133439777 650.89247239730685 0 650.89247239730685 -304.12806700170859 0 0 0 0 16.628290991764374 18.879002162050043 0 18.879002162050043 12.066620626792549 0 0 0 0 -229.64349634613609 835.62738648921732 0 835.62738648921732 -1486.1187870185531 0 0 0 0 0.75459590658626752 7.4274665469547898 0 7.4274665469547898 1.3008887348477245 0 0 0 0 -433.81738738257263 771.09759835376099 0 771.09759835376099 -1124.921873931291 0 0 0 0 -1502.898627121438 909.81540750871136 0 909.81540750871136 -667.10925934546322 0 0 0 0 -454.86495436451514 666.35589095574323 0 666.35589095574323 -340.2462375707064 0 0 0 0 -534.70583870187693 476.18939062423487 0 476.18939062423487 -227.33242610851084 0 0 0 0 -218.38609628811537 322.25648271488717 0 322.25648271488717 -497.78771126175161 0 0 0 0 -669.49822794357897 219.93829236049442 0 219.93829236049442 -663.3257530057781 0 0 0 0 -140.64567344890384 504.51573690993064 0 504.51573690993064 -76.589431165893984 0 0 0 0 172.61293071749969 594.41665938794904 0 594.41665938794904 -372.39081073091074 0 0 0 0 -120.37686847320583 481.42134154441283 0 481.42134154441283 -271.92236276834956 0 0 0 0 129.96908614940185 661.74763876045017 0 661.74763876045017 60.083332433892792 0 0 0 0 426.63093736386509 507.06099237985381 0 507.06099237985381 -138.49470340729204 0 0 0 0 22.074840429966571 608.51550721894864 0 608.51550721894864 56.975683210826901 0 0 0 0 -133.08386760174471 321.27111610030806 0 321.27111610030806 -112.94174662115302 0 0 0 0 -308.94516497442601 353.54327199882255 0 353.54327199882255 140.52876744442983 0 0 0 0 -307.1233396624375 449.30913175725436 0 449.30913175725436 116.79747147735725 0 0 0 0 -205.6723264931934 533.49512482106547 0 533.49512482106547 -63.98412623648619 0 0 0 0 -247.85112120024132 1026.5083827587041 0 1026.5083827587041 -171.46843327624447 0 0 0 0 -209.56062482089328 511.17835991407401 0 511.17835991407401 37.202221622364959 0 0 0 0 263.06972103342559 944.82150332594529 0 944.82150332594529 -184.01284060537 0 0 0 0 946.94443276989477 528.91259551558278 0 528.91259551558278 -299.1168033394697 0 0 0 0 900.16090757162965 680.43690390886422 0 680.43690390886422 -34.381810833823693 0 0 0 0 888.59787673514074 636.08723847890906 0 636.08723847890906 -181.23716820995651 0 0 0 0 455.80813273086096 799.99096506000387 0 799.99096506000387 -10.472847107139387 0 0 0 0 953.99286948129884 668.82983746271202 0 668.82983746271202 -45.196424874724471 0 0 0 0 471.31775472572917 815.55078691474046 0 815.55078691474046 320.00785479881597 0 0 0 0 889.69156577484682 846.22381534559827 0 846.22381534559827 248.09473073505251 0 0 0 0 623.01502290022472 1081.3009915155194 0 1081.3009915155194 453.40991140357801 0 0 0 0 694.13908994911253 909.92893970023988 0 909.92893970023988 819.89573420695342 0 0 0 0 939.55631036138948 715.37685073942203 0 715.37685073942203 521.19434165289931 0 0 0 0 -19.450349099527699 35.392783151997605 0 35.392783151997605 -48.646211340135089 0 0 0 0 1327.3410882879507 1224.5452451784254 0 1224.5452451784254 746.62765251186647 0 0 0 0 512.00665137704345 844.05981139451433 0 844.05981139451433 113.03675965997172 0 0 0 0 436.08939014706993 40.507495186914639 0 40.507495186914639 -1138.2463141903563 0 0 0 0 187.8553789880898 -174.70819136060209 0 -174.70819136060209 -149.80737535017397 0 0 0 0 115.82808629270585 1384.3193057647777 0 1384.3193057647777 829.68748473630785 0 0 0 0 156.77192136805388 1042.3011255767728 0 1042.3011255767728 1099.2258812273885 0 0 0 0 -7.2923358717501969 13.680725543565416 0 13.680725543565416 -19.561868320696181 0 0 0 0 500.30004281863512 694.93308674127752 0 694.93308674127752 972.13560877246437 0 0 0 0 308.90459688422925 1024.7064245882557 0 1024.7064245882557 660.04347281724858 0 0 0 0 121.01859546305059 1038.547090310276 0 1038.547090310276 701.89125612554926 0 0 0 0 74.054242898855591 1159.2477097255933 0 1159.2477097255933 704.03351308292531 0 0 0 0 217.84477239112493 1219.2098869687834 0 1219.2098869687834 467.74862783293588 0 0 0 0 303.31466470488886 1056.4353849268584 0 1056.4353849268584 459.67120797390567 0 0 0 0 220.69013799066306 1215.5076557980483 0 1215.5076557980483 184.98232828768414 0 0 0 0 125.94869135802242 905.18664077379128 0 905.18664077379128 475.87766769740756 0 0 0 0 473.77902847085352 995.14419809998026 0 995.14419809998026 478.23661184919274 0 0 0 0 -39.018566914215626 986.39464362420858 0 986.39464362420858 436.90367473557353 0 0 0 0 443.11910633671505 774.95885293521951 0 774.95885293521951 426.65436321513607 0 0 0 0 541.97482398043212 696.51148112884448 0 696.51148112884448 -110.46896401240701 0 0 0 0 89.455924805792165 954.01590489994487 0 954.01590489994487 350.20121702078904 0 0 0 0 -532.15028040895413 1065.300046691862 0 1065.300046691862 -148.45428252522652 0 0 0 0 76.802130871720919 704.27965947760572 0 704.27965947760572 61.319392050305396 0 0 0 0 79.583317927237658 224.64875444223981 0 224.64875444223981 462.26378238938742 0 0 0 0 -4.8592215444845124 0.86122099318055945 0 0.86122099318055945 1.5687555205199182 0 0 0 0 -527.52832838099494 1027.6904145320682 0 1027.6904145320682 -668.42787987422707 0 0 0 0 -8.4305424870206735 21.496599846964941 0 21.496599846964941 15.218682491811329 0 0 0 0 -64.018155627782107 22.760384974552835 0 22.760384974552835 41.571064819831008 0 0 0 0 5.6637979497900233 28.61105852734363 0 28.61105852734363 -17.233266156703621 0 0 0 0 -45.722306967272743 62.664379747278645 0 62.664379747278645 45.142758700771083 0 0 0 0 142.85058117777953 429.9375435077045 0 429.9375435077045 232.75151742856997 0 0 0 0 484.30289248847862 703.95694487741628 0 703.95694487741628 406.36058378344478 0 0 0 0 1240.6025841218434 642.11213523187291 0 642.11213523187291 317.72395411612024 0 0 0 0 879.88905818069907 691.96223905221245 0 691.96223905221245 292.70317665838741 0 0 0 0 -9.8700483838568829 20.496708359021028 0 20.496708359021028 7.6222044433846232 0 0 0 0 -212.4284690202112 84.084029779945354 0 84.084029779945354 -1.5990162044572571 0 0 0 0 -62.049609652145591 166.74970707276702 0 166.74970707276702 -54.323328542583226 0 0 0 0 -519.35458849289353 280.89356464253376 0 280.89356464253376 -78.257909067887454 0 0 0 0 -6.5615415243829744 17.247858012867255 0 17.247858012867255 0.68923694531311441 0 0 0 0 0.083899502817851704 126.99100807914735 0 126.99100807914735 -53.849817585110941 0 0 0 0 -47.737743253703229 126.0440939715877 0 126.0440939715877 -50.205540097421363 0 0 0 0 -57.721516535690171 120.84867867787398 0 120.84867867787398 7.3076887800762051 0 0 0 0 -12.217422724948847 59.079407610438011 0 59.079407610438011 -0.52021351396456339 0 0 0 0 1.7272371825006871 1.8499940459022639 0 1.8499940459022639 -1.0804903839244027 0 0 0 0 119.91035568196094 -15.441803151995373 0 -15.441803151995373 -16.002072327501082 0 0 0 0 -93.29428388002998 93.641592144244896 0 93.641592144244896 0.042950361252223956 0 0 0 0 122.00991381786298 49.522509659275784 0 49.522509659275784 -12.965840276191557 0 0 0 0 51.947291220109037 98.684299296749487 0 98.684299296749487 31.106852713452099 0 0 0 0 -0.091295746883145443 89.879425026166572 0 89.879425026166572 -34.65616174115894 0 0 0 0 -6.1254898825573036 88.356337597948368 0 88.356337597948368 49.1411069941405 0 0 0 0 22.57721964926867 51.184165229715965 0 51.184165229715965 32.457912950739377 0 0 0 0 37.282711123625631 68.437219388462381 0 68.437219388462381 25.424090073132902 0 0 0 0 -515.30863821169623 254.02775963873501 0 254.02775963873501 -2.9819138007223955 0 0 0 0 -11.855938283682917 50.857747713737808 0 50.857747713737808 -0.42890270758289262 0 0 0 0 -261.15180744834652 263.46516029019404 0 263.46516029019404 -181.69294662883749 0 0 0 0 -7.9931379587617073 40.444552014286117 0 40.444552014286117 10.700514269794644 0 0 0 0 -580.83011311168957 297.82322670771373 0 297.82322670771373 73.861282963418489 0 0 0 0 1.0392277435039716 12.705151839283658 0 12.705151839283658 4.1134250009006763 0 0 0 0 -329.46172221627785 321.75422058906861 0 321.75422058906861 5.9080467929925362 0 0 0 0 -480.47583055662835 387.65460836781222 0 387.65460836781222 72.333709223257756 0 0 0 0 -258.12135707261768 197.4061457817661 0 197.4061457817661 229.58781843068937 0 0 0 0 157.93352341475111 197.17835462744915 0 197.17835462744915 115.09528964752462 0 0 0 0 12.591148646097281 70.580100103557015 0 70.580100103557015 95.904277668778377 0 0 0 0 3.9030906650150428 66.132205352515484 0 66.132205352515484 140.93741021683945 0 0 0 0 -5.5554205725493375 50.824534458422022 0 50.824534458422022 131.35129222683281 0 0 0 0 2.2614805430166598 63.706169102295689 0 63.706169102295689 172.07758734975505 0 0 0 0 -8.1044918017475851 27.359982015292616 0 27.359982015292616 111.54469543526135 0 0 0 0 -9.3224956643315409 12.448486387384703 0 12.448486387384703 20.203859079492489 0 0 0 0 17.931330073906793 48.762360111031057 0 48.762360111031057 -43.663058198133513 0 0 0 0 0.11898210889921756 28.553954788637384 0 28.553954788637384 -17.039319355928455 0 0 0 0 -19.787658095672668 27.654802546248902 0 27.654802546248902 57.042446456366633 0 0 0 0 2.3435359525916901 22.957143441389661 0 22.957143441389661 -9.2298681316768239 0 0 0 0 20.933865408024388 50.66094168537397 0 50.66094168537397 39.575881271923947 0 0 0 0 2.0061228687336552 115.93787791647355 0 115.93787791647355 104.79264160421735 0 0 0 0 52.444549198975437 67.171493590569298 0 67.171493590569298 -44.339566791590187 0 0 0 0 112.27085420560616 62.815623312342723 0 62.815623312342723 -54.668102164348966 0 0 0 0 -22.582627021736698 94.901509621180594 0 94.901509621180594 80.205114933271034 0 0 0 0 110.66588899224371 81.827336745717503 0 81.827336745717503 53.722728897308116 0 0 0 0 -30.985917515208712 14.854967254377698 0 14.854967254377698 14.657330568545149 0 0 0 0 136.60305413670721 128.89483791664748 0 128.89483791664748 55.103632730544632 0 0 0 0 -5.1472989976742198 10.811389581802956 0 10.811389581802956 9.2521334448534702 0 0 0 0 -5.3555542524778268 10.72608922022728 0 10.72608922022728 32.981611005276505 0 0 0 0 -48.101344370545121 37.993859634116234 0 37.993859634116234 38.861803997351672 0 0 0 0 -13.377302903834334 28.011288753077061 0 28.011288753077061 9.3761071484782477 0 0 0 0 1.0453243422460048 5.5851945657916424 0 5.5851945657916424 0.43737608777802528 0 0 0 0 58.509010772919282 7.9049344827071764 0 7.9049344827071764 -32.175934535804117 0 0 0 0 91.371305962486076 139.65172482937669 0 139.65172482937669 132.95264925074957 0 0 0 0 -50.843894283449117 -32.330852300886818 0 -32.330852300886818 14.282838162747794 0 0 0 0 -17.462164491604199 41.857864310755758 0 41.857864310755758 9.1251473043397482 0 0 0 0 -2.4998365529241227 -0.78171847927792726 0 -0.78171847927792726 10.142293133780541 0 0 0 0 449.74940368207172 167.66276172679045 0 167.66276172679045 -38.692027023527771 0 0 0 0 1.0237869877347023 9.1008105924623237 0 9.1008105924623237 11.041996964124536 0 0 0 0 133.9506691474453 106.72381891042278 0 106.72381891042278 73.711399873507617 0 0 0 0 12.451706856358214 72.107119835407502 0 72.107119835407502 58.208866930082877 0 0 0 0 -52.509936506219674 141.24330325374467 0 141.24330325374467 84.600775663850072 0 0 0 0 105.14171733055264 157.90682625587488 0 157.90682625587488 37.512838529102737 0 0 0 0 -39.680779505142709 97.413288984393148 0 97.413288984393148 67.356972424691776 0 0 0 0 -84.892343837978842 33.202081323102902 0 33.202081323102902 32.933971439895686 0 0 0 0 -14.469219398161577 23.051831705528585 0 23.051831705528585 12.335759688581923 0 0 0 0 -81.609331139290589 48.565733015213482 0 48.565733015213482 20.745780896822907 0 0 0 0 -94.382471376475223 -4.8429496616595316 0 -4.8429496616595316 -7.4279904837167123 0 0 0 0 -94.272060354764108 34.681035830621113 0 34.681035830621113 45.948189415892557 0 0 0 0 -79.373764581294381 18.123665777296992 0 18.123665777296992 -18.2444931562477 0 0 0 0 -32.716269544226705 26.36085822709687 0 26.36085822709687 12.424324858935989 0 0 0 0 -74.591672511716752 34.450322402440179 0 34.450322402440179 42.156649734650273 0 0 0 0 -7.1500347005930962 79.37273143533821 0 79.37273143533821 46.75439165150874 0 0 0 0 -59.964179789516493 20.443452915406851 0 20.443452915406851 37.627669146164408 0 0 0 0 -25.418071808177046 88.167281204370738 0 88.167281204370738 66.066112519110902 0 0 0 0 -4.5135576802660253 38.5681261340454 0 38.5681261340454 28.066347644559485 0 0 0 0 -32.78577872610731 39.041940583112591 0 39.041940583112591 11.41446238102435 0 0 0 0 2.671077987206445 49.102225272743908 0 49.102225272743908 -0.64673567064164672 0 0 0 0 -6.9103456107259262 26.774531616640161 0 26.774531616640161 14.62632883643164 0 0 0 0 72.004367788435957 -134.61262608747523 0 -134.61262608747523 -13.907878777481528 0 0 0 0 -3.468239992917006 36.025499632429273 0 36.025499632429273 19.989471512541058 0 0 0 0 -12.968506930178933 16.626002770112322 0 16.626002770112322 -3.6352960106892311 0 0 0 0 82.629624203400454 120.21088915656946 0 120.21088915656946 -33.640323913139582 0 0 0 0 675.8714691491914 494.45628125218354 0 494.45628125218354 416.30600814274658 0 0 0 0 10.351516227895843 4.7349633234819208 0 4.7349633234819208 2.3463014581128405 0 0 0 0 49.206907248400967 35.60362968348204 0 35.60362968348204 54.981417622526351 0 0 0 0 618.62730655596533 674.14349930492335 0 674.14349930492335 601.80654530012907 0 0 0 0 881.95397344905359 629.20331691909632 0 629.20331691909632 395.25252655724398 0 0 0 0 777.22952550441551 933.90071095888015 0 933.90071095888015 883.88683519455844 0 0 0 0 1.5208019066586758 0.077408608318108918 0 0.077408608318108918 0.96967102865606591 0 0 0 0 648.31314795792787 548.36109076435241 0 548.36109076435241 434.31974920259381 0 0 0 0 628.26414314929571 585.9967756369897 0 585.9967756369897 576.32390062342347 0 0 0 0 648.07229194900719 499.68666917574228 0 499.68666917574228 306.29945773177133 0 0 0 0 729.44242561642022 577.20763738843561 0 577.20763738843561 364.88432549840581 0 0 0 0 628.98780697722214 702.42592938834491 0 702.42592938834491 238.03603167206893 0 0 0 0 732.73429033177672 708.00829346870523 0 708.00829346870523 229.36429656165274 0 0 0 0 782.5663820646987 779.81325771154525 0 779.81325771154525 58.232252903213521 0 0 0 0 610.63872864996665 859.35011113532528 0 859.35011113532528 42.734643233441602 0 0 0 0 406.49810074891138 695.18397428368189 0 695.18397428368189 554.63982116634361 0 0 0 0 -5.9338421325261947 11.465760492817742 0 11.465760492817742 -13.839154510393083 0 0 0 0 -29.156404435701006 25.249826106243134 0 25.249826106243134 -2.7206648305460703 0 0 0 0 367.43338788427354 248.29483106868247 0 248.29483106868247 -52.859183814285643 0 0 0 0 434.83082925113558 720.50476974560388 0 720.50476974560388 353.06913183835059 0 0 0 0 985.22008709895454 475.02721683945583 0 475.02721683945583 0.1554206558248552 0 0 0 0 962.96969157515559 635.1680943565043 0 635.1680943565043 -105.54553037443929 0 0 0 0 969.48892913832969 604.10868296395165 0 604.10868296395165 42.225754599083302 0 0 0 0 852.10289132753678 553.22082782291545 0 553.22082782291545 138.80490948118666 0 0 0 0 741.51570609528972 624.20282652271112 0 624.20282652271112 125.44531723327964 0 0 0 0 900.52682306885981 691.86455635680977 0 691.86455635680977 -43.418357185808418 0 0 0 0 885.51038794833585 673.71202878873373 0 673.71202878873373 132.1774878510862 0 0 0 0 994.48009971611464 649.0683426185069 0 649.0683426185069 -65.609327504627799 0 0 0 0 836.62881626094895 828.19454961584597 0 828.19454961584597 156.48750171272331 0 0 0 0 1025.2384011203903 752.8963954286337 0 752.8963954286337 -13.873981705554797 0 0 0 0 1169.9458778427361 968.41986573657505 0 968.41986573657505 186.97936294340479 0 0 0 0 -26.605277777565675 47.890320395774708 0 47.890320395774708 -71.706906266335835 0 0 0 0 914.62820740868847 860.21991067702834 0 860.21991067702834 141.32942193435883 0 0 0 0 -24.336730420239917 50.905459055197255 0 50.905459055197255 -68.21331871473771 0 0 0 0 625.87780971548636 830.64384382578555 0 830.64384382578555 -224.6115916433705 0 0 0 0 -166.59753372157866 419.5870804210881 0 419.5870804210881 -3.7000366570555343 0 0 0 0 -164.81046681931548 418.96691211825805 0 418.96691211825805 -72.627840531182301 0 0 0 0 717.62994549093128 678.98334679894469 0 678.98334679894469 10.11693913460681 0 0 0 0 716.7029964675603 706.48972590818266 0 706.48972590818266 102.29501442552919 0 0 0 0 -68.210239300460671 307.714029789704 0 307.714029789704 -15.46505098681871 0 0 0 0 -181.11524081225798 415.45842778985934 0 415.45842778985934 1.4288326985970343 0 0 0 0 -329.09687960339943 320.02761320039735 0 320.02761320039735 1.9582083350705943 0 0 0 0 -279.91925121640088 367.6350522927446 0 367.6350522927446 -221.135079469419 0 0 0 0 -105.31826389836351 219.04482969007859 0 219.04482969007859 -117.34109898879979 0 0 0 0 -242.25007012507194 263.49781660346525 0 263.49781660346525 66.735700853811068 0 0 0 0 159.78989357572573 596.85126974700461 0 596.85126974700461 208.91419492822297 0 0 0 0 -124.995596937355 281.2668598689844 0 281.2668598689844 370.71366223065888 0 0 0 0 -12.132442317189998 22.758989638758067 0 22.758989638758067 121.75710810806322 0 0 0 0 -92.423282566509442 146.71556139919903 0 146.71556139919903 -56.847731425568782 0 0 0 0 -138.4632202921639 6.2801852980028343 0 6.2801852980028343 -216.12505032764057 0 0 0 0 -193.82342936501482 131.77350140523572 0 131.77350140523572 -295.48370758747478 0 0 0 0 -190.09415281083784 163.54653099559891 0 163.54653099559891 -42.132946559637276 0 0 0 0 1303.9827453484104 1165.2857880728889 0 1165.2857880728889 545.39683862524362 0 0 0 0 1009.2870976002596 679.07205762773719 0 679.07205762773719 379.15101105927261 0 0 0 0 154.83153687486629 71.224503750719578 0 71.224503750719578 -95.983358345176384 0 0 0 0 -26.156756094369825 45.816122883540103 0 45.816122883540103 -63.811726470914046 0 0 0 0 240.04900085254485 641.36753582523443 0 641.36753582523443 501.08358993594356 0 0 0 0 -44.448730230622459 -3.8334499284746926 0 -3.8334499284746926 -20.222839321585525 0 0 0 0 611.78639843591372 467.64918853310519 0 467.64918853310519 -693.89860343290093 0 0 0 0 -633.27691756137119 -327.94851914334595 0 -327.94851914334595 -408.15741691628136 0 0 0 0 -504.24396689901005 535.22369467952467 0 535.22369467952467 -614.88265377188873 0 0 0 0 174.78808028344065 361.59132727554606 0 361.59132727554606 -1923.1004836167294 0 0 0 0 260.30143082668656 -90.348014363676612 0 -90.348014363676612 -624.23791287339191 0 0 0 0 -115.28623455276829 50.646576326836112 0 50.646576326836112 -274.21806677056338 0 0 0 0 -82.618500895929174 -79.204797379916727 0 -79.204797379916727 -519.99444848207895 0 0 0 0 -85.05319088818942 142.63956886868618 0 142.63956886868618 -63.425648085598368 0 0 0 0 -186.21368325833464 -60.658130298929791 0 -60.658130298929791 -192.13075243441654 0 0 0 0 284.75967030379979 -186.54069204838379 0 -186.54069204838379 -1876.402880434257 0 0 0 0 257.32712274624737 206.22453461286403 0 206.22453461286403 -643.12975691522297 0 0 0 0 166.90311428907444 202.47482454031433 0 202.47482454031433 -549.32989099447332 0 0 0 0 132.50271224441531 241.7554964021142 0 241.7554964021142 -593.98877611656098 0 0 0 0 105.5513896175944 453.34425874462943 0 453.34425874462943 -265.18833095899754 0 0 0 0 -84.709557309535739 320.65652972328826 0 320.65652972328826 -329.67758305016105 0 0 0 0 -215.48356641677674 407.7684854056979 0 407.7684854056979 -118.37518448952653 0 0 0 0 -254.29832926730887 354.52330051899025 0 354.52330051899025 -138.80737174339265 0 0 0 0 -207.77631359935913 224.87422678425355 0 224.87422678425355 -277.28617793992635 0 0 0 0 -258.89091538048524 270.02712490286058 0 270.02712490286058 -169.11593389279187 0 0 0 0 -223.06870197218086 210.77079213145043 0 210.77079213145043 -288.18138301729414 0 0 0 0 -97.520445358119105 122.46172175922811 0 122.46172175922811 -277.75318290994255 0 0 0 0 -295.03470425338128 285.25033126376127 0 285.25033126376127 -311.7081966811329 0 0 0 0 -338.66188389052695 135.87240113121516 0 135.87240113121516 -237.95488590811146 0 0 0 0 -641.3173634239356 273.06179891313877 0 273.06179891313877 -277.29474910282352 0 0 0 0 -4.7902644105900833 -0.36962946035678357 0 -0.36962946035678357 -0.098161647846804811 0 0 0 0 -306.42360025065136 0.86441247241327801 0 0.86441247241327801 261.34464869508702 0 0 0 0 -216.67354758363945 498.16895988530496 0 498.16895988530496 -662.76627564558112 0 0 0 0 -17.475686483972822 -17.55174456448367 0 -17.55174456448367 140.49006536466004 0 0 0 0 -775.14729079710378 281.20326353060773 0 281.20326353060773 267.19377352002266 0 0 0 0 -385.62718680989929 667.0671046019479 0 667.0671046019479 -394.28164240921251 0 0 0 0 -381.17849141417537 450.80585676307419 0 450.80585676307419 82.300457841279695 0 0 0 0 -273.53983464447083 274.65326215818277 0 274.65326215818277 -150.60401310965244 0 0 0 0 -286.77430396564887 199.50528680998104 0 199.50528680998104 -569.58520761160253 0 0 0 0 33.608051490242872 70.242536488514531 0 70.242536488514531 7.0434164774607586 0 0 0 0 27.50433321325545 80.58418091508247 0 80.58418091508247 37.412230259844364 0 0 0 0 -11.610178170296962 9.1224735308322025 0 9.1224735308322025 16.982711822033913 0 0 0 0 9.6302239602446207 62.997318038597768 0 62.997318038597768 139.04515148733844 0 0 0 0 33.364120360318338 38.673827780296961 0 38.673827780296961 133.57285910821383 0 0 0 0 -323.02767083429353 208.63706122549956 0 208.63706122549956 -66.334646296486596 0 0 0 0 -91.687066164937278 309.38282870103694 0 309.38282870103694 -412.4105393861646 0 0 0 0 123.44349106108712 135.83435122515766 0 135.83435122515766 -279.15466082397779 0 0 0 0 101.762657186875 36.008411278637823 0 36.008411278637823 -104.54484781225983 0 0 0 0 4.7724214420780484 10.183236868595884 0 10.183236868595884 -1.3455738845832954 0 0 0 0 36.809784070836031 403.00851723343112 0 403.00851723343112 -247.37776524547189 0 0 0 0 -187.46170267385605 189.53074059036499 0 189.53074059036499 -109.2244681606735 0 0 0 0 -158.68835873843636 300.88235231600265 0 300.88235231600265 -409.32992960931915 0 0 0 0 -258.93722633546167 357.00686647219641 0 357.00686647219641 254.88144443696365 0 0 0 0 -277.26278428058868 280.04576805820125 0 280.04576805820125 77.893483139289856 0 0 0 0 42.086896314598562 219.96432445730989 0 219.96432445730989 207.05533285994534 0 0 0 0 -168.92995426793641 418.00081457412216 0 418.00081457412216 64.761681964546369 0 0 0 0 -35.676806688919896 375.71737553453841 0 375.71737553453841 243.54858926640236 0 0 0 0 -24.146720547927544 305.96769611940636 0 305.96769611940636 28.495633380884101 0 0 0 0 -19.673290785169229 284.05143612152187 0 284.05143612152187 115.82397854370276 0 0 0 0 -50.683207525289617 237.5159804900668 0 237.5159804900668 46.184280682333338 0 0 0 0 -38.645806445445487 214.02536820378691 0 214.02536820378691 20.28115307488406 0 0 0 0 25.430783195835829 260.5393401263309 0 260.5393401263309 22.059844762673492 0 0 0 0 15.77350504250353 217.19687385036013 0 217.19687385036013 -24.307167652581484 0 0 0 0 42.759620083263144 300.5424225591496 0 300.5424225591496 28.888441701191596 0 0 0 0 -59.072247417076142 98.876421344932623 0 98.876421344932623 22.00630360737523 0 0 0 0 -34.235766702993715 138.8629196150705 0 138.8629196150705 68.657882296310618 0 0 0 0 -118.22799473429404 198.505291944693 0 198.505291944693 47.678585731653584 0 0 0 0 -26.94441262455075 154.86477247473886 0 154.86477247473886 67.600483718020769 0 0 0 0 -51.846600177181244 210.27434285562595 0 210.27434285562595 37.0883656502956 0 0 0 0 -53.931616765039507 224.74131456531177 0 224.74131456531177 12.768858738643303 0 0 0 0 29.876844690632424 170.43302548548036 0 170.43302548548036 56.481616247056991 0 0 0 0 -2.1669335328551824 157.05715023915218 0 157.05715023915218 59.786620967517592 0 0 0 0 -2.2846163832364255 151.7485834294921 0 151.7485834294921 73.766996150929117 0 0 0 0 14.190053948506829 82.990852641088168 0 82.990852641088168 96.618932173660141 0 0 0 0 -23.281531101492874 109.96819566215891 0 109.96819566215891 107.8354642191407 0 0 0 0 48.527892968525521 75.937501955696916 0 75.937501955696916 97.472211156849397 0 0 0 0 23.196239142789636 69.069271610858323 0 69.069271610858323 138.24041384766315 0 0 0 0 71.269119311284157 93.295291567157619 0 93.295291567157619 113.5649192642386 0 0 0 0 60.800644598116378 52.945165370525274 0 52.945165370525274 123.66572497202651 0 0 0 0 39.451226574085013 95.232044271971972 0 95.232044271971972 90.318289291426481 0 0 0 0 26.369228775904048 86.919206142421899 0 86.919206142421899 115.74378953624182 0 0 0 0 48.166038398965611 88.145414316523784 0 88.145414316523784 111.24015854587924 0 0 0 0 45.680408366901247 119.45022893670739 0 119.45022893670739 62.773711539011856 0 0 0 0 32.730810555192875 111.83009697914895 0 111.83009697914895 184.94906693327721 0 0 0 0 57.022668102168666 70.094470581029313 0 70.094470581029313 5.1741859648119402 0 0 0 0 69.88617086416707 95.060159665466927 0 95.060159665466927 188.87366724453386 0 0 0 0 35.876800316458684 102.81288689007124 0 102.81288689007124 149.61230007499398 0 0 0 0 -6.2387654937142969 16.441087851515256 0 16.441087851515256 24.491484319600978 0 0 0 0 21.580441900332517 134.82216098055142 0 134.82216098055142 49.34487024338523 0 0 0 0 -8.0410197039382183 84.811222172898852 0 84.811222172898852 225.7103786924672 0 0 0 0 17.719549093852009 3.909111702100077 0 3.909111702100077 -19.638097486358475 0 0 0 0 60.962752251434722 75.645673552993685 0 75.645673552993685 -29.055757974344772 0 0 0 0 60.85816575717763 160.18173549191579 0 160.18173549191579 -32.467439669060695 0 0 0 0 46.409426148027705 134.69350226701408 0 134.69350226701408 27.374279069416843 0 0 0 0 67.541591140954552 139.36412447599878 0 139.36412447599878 25.802494219246 0 0 0 0 10.916448482967098 81.94792258310008 0 81.94792258310008 225.90541755604522 0 0 0 0 44.618754393515758 67.878782446163598 0 67.878782446163598 -8.0131338765479754 0 0 0 0 45.401075752735778 101.30900457538519 0 101.30900457538519 95.299339308146955 0 0 0 0 16.335463461160543 48.851535378236804 0 48.851535378236804 187.44348018011567 0 0 0 0 -17.116101754836563 86.222753703470516 0 86.222753703470516 150.11040175017115 0 0 0 0 44.656180344874883 82.262702809837265 0 82.262702809837265 148.52754343469132 0 0 0 0 12.230291336985829 61.695178757036047 0 61.695178757036047 86.95121284614288 0 0 0 0 6.7870464058505604 120.19827621264449 0 120.19827621264449 62.366108693044225 0 0 0 0 37.32451362334541 50.726970273542975 0 50.726970273542975 -38.675337143121396 0 0 0 0 34.011743501279852 100.71036187098252 0 100.71036187098252 -5.3169792993248848 0 0 0 0 -16.173816474838532 29.776003021697761 0 29.776003021697761 -35.599243202974321 0 0 0 0 -1.8848078491773173 14.5530318567981 0 14.5530318567981 -1.9574298606634528 0 0 0 0 -16.671255406836281 44.881482855386821 0 44.881482855386821 49.316426898547434 0 0 0 0 37.492526249528964 109.3717352612689 0 109.3717352612689 87.128728015512024 0 0 0 0 24.943656608076708 75.077635440722588 0 75.077635440722588 129.75359736798055 0 0 0 0 72.715609702318034 87.439103123779205 0 87.439103123779205 132.93890124790778 0 0 0 0 54.508640747626487 79.04864580317917 0 79.04864580317917 143.06216352981937 0 0 0 0 47.223545679788003 123.78817488151981 0 123.78817488151981 105.9266530689747 0 0 0 0 71.645496408440522 135.33946360538357 0 135.33946360538357 84.758821915023873 0 0 0 0 1.6598188427451532 134.1826075554709 0 134.1826075554709 110.77438561000235 0 0 0 0 -29.851799834868871 138.40502809211466 0 138.40502809211466 133.97842705411313 0 0 0 0 1.8650849689274764 75.268122957081232 0 75.268122957081232 145.52468691343529 0 0 0 0 23.864687366942235 133.6796795191367 0 133.6796795191367 104.98504974640309 0 0 0 0 17.198612121923361 110.46532698803276 0 110.46532698803276 78.424058082132433 0 0 0 0 25.948133659803716 98.330852798646447 0 98.330852798646447 87.926039844905972 0 0 0 0 16.036684075972516 83.970405860668734 0 83.970405860668734 46.304984983234135 0 0 0 0 -104.35641219358877 97.910695167665835 0 97.910695167665835 3.9255066673904366 0 0 0 0 -2.2720460755058696 44.579691671281338 0 44.579691671281338 -3.612396819525963 0 0 0 0 67.078218222271516 -58.371086589778997 0 -58.371086589778997 -37.020888076207484 0 0 0 0 72.867612672583164 -86.913473512651535 0 -86.913473512651535 -537.58810403475218 0 0 0 0 141.48692758859397 376.6472052377394 0 376.6472052377394 -1123.521632831742 0 0 0 0 94.14543623127247 283.00348632335954 0 283.00348632335954 -354.73463817409902 0 0 0 0 56.387010678561637 188.3959109138068 0 188.3959109138068 -420.65868677914477 0 0 0 0 25.354515005732537 35.25789263045408 0 35.25789263045408 -69.035118529323881 0 0 0 0 -149.5775812704087 296.20631617019171 0 296.20631617019171 -319.21641782244478 0 0 0 0 -175.80493072298123 91.801025792758082 0 91.801025792758082 16.910046242306635 0 0 0 0 -8.0165342743754024 43.879626130405072 0 43.879626130405072 -0.086415565417663487 0 0 0 0 -107.45160186356952 62.411111823932515 0 62.411111823932515 86.206558542759012 0 0 0 0 25.507293564558495 41.095414494891884 0 41.095414494891884 -29.350571644365118 0 0 0 0 -1270.0278636038311 352.01910245390718 0 352.01910245390718 -74.502530799228794 0 0 0 0 -678.47914224486522 906.87545561108527 0 906.87545561108527 -1193.4777152751594 0 0 0 0 -842.9331316338139 257.73294177721982 0 257.73294177721982 -1018.7538896706064 0 0 0 0 -1467.7105971783185 935.98713296758615 0 935.98713296758615 -973.43029739561098 0 0 0 0 -625.8486383012314 777.77061781630437 0 777.77061781630437 -945.28335293472264 0 0 0 0 -711.48891177436872 690.28339444998392 0 690.28339444998392 -586.734262956561 0 0 0 0 -342.70646994089111 333.14188553347594 0 333.14188553347594 -709.75449376502365 0 0 0 0 -562.16864958313818 268.35456793186859 0 268.35456793186859 -441.76859912799409 0 0 0 0 -593.78324045468389 470.1414505661528 0 470.1414505661528 -840.76429619365808 0 0 0 0 -367.80663904282846 331.41366789902895 0 331.41366789902895 -517.49560724901312 0 0 0 0 -719.80604485727963 123.56337653100127 0 123.56337653100127 -457.49481366341934 0 0 0 0 -575.97017835389852 514.8562532784581 0 514.8562532784581 -920.61456503738737 0 0 0 0 -857.53011528694333 486.66008568619509 0 486.66008568619509 -622.27860887321367 0 0 0 0 -352.30124729397721 771.77182837950022 0 771.77182837950022 -1316.6541046114544 0 0 0 0 -775.1611671359351 694.10746540839318 0 694.10746540839318 -905.90651172035723 0 0 0 0 -761.15638425257202 1237.2545556313271 0 1237.2545556313271 -1734.3582646752154 0 0 0 0 -6.5068362840315075 -1.8921366845003362 0 -1.8921366845003362 -0.95199734648750933 0 0 0 0 44.686331691402302 7.7743240775016602 0 7.7743240775016602 -133.73071112120306 0 0 0 0 5.4580729243381398 43.37480229621719 0 43.37480229621719 -1.1426521759646029 0 0 0 0 -29.046887793192582 68.17891460176179 0 68.17891460176179 161.70971893575722 0 0 0 0 -7.7090352724875686 -5.0828052286825134 0 -5.0828052286825134 -19.940211136427763 0 0 0 0 -393.06023586980155 751.445227851862 0 751.445227851862 -1315.1936482193582 0 0 0 0 -510.48262294298547 1049.0010096909973 0 1049.0010096909973 -2060.2806925668847 0 0 0 0 -5.7849239583924543 4.7575905799699925 0 4.7575905799699925 0.87293971157632644 0 0 0 0 1.3763551061062813 19.053516112740574 0 19.053516112740574 16.62442593737957 0 0 0 0 -11.403557536279322 -32.190923730282009 0 -32.190923730282009 415.81170681777621 0 0 0 0 -71.088271600980079 167.13505054364214 0 167.13505054364214 126.49232258696793 0 0 0 0 -92.332704809450661 112.27950615703776 0 112.27950615703776 280.44574628209557 0 0 0 0 -18.307247605392604 47.589638724167628 0 47.589638724167628 188.93746795078914 0 0 0 0 -5.633022621442251 161.2012596704235 0 161.2012596704235 86.02721996272885 0 0 0 0 -6.2400265841788496 152.30933420755355 0 152.30933420755355 94.656773176895513 0 0 0 0 -161.22131389336573 120.25743649300239 0 120.25743649300239 317.09411426436236 0 0 0 0 95.731712262106157 206.36590979040102 0 206.36590979040102 292.29049855885751 0 0 0 0 -116.50530200168214 281.62999544948434 0 281.62999544948434 51.615099468897824 0 0 0 0 231.11361811417737 93.121208305436085 0 93.121208305436085 234.8948499997141 0 0 0 0 199.37826159941687 281.08132818802005 0 281.08132818802005 352.76139958209387 0 0 0 0 -881.67551947154425 1015.7881563664323 0 1015.7881563664323 -946.04046859765731 0 0 0 0 -1136.1597486777755 1321.2160935679422 0 1321.2160935679422 -778.26918360226682 0 0 0 0 -841.72663885782276 906.20004932727807 0 906.20004932727807 -684.6217545356667 0 0 0 0 -2.2240006897923337 4.5282048710631102 0 4.5282048710631102 10.293991065824521 0 0 0 0 -645.13679639504335 -1033.4875943649622 0 -1033.4875943649622 1275.7356428987659 0 0 0 0 -1177.6951517577654 826.84724664670887 0 826.84724664670887 -78.818691213782586 0 0 0 0 -214.83846799031926 438.18784225098261 0 438.18784225098261 -78.814692185063905 0 0 0 0 -258.47612585787647 457.38040568920133 0 457.38040568920133 -80.335994433022279 0 0 0 0 -613.89205721808321 939.60920637387972 0 939.60920637387972 597.9240082704091 0 0 0 0 587.61160121795547 422.06411280415523 0 422.06411280415523 -83.90917231844287 0 0 0 0 -2.8988831655938476 3.2938731747077625 0 3.2938731747077625 -9.9978777571325139 0 0 0 0 -1469.7294091767053 163.52261131887644 0 163.52261131887644 347.8650504779016 0 0 0 0 -669.50908039146452 1.223613165651841 0 1.223613165651841 -48.990838181100116 0 0 0 0 383.24543289743815 316.75359421118901 0 316.75359421118901 -149.48383551705342 0 0 0 0 -2.4812424486842133 1.9186352781463896 0 1.9186352781463896 0.26501393552475516 0 0 0 0 -33.580942149979819 137.09531286659694 0 137.09531286659694 117.68035222057858 0 0 0 0 2.6382493387845898 149.71839061013702 0 149.71839061013702 -268.09788987180582 0 0 0 0 -88.823712380704819 99.757365481742454 0 99.757365481742454 291.0209247833991 0 0 0 0 201.30823123976711 82.875042500209133 0 82.875042500209133 -176.14059929319046 0 0 0 0 -114.81569314028457 384.26873657919714 0 384.26873657919714 37.872062167001786 0 0 0 0 364.40341253251972 86.379820928015761 0 86.379820928015761 111.13565728184039 0 0 0 0 34.446513417118695 125.15035506813729 0 125.15035506813729 197.84208255119302 0 0 0 0 43.039444714870115 138.75211190359005 0 138.75211190359005 11.868166821310297 0 0 0 0 -53.76973049571825 60.424542476030183 0 60.424542476030183 205.25110977331133 0 0 0 0 82.801425939658657 42.272617542140324 0 42.272617542140324 91.541152375179081 0 0 0 0 72.116121826897142 19.740063744875897 0 19.740063744875897 137.53289705582938 0 0 0 0 29.022146920426167 98.538132599207529 0 98.538132599207529 112.91581768291235 0 0 0 0 49.79838321458864 77.988389552015704 0 77.988389552015704 107.06952225363784 0 0 0 0 152.4077457519852 222.60156142009873 0 222.60156142009873 60.063539106155076 0 0 0 0 84.294667002131973 57.631261549648116 0 57.631261549648116 -11.168104665099236 0 0 0 0 10.481899304460967 266.35889241811674 0 266.35889241811674 51.984815840191914 0 0 0 0 -43.669269251258811 47.678307323161789 0 47.678307323161789 36.172680066258181 0 0 0 0 19.17147803212319 41.996065332487717 0 41.996065332487717 63.256065767049918 0 0 0 0 -7.7777521083704642 33.500067822940977 0 33.500067822940977 78.652632083616481 0 0 0 0 44.436336007185858 76.231568305413816 0 76.231568305413816 55.070538991529915 0 0 0 0 -67.687858338343176 -28.281605370711077 0 -28.281605370711077 17.774811131126626 0 0 0 0 35.024464809102938 45.093452471293858 0 45.093452471293858 96.689618714144672 0 0 0 0 124.51480952976999 27.032496659370736 0 27.032496659370736 82.218730680608132 0 0 0 0 41.393822279904271 62.519294542044008 0 62.519294542044008 128.51593339471856 0 0 0 0 48.17252734109934 83.195571442935034 0 83.195571442935034 107.27552861987215 0 0 0 0 45.760039843606137 86.669257274493816 0 86.669257274493816 51.606829596988973 0 0 0 0 -14.404630715071107 42.464790520787574 0 42.464790520787574 89.584004927286514 0 0 0 0 -0.40082519670236394 2.2427215561464422 0 2.2427215561464422 2.8083814031304541 0 0 0 0 -139.14465494116848 146.37591354031338 0 146.37591354031338 102.82021733588772 0 0 0 0 -195.19575376954162 20.884005444100694 0 20.884005444100694 17.526153369726671 0 0 0 0 -0.39241768572358282 20.043006794347434 0 20.043006794347434 -25.207080742699475 0 0 0 0 -28.547195474207911 163.1502745831549 0 163.1502745831549 153.14946252369555 0 0 0 0 -14.48373877820298 5.6625669858727452 0 5.6625669858727452 2.4961888028598764 0 0 0 0 2.8162028356091469 166.45022524252454 0 166.45022524252454 18.008538372257732 0 0 0 0 -0.53495897076790788 4.5356414108321417 0 4.5356414108321417 7.9701984736831335 0 0 0 0 41.160357171098212 186.67251563313573 0 186.67251563313573 56.870477846267022 0 0 0 0 -313.88687412512991 42.955187135130473 0 42.955187135130473 218.55643854854588 0 0 0 0 725.04612249249658 369.51632333651196 0 369.51632333651196 -219.1851109829895 0 0 0 0 -701.15929546704501 472.12054979796631 0 472.12054979796631 -223.49117260698995 0 0 0 0 -874.46035113295693 367.77338341511768 0 367.77338341511768 -39.766227267100476 0 0 0 0 -3.8476633020698721 5.1437949607117019 0 5.1437949607117019 -2.6523362518508549 0 0 0 0 -1961.0757795691406 -149.47282537043975 0 -149.47282537043975 -35.72952417242314 0 0 0 0 -794.79027926640629 244.82668805940284 0 244.82668805940284 -186.95358489879436 0 0 0 0 -1113.5361409306606 749.44936631747669 0 749.44936631747669 -415.11601874409826 0 0 0 0 -409.33940004256965 505.65518474547525 0 505.65518474547525 -399.27672582642845 0 0 0 0 -348.42274514951259 342.4970016183147 0 342.4970016183147 -165.8307656320394 0 0 0 0 -621.23128497943617 312.03088226404543 0 312.03088226404543 -379.40035554324947 0 0 0 0 -658.05541775378333 296.64665505271023 0 296.64665505271023 -81.414259816803678 0 0 0 0 -370.89678911361443 292.00090896852453 0 292.00090896852453 -141.84850546491634 0 0 0 0 -377.76448464121813 300.89477691522643 0 300.89477691522643 149.81939111760221 0 0 0 0 -22.373087855339691 259.92306225514585 0 259.92306225514585 -66.176216070249211 0 0 0 0 -616.31276075544156 428.10546281237293 0 428.10546281237293 -12.133812307452445 0 0 0 0 -641.94522143652648 421.68098516775717 0 421.68098516775717 -11.332358995894538 0 0 0 0 -697.23104673431953 430.99181301410317 0 430.99181301410317 45.227732181911506 0 0 0 0 -594.19960726922727 518.70487807885729 0 518.70487807885729 32.30598450993557 0 0 0 0 -498.44609240878526 620.53096306096268 0 620.53096306096268 7.005022938032198 0 0 0 0 -787.61926709996976 458.31880210210397 0 458.31880210210397 -56.575118686934729 0 0 0 0 -650.58644149458087 404.86677053213225 0 404.86677053213225 -40.186195141815915 0 0 0 0 -42.920611688583449 -10.922511310250002 0 -10.922511310250002 23.725007063123485 0 0 0 0 -28.923872924624447 86.021011803470174 0 86.021011803470174 72.83095500231866 0 0 0 0 8.7231433680208283 84.267934576242624 0 84.267934576242624 -0.44289923725591507 0 0 0 0 4.6208931059942646 16.465369790407149 0 16.465369790407149 34.551402435444373 0 0 0 0 60.942547133661719 12.009793669181818 0 12.009793669181818 -4.6194693924626336 0 0 0 0 120.68121047101113 10.805362318913922 0 10.805362318913922 -20.557698314394656 0 0 0 0 9.7397202960855793 13.049604084211751 0 13.049604084211751 -8.8187186875147745 0 0 0 0 7.0827930440718889 21.905864503118522 0 21.905864503118522 2.1705018766507891 0 0 0 0 -10.002512378909159 -4.1753376600099728 0 -4.1753376600099728 -25.89995498303324 0 0 0 0 8.7487047254413355 11.209588018778838 0 11.209588018778838 -5.64285334241562 0 0 0 0 13.422851860420728 33.079078717880833 0 33.079078717880833 3.8324831153085626 0 0 0 0 2.2618798816959327 6.2174303316293766 0 6.2174303316293766 8.0058891096767155 0 0 0 0 -211.68452717813125 -33.695990821752275 0 -33.695990821752275 24.40849675724894 0 0 0 0 -126.19334856732894 315.80235534955682 0 315.80235534955682 -219.03132709773126 0 0 0 0 -105.03699599549873 303.06571057840483 0 303.06571057840483 -250.13960127511746 0 0 0 0 23.89565425143519 -45.584448489797069 0 -45.584448489797069 31.386941398661293 0 0 0 0 25.549360866796633 -19.562414699859801 0 -19.562414699859801 181.41222641391141 0 0 0 0 3.3639116966644593 1.8247890617027078 0 1.8247890617027078 0.43933253441041842 0 0 0 0 136.45133464469109 434.25481990876142 0 434.25481990876142 -250.14575860632522 0 0 0 0 251.96535121733905 96.272904507277417 0 96.272904507277417 -119.08076418571 0 0 0 0 4.4935004294893588 451.833047535476 0 451.833047535476 -468.40497206865393 0 0 0 0 -101.86195014239638 293.64252109085464 0 293.64252109085464 -224.08153433126427 0 0 0 0 -123.28204470449054 307.01056819647783 0 307.01056819647783 -199.14459659808199 0 0 0 0 -94.962143939319503 395.90500428350242 0 395.90500428350242 -402.37788766764606 0 0 0 0 -93.09461483528321 412.91059223135198 0 412.91059223135198 -248.10561787837287 0 0 0 0 -82.53163457507253 361.32134668353501 0 361.32134668353501 -289.85436763988218 0 0 0 0 -73.564529195667092 271.9163020407301 0 271.9163020407301 174.32886053438779 0 0 0 0 -43.506650122548308 267.94745959817465 0 267.94745959817465 207.43804380875736 0 0 0 0 80.496802306504833 198.96031891876009 0 198.96031891876009 50.396268981974572 0 0 0 0 286.91285879958377 462.18206095378446 0 462.18206095378446 12.851374254880284 0 0 0 0 288.66058044159581 397.06618309670193 0 397.06618309670193 229.85239117894889 0 0 0 0 411.44821594105815 231.55195881750842 0 231.55195881750842 -25.179997294988425 0 0 0 0 392.56804702363934 288.60671971878355 0 288.60671971878355 -120.12323114343963 0 0 0 0 -266.25138015573611 -104.08832655416336 0 -104.08832655416336 -10.616063463749015 0 0 0 0 22.380439860120532 109.37651720690337 0 109.37651720690337 225.31950541425886 0 0 0 0 26.892924016276083 94.424802872201326 0 94.424802872201326 63.20808632004082 0 0 0 0 606.08871661179001 427.36807180300457 0 427.36807180300457 -31.459917581163609 0 0 0 0 503.09112701145568 1059.0316492646698 0 1059.0316492646698 1015.9781623295567 0 0 0 0 1571.0938515884336 850.99481245625066 0 850.99481245625066 -812.66986935146406 0 0 0 0 403.20098323601542 -282.74580780427459 0 -282.74580780427459 -897.57719708891091 0 0 0 0 -294.90907201376103 39.270460721938434 0 39.270460721938434 1.0980201599086286 0 0 0 0 -139.08075544677558 91.765140156647249 0 91.765140156647249 -25.160134664771249 0 0 0 0 -198.17547688311242 100.44407459951981 0 100.44407459951981 48.186473069399653 0 0 0 0 -139.14942524115759 50.442978889168444 0 50.442978889168444 33.798493114756639 0 0 0 0 1.4474024355631299 12.801927974757223 0 12.801927974757223 40.417093771365202 0 0 0 0 -185.67475678182564 283.20999037821275 0 283.20999037821275 244.38283175133984 0 0 0 0 -351.03784256025028 -22.833022882798105 0 -22.833022882798105 -144.89653271185352 0 0 0 0 2.2718031981124609 13.636519312527636 0 13.636519312527636 32.874697486533279 0 0 0 0 -498.43462830352473 198.48736194965204 0 198.48736194965204 28.488547138607828 0 0 0 0 -154.29050030990766 101.66396000776149 0 101.66396000776149 -55.983913243326242 0 0 0 0 -144.85378756806676 196.93084483180428 0 196.93084483180428 -73.473954967725149 0 0 0 0 -230.03181478007536 257.53719276410902 0 257.53719276410902 -166.57464861628978 0 0 0 0 45.199830371006101 34.344695021243751 0 34.344695021243751 900.35608739909367 0 0 0 0 861.22179458554092 -116.73251769618037 0 -116.73251769618037 -333.47857475527417 0 0 0 0 536.62832050156612 672.42411425323189 0 672.42411425323189 1811.3552586219812 0 0 0 0 694.27400282759481 -226.72063461958351 0 -226.72063461958351 134.72734983390546 0 0 0 0 11.882169854215164 8.7110530225020799 0 8.7110530225020799 6.2670551933079253 0 0 0 0 855.82080728469646 406.8256201101367 0 406.8256201101367 -551.39433366657613 0 0 0 0 -1.1887578549441713 -1.4492305406052992 0 -1.4492305406052992 1.9784004828011277 0 0 0 0 1712.9652917116746 179.56173279211725 0 179.56173279211725 -576.42031830711494 0 0 0 0 584.90638259535626 -102.11993840090508 0 -102.11993840090508 -232.54148798001552 0 0 0 0 -367.52877125670784 59.585112391449002 0 59.585112391449002 9.1372045212538069 0 0 0 0 46.075567136093014 -11.066161874199679 0 -11.066161874199679 -28.968585008344235 0 0 0 0 18.658846022769467 -97.75232318575172 0 -97.75232318575172 244.35246449178885 0 0 0 0 -28.78445286614442 178.16563216845134 0 178.16563216845134 536.48407919608508 0 0 0 0 -45.169806173003963 97.231172956619957 0 97.231172956619957 144.88845674719778 0 0 0 0 -19.997497562148055 55.402406931731093 0 55.402406931731093 195.91352638028548 0 0 0 0 1.1089925933913776 8.4426173768364752 0 8.4426173768364752 11.261170253323925 0 0 0 0 18.827260429847229 1.8982981297258448 0 1.8982981297258448 -2.602049420664116 0 0 0 0 19.334021785605728 44.952255757929379 0 44.952255757929379 -33.488514709524907 0 0 0 0 17.971800834806345 -29.784538489209808 0 -29.784538489209808 100.9485804332071 0 0 0 0 -14.006350293295327 3.9037938751189358 0 3.9037938751189358 1.727614082643413 0 0 0 0 4.3752086650857187 20.973047743871387 0 20.973047743871387 9.4029638673370073 0 0 0 0 -9.6662469797593076 19.84552705936585 0 19.84552705936585 38.551431286563457 0 0 0 0 3.3671833756279739 -84.380992726903514 0 -84.380992726903514 51.046171500594937 0 0 0 0 -15.36680240577239 -4.7379857951730173 0 -4.7379857951730173 21.482015259028842 0 0 0 0 -122.82508216233322 158.16646552900335 0 158.16646552900335 218.15810236723337 0 0 0 0 -271.51863514780052 -191.81217280072451 0 -191.81217280072451 -154.13215594372377 0 0 0 0 -74.844366282732935 46.635920924376464 0 46.635920924376464 -16.175407443128265 0 0 0 0 -439.31966123034636 80.445950004343104 0 80.445950004343104 736.33346939909097 0 0 0 0 -312.82362557563647 362.76718077265832 0 362.76718077265832 62.670944968565891 0 0 0 0 761.07474314257706 824.29323169052986 0 824.29323169052986 411.0284092650727 0 0 0 0 1.5788856728617944 6.2793379963138172 0 6.2793379963138172 11.806272359295122 0 0 0 0 52.363126683500013 -573.72138919668578 0 -573.72138919668578 -363.03353316821426 0 0 0 0 552.66789665960096 -284.17062095388246 0 -284.17062095388246 -370.74249632401916 0 0 0 0 -403.45628359292823 -39.588558864088554 0 -39.588558864088554 5.3111602107387057 0 0 0 0 686.98370452031668 347.35328394875614 0 347.35328394875614 10.380490849209309 0 0 0 0 97.049814458740002 659.15327082511976 0 659.15327082511976 616.86616735864663 0 0 0 0 -93.286343836287415 328.05299880998427 0 328.05299880998427 168.38960324795335 0 0 0 0 -888.1136651811089 188.10961043617908 0 188.10961043617908 475.59149701589922 0 0 0 0 -426.39169264142038 543.03482969017205 0 543.03482969017205 731.6951566627431 0 0 0 0 -194.1103789024055 218.12501974295083 0 218.12501974295083 252.26959469915164 0 0 0 0 -234.14025108491114 322.16045970865162 0 322.16045970865162 -304.63655545115171 0 0 0 0 -465.1885800354903 554.67521383393614 0 554.67521383393614 -301.51250873845049 0 0 0 0 -434.26349413195567 463.48843308819778 0 463.48843308819778 -490.82987779960695 0 0 0 0 -609.58724658751453 775.15107806877495 0 775.15107806877495 -570.98466391679449 0 0 0 0 -467.57672660965545 559.12537264004186 0 559.12537264004186 -263.62252218397771 0 0 0 0 -698.70950069362152 705.63303602997667 0 705.63303602997667 -193.9891229080531 0 0 0 0 -610.97012298156187 523.89524500242442 0 523.89524500242442 49.259710530332086 0 0 0 0 -769.58622091746656 475.43237372877593 0 475.43237372877593 223.72049082719604 0 0 0 0 -490.28108048209106 296.68042165731822 0 296.68042165731822 159.67217340110074 0 0 0 0 -385.7970308842705 452.30401493219961 0 452.30401493219961 -171.18804631484454 0 0 0 0 -623.25228162568783 475.45109740206499 0 475.45109740206499 -138.64830422389423 0 0 0 0 0.14849419203697778 1.1508544775087728 0 1.1508544775087728 -1.1028453111105421 0 0 0 0 -719.02321002408644 356.12770665164317 0 356.12770665164317 -62.565598141460214 0 0 0 0 -13.489698082122231 59.379951543714014 0 59.379951543714014 43.231577296273827 0 0 0 0 81.149907173221436 98.976619065546402 0 98.976619065546402 46.380122099352775 0 0 0 0 -8.8028565754102601 -9.5959320393367307 0 -9.5959320393367307 33.575814196208739 0 0 0 0 -8.606966626663052 7.5943906720494851 0 7.5943906720494851 13.736638938818942 0 0 0 0 -219.76607341423369 271.79569963887661 0 271.79569963887661 -206.99824912093572 0 0 0 0 1.1218832383282127 2.0102013294219816 0 2.0102013294219816 -2.9062881910707716 0 0 0 0 -471.06840550311244 297.83725386605556 0 297.83725386605556 -104.11960557505154 0 0 0 0 -8.4529653356748895 10.450507326378101 0 10.450507326378101 -0.49247569418366766 0 0 0 0 -3.5816659283882473 4.5576277650052361 0 4.5576277650052361 -6.9712142237058288 0 0 0 0 29.895497007313679 -61.293611867764412 0 -61.293611867764412 96.875581635895287 0 0 0 0 -3.2247655979990668 6.8646627961170452 0 6.8646627961170452 -8.7206953590794001 0 0 0 0 0.31762461377795859 3.6955444759505145 0 3.6955444759505145 4.8561893590750742 0 0 0 0 0.92986222186300438 8.3275353422995977 0 8.3275353422995977 -14.583762392886229 0 0 0 0 9.9065939380488999 -64.348507850181704 0 -64.348507850181704 98.318369972570508 0 0 0 0 -0.0091936535682179965 -2.1336164343683777 0 -2.1336164343683777 -0.71383379355393117 0 0 0 0 3.1516781277277914 -0.71676718171329412 0 -0.71676718171329412 -14.49064598561381 0 0 0 0 34.371078005166055 -51.061777139851984 0 -51.061777139851984 101.550561277405 0 0 0 0 -60.839722080462188 2.6938134507339146 0 2.6938134507339146 60.215624082594076 0 0 0 0 -125.33341046799413 -61.416193903295905 0 -61.416193903295905 146.44150169820205 0 0 0 0 -5.0339087687895159 0.93889330621360756 0 0.93889330621360756 3.5308274164915971 0 0 0 0 0.36415869295276693 1.9365018085015535 0 1.9365018085015535 -2.8843216955544051 0 0 0 0 -12.942711998724917 4.5943786828729571 0 4.5943786828729571 -1.2386840670515085 0 0 0 0 37.528661612290307 -69.557168962523065 0 -69.557168962523065 104.60887434770666 0 0 0 0 -124.383507107681 212.1032747164827 0 212.1032747164827 -193.56216403437065 0 0 0 0 98.262986549963898 -10.701047314784773 0 -10.701047314784773 -183.05040125402593 0 0 0 0 -307.19861580597899 268.87687101486426 0 268.87687101486426 -64.074638362330006 0 0 0 0 -333.53565294755572 400.95290251455481 0 400.95290251455481 -487.76589635741402 0 0 0 0 -404.72348232375407 506.06612558917914 0 506.06612558917914 -433.16321603256802 0 0 0 0 -192.34479950292734 138.98703053125791 0 138.98703053125791 -271.98561851592149 0 0 0 0 -320.27608413729104 124.03060653244029 0 124.03060653244029 -208.0581367359282 0 0 0 0 -41.226198787680914 208.59881398077596 0 208.59881398077596 -300.16936072441968 0 0 0 0 -359.03941473339 216.57841795235436 0 216.57841795235436 1.6894135079965054 0 0 0 0 0.1793366835611323 -38.261280265027153 0 -38.261280265027153 -11.924010841634299 0 0 0 0 -2.5216885666371596 -0.5684402576058023 0 -0.5684402576058023 0.50945363695548451 0 0 0 0 54.222840003807505 -149.75542334679494 0 -149.75542334679494 -0.28155466059615719 0 0 0 0 -6.7234582352768939 -88.825761392133131 0 -88.825761392133131 177.64900312862301 0 0 0 0 72.117364012228791 -198.19314592441515 0 -198.19314592441515 79.247120696277307 0 0 0 0 138.21470934268837 -111.41863410077531 0 -111.41863410077531 132.40548841852069 0 0 0 0 -68.663210754914019 -5.4038288049703365 0 -5.4038288049703365 53.995147036547465 0 0 0 0 106.85754812930827 -203.27263415997731 0 -203.27263415997731 180.94534922526509 0 0 0 0 -1.8235607131337055 -0.48629880247051105 0 -0.48629880247051105 1.8869566819232659 0 0 0 0 -3.5898517550711233 -1.3223895736994358 0 -1.3223895736994358 -0.57187044332466996 0 0 0 0 1.195761293052783 17.525961851533793 0 17.525961851533793 38.003409780787479 0 0 0 0 19.959243765741121 -148.79994994466688 0 -148.79994994466688 24.495593474924135 0 0 0 0 12.603950307348896 -188.59920313890314 0 -188.59920313890314 89.071332825704303 0 0 0 0 -56.452132959120782 -7.2848836396017091 0 -7.2848836396017091 58.689539703926144 0 0 0 0 87.423646426575942 -96.576618963730652 0 -96.576618963730652 111.13634112594218 0 0 0 0 -167.39681226292305 -60.712197288889001 0 -60.712197288889001 -9.270181333682558 0 0 0 0 -247.38727597677644 51.877018458060775 0 51.877018458060775 172.11037002813828 0 0 0 0 3.7127705687671551 58.073935359057941 0 58.073935359057941 44.014584481381462 0 0 0 0 -228.93622351587874 65.844720647573013 0 65.844720647573013 8.3887778292919393 0 0 0 0 -142.38031305325421 -113.08231911504481 0 -113.08231911504481 -69.679787232322269 0 0 0 0 78.826128888314997 13.428969392080035 0 13.428969392080035 -96.061400680635415 0 0 0 0 -91.271663636725862 8.5142332601753878 0 8.5142332601753878 149.36491004477102 0 0 0 0 -127.05607106754906 203.91332895732194 0 203.91332895732194 -175.15655326077922 0 0 0 0 -107.65514029543738 56.514951027776533 0 56.514951027776533 77.415063660868327 0 0 0 0 13.415130750523531 93.690598005563515 0 93.690598005563515 -111.83763984467555 0 0 0 0 -144.07260934680198 175.82586674843606 0 175.82586674843606 -218.83779352469719 0 0 0 0 -188.98870892430568 298.24842431488923 0 298.24842431488923 -471.38853600998118 0 0 0 0 -307.7749990870816 387.54633171660043 0 387.54633171660043 -221.93256187337101 0 0 0 0 -219.06213191517054 483.54395967583423 0 483.54395967583423 -543.54895580326411 0 0 0 0 -224.01488098780828 399.36005260086313 0 399.36005260086313 -352.70619148924743 0 0 0 0 -242.36851308778569 241.22402621947549 0 241.22402621947549 -108.14546213980793 0 0 0 0 -188.98925031869294 263.41276662494784 0 263.41276662494784 -110.23839500731992 0 0 0 0 -116.23178572577672 72.528242428697922 0 72.528242428697922 33.727670488216972 0 0 0 0 -45.866612218916998 87.099567267323437 0 87.099567267323437 21.30666443384689 0 0 0 0 -120.602287966125 197.56574927170004 0 197.56574927170004 -58.315347902713256 0 0 0 0 8.922622339910049 -91.536459594006828 0 -91.536459594006828 138.53091833939106 0 0 0 0 -0.26042582677783344 28.438744799135641 0 28.438744799135641 39.853203545651695 0 0 0 0 -187.38817055068466 57.260726757896009 0 57.260726757896009 211.34700523090578 0 0 0 0 -96.69027810280329 -8.3124213762801666 0 -8.3124213762801666 15.714423070270698 0 0 0 0 -103.81549659688608 11.502807493849105 0 11.502807493849105 133.25147501264655 0 0 0 0 64.134616018614906 -76.451966564203758 0 -76.451966564203758 92.448863460027496 0 0 0 0 2.7177419836698391 -7.434145020307291 0 -7.434145020307291 18.029949703127471 0 0 0 0 58.131828283687355 126.10480081721107 0 126.10480081721107 -45.797309825997218 0 0 0 0 179.68813299516478 355.54028389168889 0 355.54028389168889 -785.62319255551483 0 0 0 0 10.817530835103668 11.193881379018379 0 11.193881379018379 -6.3356492155855406 0 0 0 0 95.609291718545137 545.94817290247738 0 545.94817290247738 -1079.1694603939322 0 0 0 0 12.680698466550211 -258.43029221837355 0 -258.43029221837355 -346.48965362242234 0 0 0 0 -35.239277774353958 26.311586798437745 0 26.311586798437745 -16.379115272930733 0 0 0 0 -140.50950742622445 397.82120328743986 0 397.82120328743986 109.6099817211616 0 0 0 0 50.721744408836344 -28.765685412590415 0 -28.765685412590415 -211.99424962428748 0 0 0 0 9.2933705657414976 195.64611363638687 0 195.64611363638687 22.931924189731944 0 0 0 0 -50.902646841336576 33.387682191509697 0 33.387682191509697 -24.274415670937955 0 0 0 0 1.5860482748195466 7.5379859472811006 0 7.5379859472811006 -0.71811602702811683 0 0 0 0 -126.81391174136661 424.23947229568876 0 424.23947229568876 375.06263626617238 0 0 0 0 1.6218780194435567 34.27833059445436 0 34.27833059445436 -234.43488340693875 0 0 0 0 -253.87384590938746 53.033044988311303 0 53.033044988311303 177.97050791399488 0 0 0 0 -29.842774577162345 199.96384833249977 0 199.96384833249977 -564.02644734759087 0 0 0 0 -333.37072580929089 287.51092941883689 0 287.51092941883689 -153.71394617795158 0 0 0 0 -359.35609604855563 -9.3184722400037572 0 -9.3184722400037572 168.88772065709782 0 0 0 0 -380.18909814105791 -142.63311391252137 0 -142.63311391252137 -271.81073762060987 0 0 0 0 -1.0216408378450978 4.7603801877390453 0 4.7603801877390453 -0.52228020504675499 0 0 0 0 -448.9705090725256 115.31626288523694 0 115.31626288523694 695.61488313511109 0 0 0 0 -178.94242715691917 654.82080135648039 0 654.82080135648039 -1437.8167322702284 0 0 0 0 -142.16597468450709 359.19660483886582 0 359.19660483886582 -395.51480133429868 0 0 0 0 -867.14996009165043 938.83036530500249 0 938.83036530500249 -439.44736445908711 0 0 0 0 -443.75221951934509 -510.74247508018016 0 -510.74247508018016 -484.83778419626105 0 0 0 0 -505.09169094863921 1129.3993344846808 0 1129.3993344846808 -664.32952523339191 0 0 0 0 459.21897858351804 682.66656030310151 0 682.66656030310151 -1470.9158949232569 0 0 0 0 178.33910491545612 46.37653031897753 0 46.37653031897753 -1038.8542498668476 0 0 0 0 -5.1076158896958646 8.528867207499971 0 8.528867207499971 -17.82127836073029 0 0 0 0 -937.53861362250609 324.0157975608563 0 324.0157975608563 -26.440031867241487 0 0 0 0 829.0862241651048 438.25645889672796 0 438.25645889672796 -691.06065559612762 0 0 0 0 282.6647519340695 490.94509811740136 0 490.94509811740136 -696.06731964398568 0 0 0 0 201.76483988516338 337.01346517209276 0 337.01346517209276 293.39949834571235 0 0 0 0 395.56571317201451 563.5994264137189 0 563.5994264137189 -1105.3433977326094 0 0 0 0 546.36513956373892 496.72625578120642 0 496.72625578120642 -1075.972931344375 0 0 0 0 433.44599999013735 455.36215444522531 0 455.36215444522531 -1321.8273672917203 0 0 0 0 -10.772773805287969 28.974452545518155 0 28.974452545518155 -40.817870818356013 0 0 0 0 135.04716167301376 141.16466367301473 0 141.16466367301473 -86.368567646029987 0 0 0 0 59.982561025302857 3.7814101165276952 0 3.7814101165276952 30.472739524906501 0 0 0 0 85.369426294861341 72.351347077273999 0 72.351347077273999 5.110315027544857 0 0 0 0 42.118180594133705 31.39493015776997 0 31.39493015776997 -18.991899011964776 0 0 0 0 62.515763983567012 50.751460627740016 0 50.751460627740016 -1.0925911947852001 0 0 0 0 -18.944893248192599 56.290392127931661 0 56.290392127931661 -19.536073513288926 0 0 0 0 14.370186389508618 8.3506673176401307 0 8.3506673176401307 -8.9675761554009625 0 0 0 0 -38.851528246289035 110.84032080507291 0 110.84032080507291 261.38696936639099 0 0 0 0 185.25471636951715 -109.74824859008868 0 -109.74824859008868 -272.54134353761037 0 0 0 0 -215.93008857272798 -32.033610862741625 0 -32.033610862741625 77.551303247008036 0 0 0 0 0.77548498719208681 -0.47719817597734959 0 -0.47719817597734959 0.30340109741379706 0 0 0 0 43.427257005838328 204.15451257560926 0 204.15451257560926 110.37377627232854 0 0 0 0 82.789115761886933 19.346287744741858 0 19.346287744741858 -38.703073331966152 0 0 0 0 -81.769041340812691 76.155949350533774 0 76.155949350533774 -100.89177824379294 0 0 0 0 -108.64294499274547 153.47022358488903 0 153.47022358488903 -272.11308181459026 0 0 0 0 -262.73150358020939 222.34272858691838 0 222.34272858691838 18.362083106294449 0 0 0 0 44.529371406068094 134.69649998458044 0 134.69649998458044 -205.32456793431629 0 0 0 0 -579.62499206568464 519.50691306657609 0 519.50691306657609 -139.60180487337493 0 0 0 0 -411.15606061089784 574.34558467375609 0 574.34558467375609 -240.85111111461811 0 0 0 0 -497.61867520690066 669.86931465846283 0 669.86931465846283 -298.02219980425434 0 0 0 0 -484.8742042144404 686.46581827639056 0 686.46581827639056 -404.30917937440245 0 0 0 0 -321.87212615854514 502.69644642483763 0 502.69644642483763 -333.07823391762759 0 0 0 0 -466.97258904855698 599.42543567214125 0 599.42543567214125 -526.19649111729814 0 0 0 0 -463.41085836716229 619.95828699453705 0 619.95828699453705 -413.23219889184111 0 0 0 0 -322.47709283995209 484.74357097925713 0 484.74357097925713 -377.47844944680401 0 0 0 0 -220.88468001861474 346.71342405789619 0 346.71342405789619 -273.6244959504038 0 0 0 0 -168.52620027260673 511.93443680136534 0 511.93443680136534 -629.48334019094182 0 0 0 0 -7.9513279305538163 157.06696615714463 0 157.06696615714463 -466.8928471679319 0 0 0 0 51.324971671987441 -3.1840408272182685 0 -3.1840408272182685 -321.26230787279201 0 0 0 0 155.83349474389979 224.377928705253 0 224.377928705253 -954.8253942685842 0 0 0 0 -313.95620294315449 735.08512277672526 0 735.08512277672526 -1220.9465549172382 0 0 0 0 -197.18545900745085 418.83694151038071 0 418.83694151038071 -535.90054057425732 0 0 0 0 18.845939037516473 12.881631956669935 0 12.881631956669935 -0.89842208236223087 0 0 0 0 0.25877016558018795 6.6015038571395905 0 6.6015038571395905 0.11888840599133488 0 0 0 0 -20.151725891475508 182.19994824493551 0 182.19994824493551 -1453.7234000908065 0 0 0 0 1.1771668536457582 12.262209745986183 0 12.262209745986183 -286.17846029667999 0 0 0 0 2.9493402711075589 -0.7763131655792499 0 -0.7763131655792499 -3.7750260757875793 0 0 0 0 -96.905287226429209 40.260016135987826 0 40.260016135987826 -152.9831336316638 0 0 0 0 20.523957744590007 19.039092321623684 0 19.039092321623684 -1.5339838073505234 0 0 0 0 15.926990213019053 21.157908004576711 0 21.157908004576711 2.5343660311009444 0 0 0 0 17.673340590143169 11.830068947002218 0 11.830068947002218 -7.5810376321276323 0 0 0 0 -4.0869204565315158 -31.646146813496671 0 -31.646146813496671 -106.98864762807352 0 0 0 0 -35.531211959321809 31.172317052343715 0 31.172317052343715 -155.73923359344735 0 0 0 0 44.352822550055862 -7.4697607647503901 0 -7.4697607647503901 -157.84073795757649 0 0 0 0 65.944939735312801 21.820246624502033 0 21.820246624502033 -36.813357430521137 0 0 0 0 32.969371646882792 19.207097206788603 0 19.207097206788603 -28.315270695373329 0 0 0 0 22.939615427243552 24.665782075799143 0 24.665782075799143 -16.08235132079426 0 0 0 0 20.966137017567235 21.625291223930617 0 21.625291223930617 -5.0282747275487054 0 0 0 0 22.095745093952445 13.859996973936532 0 13.859996973936532 -11.29628107291456 0 0 0 0 3.7422939241898625 26.855051550539077 0 26.855051550539077 -3.4987840669586063 0 0 0 0 -0.49625191226732568 31.032794287650177 0 31.032794287650177 7.4507401780574583 0 0 0 0 29.320760676473583 34.639910014197085 0 34.639910014197085 -13.261527536898939 0 0 0 0 54.360949917930881 37.7336642559032 0 37.7336642559032 -39.766761238657502 0 0 0 0 -473.05090183390712 653.32042987726163 0 653.32042987726163 -255.23839547916577 0 0 0 0 -298.89487016436397 625.53361503930864 0 625.53361503930864 -507.93792737475451 0 0 0 0 -312.8758186529958 642.8215710154218 0 642.8215710154218 -484.83796939907188 0 0 0 0 -345.22199098078272 427.49948710109311 0 427.49948710109311 2.2560222021675145 0 0 0 0 -402.91251436078164 398.48155110597872 0 398.48155110597872 -10.955768539908604 0 0 0 0 -55.161824581176916 134.91698565241313 0 134.91698565241313 102.76693872036049 0 0 0 0 -280.36735453997971 160.31318958866905 0 160.31318958866905 188.8360316534563 0 0 0 0 -274.48238512058742 217.74118114094017 0 217.74118114094017 1.5797163129209366 0 0 0 0 -295.40671849120736 388.73489477473254 0 388.73489477473254 -130.59217932559113 0 0 0 0 -341.20644935902965 388.54346861470549 0 388.54346861470549 -118.95545336250871 0 0 0 0 -302.78747626163022 521.0334939073191 0 521.0334939073191 -394.7258510828251 0 0 0 0 -225.73933950095579 384.62269052429747 0 384.62269052429747 -286.5225896156262 0 0 0 0 -315.79035388542252 500.9341312928409 0 500.9341312928409 -446.46900844814081 0 0 0 0 -358.12674825810245 412.125067948582 0 412.125067948582 -243.364224318575 0 0 0 0 -440.69083005137509 668.10349651698925 0 668.10349651698925 -479.5523974916141 0 0 0 0 -345.16048519094693 561.85207578757036 0 561.85207578757036 -419.460151288833 0 0 0 0 -419.72763154818676 462.29536747674138 0 462.29536747674138 -275.23585643881233 0 0 0 0 -556.16415044354653 671.01607836399126 0 671.01607836399126 -370.87798990135343 0 0 0 0 -576.70787011594803 527.11164982211994 0 527.11164982211994 -399.27943797499029 0 0 0 0 -449.6415342764376 557.50126826453197 0 557.50126826453197 -555.06037990812911 0 0 0 0 -364.99160900946299 494.89367975644564 0 494.89367975644564 -1031.6306638922179 0 0 0 0 -814.99640657391865 776.15654592254577 0 776.15654592254577 -614.0143829860026 0 0 0 0 -787.72783955765772 390.38130672818806 0 390.38130672818806 -637.30805076673641 0 0 0 0 -308.66220488825638 547.00865880481069 0 547.00865880481069 -510.12501185350993 0 0 0 0 -358.78482792849536 555.6360079879596 0 555.6360079879596 -376.08851117298764 0 0 0 0 -311.25377699591627 567.97599430461196 0 567.97599430461196 -679.65484642613592 0 0 0 0 -464.57773293962236 479.58097378973525 0 479.58097378973525 -445.05875173710956 0 0 0 0 -357.33368628499738 586.79741778547032 0 586.79741778547032 -654.76398223579235 0 0 0 0 -277.86001087241311 636.61087148911247 0 636.61087148911247 -670.19569376099389 0 0 0 0 -186.53907869641262 703.96193775735446 0 703.96193775735446 -726.94309217158298 0 0 0 0 -273.5261934852897 650.24810572880233 0 650.24810572880233 -662.37159159340445 0 0 0 0 -231.94356793935003 648.50999664984556 0 648.50999664984556 -768.81655407450307 0 0 0 0 -278.10556219729006 626.48600306175649 0 626.48600306175649 -758.73716526603675 0 0 0 0 -335.02110393297335 682.2481119067088 0 682.2481119067088 -750.12418168081058 0 0 0 0 -314.26307108571928 630.20044006477838 0 630.20044006477838 -771.84344597397649 0 0 0 0 16.105593230552159 14.335983717629805 0 14.335983717629805 4.1937562255981646 0 0 0 0 -407.73072932798823 186.14987932793883 0 186.14987932793883 -230.82577963955919 0 0 0 0 -900.38870319897251 537.42774484904658 0 537.42774484904658 -57.356741577274079 0 0 0 0 -356.08478394887788 814.38285945647658 0 814.38285945647658 -856.65692607543315 0 0 0 0 -386.07591209033853 654.54128592347843 0 654.54128592347843 -664.20762575150002 0 0 0 0 -390.36341115515097 670.44675932522659 0 670.44675932522659 -710.61712268965493 0 0 0 0 100.2328791480686 803.11125555708713 0 803.11125555708713 -901.99455786534236 0 0 0 0 -371.97390728304163 629.24138398283685 0 629.24138398283685 -713.18720923074989 0 0 0 0 3.8079684720387661 4.4321694922066683 0 4.4321694922066683 1.8628297219954817 0 0 0 0 -371.23455598618602 617.88887289263948 0 617.88887289263948 -676.38683210197632 0 0 0 0 23.1742534172663 35.751399361204676 0 35.751399361204676 15.733984616777889 0 0 0 0 14.652932827194718 13.838413840156463 0 13.838413840156463 -10.159529523269839 0 0 0 0 -410.74638298170612 555.9995536310762 0 555.9995536310762 -626.38373885906731 0 0 0 0 24.058886840070045 28.648598590502274 0 28.648598590502274 -0.090602570722694509 0 0 0 0 22.818218881687272 24.683067608581055 0 24.683067608581055 19.477853834934322 0 0 0 0 -144.37326312766527 584.49182799409027 0 584.49182799409027 -760.49533745343342 0 0 0 0 -76.091211969971482 687.34258163478353 0 687.34258163478353 -841.0282900783277 0 0 0 0 -137.95730213643037 832.60923718928098 0 832.60923718928098 -1179.0343973702475 0 0 0 0 -327.44760026119184 791.34705288548503 0 791.34705288548503 -557.55143323043285 0 0 0 0 -221.91597589931553 765.39361197234393 0 765.39361197234393 -831.21295751945581 0 0 0 0 -895.00979237908905 802.18843251888757 0 802.18843251888757 -192.73954966310703 0 0 0 0 -353.48383393773474 859.20161840545461 0 859.20161840545461 -733.68349276330264 0 0 0 0 -301.19365900999401 882.88765430247804 0 882.88765430247804 -741.73791946382698 0 0 0 0 83.488392047895104 140.99379205025434 0 140.99379205025434 -2052.5840478172613 0 0 0 0 -663.98076608347037 1528.3620750307837 0 1528.3620750307837 -1776.2199555039042 0 0 0 0 -750.92503617784678 -366.02960806914052 0 -366.02960806914052 -629.86238168671298 0 0 0 0 -1069.1801459712842 1581.3134472650418 0 1581.3134472650418 -1533.4105386711963 0 0 0 0 -565.66906783789636 463.09563651216558 0 463.09563651216558 177.38235317598446 0 0 0 0 -230.39893562582802 253.21147373284657 0 253.21147373284657 106.78934022953399 0 0 0 0 -2012.4728101066503 865.24987633522869 0 865.24987633522869 -142.59495141395382 0 0 0 0 -522.48825896630115 196.00749388250551 0 196.00749388250551 58.04188154116855 0 0 0 0 -353.53395091085258 319.83320812065722 0 319.83320812065722 144.28890250553741 0 0 0 0 -360.09425914708686 -8.3430889020576728 0 -8.3430889020576728 500.69432205414341 0 0 0 0 165.44676129324944 -737.22882004140001 0 -737.22882004140001 494.72018855615534 0 0 0 0 1.5551316158947799 6.528050514893355 0 6.528050514893355 13.258904912792403 0 0 0 0 -388.11503161487053 396.15040044681518 0 396.15040044681518 -92.334347217059985 0 0 0 0 -346.60412360622468 157.4424898422867 0 157.4424898422867 158.88103153745033 0 0 0 0 -144.55808322336088 70.16444293036875 0 70.16444293036875 -185.12079812754837 0 0 0 0 140.42186822339136 -337.70913782850766 0 -337.70913782850766 371.65388803847145 0 0 0 0 6.2177252054175653 14.233401396136877 0 14.233401396136877 26.384532508813365 0 0 0 0 -262.45035105326133 374.22580412813113 0 374.22580412813113 -55.942853780979931 0 0 0 0 -52.55047235060556 -75.605222430627236 0 -75.605222430627236 316.31584065102652 0 0 0 0 -77.3630687415598 55.442208770140724 0 55.442208770140724 277.07916149932134 0 0 0 0 -231.05484460167281 138.84832993937425 0 138.84832993937425 246.23986468623843 0 0 0 0 -85.617696192370204 -69.766315330554789 0 -69.766315330554789 66.439071361775859 0 0 0 0 -197.09739870529302 68.479291828723944 0 68.479291828723944 -185.55128596030409 0 0 0 0 -75.939333433154388 202.18480978905427 0 202.18480978905427 -45.48497005137051 0 0 0 0 -103.56745736340235 44.51926320693974 0 44.51926320693974 107.38397479170817 0 0 0 0 -306.74177803502243 431.46963627913283 0 431.46963627913283 -189.01747679415519 0 0 0 0 -178.9395461908407 185.52610293306861 0 185.52610293306861 79.366950737399748 0 0 0 0 2.9183619975398045 1.5266510784252993 0 1.5266510784252993 1.1624338642961192 0 0 0 0 722.85193104699283 -640.53785698256979 0 -640.53785698256979 -33.436862003400165 0 0 0 0 604.40380365725287 -974.06367937265532 0 -974.06367937265532 492.87598412371153 0 0 0 0 559.37741156196716 -12.248213307695551 0 -12.248213307695551 -426.77393353659863 0 0 0 0 2.8859870013911859 -81.887389400502798 0 -81.887389400502798 897.55410734249745 0 0 0 0 -39.869839052623703 23.343976723452627 0 23.343976723452627 -14.537679537379745 0 0 0 0 283.21220464024009 -10.729149230519397 0 -10.729149230519397 149.03633654057921 0 0 0 0 -19.712699263720424 78.710824291443714 0 78.710824291443714 144.39005465431364 0 0 0 0 3.5152286395605188 24.249799379216711 0 24.249799379216711 257.2314909043871 0 0 0 0 14.20198382421222 66.177495111576718 0 66.177495111576718 38.209163073850505 0 0 0 0 1.2897378222854172 0.082397782250623663 0 0.082397782250623663 11.870494212510039 0 0 0 0 -16.16163282286189 3.0744022650418543 0 3.0744022650418543 35.487094268793527 0 0 0 0 33.358343418844015 46.024992201537316 0 46.024992201537316 -111.23960755861481 0 0 0 0 -61.54154600692695 41.126323259912922 0 41.126323259912922 -18.004846063370962 0 0 0 0 -140.26044979698781 111.2116798914285 0 111.2116798914285 77.82495763244151 0 0 0 0 -82.488395209307782 99.342265331986709 0 99.342265331986709 -19.7994662228175 0 0 0 0 -68.781459193807677 167.23736282436221 0 167.23736282436221 -60.708247199166635 0 0 0 0 553.0218186154525 1323.4740596841275 0 1323.4740596841275 1400.3598664487399 0 0 0 0 495.5914617886956 756.71671398337094 0 756.71671398337094 501.82033757929821 0 0 0 0 146.94358065789856 540.1662489284754 0 540.1662489284754 822.16475698597787 0 0 0 0 -233.4483689838089 19.507524141117756 0 19.507524141117756 112.58981116450741 0 0 0 0 256.34324911524163 652.95234367568628 0 652.95234367568628 353.85462080474099 0 0 0 0 3.058846709158388 690.2078932379809 0 690.2078932379809 1069.0706526324902 0 0 0 0 570.48069962323643 935.77232121406632 0 935.77232121406632 886.29028525293324 0 0 0 0 701.66786277142273 201.06201378915966 0 201.06201378915966 562.61206278680038 0 0 0 0 197.19089677270676 459.17691047013432 0 459.17691047013432 442.53289737187879 0 0 0 0 232.41270792337309 -11.301240210712422 0 -11.301240210712422 313.49635301004218 0 0 0 0 224.86790919989653 26.943232262113952 0 26.943232262113952 -95.543930256870226 0 0 0 0 -30.767694887565465 50.849449731553264 0 50.849449731553264 -20.388471696929187 0 0 0 0 -47.452061601554306 190.83745120291496 0 190.83745120291496 295.39213127865514 0 0 0 0 -514.60913185578829 -56.439127953581192 0 -56.439127953581192 192.10656195614138 0 0 0 0 -247.04246802377747 -65.18371662330901 0 -65.18371662330901 199.48243279249436 0 0 0 0 -148.06326490687206 94.598483381079859 0 94.598483381079859 279.49532791227102 0 0 0 0 32.05005828908179 -87.134374060515256 0 -87.134374060515256 -47.260181027901126 0 0 0 0 -397.5625828505581 -212.6453294510502 0 -212.6453294510502 79.393767313624267 0 0 0 0 -427.94136651032022 -169.09936473447306 0 -169.09936473447306 96.090640578942839 0 0 0 0 -432.92290824823431 -95.474348793002719 0 -95.474348793002719 -31.074760722636711 0 0 0 0 -673.46799952420406 202.94442225052626 0 202.94442225052626 -399.78441947564716 0 0 0 0 11.129508296090165 9.1238451379707328 0 9.1238451379707328 -6.3634121203998149 0 0 0 0 -56.206007198838051 134.21984772735595 0 134.21984772735595 510.18094232471776 0 0 0 0 -79.525925766487489 47.952223419939401 0 47.952223419939401 699.97988536070443 0 0 0 0 -57.606045027539949 -83.123854750956525 0 -83.123854750956525 752.93260484684288 0 0 0 0 3.9751125899783801 -144.43419963245833 0 -144.43419963245833 694.52064764523675 0 0 0 0 -25.667532206352917 -104.0149099315131 0 -104.0149099315131 640.85411336414109 0 0 0 0 -129.02487003072747 -150.22152186978201 0 -150.22152186978201 -170.95941575278084 0 0 0 0 -205.92141389571771 156.95898453319751 0 156.95898453319751 -113.15208923009777 0 0 0 0 -504.91990912311667 93.889563954880259 0 93.889563954880259 110.66732104573748 0 0 0 0 -30.850839535160048 171.37648052733903 0 171.37648052733903 188.28806406980584 0 0 0 0 1.7546202175290091 31.782377515137341 0 31.782377515137341 -48.981207157339668 0 0 0 0 -99.027099209808512 -13.691396993141097 0 -13.691396993141097 -7.4358310647075996 0 0 0 0 24.418123219147674 -110.39433242487576 0 -110.39433242487576 64.646826176744071 0 0 0 0 20.743500597556704 84.422978466867789 0 84.422978466867789 105.08296666229489 0 0 0 0 -7.1208428256068146 126.27048364884831 0 126.27048364884831 -66.322931878361032 0 0 0 0 1.6716179384675343 47.862239575439162 0 47.862239575439162 -9.042996603577194 0 0 0 0 0.024096794979413971 109.85401076786002 0 109.85401076786002 106.62639850519918 0 0 0 0 91.888606007880298 150.75908253846865 0 150.75908253846865 -117.21626974774426 0 0 0 0 69.975687072146684 106.32809964437911 0 106.32809964437911 -77.277638519270113 0 0 0 0 13.031491539382841 62.628313253040687 0 62.628313253040687 34.159035726130242 0 0 0 0 17.613749375930638 231.89713446918904 0 231.89713446918904 -26.709794981856248 0 0 0 0 19.000881737811142 180.41005405337273 0 180.41005405337273 92.25797379193682 0 0 0 0 -61.140963566751452 207.48652275477798 0 207.48652275477798 256.88325047103717 0 0 0 0 15.686323058165726 121.15650795148395 0 121.15650795148395 148.3805290243472 0 0 0 0 -72.855866472062189 83.478943556794547 0 83.478943556794547 415.24544642934052 0 0 0 0 -73.400633570112404 108.17523195262038 0 108.17523195262038 400.05872513437498 0 0 0 0 9.5492540358391125 33.036998087176471 0 33.036998087176471 243.8347156438831 0 0 0 0 -1.5815322551170539 163.26839373586699 0 163.26839373586699 141.84661979593511 0 0 0 0 -74.329698056775669 -51.161867152739433 0 -51.161867152739433 550.88577979460388 0 0 0 0 -92.460617910361179 -109.30008092003845 0 -109.30008092003845 670.40156176665187 0 0 0 0 -79.244098544164444 40.993742052356538 0 40.993742052356538 405.02231363018473 0 0 0 0 5.5882274317991687 -176.3751177697668 0 -176.3751177697668 537.52172547135933 0 0 0 0 -85.538673165828186 112.50870727758365 0 112.50870727758365 446.03810976423847 0 0 0 0 -65.17800044149044 -13.176330784226593 0 -13.176330784226593 598.86452608709806 0 0 0 0 -105.87446915393957 -7.8880454798600113 0 -7.8880454798600113 635.71874647717777 0 0 0 0 109.37064161062881 -110.83621512863647 0 -110.83621512863647 388.83027812841829 0 0 0 0 -1.7588485402266087 32.935103472814262 0 32.935103472814262 325.66034465826669 0 0 0 0 -29.49712039129372 -7.8260391666844953 0 -7.8260391666844953 290.12088322521959 0 0 0 0 -6.6049976312642684 107.24407677772797 0 107.24407677772797 147.81251163562774 0 0 0 0 28.654537731468736 44.272772308097046 0 44.272772308097046 418.67687999050577 0 0 0 0 -796.45829593629242 -35.408845529105747 0 -35.408845529105747 -328.1767926379016 0 0 0 0 601.49556695820502 427.24482621572861 0 427.24482621572861 -1751.9915577015645 0 0 0 0 -9.2851541284540531 -0.90773598981004611 0 -0.90773598981004611 -1.0457321291295862 0 0 0 0 83.199667338856671 305.09156668705373 0 305.09156668705373 -262.89728306272809 0 0 0 0 23.219120126508642 392.93473259595339 0 392.93473259595339 -197.82212204116331 0 0 0 0 -41.069732225502776 139.5240185620014 0 139.5240185620014 578.2593609917476 0 0 0 0 59.754433260291989 417.4970812771171 0 417.4970812771171 140.98863283882019 0 0 0 0 19.069662600902106 9.6851010076490667 0 9.6851010076490667 2.4207897275913428 0 0 0 0 213.89486443540227 -69.158996137165104 0 -69.158996137165104 667.43908886447025 0 0 0 0 127.73036285187118 -28.651629539504938 0 -28.651629539504938 -388.94078328561227 0 0 0 0 -7.9738672376248019 44.487485742622347 0 44.487485742622347 3.2268998978144481 0 0 0 0 -84.191736531080096 20.696650294037681 0 20.696650294037681 -285.93874787103141 0 0 0 0 103.65375079924706 -57.440202558300371 0 -57.440202558300371 -267.87293257861165 0 0 0 0 -74.356029036309337 -138.01318751418876 0 -138.01318751418876 -75.168962854673737 0 0 0 0 -226.11820319344406 -8.3205779050622368 0 -8.3205779050622368 -181.89354544765956 0 0 0 0 203.41885088143135 191.19353159219008 0 191.19353159219008 -1332.8514414043457 0 0 0 0 -298.53024907988583 -122.23859824767715 0 -122.23859824767715 -76.628631491017586 0 0 0 0 47.018323819221777 22.194166092995772 0 22.194166092995772 -8.5623159686558097 0 0 0 0 -16.089684953744392 55.965397360093831 0 55.965397360093831 -38.835611506024421 0 0 0 0 -555.0230160032188 572.35677289784599 0 572.35677289784599 137.58196137069172 0 0 0 0 -68.607490455906373 154.27386817577462 0 154.27386817577462 71.355319259418593 0 0 0 0 74.4697395296389 476.93620911578546 0 476.93620911578546 -608.44008755388859 0 0 0 0 -111.82451870762452 570.0372367460659 0 570.0372367460659 -595.8755239921079 0 0 0 0 2.1219862464699659 11.31195614783455 0 11.31195614783455 5.639470945953093 0 0 0 0 208.93708266191243 9.1805007952134474 0 9.1805007952134474 -616.64602604536049 0 0 0 0 -514.77788181227515 418.23898230055215 0 418.23898230055215 -893.60289382574956 0 0 0 0 -530.276997147972 939.09043474509599 0 939.09043474509599 -1341.2347079748979 0 0 0 0 179.04247921863134 314.95388809752421 0 314.95388809752421 -854.19773363690911 0 0 0 0 -750.94522845331812 1148.1662508034096 0 1148.1662508034096 -1152.4636560276085 0 0 0 0 -1643.3535374284256 1376.2572993142967 0 1376.2572993142967 -976.19778557890822 0 0 0 0 -761.29524768462579 943.4514397090752 0 943.4514397090752 -862.21859334351029 0 0 0 0 -1087.1723285848129 435.48124124057904 0 435.48124124057904 -102.67307035581689 0 0 0 0 -527.19088921586081 607.54522417154476 0 607.54522417154476 -361.90819247695981 0 0 0 0 -810.50017757304886 576.46079231103067 0 576.46079231103067 -396.33067699661478 0 0 0 0 -1864.9703084944995 794.87932373625517 0 794.87932373625517 -390.34885816893802 0 0 0 0 -1047.6383086790156 586.62963364059397 0 586.62963364059397 -369.49841302991263 0 0 0 0 -274.89630876659066 781.13355360498099 0 781.13355360498099 -933.92357012684079 0 0 0 0 -1097.8076132520127 863.21538620053889 0 863.21538620053889 -408.30357483113767 0 0 0 0 -854.38057109620786 804.94391502781673 0 804.94391502781673 -399.54461310033366 0 0 0 0 -113.47150641114422 652.43701644009525 0 652.43701644009525 -737.00256903294212 0 0 0 0 -116.96428957707394 658.8756617979725 0 658.8756617979725 -454.86064455753149 0 0 0 0 -228.76561979635153 542.37095224096538 0 542.37095224096538 -481.40594795870857 0 0 0 0 -5.8092042235875851 558.60840714548794 0 558.60840714548794 -488.9031824844642 0 0 0 0 -112.07519713470538 380.11318333715235 0 380.11318333715235 -234.71156350163074 0 0 0 0 -55.043131110473041 520.93704006945518 0 520.93704006945518 -645.18377178219453 0 0 0 0 -308.45008663108456 555.40861740196488 0 555.40861740196488 -375.61516302824384 0 0 0 0 -170.51975415776633 150.78860359130636 0 150.78860359130636 -94.489585445204284 0 0 0 0 -713.66261741478957 176.4630485603775 0 176.4630485603775 48.47739871144222 0 0 0 0 -251.84823047210375 516.23341279515444 0 516.23341279515444 -244.06569217679316 0 0 0 0 -48.987415883559152 636.61801493662642 0 636.61801493662642 -211.47095275848642 0 0 0 0 -149.54382280524078 290.07581141158903 0 290.07581141158903 94.509608311225747 0 0 0 0 -143.58885225132326 469.02730718742077 0 469.02730718742077 151.58384481062967 0 0 0 0 92.980819328910002 541.20362172281784 0 541.20362172281784 -405.86746994513669 0 0 0 0 14.241569894285931 610.22433125294083 0 610.22433125294083 -365.51752920334002 0 0 0 0 -0.990118897469074 616.02968539137873 0 616.02968539137873 -449.94569006906386 0 0 0 0 22.071365812735166 665.75666887028274 0 665.75666887028274 -739.37560181496519 0 0 0 0 24.865362461430777 641.98310705348194 0 641.98310705348194 -525.41329074920486 0 0 0 0 -263.69008689022303 785.93338685010895 0 785.93338685010895 -789.85201446154679 0 0 0 0 -64.218920323794009 494.1713877834336 0 494.1713877834336 -719.72492878208504 0 0 0 0 -561.67980152516429 331.15423306133107 0 331.15423306133107 -687.99543953923057 0 0 0 0 -97.132315829418076 347.29655138379894 0 347.29655138379894 -1661.9409085716918 0 0 0 0 -551.33575767682123 542.71784260729783 0 542.71784260729783 -603.03364251256426 0 0 0 0 -321.22314793517944 590.46580788301435 0 590.46580788301435 -186.82562369019433 0 0 0 0 -122.09338507780558 158.70702714612571 0 158.70702714612571 -483.02885078464533 0 0 0 0 43.03248192484898 159.80570999729389 0 159.80570999729389 109.33821629569866 0 0 0 0 -299.56391314601933 183.94017881919353 0 183.94017881919353 -340.62581522301798 0 0 0 0 -240.8786077967452 270.47124708551564 0 270.47124708551564 194.03072009866537 0 0 0 0 -340.09315239839634 366.8198807052031 0 366.8198807052031 37.121683623403442 0 0 0 0 -365.3960028219567 -0.49943852340061312 0 -0.49943852340061312 62.473869720455696 0 0 0 0 -631.52856425555001 244.91481114055114 0 244.91481114055114 -316.46066479828733 0 0 0 0 -315.46226197855867 290.79413260610818 0 290.79413260610818 -916.69885842735641 0 0 0 0 -496.71959714859258 174.43512856743473 0 174.43512856743473 -542.04669311516227 0 0 0 0 -650.34688364700742 63.538301374819639 0 63.538301374819639 -151.94613874119023 0 0 0 0 -412.30937274318421 -135.19947997412419 0 -135.19947997412419 73.323396228411184 0 0 0 0 -475.72040239706985 53.544744932172762 0 53.544744932172762 -170.22805331292329 0 0 0 0 -521.64779780810932 46.995320740052193 0 46.995320740052193 -162.59070550368597 0 0 0 0 -501.61038374940108 175.80757978765723 0 175.80757978765723 -472.7363307655869 0 0 0 0 -280.15277257128764 27.050703837639958 0 27.050703837639958 16.827834964483827 0 0 0 0 -522.21059107224937 -57.50104811669371 0 -57.50104811669371 -1.5205251252482412 0 0 0 0 -307.98614182540769 234.88449274834875 0 234.88449274834875 180.88778710678071 0 0 0 0 -415.27425201679762 161.09573592065226 0 161.09573592065226 317.46281587776321 0 0 0 0 -91.237951391438401 178.69835071103626 0 178.69835071103626 137.5808883122354 0 0 0 0 -349.79136416672554 -226.30653047523992 0 -226.30653047523992 388.64315112758413 0 0 0 0 -229.67656968215306 74.219441816614562 0 74.219441816614562 248.12969622748915 0 0 0 0 28.678119017772588 128.92907469286706 0 128.92907469286706 -131.87938611578284 0 0 0 0 -70.944926228179654 1.2406012994381683 0 1.2406012994381683 1.464474960703976 0 0 0 0 -235.21397637405971 -86.483108840617206 0 -86.483108840617206 512.39852598671496 0 0 0 0 -9.1790504446862542 -113.18865653614148 0 -113.18865653614148 145.16747528663109 0 0 0 0 42.202583843441971 101.37882587280001 0 101.37882587280001 196.92648691275281 0 0 0 0 211.33759019286845 594.62423235711913 0 594.62423235711913 -1530.0077279756224 0 0 0 0 38.201113659015391 -180.29587977150004 0 -180.29587977150004 334.00682570986191 0 0 0 0 -37.047930936505423 2.1035137003153821 0 2.1035137003153821 1.4392281936466773 0 0 0 0 -106.72076130795904 -113.44152204015154 0 -113.44152204015154 595.0420924703194 0 0 0 0 3.4352421896666101 6.2234203112412807 0 6.2234203112412807 1.1478606830455105 0 0 0 0 -209.47894421613455 267.91682256638524 0 267.91682256638524 -1281.2715726279275 0 0 0 0 -371.29346652992535 32.316844553911324 0 32.316844553911324 1660.608406911897 0 0 0 0 21.108040054474259 427.51702786571514 0 427.51702786571514 171.64947979186582 0 0 0 0 -245.37147653287684 579.18722864907613 0 579.18722864907613 1104.9397360274761 0 0 0 0 -192.03432298899497 99.054142457124726 0 99.054142457124726 795.80561879240122 0 0 0 0 -112.47529781786943 154.68936056615166 0 154.68936056615166 247.52372135116821 0 0 0 0 -3.965802550817898 573.45918296763557 0 573.45918296763557 598.1720473303867 0 0 0 0 -255.86510896386608 340.11545334230323 0 340.11545334230323 308.74146951016155 0 0 0 0 -255.11159240934649 436.95073753314136 0 436.95073753314136 702.92690719358507 0 0 0 0 
</DataArray>
<DataArray type="Float64" Name="cross_section_updated" format="ascii">
0.0090253156311306676 1 1 1 1 1 1 1 1 0.010241829486635455 1 1 1 0.0096937854392131623 1 1 1 1 1 1 1 1 1 1 1 1 1 1 1 0.010241344723095513 1 1 0.0076107835093125464 1 1 1 0.0074630532088953115 1 1 1 0.0088779103369810448 1 1 1 1 1 1 1 1 0.0098935417343713437 1 1 1 1 1 1 0.01148664971613669 1 1 1 1 1 1 1 1 1 0.0070486852970127606 1 1 0.0099287412169270714 1 1 1 0.012947271575050653 1 0.0094258447579681909 1 0.01124543086714264 0.014170766844307531 1 1 1 1 1 1 1 1 1 0.011097247097607191 1 0.0089911074884010955 1 1 0.0092862019868581204 1 1 1 1 1 1 1 1 1 1 1 1 1 1 1 0.0099717904643508506 1 1 1 1 0.013446074569873092 1 1 0.010000071654291773 0.012064962834331401 1 1 0.0099989480871173833 1 1 1 0.010099120380862449 0.012272315708324641 0.0094792729953767259 1 0.012593607334938887 1 1 1 1 1 1 1 1 1 0.0098877060740511225 0.013741862041962614 1 1 1 1 1 1 0.010002510484735577 1 1 1 1 1 0.013894320860200681 0.008638632372552222 1 1 0.01277147210556568 1 1 0.012473863744229555 0.010681205184876943 1 0.0096782371538173401 0.0091828936594805927 1 1 1 1 1 1 1 1 1 1 1 1 0.0091225462063051852 1 1 0.010699755639384877 1 1 1 1 1 1 1 1 1 1 1 1 1 1 1 1 1 1 1 1 0.0096940112364942883 1 1 1 1 1 1 1 1 1 1 1 1 1 1 1 0.013671259096870357 1 1 0.013098393705234039 1 1 1 1 0.012545494255077146 0.012132189173338309 1 1 1 1 1 1 1 1 1 1 1 1 1 1 1 0.010179267953720343 1 1 1 0.010377113796052828 1 1 1 1 1 1 1 1 0.013870348714171046 0.0093870327487080851 1 1 1 1 1 1 1 1 1 0.011271181132711682 1 1 1 1 1 0.010486860786154583 1 0.0099681479579738948 1 1 1 1 1 0.0096729189957325025 0.0098976273463798926 1 1 1 0.012227552295308662 1 0.010181864707210907 1 1 1 0.0090532544733688235 1 0.009968431379541294 1 1 0.0092202649122970076 1 1 1 0.011036709391356331 1 1 1 1 1 0.0063116752596899008 0.0078569787881207533 1 1 0.013284822561662996 1 0.0067874297266829284 0.013596717282064179 1 1 0.010422720036810225 1 0.01550973758784539 1 1 1 1 0.0096712688267066547 1 0.013346307596428559 1 1 0.0071120702617171001 0.0068031250259131858 0.012982397518730477 1 0.0075264110797808896 1 0.013374030743088657 0.0075390744658982937 1 1 1 1 1 1 1 1 1 0.0099609726075382769 1 1 1 1 1 1 1 1 1 1 1 1 1 1 1 1 1 1 1 1 1 1 1 1 0.01371280588059806 1 0.010325746457997154 1 1 1 1 1 0.013427593291459303 1 0.0090006251801361542 1 1 0.014959694595737457 1 1 1 1 0.010731819262468235 1 0.012447962553811077 1 1 1 1 1 1 1 1 1 1 1 1 1 0.011049528713618454 1 1 0.0084694757434816519 1 1 1 1 1 1 1 1 1 1 1 1 1 1 1 1 1 0.0095291781543385742 1 1 1 1 1 1 1 1 1 1 0.010169318848460443 1 1 1 0.0098476678197035959 0.008736528321337882 1 1 1 1 1 1 1 1 1 1 1 1 1 1 1 1 1 1 1 1 1 1 1 0.007584268171386261 1 1 0.010416313882709046 1 1 0.0064878702356090849 1 0.010490584458665032 1 1 1 0.00996853795049755 1 0.0057688718689734055 0.0099197621118811245 1 1 1 1 1 1 1 1 1 1 0.010167087827244122 1 1 1 1 1 1 1 1 1 1 1 1 1 1 1 1 1 1 1 1 1 1 1 1 1 1 1 1 1 1 1 1 0.0098929480468874925 1 1 1 1 0.010054284688015632 1 1 1 1 1 1 1 0.010697108823505242 1 1 1 1 1 1 1 1 1 0.011728073396415633 1 0.010401385182193114 0.0094547787623576324 1 1 0.014283257166838372 1 0.0075671945386648629 1 1 1 1 1 1 1 1 0.0098637786370537311 1 1 1 1 1 0.0076375867448110618 1 1 1 1 1 1 0.0088855978587829149 1 1 1 1 1 1 1 1 0.0093297641670595857 1 0.0072573818085200307 1 1 1 1 1 0.007235876702362554 1 0.0097804403114991369 1 1 1 1 1 1 0.010008247482761301 1 1 1 1 1 1 1 1 1 1 0.01029805573771223 0.0081199900166446046 1 1 1 1 0.0078526297826228188 1 1 1 1 1 1 1 1 1 1 1 1 0.0087540319324498697 1 1 0.0097989986691451089 1 1 1 1 1 1 1 1 1 1 0.0097413452616625599 0.0092295789289271891 1 1 1 1 1 1 1 1 1 1 0.0096995459423444234 1 0.0092890229105000374 1 1 1 1 1 1 1 1 1 1 1 1 1 1 1 1 1 1 1 1 1 1 1 1 1 1 1 1 1 1 1 1 1 1 1 1 1 1 1 0.0102622928914743 1 1 1 0.0093367599869829832 1 0.013202215708868491 1 0.010140513258026158 1 1 0.0097430303665384903 1 0.011814586609533495 1 0.010800724901161197 1 1 0.012359679138808408 1 1 1 1 1 1 1 1 0.011637006899693051 1 1 0.0078761119780790985 1 1 1 1 0.012115311585605939 1 1 1 1 1 1 1 1 1 1 0.012004718072687435 1 0.0094728306418341811 1 0.013210940031287156 1 0.012290177019038551 1 0.008553986848717823 1 1 1 0.01000134351396402 1 0.012988234242290841 1 1 1 1 1 1 1 1 1 1 1 1 0.0095288043093612398 1 1 0.01000001690980758 0.012055434222161687 1 1 1 0.0086136674467480866 1 1 0.012975032240645386 1 1 0.010818375483506422 1 1 1 0.0099980570708991193 1 1 1 1 1 0.012240693378709429 1 1 0.013767626254310531 0.014051181715622842 1 1 1 0.0085080313700007498 0.01446870479536507 0.0130280077821004 1 1 0.010359798517601028 1 1 0.010045672215542464 1 1 1 1 1 1 0.010100944003146411 1 1 0.0092037206650096501 1 1 0.014022301290617259 1 1 1 1 1 1 1 1 0.0095292628003994084 1 1 1 1 1 0.014459832174050797 0.0085513442682950101 0.012294704783978101 1 1 1 1 1 1 1 1 1 1 1 0.0097816079981498643 1 1 1 1 0.0098577527266238037 1 1 1 1 1 1 1 0.01340728829315716 1 1 1 0.0095627399744820756 1 0.013925002434747709 1 0.014323893530312702 1 0.0095863485421546005 1 1 1 1 1 1 1 1 1 1 0.0098271658789235976 1 1 1 1 1 1 1 1 0.010014353214390277 1 1 0.010042234253854813 1 1 1 1 0.010019761706677819 1 1 1 1 1 1 0.01191636633318709 1 0.010062215115257608 1 1 1 1 1 1 0.012853727148901067 0.009770080572724469 1 1 1 1 0.0099866362122851549 1 0.0099168127286563997 1 1 1 0.011038344869304124 1 1 1 1 1 1 1 0.0098445326576363963 0.010295900983826725 1 1 0.010834094254708243 1 0.0098540901047849752 0.0099999870757148564 0.010341674341397974 1 1 1 1 1 1 1 0.011456751632255105 1 1 1 1 1 1 1 1 1 1 1 1 1 0.011908562819007274 1 1 1 1 1 1 1 1 1 1 0.010484415200056489 1 1 0.011082128431694125 1 1 1 1 1 0.011076576373317742 1 1 1 1 1 1 1 1 0.012910672674104267 1 0.014288254395727097 1 1 0.0098174008141251549 1 1 0.014249291333118769 1 1 1 1 0.010147221752447217 1 1 1 1 1 0.011840339035773343 1 1 1 1 1 1 1 1 1 0.014577393747641134 1 1 0.010023734074814218 0.012495322180182225 1 1 1 1 0.010264288666376971 1 0.011655438989629284 1 1 0.0091141872563884549 0.0093680647744388487 1 0.014956755849357585 1 0.0088209273834817317 1 1 1 1 1 0.0096482660769955202 1 1 1 0.0024749730917364744 1 1 1 0.0036157030396004215 1 1 1 1 1 1 1 1 1 1 0.0097369647312589673 1 1 1 1 1 1 1 1 1 1 1 1 1 1 1 1 1 1 0.005019679846294714 1 1 0.0067090402152307771 1 1 1 1 0.0088063619080415573 1 1 1 1 1 1 1 1 1 1 1 1 1 1 1 1 1 1 1 1 1 1 1 1 1 1 1 1 1 1 1 1 1 1 1 1 1 1 1 1 1 1 1 1 1 1 1 1 1 1 1 1 1 1 1 1 1 1 0.010044670185133765 1 1 1 1 1 1 1 1 1 1 1 1 1 1 1 1 1 1 1 0.010044924993929078 1 1 1 1 0.010000254808795321 1 1 1 1 1 1 1 1 1 1 1 1 1 1 1 1 1 1 0.010194453999070253 1 1 1 1 0.010089415790622995 1 1 1 1 1 0.010583010254534373 0.007708027590572859 1 1 1 1 1 1 1 1 1 1 1 1 1 1 1 1 1 1 0.0086834134255105843 1 1 1 0.0064164718882184354 1 0.011596124145485472 1 1 1 1 1 1 1 1 1 0.011446384468996488 1 1 1 1 0.0097488472982643088 0.0092126972830317878 1 1 1 1 1 1 1 1 1 1 1 1 1 1 1 1 1 1 1 0.010170334015573188 1 1 1 1 1 1 1 1 1 1 1 1 1 0.0095553212043349017 1 1 1 1 1 1 1 1 1 1 1 1 1 1 1 1 1 1 1 1 1 1 0.010618605942986364 1 1 1 1 1 1 1 0.011101786118623795 1 1 1 0.010831986445689536 1 1 1 1 1 1 1 1 1 1 1 1 1 1 1 1 1 1 1 1 1 1 1 1 0.009788669829544485 1 0.009673238129664254 1 1 1 1 0.0095884392294895704 1 0.0087249142291209725 1 1 1 1 1 1 1 0.010187839945980545 1 1 1 1 0.010434168378550514 1 1 1 1 1 1 1 1 1 1 1 0.010916484444944018 1 1 1 1 1 1 0.0090433481673535751 1 0.017510999951798459 1 1 1 1 1 0.0082212509383462161 1 1 0.016832081910878503 1 1 0.010124634119929223 1 1 1 1 1 1 1 1 1 1 1 1 1 1 1 1 1 1 1 1 1 1 1 1 1 1 1 0.013177345759853422 1 1 1 0.010061101991183662 1 0.016046038896138277 1 1 0.009997658886555124 0.0094796014791205616 1 1 1 0.0099656514506356025 1 1 1 1 0.010045186188772058 1 0.013529560204600784 1 1 0.0089422636075961095 1 1 1 1 1 0.011552593844366195 1 1 1 1 1 0.0101515233407691 1 1 1 1 1 1 1 1 1 1 1 1 1 1 1 1 1 1 1 1 1 1 1 1 1 1 1 1 1 1 1 1 1 1 1 1 1 1 1 1 1 1 1 0.0092932893873637883 0.010027003690051722 1 1 1 1 1 1 1 1 1 1 1 1 1 1 1 1 1 1 1 1 1 1 1 1 1 1 1 1 0.0083523301891382327 1 1 1 1 0.0086285710178070525 1 1 1 1 0.010823785930512669 1 1 1 1 1 1 1 0.010681801614325366 1 0.022009110572545898 1 1 1 1 1 0.010185749731260683 1 1 1 1 1 1 1 1 1 1 0.0097585720930401642 1 1 1 1 1 1 1 1 1 1 1 1 1 1 1 1 1 1 1 1 1 1 1 1 1 0.020898057172397067 1 1 1 1 0.010320925406088196 1 0.02156194285188066 1 1 0.011794944982813261 1 0.0079853597059815606 1 1 1 1 1 1 0.0084597111575232999 1 1 1 0.0091586195775115505 1 1 1 1 1 1 1 1 1 1 1 1 1 1 1 1 1 0.010207632248931665 1 0.011165759372600602 1 1 1 1 1 0.01148677400138565 1 0.0101678695014594 1 1 1 1 1 1 1 1 0.01019037430800428 1 1 1 1 1 1 1 1 1 1 1 1 1 1 1 1 1 1 1 1 1 1 1 0.010087978468866554 1 0.010469014026745129 1 1 1 1 1 1 1 1 1 1 1 1 0.010359442556889408 1 1 1 1 1 1 1 1 1 1 1 1 1 1 1 1 1 1 1 1 1 1 1 1 1 1 1 0.018117722860933844 1 1 1 0.010009455561925121 1 0.0081247998962113033 0.020597004089291299 1 1 1 1 1 0.0098131028850664114 1 1 1 1 1 1 1 1 1 1 1 1 1 1 1 1 1 1 1 1 1 1 1 1 0.011072243339725429 1 1 0.0066788480188253521 1 1 1 1 1 1 1 1 0.0066799594623171456 0.0045683828228056389 1 1 1 1 1 1 1 1 1 1 0.0051645905308120542 1 1 0.010813555963697546 0.0098138017168017105 1 0.0079234446115826092 1 1 1 1 1 0.01150659931964995 1 0.010730365068709835 0.0079413340986086486 0.00998766932291862 1 1 1 1 1 1 0.0079292511921036056 1 1 1 1 1 1 1 1 1 0.0097801738998472606 1 0.013579164915466473 1 1 0.009457347003195447 1 1 1 1 1 1 1 1 1 1 1 1 1 1 1 1 1 1 1 1 1 1 1 1 1 1 0.0090796091263038413 0.010233232591897359 1 1 1 1 1 1 1 1 1 1 1 1 1 1 1 1 1 1 1 1 1 1 1 1 1 1 1 1 1 1 1 1 1 1 1 1 1 1 1 1 1 1 1 1 1 1 1 1 1 1 1 1 1 1 1 1 0.0053052261181134042 1 1 1 1 1 1 1 1 1 0.0047045852123772432 0.0098802206721608221 1 1 1 0.010158602785661431 1 1 1 1 1 1 1 1 1 1 1 1 1 1 1 1 1 1 1 1 1 1 1 1 1 1 1 1 1 1 0.0083554509945622732 1 1 1 1 1 1 1 0.0037698527212053981 1 1 1 1 1 1 1 0.0092711391929687307 1 1 0.014240044717132604 1 1 1 1 1 1 1 1 1 0.0098385225515570593 1 1 0.010465689138493203 0.024582750792740728 1 1 1 0.0012138450600673936 1 1 1 1 1 1 1 1 1 1 1 0.014375530546731633 1 1 1 1 0.0099762162295296049 1 0.0005542515743058446 1 1 0.011830048299508171 1 1 0.012142505969649248 0.010908487330843472 1 1 1 1 1 1 1 1 1 1 0.011648688879306141 0.0083457320866868398 1 1 1 1 1 1 0.0099506544911270416 1 1 1 1 1 1 0.014051384611713676 1 0.016215165831242058 1 1 1 1 1 0.0099996679203364844 0.010011303680319342 1 1 1 1 1 1 1 1 1 1 1 1 1 1 1 1 1 1 1 0.010936021441888526 0.0037416783780696329 1 1 0.0076226194939600801 1 1 1 1 1 1 1 1 1 1 1 0.0089516410420287466 1 1 1 1 1 1 1 1 1 1 1 1 1 1 1 1 1 1 1 1 1 1 1 1 1 1 1 1 0.010066421756094335 1 1 1 1 0.010392133736355887 0.011673269263082424 1 1 1 1 1 1 1 0.010450345436885262 1 -4.2996856075561141e-14 1 1 1 1 1 1 1 1 1 1 1 1 1 1 1 1 1 1 1 1 0.0088282404777909537 0.0074974533428197026 1 0.0090216238243543117 1 1 1 1 1 0.0084232872262396327 1 1 1 1 1 1 1 1 1 1 1 1 1 1 1 1 1 0.0079009842091954351 1 1 1 1 1 1 1 1 1 1 1 0.0060465309316454149 1 1 1 1 1 1 1 1 1 1 0.011223453637385231 1 1 1 1 1 1 1 1 1 0.012542344673881666 1 1 1 1 0.0063909654821648482 1 1 1 0.013226635746052696 1 1 1 1 0.014431524041232614 1 1 1 1 1 1 1 1 1 0.015248976335794704 1 1 1 1 0.0098914750761297469 1 1 1 1 1 1 1 1 0.010055143792001944 1 0.011204359028510077 0.010160879831930902 1 0.0094696056978261049 0.012357494404411976 1 1 1 0.0078069202572001294 1 1 1 0.0098961661747675005 1 0.0096968493173617727 1 1 1 1 1 0.0094163096050389715 1 1 1 0.014981805215818218 1 1 1 1 1 1 0.0043565617917118195 0.00059811175386756572 1 1 1 1 1 1 1 1 1 1 1 0.010022983519337607 1 0.0062514161362507824 0.0090034793892201457 1 1 1 1 1 0.013419105704278757 0.01148936373007069 1 1 0.0083839003516181024 1 1 1 1 0.0085853088536684968 1 1 1 1 1 0.0085638977809037748 1 1 1 1 0.008740885891211133 0.0040796347016482017 1 1 0.0066162018044300559 1 0.0075628073137822757 0.0096786270955769513 1 1 1 1 1 1 1 1 1 1 1 1 1 1 1 1 1 1 1 1 1 0.010413993075084796 1 1 0.0049246687089403371 1 0.0095941509659594731 1 1 1 0.0048208346619558438 1 1 1 1 1 1 0.010407421986736479 0.0091027090853456009 1 1 1 1 1 1 0.0094622884458510949 1 1 0.004572425061181034 1 1 1 1 1 1 0.0095505207714778016 1 1 1 0.010716073514453571 1 1 1 1 1 1 0.011610278856117094 1 1 1 1 1 1 1 1 1 1 1 1 1 0.010001073924780671 1 0.0099864251386268862 1 1 1 1 1 1 1 1 1 0.010036759434236039 1 1 1 0.0087113486509461102 1 1 1 1 1 1 1 1 1 1 0.0094855546469164425 1 1 1 1 1 1 1 1 1 1 1 1 1 1 1 1 1 1 1 1 1 1 1 1 1 0.0088646588931775797 1 1 1 0.0050028257112917085 1 1 0.0051784832389101428 1 1 1 1 1 0.0085593117817905455 1 1 1 0.0092888038545724458 1 1 1 1 1 1 1 0.0091376308648628262 1 1 1 1 1 1 1 1 1 1 1 1 1 1 1 1 1 0.010007374178793795 1 0.0095339876041730665 1 1 1 1 1 1 1 1 1 0.010064149450037941 1 0.0082137475726165553 1 0.0080965520912484705 1 0.0058963830658986423 0.0053462166152910724 1 1 1 1 0.010323504116478135 1 1 1 1 0.010024446526761615 1 1 1 1 1 0.0088531861319390906 1 0.0082425208167580845 1 1 0.0076954647606441908 1 1 1 1 1 1 1 1 1 1 1 1 1 1 1 1 1 0.0092388217261244274 1 1 1 1 1 1 0.009699796183806602 1 1 1 1 1 0.0066549479243030486 1 1 1 1 1 1 1 0.007891791215024424 1 1 0.0092821924689262553 1 1 1 1 1 1 0.0038504412783996805 1 1 1 0.0058056460623997792 1 1 1 1 1 1 1 1 1 1 1 1 1 1 1 1 1 0.0080559316373108279 1 1 1 1 1 0.0081415289069518559 0.0100357408651074 1 1 1 1 1 0.0091936015332058883 1 0.013619107873165056 1 0.0084460061156363102 1 0.012016467898569711 0.012200138224031471 1 1 1 0.0098759025173273743 0.010005079450247053 1 1 1 1 1 1 1 1 1 1 1 1 1 1 1 1 1 1 1 1 1 1 1 1 1 1 1 1 1 1 1 1 1 1 1 1 1 1 0.010477523769485585 1 1 1 1 1 1 1 0.0099423812563817875 1 0.013415352389510615 1 1 1 1 1 1 0.0060260677088092018 1 1 1 0.009956239491928278 1 1 1 0.0075429443550968037 0.00058548223746098665 1 0.00043936200998178146 1 1 1 1 1 1 0.013788851602067087 1 1 0.0095628423003116594 1 1 1 1 1 1 1 1 1 1 1 1 0.009134590833348586 0.010003006290578279 0.0057143689896784478 1 1 1 0.0098592062955053534 1 1 1 1 1 1 1 1 1 1 1 1 1 1 1 1 1 1 1 1 1 1 0.00089543564330050313 1 1 1 1 0.00098244538446102397 1 1 1 1 1 1 1 0.0014673064411400748 1 1 1 1 1 0.0099994202963958195 1 1 1 1 1 0.0026060765845340927 1 1 1 1 1 1 1 1 1 0.010109695678765166 1 1 1 1 0.0099834313045477855 1 1 1 1 1 1 1 1 1 1 0.01042299090940141 1 1 0.010126120684253476 1 1 1 1 1 1 1 1 1 1 1 1 1 1 1 1 1 1 1 1 0.0097670535385301939 1 1 1 1 0.0095144854258394015 1 1 1 1 1 1 1 1 0.010070194791614197 1 1 1 1 1 0.010068689597039483 1 1 0.0099984948054252943 1 1 1 1 1 1 1 1 1 1 1 1 0.011174677044021157 1 1 1 1 1 1 1 1 1 1 1 1 1 1 1 1 1 1 1 1 1 1 1 1 1 1 1 1 0.0097470660812380566 1 1 1 1 1 1 1 1 1 1 1 1 1 1 0.0094027095527719484 1 1 1 1 1 1 1 1 1 1 1 1 1 1 1 1 1 1 1 0.0085882361395252342 1 1 1 1 1 1 1 0.0091845719100419887 1 1 1 1 1 1 1 1 1 1 1 1 1 1 1 1 1 1 1 1 1 1 1 1 0.0098705640381186871 1 1 1 1 1 0.0096785004910097238 1 1 1 1 1 1 1 1 1 1 0.010055468483219547 1 1 0.010331585899854917 1 0.0097606343975125669 1 1 1 1 1 1 1 0.0071733675204759921 1 0.0084513762111838291 1 0.0097125742802728725 1 1 1 1 1 1 1 1 1 1 1 1 1 1 1 1 1 1 1 1 1 1 1 1 1 1 1 1 1 1 1 1 1 1 1 1 0.0094594527601505121 1 1 1 1 1 1 1 1 1 1 1 1 1 1 1 1 1 1 1 1 1 1 1 1 1 1 1 1 1 1 1 0.010173251426376227 1 1 1 1 1 1 0.0098999962408159309 0.010855768137713002 1 1 1 1 1 1 1 1 1 1 1 1 1 0.009936075288489974 1 1 1 1 1 1 1 1 1 1 0.010068006438607299 0.0079718648108712334 1 0.008784514995887123 1 1 1 0.011972990751132097 1 0.009026468717050774 0.0085406029458556729 1 0.024047352368478245 1 1 1 1 1 1 1 0.018669143950727322 0.0089721315537233809 1 1 1 1 0.0098044122132851658 1 1 1 1 0.018578651609290835 1 0.0086812330014849112 1 0.019512931176527366 0.0073729412797756046 1 0.010481817812960516 1 1 1 1 1 0.0099952381311464254 1 0.017900646620976207 0.0092046172262033477 0.0068452956795522629 0.010894804448540629 1 1 1 1 1 0.010551652657064816 1 1 0.016084276774675346 0.0074871744907976587 1 1 1 0.014097744290297686 1 1 0.0098144927057939885 1 1 1 1 0.023031308158346288 1 1 0.0096113217617888706 1 1 0.0048559683405213928 1 1 1 1 1 1 1 1 1 1 1 1 1 1 0.0085747805436686246 1 0.0092041166323296297 1 1 1 1 1 0.0073639963920912842 1 1 0.0093706334721628277 1 1 1 1 1 0.012999388560631346 1 1 1 1 1 1 1 1 1 1 0.013212288738643557 1 1 1 1 1 1 1 1 1 1 1 0.0059909129788355032 1 1 1 1 1 1 0.01865491133264888 1 1 1 1 1 1 1 1 1 1 1 1 1 1 0.01508689070010916 1 1 1 0.0086938686685193532 1 1 1 1 1 1 1 0.012956445001907367 1 0.011052107100069701 1 1 1 1 1 1 1 1 1 1 1 1 1 1 1 1 1 1 1 1 1 1 1 1 1 1 1 1 1 1 1 1 1 1 1 1 0.0082551728718190387 1 0.0094506353525893282 1 1 0.0067572853891773796 1 0.010722434060805551 1 1 1 1 1 1 0.010384323573638578 1 1 0.0093828997479592034 0.0098569758902499419 1 1 1 1 1 1 0.0099428735666794842 1 1 1 1 1 1 1 0.0074919719484301105 1 1 1 1 1 1 1 1 1 1 1 1 1 1 1 1 1 1 1 0.0094078903169889927 1 1 1 0.011141326838737885 1 0.0099901590171271454 1 0.010064923568753895 1 1 1 1 0.014528145255884722 1 1 1 1 1 1 0.011432067252060847 1 1 1 1 1 1 0.010325837328925766 1 1 0.010436785690222833 1 1 1 1 1 1 0.010112059962409815 1 1 1 1 1 1 1 1 1 0.010444428502040248 1 0.0088577651580224945 1 1 1 1 1 0.010495019453010949 0.0060503093384317325 1 1 1 0.0093018867349621143 0.010585085299532691 1 1 1 1 1 1 0.0097983917812860255 1 1 0.010072755958307943 0.0095296806727054803 1 1 0.010909759722468588 1 1 0.0097018690881654247 1 1 1 1 0.0091218604379822536 1 1 1 1 1 1 0.0099053955246238314 1 1 1 1 1 1 1 1 1 1 0.0095830491287140773 1 1 1 0.0097646032197660423 0.0099464821410396587 1 1 1 1 1 1 1 1 1 0.0093309625391367369 1 1 1 1 1 1 1 1 1 1 1 0.0097120293423161308 0.0079810084821750754 1 1 1 1 0.0072834229626296994 1 1 1 1 0.009280979009769777 1 1 1 1 0.010150265848597954 1 1 1 0.009760719761833573 1 1 1 1 0.0099009670452748916 1 1 1 1 1 0.0099637499414144542 1 1 1 1 0.0096267940749636648 1 1 1 1 1 1 1 1 1 1 1 1 1 1 1 1 1 1 1 1 1 1 1 1 1 1 1 1 1 1 1 1 0.0094353534855693214 1 1 1 1 0.0087663160247060459 1 1 1 1 1 1 0.0095922075967356871 1 1 1 0.0095249261483633073 1 0.0093047818770085472 1 1 1 1 1 1 1 1 1 1 1 1 1 1 1 1 1 1 1 1 1 1 1 0.010112239644857761 1 0.010039966661553037 1 1 1 0.010245524409680929 1 1 1 1 1 1 1 1 1 1 1 1 1 0.01624532280057121 1 1 0.015789622616635489 1 1 0.0051400354334577847 0.014575382429505875 1 0.015043770617714511 1 1 1 1 1 1 1 1 1 1 1 1 1 1 1 1 1 0.012804599307254021 1 1 1 1 1 0.012929168263511573 1 1 1 1 1 1 1 0.012145447034122729 1 1 1 1 1 1 1 0.0099819177769404042 1 1 1 1 1 1 1 1 1 1 1 1 1 1 1 0.0098789801212672661 1 1 1 0.0099158565008897921 1 1 1 1 1 1 1 1 1 1 1 0.010192446653210431 1 1 1 1 1 1 0.0091813924988921498 1 1 0.0099481185668222911 1 0.009961606065623442 1 1 1 0.010203719602783254 1 1 1 1 1 1 1 1 1 1 1 0.01000358541731285 1 1 1 1 1 0.0098018201227274178 1 1 1 0.0086159077109298071 1 1 1 0.0061155390390256574 1 1 1 1 1 0.017068447805365032 1 0.018084441492695984 1 1 1 1 1 1 1 1 0.0084437863159508453 1 0.010140868992428179 1 1 0.013629293171995601 1 0.018759109546764529 1 0.010037446563836741 1 1 1 1 1 1 1 1 1 1 0.0098886282329631158 1 0.017094257906081191 1 1 1 1 0.009553707188577433 1 1 1 0.006226077584008614 0.010622674042185233 1 1 1 0.011957364019326783 1 0.0081828541683959134 0.012883407612742336 1 1 0.0095609158229202698 0.015545730121991487 1 0.013756426382233525 0.0097903543348115164 1 1 0.0098564847820293566 0.011477986662461874 1 1 0.011200631426908112 1 1 0.0099873605751531255 1 0.010047026280016268 1 1 0.010846768227580942 1 1 0.0094045827363769055 1 0.0097913674237697888 1 1 1 0.011258108570974834 1 0.010085392408713839 1 1 0.0097631716480878865 0.010445898923118055 1 1 1 0.010419298052887205 0.011229829348998866 1 0.0099267785937569783 1 1 1 1 1 1 1 1 0.010165377425063342 1 1 0.012821084291243347 0.011174455212153357 1 0.0094964630523535383 1 0.010299300213216744 0.011660959715905457 1 1 1 0.010617884989697273 1 1 0.0097957893362266429 1 1 1 1 1 1 0.010087874958274595 0.011490313526424052 1 1 1 1 1 1 1 0.0096868457283466047 0.0099093245968278829 1 1 1 1 0.0070851676627151604 1 1 1 0.010027230751275667 1 1 0.010057722061151726 1 1 1 1 1 0.0086671954687447851 1 1 0.010790969389237987 1 1 1 0.0088095095205478618 0.0098795465662231338 1 1 0.0099789429657145649 1 1 1 0.0084112383560841913 1 1 1 0.0044146649833130339 0.0088850248221683352 1 1 0.0061794506204212798 1 1 1 1 0.0099856657548424224 0.0040895222406658362 1 1 0.011230557861818327 0.010046258419834003 1 0.0099539019429985866 0.017471209773360783 1 1 1 1 1 1 0.014509399261087928 1 1 1 1 1 1 1 1 1 1 0.0089382453241474927 0.0099341096694833125 1 1 1 1 1 1 1 0.0097606549255573778 1 1 1 1 1 1 1 1 1 0.011532871342749816 1 1 0.01088241549007943 1 1 0.012398206925537225 1 1 1 1 1 1 1 1 1 1 1 1 1 1 1 1 1 1 0.015611674414910574 0.01325556195739218 1 1 1 1 0.011718823134527283 1 1 0.013365910792530572 1 1 1 1 1 1 1 1 1 0.014535448376423335 1 1 0.0099817917126025103 1 1 1 1 1 1 1 1 1 1 1 0.0097550022936112989 1 0.0092748566013772047 1 1 1 1 1 1 1 1 1 1 0.0099965513260753345 1 1 1 1 1 1 1 1 1 1 1 1 1 1 1 1 1 1 1 1 1 1 1 1 1 1 1 1 1 1 1 1 1 1 1 1 1 1 1 0.013175795439451967 1 1 1 1 1 1 1 1 1 0.0096187058971999116 1 1 0.0055758960793487952 1 1 1 1 1 1 1 1 1 1 1 1 1 1 1 1 0.0017564101029159465 1 0.016898825446808239 1 1 0.0096612361582841481 1 1 1 0.010187967803207616 0.0036992315684811206 1 0.0090579284354994506 0.0031266704695764487 1 0.01450531786329288 1 1 0.010080867548568314 1 1 0.0091799624201186012 1 1 1 1 1 1 1 1 1 1 1 1 1 1 1 1 1 1 1 1 1 0.010183866794620591 1 1 1 1 1 1 1 1 1 1 1 1 1 1 1 1 1 1 1 0.0096091955124077959 1 1 1 1 1 0.011180527341263614 1 1 1 1 1 1 1 1 1 1 1 1 1 1 1 1 1 1 1 1 1 1 1 1 0.01334614958213531 1 1 1 1 1 1 0.0096157629170423708 1 1 1 1 1 1 1 1 1 1 1 1 1 1 1 0.011033326865451141 1 1 1 0.0081159256147268141 0.012057185169370599 1 1 1 0.0087501601979767148 1 1 1 1 1 1 1 1 0.0089317392093856158 1 1 1 1 0.0096205464475941065 1 1 1 1 1 1 1 1 1 1 1 1 1 0.010866182385178353 1 1 1 1 1 1 1 1 1 1 1 1 1 1 1 1 1 1 1 1 1 1 1 1 1 1 1 0.009508394796021849 1 1 1 1 1 1 1 1 1 1 1 1 1 1 1 0.010375282080344866 0.010098950472415567 1 1 1 0.010154499188209164 1 1 1 1 1 1 1 1 1 1 1 1 1 1 1 1 1 1 1 1 1 1 1 1 1 1 1 1 1 1 0.010197980705751154 1 1 1 1 1 1 1 1 1 1 1 1 1 1 1 1 1 1 1 1 1 1 1 1 1 0.0097757885109301876 1 1 1 1 1 1 1 0.0094268252454289374 1 1 1 0.0091550149753130798 1 1 0.0096687268662623282 1 1 1 1 1 1 1 1 0.00981270504670235 0.0088608777827617734 1 1 1 1 1 0.0089086016714905528 1 1 1 1 1 1 1 1 1 1 1 1 1 1 1 1 1 1 1 0.0095180467817313069 1 0.009240116788612765 1 0.0096389879897106519 1 1 1 0.017815365743112474 1 0.012375648638484952 1 1 1 1 1 1 1 1 1 1 1 1 0.023243710837164762 1 1 1 1 0.010064725485007959 1 1 0.017044802578681149 1 0.015854362841269502 1 1 0.0080211289382402188 1 1 1 0.0093635816276833525 1 1 1 1 1 1 1 1 1 0.010704545470322475 1 1 1 1 0.010062074604804894 1 1 1 1 0.0093861457045143933 1 1 1 1 1 1 0.0098415209841648862 1 0.0075446171278291951 1 0.0086949148864734066 1 1 1 0.01241381044696515 1 1 1 1 1 1 -7.7018252886418281e-14 6.0016406738362151e-05 1 1 1 1 1 0.010992662725302133 1 1 1 1 1 1 1 1 1 1 1 1 1 1 1 1 1 1 1 0.0080741023352173258 1 1 1 1 1 1 1 1 1 0.018666769358484873 1 0.0099820658658773612 1 0.009503536990287647 1 1 1 1 1 1 1 1 1 1 1 1 0.0034066141759344221 1 1 0.02533941863160934 1 1 1 1 1 1 1 1 1 0.0053213781748781795 1 0.019223934203561784 1 1 1 1 1 1 0.0083917957931569313 1 1 1 1 1 1 1 1 1 1 1 1 1 1 1 1 1 1 1 1 1 1 1 1 1 1 1 1 1 1 1 1 1 1 1 1 1 1 1 1 1 0.0073519265397654129 1 1 0.010009633997155095 1 0.0097981682551252433 1 1 1 0.014508431819032875 0.01000338295606187 1 1 0.013161756555643934 1 1 1 1 1 1 1 1 1 1 1 1 0.012958124165331406 1 1 1 1 1 1 1 1 1 1 1 1 0.011158014462795511 1 1 1 1 1 1 1 1 1 1 1 1 1 1 1 0.010188494011229428 1 1 1 1 1 0.0099469197131113376 1 1 1 1 1 1 1 1 1 0.0094587144825145058 1 1 1 1 0.0090679099949222998 1 1 1 1 1 1 1 1 1 1 1 0.015290817669509087 1 0.0098689030827263415 1 0.010053755581156478 1 1 1 0.0053095093914271758 1 1 1 1 1 1 1 1 1 1 1 1 1 1 1 1 1 1 1 1 0.009942292496502499 1 1 1 1 1 1 1 1 1 1 1 1 1 1 1 1 1 1 0.0097779023261329832 1 1 1 1 1 0.003698891379886101 1 1 1 1 1 1 1 1 0.0085470628027883386 1 1 0.0058867278723690325 1 1 1 1 1 1 1 0.0090385344279122291 1 1 1 1 1 1 1 1 1 0.0072324354224567004 1 1 1 1 1 1 1 1 1 1 1 1 1 1 1 1 1 1 1 1 1 1 1 1 0.0090222915770118445 1 0.0074955855591897179 1 1 0.015498227719522167 1 1 1 1 1 1 1 1 0.0099598345287194977 1 1 1 1 1 1 0.01094019556981642 1 1 1 1 1 1 1 1 1 1 1 1 0.0079980945597612676 1 1 1 1 1 1 1 1 1 1 1 1 1 1 0.0089595601318490457 1 1 1 0.011600551787756288 1 1 1 1 0.010773096298281364 1 1 1 1 1 1 1 1 1 1 1 1 1 1 1 1 1 1 1 1 1 1 1 1 1 1 0.0074241552763836746 1 1 0.0095420297096211193 1 1 1 1 1 1 1 1 1 0.0092426768109209433 1 1 0.009807427103209105 1 1 0.0079317095139385813 1 1 1 1 1 1 1 1 1 1 1 1 1 1 1 1 1 1 1 1 1 1 1 1 1 1 1 1 1 1 1 1 1 1 1 1 1 1 1 1 1 1 1 1 1 1 1 1 1 1 1 1 1 1 1 1 1 1 1 1 1 1 1 0.0093960083467048636 1 1 1 1 1 1 0.0046669066549712337 1 1 1 1 1 1 1 1 1 1 1 0.0073219493080333674 0.0083200309092034581 1 1 0.0095239421424810691 1 0.0052654651488160138 1 1 0.0018616991492824227 1 1 0.0046206913720806628 1 1 1 1 1 1 1 1 0.0088127773143545415 1 1 1 1 1 1 1 1 1 0.010072191390820207 1 1 1 1 0.0088818354202395283 1 1 1 1 1 1 1 1 1 1 1 1 1 1 1 0.010764186603005226 1 1 1 1 0.0027536327977203418 1 0.010038372257039458 1 1 1 0.010054909609123594 1 1 0.010447169748088616 1 1 1 1 1 1 1 1 1 1 1 0.0057402857686722044 1 1 0.013293420765418474 1 1 1 0.01700041830272369 1 1 0.011155788620712179 -3.6641872262072051e-12 1 1 0.0019127349165727493 1 1 1 1 1 1 1 1 0.0051435743435556099 1 1 1 1 0.0077509103435905238 1 0.00060766704320630973 1 0.0081907221231330013 1 1 1 1 0.0068406758819643965 1 1 1 0.011153066201417816 1 1 1 1 1 1 1 1 1 1 1 1 1 1 1 1 1 1 0.0083444283489603841 1 1 1 1 1 1 1 1 1 1 1 1 1 1 1 1 1 1 1 1 1 1 1 1 1 1 1 1 1 1 1 1 1 1 1 1 1 1 1 1 0.0072197811515775376 1 1 1 1 1 0.0059400843900494407 1 1 1 1 1 1 1 1 1 1 1 1 1 0.010468919493238665 1 1 0.010910672252995218 1 1 1 0.0065304620775661591 1 0.005551142325957107 1 1 1 1 0.010708808663892483 1 1 1 1 1 1 1 1 1 0.0042010763273274427 1 1 0.010132814566126172 0.013104383712283939 1 0.0065025515442638654 1 1 1 1 1 1 1 1 1 1 1 1 1 1 1 1 1 1 1 1 1 1 1 0.014240203492182083 1 1 1 0.012765678378002373 1 1 1 1 1 1 1 0.011007069215615003 1 1 1 1 1 1 1 1 1 1 1 1 1 1 1 1 1 1 1 1 1 1 1 0.0093646308017059417 1 1 1 1 1 0.0084032532190058754 1 0.0057715881807599359 0.014174884393208093 1 1 1 0.0061038365401909819 1 1 0.0087002138525935756 1 1 1 1 1 1 1 1 1 1 1 0.010039053036259453 1 1 1 0.014769389616278147 1 0.011481029467899913 1 1 1 1 1 0.0066492121448551017 1 0.010104323209785489 1 0.012421055912835538 1 1 1 1 1 1 1 1 0.00049448745505500198 0.010522622747056815 -2.7679247782685934e-14 1 1 0.0097409275190632715 1 1 1 1 1 1 1 1 1 1 1 1 1 1 1 1 1 1 1 1 1 1 1 1 1 1 1 1 1 1 1 1 1 1 1 1 1 -1.7477013759814586e-14 1 1 1 1 1 1 1 0.0013640003770437007 1 1 0.0099963022150638195 1 1 1 1 1 1 1 1 1 1 1 1 1 1 1 1 1 1 1 1 1 1 1 0.00058564588914369929 1 1 1 1 1 1 1 1 1 1 0.015308953999881733 1 1 1 1 0.018891604850655414 1 1 1 1 0.002992764816654947 1 0.0099655180727071819 0.011537383012144535 1 1 1 1 0.012674699483600855 1 1 0.0090732382281037138 1 1 0.0069642494437403193 -3.6219291454919755e-14 1 1 1 1 1 1 1 0.0081217916196627809 1 1 1 1 1 1 1 1 1 1 1 1 1 0.010204322808609761 1 1 1 1 1 1 1 0.0091917874507776963 0.010596478942724578 1 0.014697043023565464 1 0.0029101140340271037 1 1 1 0.0083024213431062439 1 1 1 1 1 0.0088930281978388519 1 1 0.0096010250371383419 1 1 1 1 1 1 1 0.011651377749560906 1 1 1 1 1 1 1 1 0.0096756693834141837 1 1 1 0.0097706751238676622 1 1 1 1 1 0.010131032531848265 0.010758103782670891 1 1 0.010409597786948534 1 1 1 1 1 1 1 1 1 1 1 1 1 1 0.0097263505362268337 1 1 0.01048056119997615 1 0.0091949617075390601 1 1 1 1 0.010401194950336347 1 1 1 1 1 0.01153951123957626 1 1 0.0099185428222810165 0.012114268370840313 1 1 1 1 0.0092364523388810214 1 1 1 1 1 1 1 1 0.013248055554303747 1 0.010144600290392236 1 1 1 1 1 1 1 1 0.012989764168238261 1 1 1 1 0.0097498838601475998 1 1 1 1 1 1 1 1 1 1 1 1 1 1 1 1 1 1 1 1 1 1 1 1 1 1 1 1 1 1 1 1 1 0.0096317445081203872 1 1 1 1 1 1 1 0.0089136621567080764 1 1 1 1 1 1 1 1 1 1 1 1 0.0096775396966570365 1 1 1 1 0.0088525687788140843 1 1 1 1 1 1 1 1 1 1 1 1 1 0.010006082461472159 1 1 0.0094003735021730879 1 1 1 1 0.0097637888309718215 1 1 1 1 1 1 1 1 1 1 1 0.009762100219601666 1 0.01059469321653057 1 1 0.0099209914529785077 1 1 1 1 0.0072616517281054657 1 1 1 1 1 1 1 1 1 1 1 1 1 1 1 1 1 1 1 1 1 1 1 1 1 1 1 1 0.0092188695895048991 1 1 1 1 0.010576681818639624 1 1 1 1 1 1 1 1 1 0.0091983599772669754 1 1 1 0.0079350636023059386 1 1 1 1 1 1 0.012115879812122336 1 0.0070419825884626367 1 0.010926207475909593 1 1 1 1 1 1 1 1 1 1 1 1 1 1 1 1 1 1 1 1 1 1 1 1 1 1 1 1 1 1 1 1 1 1 1 0.0098276136815596861 1 0.008487502718379808 1 1 1 1 1 1 1 1 0.0096099480144927474 1 1 1 1 1 1 1 1 1 1 1 1 0.010175813538733345 1 1 1 1 1 1 1 1 1 1 1 1 1 0.010046194669567028 1 1 0.010598773724640687 1 1 1 1 0.0099043568372139575 1 1 1 1 0.010841534926488327 1 1 1 1 1 0.012176940215897431 0.010007991016910297 1 0.0095204890252158642 1 1 0.011794414318784743 1 1 1 1 0.0099265171907657393 1 0.010078370207853633 1 1 1 1 1 1 1 1 0.010137748986535883 1 1 1 1 0.011052958253108062 1 1 1 1 1 1 1 1 1 1 1 1 1 1 1 1 1 1 1 1 1 1 0.010982746902520024 1 1 1 1 1 1 1 1 1 1 1 1 1 1 1 1 1 1 1 1 1 0.012035705155628081 1 1 1 1 1 1 1 0.011480087981271146 1 0.010473703111124322 1 1 1 1 1 1 1 1 1 1 1 1 1 1 1 1 1 1 1 1 1 1 1 1 1 1 0.0078921476850967696 1 1 1 1 1 0.012621891101400728 1 0.010246987985869633 1 1 1 1 0.011078841568058856 0.0082660980767136141 0.01049981470826075 1 0.0067651295391237699 1 1 1 0.011375740281879357 1 1 1 1 0.010062414218608833 1 0.0076637873740563519 1 1 1 1 0.010022420943421114 1 1 1 0.011027956862710126 0.011468233184493398 0.0098122070611948078 1 0.0067491417297482984 1 0.0076324507316468237 1 1 0.009967156161613611 1 1 1 1 1 1 1 1 1 1 0.0096440229684314187 1 0.0093929654147011134 1 0.0094721147856068784 1 1 1 1 0.0083921034739470029 1 1 1 1 0.010507551594365913 1 1 1 1 1 1 1 1 1 1 0.0023095088245688408 1 0.010072869025068308 1 1 0.013294891890871392 1 1 4.6733450442815183e-15 1 1 1 1 1 0.012012270765531019 1 1 1 1 1 1 1 1 1 1 1 1 0.009250035643046604 1 1 1 0.01114884211514627 1 1 1 1 1 0.010437306603011457 1 1 1 1 1 1 1 1 1 1 1 1 1 1 1 1 1 1 1 1 1 0.0099693629235848985 1 1 1 1 0.0037923768676278446 1 1 1 0.0057602575277386388 1 0.010502523361382812 1 1 0.0056514096525299533 1 0.0099067335151447229 1 1 1 1 1 1 0.0098450411960461243 1 1 1 1 0.0071794696389037172 1 0.0039976991089463714 1 1 1 1 1 1 1 0.0098862785504005481 1 1 1 1 1 1 1 6.0194904616395206e-16 1 1 1 1 1 1 1 1 1 1 1 1 1 1 1 1 1 0.0096361624105481426 1 1 1 0.010098889528434516 1 1 1 1 1 1 1 1 1 1 1 1 1 1 0.010336947929984869 1 1 1 1 1 1 1 1 1 1 1 1 1 1 1 1 1 1 1 1 1 1 1 1 1 1 1 0.011236849469484713 1 0.013388798817787057 1 1 1 0.0090642415896480949 1 1 1 0.012471740326621796 1 1 0.010068800219363816 0.01580042497442196 1 1 1 1 1 1 1 1 0.014795209761888533 1 1 0.015370152067557685 1 1 1 1 0.010378469747248696 1 0.01015399262485722 1 1 1 0.01023789943117814 1 1 1 1 1 1 1 1 1 1 0.010512964916270804 1 1 0.009520585423918957 1 1 0.00999954042431727 1 1 1 1 1 1 1 0.0070518559842188619 1 1 0.0099114168491445109 0.010496292146254348 1 1 1 0.0099886723185036268 1 1 1 1 1 1 0.01059814530123054 1 1 1 1 0.0045635765173011452 1 1 1 0.009441309492016969 1 1 1 1 0.0097723231535578828 1 1 0.0061106601423305158 1 1 1 1 1 1 1 1 1 1 1 0.013499719901434818 1 1 1 1 0.011882044855335561 1 0.010180511508326922 1 0.012625494527271505 1 0.010015512904497809 1 1 1 1 1 1 1 1 1 1 1 0.010010851747263435 0.011042260155836755 1 1 1 1 1 1 0.010026985318883854 1 1 0.0048462292875715175 1 1 1 1 1 1 0.012026305313022843 1 1 1 0.011455920209518794 1 0.0047561570185677797 1 1 1 0.010957424616007128 1 1 1 1 1 1 0.010643237962529932 1 1 1 1 1 1 0.010410108493656449 1 0.010017478384318464 1 1 1 0.0069956601765103557 1 1 1 1 0.013167279888400647 1 1 1 1 1 1 1 0.009990985835356965 1 0.0095124905410450076 1 0.010611581139191924 1 1 1 0.008766021529141339 0.0068882726978172909 1 1 0.0092339929862590327 1 1 1 1 1 0.010850850350307015 1 0.009174739891277834 0.0073931010450662884 0.010322673182975181 0.0090326973508637453 1 1 1 1 1 0.0033457411252521586 0.0053758671666884819 1 1 0.0099573909186208565 1 1 1 0.010170762766874245 1 1 1 1 1 1 1 1 1 0.0086735814788536873 1 1 1 0.010010696192021842 1 1 1 1 1 1 1 0.0098870067717070007 1 0.0099290324223110307 1 1 1 1 0.0092141631415978489 1 0.010524295891258754 1 1 1 1 0.0103325975659657 1 1 1 1 1 1 1 1 1 0.010115359044596062 1 1 1 1 1 1 1 1 1 1 1 1 1 1 1 1 1 1 1 1 1 0.0099486164567892631 1 1 1 1 0.0099809210751049329 1 1 1 1 1 0.011993685048933294 1 0.0099998817464188993 1 1 1 1 1 1 1 1 1 1 1 0.0099997772452874913 1 0.0100000165743971 1 0.010644314405890372 0.0092314137465381793 1 0.010026489331905227 1 0.009327731337380846 1 1 1 0.010061820100754381 1 1 1 0.0097422144823150897 1 1 1 1 0.010274450384579947 1 0.01027827025231362 1 1 1 1 1 1 1 1 0.010060059223436798 1 1 1 1 1 1 1 1 0.010092993182884613 1 1 1 1 1 1 1 1 1 0.010021680324838604 1 1 0.010308050786819869 1 1 1 0.01013743725606767 1 1 1 1 1 1 1 1 1 1 1 1 0.010060152056769266 1 1 1 1 0.012003691686845747 1 1 1 1 1 1 0.0105677997962976 1 1 1 1 0.010006875659511564 1 0.0097040604556414174 1 1 1 1 1 1 1 0.0089190477512815312 1 1 1 0.010040740785407001 0.010012657288591352 1 1 1 1 0.0080727184507560553 1 0.010002524011242249 1 1 0.013161156436052387 1 1 1 1 1 1 1 1 1 1 1 1 1 1 1 1 1 1 1 1 1 1 1 1 1 1 1 1 1 1 1 1 1 1 1 0.011252617631045361 1 1 1 0.013886531722516962 1 1 1 1 1 1 1 1 1 1 1 1 1 0.0099462704511228787 1 0.0084922185299946135 1 1 1 1 1 1 1 1 1 1 1 1 1 0.00068267868944201296 1 1 0.00063938941970513238 1 1 1 1 1 0.0028223658869452242 1 1 1 1 1 1 1 1 1 1 1 1 1 1 1 1 1 1 1 0.0047226703821837074 0.015143625355812276 1 1 0.0096782167973263993 1 1 0.0098021608862592403 1 1 1 1 1 1 1 0.0084230349769824891 1 1 1 1 0.0056543669541716402 1 1 1 1 1 1 1 1 1 1 1 1 1 1 0.01144231948420118 1 1 0.011181825139232712 1 1 1 1 1 1 1 0.010857529469355526 0.010932373924742979 1 1 1 1 1 1 1 1 1 1 1 1 1 1 1 1 0.010324892533425863 1 1 1 1 0.010320979437733241 1 1 0.012271894042417887 1 1 -2.7434651772573204e-15 1 1 1 1 1 1 1 1 1 1 1 1 0.00070390354720829655 1 1 1 1 0.0010134839019465443 1 1 1 1 1 1 1 1 1 0.0081985800753594934 0.01338903466953751 0.0099804695398004531 1 1 1 0.013064974706929376 1 1 0.0058104480227772447 0.0078740987812258127 1 0.0052346406900704769 1 1 1 0.0099197675362162757 1 1 1 1 1 1 1 1 1 1 1 1 1 1 1 1 1 1 1 1 1 1 1 1 1 1 1 1 1 1 1 1 1 1 1 1 1 1 1 1 1 1 1 1 1 1 1 1 0.0097122264574469614 1 0.0092681421277344637 1 1 1 1 1 1 1 1 1 0.0097831588357893459 1 1 1 1 1 1 0.0090987517523757454 1 1 1 1 1 0.0095654263856758768 1 1 1 1 1 1 1 1 1 1 1 1 1 1 1 0.011666350494737934 1 1 1 1 1 1 1 0.009977130353560619 1 1 1 1 1 0.0098877388676126849 0.010269450333589751 1 1 1 1 0.010502060883024656 1 1 1 1 1 1 1 1 1 1 1 1 1 1 1 1 1 1 1 1 1 0.0095826473233883887 1 1 1 1 1 1 0.010923751666003144 1 1 1 0.0088150020078369903 1 1 1 1 1 1 1 1 1 1 1 1 1 1 1 1 1 1 0.0082014072853433678 1 0.010325977385724359 1 1 1 1 1 0.010508969252338879 0.0099478304684510743 1 1 1 0.010273081798871906 1 1 1 1 1 1 0.0096749969673508365 1 1 1 1 1 0.010047636682966345 1 0.012252204509309968 1 1 0.011686095481943527 1 1 1 1 0.011423111939520354 1 1 1 1 0.012285492204907756 1 1 1 1 0.010001834736754915 1 1 1 1 1 1 1 1 1 1 1 1 1 0.0091833903190998659 1 1 1 1 1 1 1 1 1 1 1 1 1 1 1 1 0.011462413421067019 1 1 1 1 0.012151769919716407 1 1 1 1 0.010273433470382898 1 1 1 1 1 1 1 1 1 1 0.010745203337246229 1 1 1 1 0.010309834702943096 1 1 1 1 1 1 1 1 1 1 1 1 1 1 1 0.010435100622317749 1 1 1 0.010563439386577868 1 1 1 1 1 1 1 1 1 1 1 1 1 1 0.0085179170371177879 1 1 1 1 1 1 1 1 1 1 1 0.010036591492568565 1 1 0.0099870276935574692 1 1 1 1 1 1 0.0063364591951322203 0.010388706292051807 1 1 1 1 0.010250403618407771 1 0.0098002124888545671 1 1 1 0.0061291904889820836 1 1 0.0085185286882485858 1 1 1 1 1 1 1 1 1 1 1 1 1 1 1 1 0.0078651610881140602 1 1 1 1 1 1 1 1 0.0046713525141440573 0.0092159987399114685 1 1 1 0.0036184927805416184 0.0088605599787874457 1 0.009300942806215854 1 0.0090031803279050724 1 1 1 1 0.0095515992563079254 1 1 1 1 1 1 1 1 1 1 1 1 1 0.009953629257775147 1 0.020193984862512809 1 1 1 1 1 1 1 1 0.011030399422289531 0.0099973994290813266 1 1 0.010333510969737256 0.0065572321273201124 0.019117229731128896 1 1 1 1 1 1 0.0099974145473857769 1 1 0.015465864168558765 1 1 0.0093015947411036748 0.011014809181423797 0.0099240257787379643 0.010028894113531823 1 1 1 1 1 1 1 1 1 1 1 1 1 0.0093928029247276005 1 1 0.00806818523516269 1 0.0098747643087199952 1 1 1 1 1 1 1 0.0099743503756667684 0.0029048116418320669 1 1 0.0037306243694800248 1 1 0.0090113991170688353 1 1 1 1 0.0092952836810413254 0.01041581210960303 0.0083871310331001328 0.010960204033896397 1 1 1 1 1 1 1 1 1 1 1 1 1 1 0.012565615664817131 1 1 0.0039539435267856981 1 1 1 1 0.0099442951719977291 1 1 1 0.011670553144402473 1 1 0.0045912730974625449 1 1 0.010005863559257882 1 1 0.011491771351121567 0.0061319814736301541 1 0.0062324964313129304 1 1 1 1 1 1 0.0093981556926353363 1 1 1 1 0.011288023447648867 1 1 1 1 1 0.0063296307228901515 1 1 0.0099978822966728283 1 0.011486349089465244 0.0064113848851564022 1 1 1 0.011590081683250729 1 1 1 1 1 0.010071542789707929 1 1 1 0.01036759791991616 1 1 1 0.010054532636894221 1 1 1 1 1 1 1 0.0089774409923228833 1 1 1 1 1 0.0082731394667336852 1 1 1 1 1 1 1 0.010262848045248889 1 0.0081291627443430062 0.010894550633275994 1 1 0.0092633719120232168 1 1 1 1 1 1 0.0091590610628607856 1 1 1 1 1 1 0.004689846253149269 1 1 1 1 1 1 0.010908847592590327 1 0.016094732113056766 1 0.006895250150051927 1 1 0.012400529516260632 1 1 1 1 0.004517767358278222 0.010189515668119284 0.0070840446513159537 0.013521113105639488 1 1 1 1 1 1 1 1 0.0039538965859617133 1 1 1 0.0099956608544119682 1 0.007976468127676134 1 1 1 1 1 1 1 1 1 1 1 1 1 1 1 1 0.011891050688411431 1 0.016341299095888211 1 1 1 1 1 1 1 1 0.010001883929930616 1 1 1 1 1 0.01203841005821871 1 1 0.015416407261196332 1 1 1 1 1 1 0.011152930746734171 0.016274640214404872 1 1 0.016762881455643579 1 1 1 1 1 1 1 1 1 1 1 0.0094801224938001506 0.0081174397057635315 1 1 1 1 0.010023604408386195 1 1 1 1 1 1 1 1 0.016404198241730086 1 1 1 1 0.011034003938442775 1 1 1 1 1 1 0.012526249020876025 1 0.014486346681271522 1 0.010699600055630627 1 1 1 1 1 1 1 1 1 1 1 1 1 1 1 1 1 1 0.0097263413954642129 1 1 1 1 1 1 1 1 1 1 1 1 1 1 1 1 1 0.010014568808666772 0.009743303274983333 1 1 1 1 1 1 1 1 1 1 1 1 1 1 1 1 1 1 1 1 1 1 1 1 1 1 1 1 1 1 1 1 1 1 1 1 1 1 1 1 1 1 1 1 1 0.010085790738930426 1 0.010318401288365356 1 1 1 1 1 1 1 0.00999529578809954 1 1 1 0.0095135435892134291 1 0.013936158809346873 0.010015578916789832 0.010451514888189104 1 0.014410124690843965 0.0096951898228549889 1 1 0.0099752056742924804 0.012548788065654458 0.014853783943048378 1 1 1 1 1 0.010594705987980811 1 0.011766337452985927 0.011870036283412341 1 1 1 1 1 1 1 0.010702473434791297 1 1 0.01400053677106777 1 1 0.010725978412193464 0.0081287975737230327 1 1 1 1 1 1 0.0076999982772604676 1 1 0.010919222291447785 0.0073776016516944286 1 1 0.0099634786868163638 1 1 1 0.0098223581093632873 1 1 1 1 0.007587373782963756 1 1 1 0.011263467417920678 1 1 0.0083865633331071283 1 1 1 1 1 1 1 1 1 1 1 1 1 1 1 1 1 1 1 0.010542068515870735 0.0098244987606597549 1 1 1 0.0045359290955416364 1 1 1 1 0.0056881862600500106 1 1 1 1 1 0.0094036314719266462 0.010300563808548832 1 1 1 1 1 1 1 1 1 0.0094689944845767187 1 1 1 1 1 1 1 1 1 1 1 1 1 1 1 1 1 1 1 1 1 1 1 1 1 1 1 0.0099992306845964815 1 0.0095312959937391764 0.0096244696733374779 1 1 1 1 1 1 1 1 1 1 1 1 1 1 1 1 1 1 1 1 1 1 1 1 1 1 1 0.010362823409832321 1 1 0.0099958253282262724 1 1 0.0090439218544497608 1 1 0.0079815060329438813 1 0.010056517660791207 1 1 1 1 1 1 1 0.0093261921825618967 1 1 1 1 1 1 1 1 1 1 1 1 0.010759088325627102 1 0.0098254269259959327 1 0.0099992666301158897 1 1 1 1 1 0.0090297356475766283 1 1 1 1 0.0099961499449009051 1 1 0.0099396731951526939 1 1 1 1 1 1 1 1 0.010012501596197744 1 1 1 1 1 1 0.010423609851489268 1 1 1 1 0.010128289836396562 1 1 1 0.010025841470985827 1 1 1 1 1 1 1 1 1 1 1 1 1 1 1 1 1 1 0.010045554414314553 1 0.010035139691928187 1 1 1 0.010015433323712457 1 1 1 1 1 1 1 1 1 1 1 1 1 1 1 1 1 1 1 0.014188516263842307 1 1 1 0.0099874787340740248 1 1 1 0.0099509574208903936 1 1 1 1 1 1 1 1 1 1 1 1 1 1 1 0.0085315965335320265 1 1 1 1 0.0096456461548161173 1 1 0.012788403957191189 1 1 1 1 1 1 0.010154006875359473 1 0.010326748809539118 1 0.012474657778659365 0.0082000183485040137 0.0099903386291621335 1 1 1 0.0099809667098053421 0.01115703148264652 1 1 1 1 1 1 1 0.010460591336858177 1 1 1 0.013460268512120267 1 0.009095491492166586 1 1 1 1 1 1 1 1 1 0.011293821878014974 1 1 1 1 1 1 1 1 0.009649017422213477 1 1 1 1 0.0099357339737541663 1 1 1 1 1 1 1 1 1 1 1 1 1 1 1 1 1 1 1 1 1 0.010002634991496366 0.0095060433549147786 1 1 1 1 1 1 1 1 0.01092318314464393 1 1 1 1 1 1 1 1 1 1 0.012316642067813625 1 1 1 1 1 1 0.0062723830742625712 1 1 1 1 1 0.0059968281037968627 1 0.0097338078053893912 1 1 0.010649802460131204 0.0055173700366961832 1 1 1 1 1 1 1 1 1 1 1 1 1 1 1 1 1 1 1 1 1 1 1 1 1 1 1 1 1 1 1 1 1 1 1 1 1 1 1 1 1 1 1 1 1 1 1 1 0.014468829793916057 0.0097790269952931271 1 1 0.015623852864592804 1 1 1 1 1 0.017068538456396321 0.010008126010764003 1 1 0.010016561919526368 0.01184926569776678 1 1 1 1 1 1 1 1 1 1 0.012132892206310171 1 1 1 1 1 1 1 1 1 1 1 1 1 1 1 0.011686061120613761 1 1 1 1 1 1 1 1 1 1 1 1 1 0.015067196417509756 1 0.011700062726006049 0.0062288785196614287 0.0072118821838781299 1 1 1 1 1 1 1 1 0.015287383430799493 0.010015956291991004 1 1 1 1 0.0099878891840124179 1 1 1 1 1 1 1 1 0.012118229135135654 1 1 1 1 1 1 1 1 1 1 1 1 1 1 1 1 1 0.015021328942640648 1 1 1 1 1 1 0.010570101649585863 1 1 0.012030606693873198 1 1 1 1 1 1 1 1 1 1 1 1 1 1 1 1 1 1 0.0096912955743034285 1 1 1 0.010082053450584791 1 1 0.008975167879840415 1 0.016672351055630218 0.010018289613446175 1 1 0.014064152386972149 1 1 1 0.022943300936893941 1 1 0.0069818779162468345 1 0.0075090374724877448 0.0074379102373941658 1 1 1 1 0.007608618095566155 1 1 1 1 1 1 0.014004336240974571 1 0.0079706940467751796 1 1 1 0.013444533498684618 1 1 1 1 0.0094843527450857567 1 0.0092282367206741427 0.0093948757205452281 1 1 1 1 1 0.0099717287192787295 1 0.0086549306133556526 1 0.012903471388477432 1 0.0087494597017438881 0.012782209237269887 1 1 1 1 1 1 1 0.013846371659119318 1 0.011966331524373009 1 1 0.008207254270148779 1 1 0.0091249151304866778 1 1 1 1 1 1 1 1 1 1 1 1 1 1 1 1 1 1 1 1 1 1 1 1 1 1 1 1 1 1 1 0.0081198726814500615 1 1 1 1 1 1 1 1 1 1 1 1 1 1 1 1 1 1 1 1 1 1 1 0.0097628870511159947 1 1 1 1 1 0.010987452881001111 0.0085093329227079011 1 1 1 1 1 1 1 1 1 1 1 1 1 1 1 1 1 1 1 1 1 0.020960940436872307 1 1 1 1 1 1 1 1 1 1 1 1 1 0.0089290319072814865 1 0.012420869217402082 1 1 1 0.017116172844337002 1 1 1 1 1 1 1 1 0.012032971860868366 1 0.0059767714527098545 1 1 1 1 1 0.0074367421968517932 1 1 1 1 1 1 1 1 1 1 1 0.0068803964265561138 1 1 1 1 1 1 1 1 1 1 1 0.0075893853622358877 1 1 1 1 1 1 1 1 0.0090073252543831153 1 1 1 1 1 1 1 1 1 1 1 1 1 1 1 1 1 1 1 1 1 1 1 1 1 1 0.011485695227602066 1 1 0.01362731620291225 1 1 1 1 1 1 1 1 1 1 1 1 1 1 1 1 1 1 1 1 1 1 1 1 1 1 1 1 0.015422739876298891 1 0.0072185742730470279 1 0.010115480175739246 1 1 1 1 1 0.0071622615226135701 1 1 1 1 0.010077268841499924 1 1 1 0.0067510942863493219 1 1 1 1 1 1 1 1 1 1 1 1 1 1 1 1 1 1 0.0081723113172689141 0.015295458251892224 0.009931571707585525 1 1 1 1 1 1 1 1 1 1 1 1 1 0.011653886874989276 1 1 1 1 1 1 1 1 1 1 1 1 0.0098908680058678103 1 1 0.013527175155502117 1 1 1 1 1 1 1 1 1 1 1 1 1 1 1 1 1 1 1 1 1 0.012141620975310186 0.01154446004368925 1 1 1 1 1 1 1 1 1 1 1 1 1 1 0.010734903624960754 1 1 0.011960619545597568 1 1 1 1 0.010513945913180396 1 1 1 1 1 1 0.010219195801049599 1 1 1 1 1 1 1 1 1 1 1 1 1 1 1 1 1 1 0.012140040556984425 1 1 1 1 1 0.012826613424546709 1 1 1 1 1 1 1 1 1 1 1 1 1 1 1 1 1 1 1 1 1 1 1 1 1 1 1 1 0.0091154002993524066 1 0.0095929792497528657 1 1 1 1 0.010242453181149592 0.0099258617431912111 1 1 1 1 1 1 1 1 1 1 1 1 1 1 1 1 1 1 1 1 1 1 1 1 1 1 1 1 1 1 1 1 1 1 1 0.0094688922434695358 1 1 1 1 0.010902849294179911 1 1 1 1 1 1 1 1 1 1 1 0.010387690151821005 1 1 1 1 1 1 1 1 1 1 1 1 1 1 1 1 1 0.0083503791229466249 0.010274445375867646 1 0.010840511012477586 1 1 1 1 1 1 1 1 1 1 0.01094634777472156 1 1 1 1 1 1 1 1 1 1 1 1 1 1 1 1 1 0.010325351870118677 1 1 1 1 0.011457411926639245 1 1 1 1 1 1 1 1 1 1 1 1 1 1 1 1 1 1 1 1 1 1 1 1 1 1 1 1 1 1 1 1 1 1 1 1 1 1 1 1 1 1 1 1 1 1 1 1 1 1 1 1 1 1 1 1 1 1 1 1 1 1 1 1 1 1 1 1 1 1 1 1 1 1 1 1 1 1 1 1 1 0.010270629966331237 1 1 1 1 1 1 1 0.010139233716668014 1 1 0.010332023242142815 1 1 1 1 1 1 1 1 1 1 1 1 0.010781831380432013 1 0.010511722197439023 1 0.014334768482954487 1 1 1 1 1 1 1 1 0.011565528037292105 1 1 1 1 1 1 1 1 1 0.010192799741534385 1 1 1 1 1 1 1 1 1 1 1 1 1 1 1 1 1 1 1 1 1 0.0074116386613820359 1 1 1 1 1 1 1 1 1 1 1 1 0.0084147061007212882 1 1 1 1 1 0.0089362273558227494 1 1 0.011723660647545616 1 1 1 1 0.012901880481948897 0.0099602173116966602 1 1 0.012483108925569272 1 1 1 1 1 1 1 0.0032363575744787966 0.010965388761698211 1 1 1 1 1 1 1 1 1 1 1 1 0.01084467890261585 1 1 1 1 0.011655347278703146 1 1 1 1 1 1 1 1 0.01081208865637143 1 1 1 1 0.010829962264164696 1 1 1 1 0.0094190219382121534 1 1 1 1 1 1 1 0.0097554245867315578 1 1 1 1 1 0.01055586584520018 1 1 1 0.011396845171268918 1 1 1 1 1 0.011980383721010129 1 1 1 1 1 1 1 1 1 1 1 1 1 1 0.012056929634313261 1 1 0.011963267654740303 1 1 1 1 1 1 1 1 1 1 1 1 1 1 1 1 1 1 1 1 1 0.0099238717203500026 1 1 0.018073687126662442 1 1 0.010000867741180841 1 1 1 1 1 1 1 1 1 1 1 1 1 1 1 1 1 1 1 1 1 1 1 1 1 1 1 1 1 1 0.0082069337054401191 1 1 1 1 0.010005109620126835 1 1 0.0084773129270541425 1 0.010011066319496588 1 1 1 1 0.0076142554600100304 1 0.017102106364143048 1 1 0.01152498092924906 1 0.0082105631437854511 1 0.011603204915960152 0.0085846202709312838 1 1 0.01431869483320021 1 0.016432820963590031 1 0.0083767720843106949 1 1 0.012203377790892943 1 1 1 1 1 1 0.0124728208445375 1 0.010339853169914285 1 1 0.010048194356273573 0.010451544876233827 1 1 0.0098752041706335614 1 0.0095451609043010928 1 1 0.011411594406466026 1 1 0.0086296168569561672 1 1 0.01288082398722192 0.0081314236929286923 0.0086420204850936478 1 0.0076181943155653534 1 1 1 1 1 1 1 1 0.009980414422822808 1 1 1 1 1 1 1 0.010250112014347338 1 1 1 1 1 1 1 1 1 1 1 1 1 1 0.010785509527785352 1 1 1 1 1 1 1 1 1 1 1 1 1 1 1 1 1 1 1 0.0092521864402124124 1 1 1 1 1 1 1 1 1 1 1 1 1 1 1 1 1 1 1 1 1 1 1 1 1 1 1 1 1 1 1 0.013583457080112077 1 1 1 0.014877294404891349 1 0.0053113054436549206 0.0081338612606859217 1 0.019702510379863685 1 1 1 0.016935936988897074 1 1 1 1 0.010270938915953985 0.015653622745621175 0.0099476418590241054 1 1 1 1 1 1 1 1 1 1 1 1 1 1 1 1 1 0.01699530637196521 1 1 1 1 1 1 1 1 1 0.011716254383222931 1 1 1 0.011819813651683869 1 1 1 1 1 1 1 1 1 1 1 1 0.014008193635683917 1 1 0.012188379984000051 1 1 1 1 1 1 1 1 1 1 1 1 1 1 1 1 1 1 1 1 1 1 0.012704454529635761 1 1 1 1 1 1 1 1 1 1 1 1 1 1 1 1 1 1 0.012158836910388351 1 1 1 1 1 1 1 0.009377028591966657 1 1 1 1 0.0084451227634619042 1 1 1 1 1 1 1 1 1 1 1 1 1 1 1 1 1 1 1 1 1 1 1 1 1 1 1 1 1 1 1 1 1 1 1 0.011267229925024682 0.010370770649861581 1 1 1 1 0.0081311530822434797 1 0.0068579465460311146 1 1 1 1 1 0.005891948997745684 1 1 1 1 1 1 1 1 0.0087332465382897306 0.0099875861209273581 1 1 1 1 0.010372141991734092 1 1 1 1 1 1 1 1 1 1 1 1 1 1 1 1 1 1 1 1 1 0.0098379582404504798 1 1 1 1 1 1 0.01337833663567814 1 1 0.01457939414551216 1 1 1 1 1 1 1 1 1 0.0090569587782599395 1 1 1 1 1 1 1 1 0.0093456878623362407 1 1 1 1 1 1 1 1 1 1 1 1 1 1 1 1 1 0.0097317993111246375 1 1 0.0090687103533911625 1 1 1 1 1 1 1 1 1 1 1 1 1 1 1 1 1 1 1 1 1 1 1 1 1 1 1 1 1 0.0082846136310445254 1 0.0092165194595492956 1 1 1 1 1 1 1 1 1 1 1 1 1 1 1 1 1 1 1 1 1 1 0.011558663120301986 1 1 1 0.010735515247788742 1 1 1 1 1 1 1 1 1 1 1 1 0.011973922654840008 1 1 1 0.010210200881223831 0.010001322084158236 1 1 0.010859980862665965 1 1 1 1 1 1 1 1 1 0.010824133880005721 1 1 1 1 1 1 1 1 1 1 1 1 1 0.013331152558849662 1 0.0097789022960758139 1 1 1 1 1 1 1 1 1 1 1 1 1 1 1 1 1 1 1 1 1 1 1 1 1 1 1 1 1 0.0028701767998556473 1 1 1 1 1 1 0.0072096814198280672 1 1 1 1 1 1 1 1 1 1 1 1 1 1 1 1 0.0098579059979643328 1 0.010376855043782031 1 1 1 1 1 1 1 0.0096999370086793199 1 1 1 0.0092185451434676907 1 1 1 1 0.010068547548269845 1 1 1 1 1 1 0.015218604274380791 1 1 1 1 0.011634325560645137 1 0.010191716999547547 1 1 1 1 1 1 1 1 0.020256821149689318 0.010022115609810381 1 1 1 0.008509646229958992 0.015100540987670583 1 1 1 1 1 1 1 0.010625074794557859 0.013405914642020463 1 0.0084719648810262765 0.01006597601503452 1 1 1 1 0.011001552417826112 1 0.010855039267509012 1 1 1 1 1 1 0.010819446834766194 1 1 1 1 0.010758176692372126 1 1 1 1 0.012122796363575191 1 1 1 1 1 0.0076014376642593307 1 1 0.010317456091495923 1 1 1 1 0.010126173510910334 1 1 1 1 1 1 1 1 1 0.0099824928759247641 0.0061208081494604147 1 1 1 1 1 1 1 1 1 1 1 1 1 6.6821548294626609e-15 1 6.9388939039072284e-15 1 1 1 1 1 1 1 1 1 1 1 1 1 1 1 1 1 1 1 1 1 0.00068064830450724652 1 1 1 1 1 1 1 1 1 1 1 1 1 1 1 1 1 1 1 1 1 1 1 1 1 1 0.0095256427100703592 1 1 1 1 1 1 1 1 0.012675888945905291 1 0.0087575276624931638 1 1 1 1 1 1 0.0096154058948453476 1 1 1 1 1 1 1 1 1 1 1 1 1 1 1 1 1 1 1 1 1 1 1 1 1 1 0.025177722864198077 1 1 1 1 1 1 1 1 0.015012866218619953 1 1 0.0092244546138781289 1 1 0.010006182264475558 1 1 1 1 1 0.013793700124506958 1 1 1 1 1 1 1 1 1 0.009966733301220828 1 1 1 1 1 1 1 1 1 1 1 1 1 1 1 0.0094654646110290657 1 1 1 1 1 1 1 1 0.0088969411719824407 1 1 1 1 1 1 1 1 1 1 1 1 1 1 1 1 1 1 0.0094050124030868251 1 0.010246153553537311 1 0.0081886216938538061 1 1 0.0093895171322046448 0.012696727641295584 1 1 1 1 1 1 1 1 1 1 1 1 1 1 0.010775609547229066 1 1 1 1 1 1 0.0088758115357485314 1 1 1 0.0097339798795715096 1 1 1 1 1 1 1 1 1 1 1 1 0.025987170588770123 1 1 1 1 0.018424333590558034 0.017512369774084276 0.011071137720253942 1 1 1 1 1 1 1 0.010267964708673921 1 1 0.0065587212266050732 1 0.010089481841984677 1 0.010770825233098398 1 1 1 1 1 0.0094216214153113945 1 1 1 1 1 1 1 1 1 1 1 1 1 1 1 1 1 1 1 1 0.013737759472772679 1 1 1 0.010632856599262924 1 0.0090301515037147801 0.014160060026928375 0.011140933190831179 1 1 1 1 1 0.010369580613351581 1 1 1 1 1 1 1 1 1 1 1 1 1 1 1 1 1 1 1 1 1 1 1 1 1 1 0.014247478662611423 1 1 0.013516359282713299 1 1 1 1 1 1 1 1 0.011745825673700418 1 0.0098442855725791208 1 1 1 1 1 1 1 1 0.011198041572526371 1 1 1 1 0.012800871516170091 1 1 0.009999863222597263 1 1 2.1252097304191864e-14 1 1 1 0.011289465012445715 1 1 1 1 1 1 1 1 1 1 1 1 1 1 1 1 1 1 1 1 0.0099633157776378954 1 1 1 1 1 1 0.009853110292533003 1 1 1 1 1 0.010510520749685538 1 1 1 1 1 0.010846987203133551 1 0.0098443381129488666 0.0098448295370522892 1 1 1 1 1 1 1 1 1 1 1 1 0.009787951735427812 1 1 1 1 0.0093472299536011792 1 0.010131378872387466 0.009611305765608584 1 1 1 0.0099674681954997225 1 1 1 1 1 1 1 1 1 1 1 1 1 1 1 1 1 1 1 1 1 1 0.015011219578564428 1 0.0004191157948429218 1 1 0.010052036046510908 1 1 0.010921069650962881 1 1 0.0046307014209019306 1 1 1 0.0026487499517262973 0.010054720471201256 1 1 1 1 1 1 1 0.0098331441488612534 1 1 1 1 1 1 1 1 0.0078429710604105106 1 1 1 1 1 1 1 0.0041959785435798681 1 1 1 0.0072091530939753703 1 0.0092633197185899418 0.010301548885830011 1 1 1 0.010106287162061633 1 1 1 1 1 1 1 1 1 1 1 1 1 1 1 1 1 1 1 1 1 1 0.00962439590714885 1 1 0.010021443186125365 1 1 1 0.010792163032325322 1 1 1 1 1 1 1 0.011028168442011748 0.010238912683609361 1 1 0.010532069121797613 1 1 1 1 1 1 1 1 1 1 1 1 1 1 1 1 1 1 1 1 1 1 1 1 1 1 1 1 1 1 1 1 1 1 1 0.012567165856352088 1 1 1 1 1 1 1 0.0099669995164292438 1 1 0.0097519820165061916 1 1 0.01444534665272678 1 1 1 1 1 1 1 1 1 1 1 1 1 1 1 1 1 1 1 0.011449174469602523 1 1 1 1 0.013147853405865662 1 1 1 1 1 1 1 1 1 1 0.01034707636107635 1 1 1 1 0.0046311784835838012 1 1 1 1 0.011121062575535199 0.013100972463672075 1 0.0013863365278902889 1 1 1 1 1 1 1 1 1 1 1 1 1 1 0.0055095930630604702 1 1 1 1 1 1 1 1 1 0.0099445897621619327 1 1 1 1 1 1 1 1 1 1 1 1 1 1 1 1 1 1 1 1 1 1 1 1 1 1 1 1 1 1 1 1 1 1 1 1 1 1 1 1 1 0.0090669712448643112 1 1 1 1 0.012050201639846792 1 1 0.0099161758008910559 1 1 1 1 1 1 0.01501900993624462 0.0036188155900708334 1 1 1 1 0.01001147921226261 1 1 1 1 1 1 1 1 1 1 1 1 1 1 1 1 1 1 1 1 1 1 1 1 1 1 1 1 1 1 1 1 1 1 1 1 1 1 1 1 1 1 1 1 1 1 1 1 1 1 1 1 1 1 1 1 1 1 1 1 1 0.0032048284456557934 1 1 1 1 1 0.0065074088557631228 1 0.010440900185819252 1 1 1 1 1 1 1 1 1 
</DataArray>
</CellData>
</Piece>
</UnstructuredGrid>
</VTKFile>
