<?xml version="1.0"?>
<VTKFile type="UnstructuredGrid" version="0.1" byte_order="LittleEndian">
<UnstructuredGrid>
<Piece NumberOfPoints="29399" NumberOfCells="10256">
<Points>
<DataArray type="Float64" NumberOfComponents="3" format="ascii">
-0.5 -0.5 0 -0.48785522249592078 -0.45510547826709291 0 -0.49999999999999939 -0.43211090192125279 0 -0.5 -0.5 0 -0.47706497702443318 -0.48211438569692427 0 -0.4340255331775193 -0.5 0 -0.5 -0.5 0 -0.47706497702443318 -0.48211438569692427 0 -0.48785522249592078 -0.45510547826709291 0 -0.47706497702443318 -0.48211438569692427 0 -0.46301557519371223 -0.47028428858007398 0 -0.47281078661105408 -0.4659983935873096 0 -0.47706497702443318 -0.48211438569692427 0 -0.44978858486427398 -0.47796311281516157 0 -0.4340255331775193 -0.5 0 -0.47706497702443318 -0.48211438569692427 0 -0.46301557519371223 -0.47028428858007398 0 -0.44978858486427398 -0.47796311281516157 0 -0.44978858486427398 -0.47796311281516157 0 -0.43875952096438031 -0.45787336534320211 0 -0.43113573132924138 -0.47761676140954412 0 -0.44978858486427398 -0.47796311281516157 0 -0.4340255331775193 -0.5 0 -0.43113573132924138 -0.47761676140954412 0 -0.45223485266728869 -0.43786838736911482 0 -0.43875952096438031 -0.45787336534320211 0 -0.43618584867324223 -0.43501579991252293 0 -0.45223485266728869 -0.43786838736911482 0 -0.43875952096438031 -0.45787336534320211 0 -0.45917301397625337 -0.44928587753588589 0 -0.43875952096438031 -0.45787336534320211 0 -0.45917301397625337 -0.44928587753588589 0 -0.46301557519371223 -0.47028428858007398 0 -0.44978858486427398 -0.47796311281516157 0 -0.43875952096438031 -0.45787336534320211 0 -0.43875952096438031 -0.45787336534320211 0 -0.46330737173015057 -0.45648942180514729 0 -0.46301557519371223 -0.47028428858007398 0 -0.43875952096438031 -0.45787336534320211 0 -0.46330737173015057 -0.45648942180514729 0 -0.43875952096438031 -0.45787336534320211 0 -0.46330737173015057 -0.45648942180514729 0 -0.45917301397625337 -0.44928587753588589 0 -0.46301557519371223 -0.47028428858007398 0 -0.46330737173015057 -0.45648942180514729 0 -0.47281078661105408 -0.4659983935873096 0 -0.46330737173015057 -0.45648942180514729 0 -0.45917301397625337 -0.44928587753588589 0 -0.47958650698812638 -0.44069838972856917 0 -0.45917301397625337 -0.44928587753588589 0 -0.46398950252270998 -0.43895260679367609 0 -0.47958650698812638 -0.44069838972856917 0 -0.45223485266728869 -0.43786838736911482 0 -0.45917301397625337 -0.44928587753588589 0 -0.46398950252270998 -0.43895260679367609 0 -0.46330737173015057 -0.45648942180514729 0 -0.47958650698812638 -0.44069838972856917 0 -0.48785522249592078 -0.45510547826709291 0 -0.45917301397625337 -0.44928587753588589 0 -0.47958650698812638 -0.44069838972856917 0 -0.46330737173015057 -0.45648942180514729 0 -0.47281078661105408 -0.4659983935873096 0 -0.48785522249592078 -0.45510547826709291 0 -0.46330737173015057 -0.45648942180514729 0 -0.48785522249592078 -0.45510547826709291 0 -0.47706497702443318 -0.48211438569692427 0 -0.47281078661105408 -0.4659983935873096 0 -0.48785522249592078 -0.45510547826709291 0 -0.47958650698812638 -0.44069838972856917 0 -0.48785522249592078 -0.45510547826709291 0 -0.49999999999999939 -0.43211090192125279 0 -0.49999999999999939 -0.43211090192125279 0 -0.47843166005470938 -0.41309176286659988 0 -0.48074545087550191 -0.42846470676438903 0 -0.47958650698812638 -0.44069838972856917 0 -0.49999999999999939 -0.43211090192125279 0 -0.48074545087550191 -0.42846470676438903 0 -0.47958650698812638 -0.44069838972856917 0 -0.49999999999999939 -0.43211090192125279 0 -0.49999999999999939 -0.43211090192125279 0 -0.47843166005470938 -0.41309176286659988 0 -0.5 -0.40538148133488661 0 -0.47843166005470938 -0.41309176286659988 0 -0.48074545087550191 -0.42846470676438903 0 -0.46496363645917171 -0.42795777254113421 0 -0.47958650698812638 -0.44069838972856917 0 -0.48074545087550191 -0.42846470676438903 0 -0.46496363645917171 -0.42795777254113421 0 -0.46398950252270998 -0.43895260679367609 0 -0.47958650698812638 -0.44069838972856917 0 -0.46496363645917171 -0.42795777254113421 0 -0.5 -0.37865206074852031 0 -0.48033657026594562 -0.39101113556798189 0 -0.48123451327010192 -0.36814604317790067 0 -0.5 -0.37865206074852031 0 -0.5 -0.40538148133488661 0 -0.48033657026594562 -0.39101113556798189 0 -0.47843166005470938 -0.41309176286659988 0 -0.5 -0.40538148133488661 0 -0.48033657026594562 -0.39101113556798189 0 -0.47843166005470938 -0.41309176286659988 0 -0.48033657026594562 -0.39101113556798189 0 -0.46088385718869179 -0.39680748353729389 0 -0.48033657026594562 -0.39101113556798189 0 -0.4646033122459079 -0.38033546343750479 0 -0.48123451327010192 -0.36814604317790067 0 -0.48033657026594562 -0.39101113556798189 0 -0.4646033122459079 -0.38033546343750479 0 -0.46088385718869179 -0.39680748353729389 0 -0.4646033122459079 -0.38033546343750479 0 -0.44854026618311033 -0.38546870473476808 0 -0.45104081779574029 -0.37252649685374672 0 -0.4646033122459079 -0.38033546343750479 0 -0.46088385718869179 -0.39680748353729389 0 -0.44854026618311033 -0.38546870473476808 0 -0.46088385718869179 -0.39680748353729389 0 -0.44027100535894809 -0.39805254757944059 0 -0.45486558543259409 -0.41258386744224013 0 -0.46088385718869179 -0.39680748353729389 0 -0.44027100535894809 -0.39805254757944059 0 -0.44854026618311033 -0.38546870473476808 0 -0.44027100535894809 -0.39805254757944059 0 -0.44854026618311033 -0.38546870473476808 0 -0.434279569089773 -0.37817471820876081 0 -0.44854026618311033 -0.38546870473476808 0 -0.434279569089773 -0.37817471820876081 0 -0.45104081779574029 -0.37252649685374672 0 -0.46496363645917171 -0.42795777254113421 0 -0.45486558543259409 -0.41258386744224013 0 -0.44948479057128637 -0.42556886357975171 0 -0.45223485266728869 -0.43786838736911482 0 -0.46496363645917171 -0.42795777254113421 0 -0.44948479057128637 -0.42556886357975171 0 -0.45223485266728869 -0.43786838736911482 0 -0.46398950252270998 -0.43895260679367609 0 -0.46496363645917171 -0.42795777254113421 0 -0.47843166005470938 -0.41309176286659988 0 -0.46088385718869179 -0.39680748353729389 0 -0.45486558543259409 -0.41258386744224013 0 -0.47843166005470938 -0.41309176286659988 0 -0.46496363645917171 -0.42795777254113421 0 -0.45486558543259409 -0.41258386744224013 0 -0.44027100535894809 -0.39805254757944059 0 -0.45486558543259409 -0.41258386744224013 0 -0.43917402962413571 -0.41441849063374631 0 -0.45486558543259409 -0.41258386744224013 0 -0.43917402962413571 -0.41441849063374631 0 -0.44948479057128637 -0.42556886357975171 0 -0.43917402962413571 -0.41441849063374631 0 -0.44948479057128637 -0.42556886357975171 0 -0.43618584867324223 -0.43501579991252293 0 -0.45223485266728869 -0.43786838736911482 0 -0.44948479057128637 -0.42556886357975171 0 -0.43618584867324223 -0.43501579991252293 0 -0.43618584867324223 -0.43501579991252293 0 -0.42436285365945192 -0.42152237219546668 0 -0.41829325246487592 -0.43924056062661321 0 -0.43917402962413571 -0.41441849063374631 0 -0.43618584867324223 -0.43501579991252293 0 -0.42436285365945192 -0.42152237219546668 0 -0.43917402962413571 -0.41441849063374631 0 -0.42436285365945192 -0.42152237219546668 0 -0.41977590717905028 -0.40136560653662939 0 -0.42436285365945192 -0.42152237219546668 0 -0.41977590717905028 -0.40136560653662939 0 -0.40527224526832772 -0.42455649486449792 0 -0.41977590717905028 -0.40136560653662939 0 -0.39573952943159019 -0.39934762468205931 0 -0.40527224526832772 -0.42455649486449792 0 -0.41977590717905028 -0.40136560653662939 0 -0.40527224526832772 -0.42455649486449792 0 -0.40527224526832772 -0.42455649486449792 0 -0.40063540183020618 -0.44351216963214529 0 -0.41829325246487592 -0.43924056062661321 0 -0.42436285365945192 -0.42152237219546668 0 -0.40527224526832772 -0.42455649486449792 0 -0.41829325246487592 -0.43924056062661321 0 -0.434279569089773 -0.37817471820876081 0 -0.41224218961801562 -0.38174530613926122 0 -0.42497747640885508 -0.3693990414354637 0 -0.434279569089773 -0.37817471820876081 0 -0.41977590717905028 -0.40136560653662939 0 -0.434279569089773 -0.37817471820876081 0 -0.41977590717905028 -0.40136560653662939 0 -0.41224218961801562 -0.38174530613926122 0 -0.44027100535894809 -0.39805254757944059 0 -0.43917402962413571 -0.41441849063374631 0 -0.41977590717905028 -0.40136560653662939 0 -0.44027100535894809 -0.39805254757944059 0 -0.434279569089773 -0.37817471820876081 0 -0.41977590717905028 -0.40136560653662939 0 -0.41977590717905028 -0.40136560653662939 0 -0.41224218961801562 -0.38174530613926122 0 -0.39573952943159019 -0.39934762468205931 0 -0.41224218961801562 -0.38174530613926122 0 -0.39573952943159019 -0.39934762468205931 0 -0.38614913526049721 -0.37716824179615122 0 -0.41224218961801562 -0.38174530613926122 0 -0.38614913526049721 -0.37716824179615122 0 -0.40601759577077678 -0.36697411160306981 0 -0.39573952943159019 -0.39934762468205931 0 -0.38511814291255581 -0.41360735826705619 0 -0.3676828007387708 -0.3966689990774222 0 -0.39573952943159019 -0.39934762468205931 0 -0.38614913526049721 -0.37716824179615122 0 -0.3676828007387708 -0.3966689990774222 0 -0.40527224526832772 -0.42455649486449792 0 -0.38511814291255581 -0.41360735826705619 0 -0.38640661492244949 -0.42901576344532 0 -0.40527224526832772 -0.42455649486449792 0 -0.38640661492244949 -0.42901576344532 0 -0.40063540183020618 -0.44351216963214529 0 -0.39573952943159019 -0.39934762468205931 0 -0.40527224526832772 -0.42455649486449792 0 -0.38511814291255581 -0.41360735826705619 0 -0.38511814291255581 -0.41360735826705619 0 -0.38640661492244949 -0.42901576344532 0 -0.37048952420164089 -0.41844790926598152 0 -0.38640661492244949 -0.42901576344532 0 -0.37098302872015132 -0.43408639701922058 0 -0.37048952420164089 -0.41844790926598152 0 -0.38640661492244949 -0.42901576344532 0 -0.38446330129505291 -0.44491985800488898 0 -0.37098302872015132 -0.43408639701922058 0 -0.38446330129505291 -0.44491985800488898 0 -0.39099470471969439 -0.46056622059227958 0 -0.36948293443814928 -0.44838814416989492 0 -0.38640661492244949 -0.42901576344532 0 -0.38446330129505291 -0.44491985800488898 0 -0.40063540183020618 -0.44351216963214529 0 -0.38446330129505291 -0.44491985800488898 0 -0.40063540183020618 -0.44351216963214529 0 -0.39099470471969439 -0.46056622059227958 0 -0.40063540183020618 -0.44351216963214529 0 -0.39099470471969439 -0.46056622059227958 0 -0.41487711284203738 -0.45921979296774063 0 -0.39099470471969439 -0.46056622059227958 0 -0.41487711284203738 -0.45921979296774063 0 -0.39099470471969439 -0.46056622059227958 0 -0.41169104130087519 -0.46926045323344018 0 -0.41487711284203738 -0.45921979296774063 0 -0.39099470471969439 -0.46056622059227958 0 -0.36742428762710388 -0.46970634892725782 0 -0.36948293443814928 -0.44838814416989492 0 -0.39785905417014122 -0.4806607756160991 0 -0.36555251123240529 -0.48747564515017172 0 -0.36742428762710388 -0.46970634892725782 0 -0.38418956980414898 -0.5 0 -0.39785905417014122 -0.4806607756160991 0 -0.4340255331775193 -0.5 0 -0.38418956980414898 -0.5 0 -0.39785905417014122 -0.4806607756160991 0 -0.36555251123240529 -0.48747564515017172 0 -0.39099470471969439 -0.46056622059227958 0 -0.39785905417014122 -0.4806607756160991 0 -0.36742428762710388 -0.46970634892725782 0 -0.39099470471969439 -0.46056622059227958 0 -0.39785905417014122 -0.4806607756160991 0 -0.41169104130087519 -0.46926045323344018 0 -0.39785905417014122 -0.4806607756160991 0 -0.41169104130087519 -0.46926045323344018 0 -0.43113573132924138 -0.47761676140954412 0 -0.39785905417014122 -0.4806607756160991 0 -0.4340255331775193 -0.5 0 -0.43113573132924138 -0.47761676140954412 0 -0.43875952096438031 -0.45787336534320211 0 -0.41169104130087519 -0.46926045323344018 0 -0.43113573132924138 -0.47761676140954412 0 -0.43875952096438031 -0.45787336534320211 0 -0.42685540914595033 -0.44888662211427238 0 -0.41487711284203738 -0.45921979296774063 0 -0.43875952096438031 -0.45787336534320211 0 -0.41169104130087519 -0.46926045323344018 0 -0.43875952096438031 -0.45787336534320211 0 -0.41487711284203738 -0.45921979296774063 0 -0.43875952096438031 -0.45787336534320211 0 -0.43618584867324223 -0.43501579991252293 0 -0.42685540914595033 -0.44888662211427238 0 -0.43618584867324223 -0.43501579991252293 0 -0.42685540914595033 -0.44888662211427238 0 -0.41829325246487592 -0.43924056062661321 0 -0.40063540183020618 -0.44351216963214529 0 -0.41829325246487592 -0.43924056062661321 0 -0.41487711284203738 -0.45921979296774063 0 -0.42685540914595033 -0.44888662211427238 0 -0.41829325246487592 -0.43924056062661321 0 -0.41487711284203738 -0.45921979296774063 0 -0.43875952096438031 -0.45787336534320211 0 -0.41169104130087519 -0.46926045323344018 0 -0.41487711284203738 -0.45921979296774063 0 -0.44424875665685332 -0.27338408643139073 0 -0.45688863888640568 -0.2508755396684838 0 -0.43470717633851957 -0.25130824331758839 0 -0.44424875665685332 -0.27338408643139073 0 -0.45688863888640568 -0.2508755396684838 0 -0.47045229461497201 -0.27431630217644293 0 -0.44424875665685332 -0.27338408643139073 0 -0.47045229461497201 -0.27431630217644293 0 -0.45235540578817601 -0.29068512615166181 0 -0.45688863888640568 -0.2508755396684838 0 -0.48093252799823838 -0.25533176491691217 0 -0.47045229461497201 -0.27431630217644293 0 -0.48093252799823838 -0.25533176491691217 0 -0.5 -0.27339056979829862 0 -0.5 -0.24831734060717561 0 -0.5 -0.27339056979829862 0 -0.47045229461497201 -0.27431630217644293 0 -0.48275488467980399 -0.29095757626346991 0 -0.48093252799823838 -0.25533176491691217 0 -0.5 -0.27339056979829862 0 -0.47045229461497201 -0.27431630217644293 0 -0.47045229461497201 -0.27431630217644293 0 -0.48275488467980399 -0.29095757626346991 0 -0.46784915840176361 -0.29771375529622213 0 -0.5 -0.27339056979829862 0 -0.48275488467980399 -0.29095757626346991 0 -0.50000000000000044 -0.29846379898942149 0 -0.48275488467980399 -0.29095757626346991 0 -0.50000000000000044 -0.29846379898942149 0 -0.47547297038228492 -0.31090345505696471 0 -0.50000000000000044 -0.29846379898942149 0 -0.48905432785312603 -0.32189184392116549 0 -0.50000000000000044 -0.29846379898942149 0 -0.47547297038228492 -0.31090345505696471 0 -0.48905432785312603 -0.32189184392116549 0 -0.48275488467980399 -0.29095757626346991 0 -0.47547297038228492 -0.31090345505696471 0 -0.46784915840176361 -0.29771375529622213 0 -0.46784915840176361 -0.29771375529622213 0 -0.45416280612389792 -0.30763594161203722 0 -0.45235540578817601 -0.29068512615166181 0 -0.47547297038228492 -0.31090345505696471 0 -0.46784915840176361 -0.29771375529622213 0 -0.45416280612389792 -0.30763594161203722 0 -0.47045229461497201 -0.27431630217644293 0 -0.46784915840176361 -0.29771375529622213 0 -0.45235540578817601 -0.29068512615166181 0 -0.44424875665685332 -0.27338408643139073 0 -0.45235540578817601 -0.29068512615166181 0 -0.4359221581307996 -0.30157456281725492 0 -0.44424875665685332 -0.27338408643139073 0 -0.4359221581307996 -0.30157456281725492 0 -0.45416280612389792 -0.30763594161203722 0 -0.44477860677199588 -0.31966397740832769 0 -0.4359221581307996 -0.30157456281725492 0 -0.45416280612389792 -0.30763594161203722 0 -0.45235540578817601 -0.29068512615166181 0 -0.4359221581307996 -0.30157456281725492 0 -0.44477860677199588 -0.31966397740832769 0 -0.44653657018496962 -0.33536152100662631 0 -0.45967593981556643 -0.3239828224026009 0 -0.45416280612389792 -0.30763594161203722 0 -0.44477860677199588 -0.31966397740832769 0 -0.45967593981556643 -0.3239828224026009 0 -0.44477860677199588 -0.31966397740832769 0 -0.44653657018496962 -0.33536152100662631 0 -0.42759555960474582 -0.32976503920311939 0 -0.46178151583394239 -0.34243368536859009 0 -0.45967593981556643 -0.3239828224026009 0 -0.47281868191823417 -0.32890633912044609 0 -0.44653657018496962 -0.33536152100662631 0 -0.46178151583394239 -0.34243368536859009 0 -0.45967593981556643 -0.3239828224026009 0 -0.47547297038228492 -0.31090345505696471 0 -0.45416280612389792 -0.30763594161203722 0 -0.45967593981556643 -0.3239828224026009 0 -0.47547297038228492 -0.31090345505696471 0 -0.48905432785312603 -0.32189184392116549 0 -0.47281868191823417 -0.32890633912044609 0 -0.47547297038228492 -0.31090345505696471 0 -0.45967593981556643 -0.3239828224026009 0 -0.47281868191823417 -0.32890633912044609 0 -0.50000000000000044 -0.29846379898942149 0 -0.48905432785312603 -0.32189184392116549 0 -0.5 -0.32519321957578778 0 -0.48905432785312603 -0.32189184392116549 0 -0.5 -0.32519321957578778 0 -0.49084700618944488 -0.33664648910814599 0 -0.48905432785312603 -0.32189184392116549 0 -0.49084700618944488 -0.33664648910814599 0 -0.47810865570625122 -0.34531988885290937 0 -0.5 -0.32519321957578778 0 -0.49084700618944488 -0.33664648910814599 0 -0.5 -0.35192264016215402 0 -0.46178151583394239 -0.34243368536859009 0 -0.47281868191823417 -0.32890633912044609 0 -0.47810865570625122 -0.34531988885290937 0 -0.48905432785312603 -0.32189184392116549 0 -0.47810865570625122 -0.34531988885290937 0 -0.48905432785312603 -0.32189184392116549 0 -0.47281868191823417 -0.32890633912044609 0 -0.47810865570625122 -0.34531988885290937 0 -0.47810865570625122 -0.34531988885290937 0 -0.48123451327010192 -0.36814604317790067 0 -0.4643585414025071 -0.36163507029833403 0 -0.49084700618944488 -0.33664648910814599 0 -0.47810865570625122 -0.34531988885290937 0 -0.5 -0.35192264016215402 0 -0.47810865570625122 -0.34531988885290937 0 -0.5 -0.35192264016215402 0 -0.48123451327010192 -0.36814604317790067 0 -0.5 -0.37865206074852031 0 -0.5 -0.35192264016215402 0 -0.48123451327010192 -0.36814604317790067 0 -0.4646033122459079 -0.38033546343750479 0 -0.48123451327010192 -0.36814604317790067 0 -0.4643585414025071 -0.36163507029833403 0 -0.4646033122459079 -0.38033546343750479 0 -0.4643585414025071 -0.36163507029833403 0 -0.45104081779574029 -0.37252649685374672 0 -0.4643585414025071 -0.36163507029833403 0 -0.44878323100049561 -0.35498382988089239 0 -0.45104081779574029 -0.37252649685374672 0 -0.46178151583394239 -0.34243368536859009 0 -0.47810865570625122 -0.34531988885290937 0 -0.4643585414025071 -0.36163507029833403 0 -0.46178151583394239 -0.34243368536859009 0 -0.4643585414025071 -0.36163507029833403 0 -0.44878323100049561 -0.35498382988089239 0 -0.44653657018496962 -0.33536152100662631 0 -0.44878323100049561 -0.35498382988089239 0 -0.43480959697856503 -0.34733779230928241 0 -0.44653657018496962 -0.33536152100662631 0 -0.46178151583394239 -0.34243368536859009 0 -0.44878323100049561 -0.35498382988089239 0 -0.44878323100049561 -0.35498382988089239 0 -0.43186366302392259 -0.35862305586678977 0 -0.43480959697856503 -0.34733779230928241 0 -0.434279569089773 -0.37817471820876081 0 -0.44878323100049561 -0.35498382988089239 0 -0.434279569089773 -0.37817471820876081 0 -0.44878323100049561 -0.35498382988089239 0 -0.43186366302392259 -0.35862305586678977 0 -0.434279569089773 -0.37817471820876081 0 -0.44878323100049561 -0.35498382988089239 0 -0.45104081779574029 -0.37252649685374672 0 -0.434279569089773 -0.37817471820876081 0 -0.42497747640885508 -0.3693990414354637 0 -0.43186366302392259 -0.35862305586678977 0 -0.42497747640885508 -0.3693990414354637 0 -0.43186366302392259 -0.35862305586678977 0 -0.41926896107869149 -0.35795551558898381 0 -0.41926896107869149 -0.35795551558898381 0 -0.42759555960474582 -0.32976503920311939 0 -0.43480959697856503 -0.34733779230928241 0 -0.41926896107869149 -0.35795551558898381 0 -0.42759555960474582 -0.32976503920311939 0 -0.43186366302392259 -0.35862305586678977 0 -0.43480959697856503 -0.34733779230928241 0 -0.41926896107869149 -0.35795551558898381 0 -0.43186366302392259 -0.35862305586678977 0 -0.41926896107869149 -0.35795551558898381 0 -0.41926896107869149 -0.35795551558898381 0 -0.39379379607906578 -0.35660528921641332 0 -0.40981378487149722 -0.33932049402671283 0 -0.41926896107869149 -0.35795551558898381 0 -0.39379379607906578 -0.35660528921641332 0 -0.41224218961801562 -0.38174530613926122 0 -0.41926896107869149 -0.35795551558898381 0 -0.41224218961801562 -0.38174530613926122 0 -0.42497747640885508 -0.3693990414354637 0 -0.41926896107869149 -0.35795551558898381 0 -0.41224218961801562 -0.38174530613926122 0 -0.41926896107869149 -0.35795551558898381 0 -0.40601759577077678 -0.36697411160306981 0 -0.41926896107869149 -0.35795551558898381 0 -0.40601759577077678 -0.36697411160306981 0 -0.39379379607906578 -0.35660528921641332 0 -0.38614913526049721 -0.37716824179615122 0 -0.40601759577077678 -0.36697411160306981 0 -0.39379379607906578 -0.35660528921641332 0 -0.38614913526049721 -0.37716824179615122 0 -0.39379379607906578 -0.35660528921641332 0 -0.36831863107944007 -0.35525506284384573 0 -0.39379379607906578 -0.35660528921641332 0 -0.36831863107944007 -0.35525506284384573 0 -0.39379379607906578 -0.35660528921641332 0 -0.37959442180325909 -0.33433501069729021 0 -0.36831863107944007 -0.35525506284384573 0 -0.39379379607906578 -0.35660528921641332 0 -0.39524514990478171 -0.33862042529641351 0 -0.40981378487149722 -0.33932049402671283 0 -0.39524514990478171 -0.33862042529641351 0 -0.37959442180325909 -0.33433501069729021 0 -0.39777859686530492 -0.32422090724523772 0 -0.39524514990478171 -0.33862042529641351 0 -0.39777859686530492 -0.32422090724523772 0 -0.40981378487149722 -0.33932049402671283 0 -0.39379379607906578 -0.35660528921641332 0 -0.39524514990478171 -0.33862042529641351 0 -0.37959442180325909 -0.33433501069729021 0 -0.37959442180325909 -0.33433501069729021 0 -0.39777859686530492 -0.32422090724523772 0 -0.3773950432570064 -0.30790402883084572 0 -0.39777859686530492 -0.32422090724523772 0 -0.40384888697131599 -0.30935751863345129 0 -0.3773950432570064 -0.30790402883084572 0 -0.39777859686530492 -0.32422090724523772 0 -0.41246415893434091 -0.32170386054181671 0 -0.40384888697131599 -0.30935751863345129 0 -0.41246415893434091 -0.32170386054181671 0 -0.42759555960474582 -0.32976503920311939 0 -0.42328396635884019 -0.30585534360056232 0 -0.41926896107869149 -0.35795551558898381 0 -0.40981378487149722 -0.33932049402671283 0 -0.42759555960474582 -0.32976503920311939 0 -0.39777859686530492 -0.32422090724523772 0 -0.41246415893434091 -0.32170386054181671 0 -0.40981378487149722 -0.33932049402671283 0 -0.41246415893434091 -0.32170386054181671 0 -0.40981378487149722 -0.33932049402671283 0 -0.42759555960474582 -0.32976503920311939 0 -0.44653657018496962 -0.33536152100662631 0 -0.43480959697856503 -0.34733779230928241 0 -0.42759555960474582 -0.32976503920311939 0 -0.44477860677199588 -0.31966397740832769 0 -0.42759555960474582 -0.32976503920311939 0 -0.4359221581307996 -0.30157456281725492 0 -0.42759555960474582 -0.32976503920311939 0 -0.4359221581307996 -0.30157456281725492 0 -0.42759555960474582 -0.32976503920311939 0 -0.42328396635884019 -0.30585534360056232 0 -0.4359221581307996 -0.30157456281725492 0 -0.42328396635884019 -0.30585534360056232 0 -0.4359221581307996 -0.30157456281725492 0 -0.42454988147072897 -0.29170204029359098 0 -0.44424875665685332 -0.27338408643139073 0 -0.4359221581307996 -0.30157456281725492 0 -0.42454988147072897 -0.29170204029359098 0 -0.44424875665685332 -0.27338408643139073 0 -0.42454988147072897 -0.29170204029359098 0 -0.41781240690468319 -0.27957257603174962 0 -0.42454988147072897 -0.29170204029359098 0 -0.39802207718170229 -0.29371980184401608 0 -0.41781240690468319 -0.27957257603174962 0 -0.41246415893434091 -0.32170386054181671 0 -0.42328396635884019 -0.30585534360056232 0 -0.40384888697131599 -0.30935751863345129 0 -0.42328396635884019 -0.30585534360056232 0 -0.42454988147072897 -0.29170204029359098 0 -0.39802207718170229 -0.29371980184401608 0 -0.42328396635884019 -0.30585534360056232 0 -0.39802207718170229 -0.29371980184401608 0 -0.42328396635884019 -0.30585534360056232 0 -0.40384888697131599 -0.30935751863345129 0 -0.39802207718170229 -0.29371980184401608 0 -0.40384888697131599 -0.30935751863345129 0 -0.3773950432570064 -0.30790402883084572 0 -0.39802207718170229 -0.29371980184401608 0 -0.39802207718170229 -0.29371980184401608 0 -0.37276018800456467 -0.28158426008747012 0 -0.39802207718170229 -0.29371980184401608 0 -0.39486959094915319 -0.26920065200480098 0 -0.37276018800456467 -0.28158426008747012 0 -0.3773950432570064 -0.30790402883084572 0 -0.39802207718170229 -0.29371980184401608 0 -0.37276018800456467 -0.28158426008747012 0 -0.39802207718170229 -0.29371980184401608 0 -0.39486959094915319 -0.26920065200480098 0 -0.41781240690468319 -0.27957257603174962 0 -0.39486959094915319 -0.26920065200480098 0 -0.37712101980230389 -0.26519974606182528 0 -0.37276018800456467 -0.28158426008747012 0 -0.39486959094915319 -0.26920065200480098 0 -0.37712101980230389 -0.26519974606182528 0 -0.38353271496343849 -0.25037699086215182 0 -0.37712101980230389 -0.26519974606182528 0 -0.38353271496343849 -0.25037699086215182 0 -0.37139449004158193 -0.25050051947318991 0 -0.39486959094915319 -0.26920065200480098 0 -0.40002834122183201 -0.25088796108084532 0 -0.41794274386765629 -0.26031799379438691 0 -0.39486959094915319 -0.26920065200480098 0 -0.38353271496343849 -0.25037699086215182 0 -0.40002834122183201 -0.25088796108084532 0 -0.39486959094915319 -0.26920065200480098 0 -0.41794274386765629 -0.26031799379438691 0 -0.41781240690468319 -0.27957257603174962 0 -0.44424875665685332 -0.27338408643139073 0 -0.41794274386765629 -0.26031799379438691 0 -0.41781240690468319 -0.27957257603174962 0 -0.44424875665685332 -0.27338408643139073 0 -0.41794274386765629 -0.26031799379438691 0 -0.43470717633851957 -0.25130824331758839 0 -0.41794274386765629 -0.26031799379438691 0 -0.43470717633851957 -0.25130824331758839 0 -0.41861209482226069 -0.23857156752833081 0 -0.32801453693482069 -0.25305541734717912 0 -0.32492498946053339 -0.25766535781762562 0 -0.31767606367135082 -0.2789171806231765 0 -0.32801453693482069 -0.25305541734717912 0 -0.31767606367135082 -0.2789171806231765 0 -0.33323943047459731 -0.2606656177437966 0 -0.32492498946053339 -0.25766535781762562 0 -0.31739474192710271 -0.2546974775692164 0 -0.3196985982825582 -0.24607621173107741 0 -0.31739474192710271 -0.2546974775692164 0 -0.31241265182105149 -0.25753732197967799 0 -0.3128026899048888 -0.2490093066069573 0 -0.31669068092956182 -0.26299495888321389 0 -0.30949068908349181 -0.26623171879153568 0 -0.31241265182105149 -0.25753732197967799 0 -0.31739474192710271 -0.2546974775692164 0 -0.31669068092956182 -0.26299495888321389 0 -0.31241265182105149 -0.25753732197967799 0 -0.32492498946053339 -0.25766535781762562 0 -0.31739474192710271 -0.2546974775692164 0 -0.31669068092956182 -0.26299495888321389 0 -0.32801453693482069 -0.25305541734717912 0 -0.31767606367135082 -0.2789171806231765 0 -0.32492498946053339 -0.25766535781762562 0 -0.31669068092956182 -0.26299495888321389 0 -0.31767606367135082 -0.2789171806231765 0 -0.31669068092956182 -0.26299495888321389 0 -0.31767606367135082 -0.2789171806231765 0 -0.30949068908349181 -0.26623171879153568 0 -0.33392796492049798 -0.26927059586840052 0 -0.34805119160101139 -0.25547787548306539 0 -0.33668016992360472 -0.2833029668385888 0 -0.31767606367135082 -0.2789171806231765 0 -0.33392796492049798 -0.26927059586840052 0 -0.33668016992360472 -0.2833029668385888 0 -0.34805119160101139 -0.25547787548306539 0 -0.33668016992360472 -0.2833029668385888 0 -0.31767606367135082 -0.2789171806231765 0 -0.33392796492049798 -0.26927059586840052 0 -0.33323943047459731 -0.2606656177437966 0 -0.33392796492049798 -0.26927059586840052 0 -0.33323943047459731 -0.2606656177437966 0 -0.34805119160101139 -0.25547787548306539 0 -0.32801453693482069 -0.25305541734717912 0 -0.33323943047459731 -0.2606656177437966 0 -0.33821537599045032 -0.25275705402928172 0 -0.32801453693482069 -0.25305541734717912 0 -0.33821537599045032 -0.25275705402928172 0 -0.3402747396181886 -0.24454003065821181 0 -0.33323943047459731 -0.2606656177437966 0 -0.33821537599045032 -0.25275705402928172 0 -0.34805119160101139 -0.25547787548306539 0 -0.33821537599045032 -0.25275705402928172 0 -0.34805119160101139 -0.25547787548306539 0 -0.3402747396181886 -0.24454003065821181 0 -0.34805119160101139 -0.25547787548306539 0 -0.36179592395623211 -0.2579464301902093 0 -0.34749829882742678 -0.26944871833092388 0 -0.34805119160101139 -0.25547787548306539 0 -0.36179592395623211 -0.2579464301902093 0 -0.36060906861732539 -0.24279960715887561 0 -0.36179592395623211 -0.2579464301902093 0 -0.36060906861732539 -0.24279960715887561 0 -0.36179592395623211 -0.2579464301902093 0 -0.37139449004158193 -0.25050051947318991 0 -0.36060906861732539 -0.24279960715887561 0 -0.37712101980230389 -0.26519974606182528 0 -0.36179592395623211 -0.2579464301902093 0 -0.37139449004158193 -0.25050051947318991 0 -0.37712101980230389 -0.26519974606182528 0 -0.36179592395623211 -0.2579464301902093 0 -0.37276018800456467 -0.28158426008747012 0 -0.34749829882742678 -0.26944871833092388 0 -0.37276018800456467 -0.28158426008747012 0 -0.36179592395623211 -0.2579464301902093 0 -0.34749829882742678 -0.26944871833092388 0 -0.37276018800456467 -0.28158426008747012 0 -0.34749829882742678 -0.26944871833092388 0 -0.35320306051274608 -0.28775453125492861 0 -0.33668016992360472 -0.2833029668385888 0 -0.34749829882742678 -0.26944871833092388 0 -0.35320306051274608 -0.28775453125492861 0 -0.37276018800456467 -0.28158426008747012 0 -0.34805119160101139 -0.25547787548306539 0 -0.34749829882742678 -0.26944871833092388 0 -0.33668016992360472 -0.2833029668385888 0 -0.35320306051274608 -0.28775453125492861 0 -0.34655841490151518 -0.3034952324507092 0 -0.33668016992360472 -0.2833029668385888 0 -0.35320306051274608 -0.28775453125492861 0 -0.37276018800456467 -0.28158426008747012 0 -0.36201186885080378 -0.30034416750231158 0 -0.3773950432570064 -0.30790402883084572 0 -0.37276018800456467 -0.28158426008747012 0 -0.36201186885080378 -0.30034416750231158 0 -0.3773950432570064 -0.30790402883084572 0 -0.36201186885080378 -0.30034416750231158 0 -0.36014263757818671 -0.32098278488760468 0 -0.36201186885080378 -0.30034416750231158 0 -0.34655841490151518 -0.3034952324507092 0 -0.36014263757818671 -0.32098278488760468 0 -0.35320306051274608 -0.28775453125492861 0 -0.36201186885080378 -0.30034416750231158 0 -0.34655841490151518 -0.3034952324507092 0 -0.34655841490151518 -0.3034952324507092 0 -0.325309148246198 -0.31112805819411232 0 -0.33979235431232252 -0.31823073470849811 0 -0.33668016992360472 -0.2833029668385888 0 -0.325309148246198 -0.31112805819411232 0 -0.34655841490151518 -0.3034952324507092 0 -0.33668016992360472 -0.2833029668385888 0 -0.325309148246198 -0.31112805819411232 0 -0.31767606367135082 -0.2789171806231765 0 -0.30733759040788078 -0.30477894389917398 0 -0.31767606367135082 -0.2789171806231765 0 -0.32175074306225848 -0.29453178738876279 0 -0.30733759040788078 -0.30477894389917398 0 -0.31767606367135082 -0.2789171806231765 0 -0.33668016992360472 -0.2833029668385888 0 -0.32175074306225848 -0.29453178738876279 0 -0.33668016992360472 -0.2833029668385888 0 -0.32175074306225848 -0.29453178738876279 0 -0.325309148246198 -0.31112805819411232 0 -0.325309148246198 -0.31112805819411232 0 -0.3122339991186488 -0.31972192563099011 0 -0.30733759040788078 -0.30477894389917398 0 -0.32175074306225848 -0.29453178738876279 0 -0.325309148246198 -0.31112805819411232 0 -0.30733759040788078 -0.30477894389917398 0 -0.325309148246198 -0.31112805819411232 0 -0.31929014067610562 -0.33233999325550262 0 -0.3122339991186488 -0.31972192563099011 0 -0.31929014067610562 -0.33233999325550262 0 -0.32563782622054688 -0.34714029700112231 0 -0.30853696427419119 -0.34553303592923829 0 -0.31929014067610562 -0.33233999325550262 0 -0.32563782622054688 -0.34714029700112231 0 -0.31929014067610562 -0.33233999325550262 0 -0.3428902318993669 -0.33406154094436369 0 -0.33979235431232252 -0.31823073470849811 0 -0.3428902318993669 -0.33406154094436369 0 -0.32563782622054688 -0.34714029700112231 0 -0.31929014067610562 -0.33233999325550262 0 -0.3428902318993669 -0.33406154094436369 0 -0.32563782622054688 -0.34714029700112231 0 -0.325309148246198 -0.31112805819411232 0 -0.31929014067610562 -0.33233999325550262 0 -0.33979235431232252 -0.31823073470849811 0 -0.34655841490151518 -0.3034952324507092 0 -0.33979235431232252 -0.31823073470849811 0 -0.36014263757818671 -0.32098278488760468 0 -0.3428902318993669 -0.33406154094436369 0 -0.36014263757818671 -0.32098278488760468 0 -0.3428902318993669 -0.33406154094436369 0 -0.33979235431232252 -0.31823073470849811 0 -0.36014263757818671 -0.32098278488760468 0 -0.3773950432570064 -0.30790402883084572 0 -0.36014263757818671 -0.32098278488760468 0 -0.37959442180325909 -0.33433501069729021 0 -0.3773950432570064 -0.30790402883084572 0 -0.36014263757818671 -0.32098278488760468 0 -0.37959442180325909 -0.33433501069729021 0 -0.36014263757818671 -0.32098278488760468 0 -0.35875787768801343 -0.33970784716887648 0 -0.37959442180325909 -0.33433501069729021 0 -0.35875787768801343 -0.33970784716887648 0 -0.36831863107944007 -0.35525506284384573 0 -0.3428902318993669 -0.33406154094436369 0 -0.35875787768801343 -0.33970784716887648 0 -0.34284346607981431 -0.35390483647127818 0 -0.3428902318993669 -0.33406154094436369 0 -0.36014263757818671 -0.32098278488760468 0 -0.35875787768801343 -0.33970784716887648 0 -0.35875787768801343 -0.33970784716887648 0 -0.36831863107944007 -0.35525506284384573 0 -0.34284346607981431 -0.35390483647127818 0 -0.36831863107944007 -0.35525506284384573 0 -0.34284346607981431 -0.35390483647127818 0 -0.36831863107944007 -0.35525506284384573 0 -0.35251810442559578 -0.36989162501885509 0 -0.36591632585438849 -0.37949871254638151 0 -0.38614913526049721 -0.37716824179615122 0 -0.36831863107944007 -0.35525506284384573 0 -0.36591632585438849 -0.37949871254638151 0 -0.36831863107944007 -0.35525506284384573 0 -0.35251810442559578 -0.36989162501885509 0 -0.34284346607981431 -0.35390483647127818 0 -0.35251810442559578 -0.36989162501885509 0 -0.33514295061115928 -0.36930250512188151 0 -0.34284346607981431 -0.35390483647127818 0 -0.33514295061115928 -0.36930250512188151 0 -0.34284346607981431 -0.35390483647127818 0 -0.32563782622054688 -0.34714029700112231 0 -0.33514295061115928 -0.36930250512188151 0 -0.32563782622054688 -0.34714029700112231 0 -0.3428902318993669 -0.33406154094436369 0 -0.34284346607981431 -0.35390483647127818 0 -0.32563782622054688 -0.34714029700112231 0 -0.32563782622054688 -0.34714029700112231 0 -0.32160862876224672 -0.36198780003317338 0 -0.30622468622908949 -0.36185706908327292 0 -0.32563782622054688 -0.34714029700112231 0 -0.30622468622908949 -0.36185706908327292 0 -0.32563782622054688 -0.34714029700112231 0 -0.30622468622908949 -0.36185706908327292 0 -0.30853696427419119 -0.34553303592923829 0 -0.32160862876224672 -0.36198780003317338 0 -0.30622468622908949 -0.36185706908327292 0 -0.31650423429324992 -0.37743323617407581 0 -0.33514295061115928 -0.36930250512188151 0 -0.32160862876224672 -0.36198780003317338 0 -0.31650423429324992 -0.37743323617407581 0 -0.33514295061115928 -0.36930250512188151 0 -0.32563782622054688 -0.34714029700112231 0 -0.32160862876224672 -0.36198780003317338 0 -0.30622468622908949 -0.36185706908327292 0 -0.31650423429324992 -0.37743323617407581 0 -0.29629721773317619 -0.37943608819169372 0 -0.30853696427419119 -0.34553303592923829 0 -0.28666064388094081 -0.3565024704511689 0 -0.29699911714441091 -0.33064070717517141 0 -0.30622468622908949 -0.36185706908327292 0 -0.30853696427419119 -0.34553303592923829 0 -0.28666064388094081 -0.3565024704511689 0 -0.28666064388094081 -0.3565024704511689 0 -0.27632217061747077 -0.38236423372716638 0 -0.30622468622908949 -0.36185706908327292 0 -0.28666064388094081 -0.3565024704511689 0 -0.29629721773317619 -0.37943608819169372 0 -0.28666064388094081 -0.3565024704511689 0 -0.29629721773317619 -0.37943608819169372 0 -0.27632217061747077 -0.38236423372716638 0 -0.28666064388094081 -0.3565024704511689 0 -0.2703454730293432 -0.36486029458243829 0 -0.27632217061747077 -0.38236423372716638 0 -0.2703454730293432 -0.36486029458243829 0 -0.27632217061747077 -0.38236423372716638 0 -0.26238691137726639 -0.37509691369023929 0 -0.2703454730293432 -0.36486029458243829 0 -0.25742178503506652 -0.36173700810592779 0 -0.27104795800620091 -0.3521517293374023 0 -0.2703454730293432 -0.36486029458243829 0 -0.25742178503506652 -0.36173700810592779 0 -0.26238691137726639 -0.37509691369023929 0 -0.25742178503506652 -0.36173700810592779 0 -0.25090887138991741 -0.37434439095463218 0 -0.24381440695836001 -0.3646605432011934 0 -0.25742178503506652 -0.36173700810592779 0 -0.25090887138991741 -0.37434439095463218 0 -0.26238691137726639 -0.37509691369023929 0 -0.25742178503506652 -0.36173700810592779 0 -0.25925010288925088 -0.34457708341817961 0 -0.24624540423146091 -0.35079766778937099 0 -0.25742178503506652 -0.36173700810592779 0 -0.25925010288925088 -0.34457708341817961 0 -0.27104795800620091 -0.3521517293374023 0 -0.28666064388094081 -0.3565024704511689 0 -0.2703454730293432 -0.36486029458243829 0 -0.27104795800620091 -0.3521517293374023 0 -0.25925010288925088 -0.34457708341817961 0 -0.27104795800620091 -0.3521517293374023 0 -0.27593591642787441 -0.33894488010252199 0 -0.28666064388094081 -0.3565024704511689 0 -0.27104795800620091 -0.3521517293374023 0 -0.27593591642787441 -0.33894488010252199 0 -0.27593591642787441 -0.33894488010252199 0 -0.25957388569728029 -0.32647200119809222 0 -0.27599402342962243 -0.31922416959146072 0 -0.25925010288925088 -0.34457708341817961 0 -0.25957388569728029 -0.32647200119809222 0 -0.24373079363408709 -0.33509573232901879 0 -0.25925010288925088 -0.34457708341817961 0 -0.27593591642787441 -0.33894488010252199 0 -0.25957388569728029 -0.32647200119809222 0 -0.25957388569728029 -0.32647200119809222 0 -0.27599402342962243 -0.31922416959146072 0 -0.26130602805581171 -0.3040737580460125 0 -0.27599402342962243 -0.31922416959146072 0 -0.29699911714441091 -0.33064070717517141 0 -0.28849535258819842 -0.30997025974270681 0 -0.27593591642787441 -0.33894488010252199 0 -0.27599402342962243 -0.31922416959146072 0 -0.29699911714441091 -0.33064070717517141 0 -0.28666064388094081 -0.3565024704511689 0 -0.27593591642787441 -0.33894488010252199 0 -0.29699911714441091 -0.33064070717517141 0 -0.28666064388094081 -0.3565024704511689 0 -0.29699911714441091 -0.33064070717517141 0 -0.31929014067610562 -0.33233999325550262 0 -0.30853696427419119 -0.34553303592923829 0 -0.29699911714441091 -0.33064070717517141 0 -0.29699911714441091 -0.33064070717517141 0 -0.3122339991186488 -0.31972192563099011 0 -0.30733759040788078 -0.30477894389917398 0 -0.29699911714441091 -0.33064070717517141 0 -0.30733759040788078 -0.30477894389917398 0 -0.31929014067610562 -0.33233999325550262 0 -0.29699911714441091 -0.33064070717517141 0 -0.3122339991186488 -0.31972192563099011 0 -0.29699911714441091 -0.33064070717517141 0 -0.30733759040788078 -0.30477894389917398 0 -0.28849535258819842 -0.30997025974270681 0 -0.30733759040788078 -0.30477894389917398 0 -0.29913619351258708 -0.28598938630246579 0 -0.28824429220234499 -0.29403582936905609 0 -0.31767606367135082 -0.2789171806231765 0 -0.30733759040788078 -0.30477894389917398 0 -0.29913619351258708 -0.28598938630246579 0 -0.29913619351258708 -0.28598938630246579 0 -0.28824429220234499 -0.29403582936905609 0 -0.28698317241257743 -0.27985285698749152 0 -0.28824429220234499 -0.29403582936905609 0 -0.27715200261069112 -0.28521619309788332 0 -0.28698317241257743 -0.27985285698749152 0 -0.28824429220234499 -0.29403582936905609 0 -0.28849535258819842 -0.30997025974270681 0 -0.27559998166886901 -0.29958298467917738 0 -0.30733759040788078 -0.30477894389917398 0 -0.28824429220234499 -0.29403582936905609 0 -0.28849535258819842 -0.30997025974270681 0 -0.27599402342962243 -0.31922416959146072 0 -0.27559998166886901 -0.29958298467917738 0 -0.26130602805581171 -0.3040737580460125 0 -0.27599402342962243 -0.31922416959146072 0 -0.28849535258819842 -0.30997025974270681 0 -0.27559998166886901 -0.29958298467917738 0 -0.25957388569728029 -0.32647200119809222 0 -0.26130602805581171 -0.3040737580460125 0 -0.24688355174196661 -0.3052802946029784 0 -0.26130602805581171 -0.3040737580460125 0 -0.25171342304095778 -0.29287874859386742 0 -0.24688355174196661 -0.3052802946029784 0 -0.25171342304095778 -0.29287874859386742 0 -0.26240819112654551 -0.28497769822794577 0 -0.24289862655948749 -0.27525549539798699 0 -0.26130602805581171 -0.3040737580460125 0 -0.25171342304095778 -0.29287874859386742 0 -0.26240819112654551 -0.28497769822794577 0 -0.27559998166886901 -0.29958298467917738 0 -0.26130602805581171 -0.3040737580460125 0 -0.26240819112654551 -0.28497769822794577 0 -0.27559998166886901 -0.29958298467917738 0 -0.26240819112654551 -0.28497769822794577 0 -0.27715200261069112 -0.28521619309788332 0 -0.28824429220234499 -0.29403582936905609 0 -0.27559998166886901 -0.29958298467917738 0 -0.27715200261069112 -0.28521619309788332 0 -0.27715200261069112 -0.28521619309788332 0 -0.27410948399678348 -0.2735227219876169 0 -0.28698317241257743 -0.27985285698749152 0 -0.27410948399678348 -0.2735227219876169 0 -0.27754696619779051 -0.26330592627792582 0 -0.28572779377900009 -0.26817942938960693 0 -0.27410948399678348 -0.2735227219876169 0 -0.26206906689551501 -0.27216715147413861 0 -0.26782447349083532 -0.26211860248240831 0 -0.27410948399678348 -0.2735227219876169 0 -0.26782447349083532 -0.26211860248240831 0 -0.27754696619779051 -0.26330592627792582 0 -0.26240819112654551 -0.28497769822794577 0 -0.27715200261069112 -0.28521619309788332 0 -0.27410948399678348 -0.2735227219876169 0 -0.26240819112654551 -0.28497769822794577 0 -0.27410948399678348 -0.2735227219876169 0 -0.26206906689551501 -0.27216715147413861 0 -0.26206906689551501 -0.27216715147413861 0 -0.25445030499035098 -0.26478376377764218 0 -0.24289862655948749 -0.27525549539798699 0 -0.26240819112654551 -0.28497769822794577 0 -0.26206906689551501 -0.27216715147413861 0 -0.24289862655948749 -0.27525549539798699 0 -0.26206906689551501 -0.27216715147413861 0 -0.25445030499035098 -0.26478376377764218 0 -0.26782447349083532 -0.26211860248240831 0 -0.25384996839767199 -0.25638615403576931 0 -0.24951370693373881 -0.25111521330492559 0 -0.25800086889519658 -0.2465457939377326 0 -0.25384996839767199 -0.25638615403576931 0 -0.25445030499035098 -0.26478376377764218 0 -0.24738714355606559 -0.26170102317732241 0 -0.25384996839767199 -0.25638615403576931 0 -0.25445030499035098 -0.26478376377764218 0 -0.26172330181697562 -0.2541893147956889 0 -0.25445030499035098 -0.26478376377764218 0 -0.26172330181697562 -0.2541893147956889 0 -0.26782447349083532 -0.26211860248240831 0 -0.25384996839767199 -0.25638615403576931 0 -0.26172330181697562 -0.2541893147956889 0 -0.25800086889519658 -0.2465457939377326 0 -0.26881376628220632 -0.25391503488386102 0 -0.26782447349083532 -0.26211860248240831 0 -0.27626246977033653 -0.2545754308368342 0 -0.26172330181697562 -0.2541893147956889 0 -0.26881376628220632 -0.25391503488386102 0 -0.26944482005067788 -0.24477679142051259 0 -0.26172330181697562 -0.2541893147956889 0 -0.26881376628220632 -0.25391503488386102 0 -0.26782447349083532 -0.26211860248240831 0 -0.26881376628220632 -0.25391503488386102 0 -0.27626246977033653 -0.2545754308368342 0 -0.26944482005067788 -0.24477679142051259 0 -0.26782447349083532 -0.26211860248240831 0 -0.27754696619779051 -0.26330592627792582 0 -0.27626246977033653 -0.2545754308368342 0 -0.27754696619779051 -0.26330592627792582 0 -0.27626246977033653 -0.2545754308368342 0 -0.28381060995199708 -0.25813344669316263 0 -0.27626246977033653 -0.2545754308368342 0 -0.28381060995199708 -0.25813344669316263 0 -0.27997576050329209 -0.2470579843557148 0 -0.28754251027753353 -0.25066974673964437 0 -0.28381060995199708 -0.25813344669316263 0 -0.27997576050329209 -0.2470579843557148 0 -0.28754251027753353 -0.25066974673964437 0 -0.29228871195381428 -0.26026779318925047 0 -0.28381060995199708 -0.25813344669316263 0 -0.28754251027753353 -0.25066974673964437 0 -0.29228871195381428 -0.26026779318925047 0 -0.29941935906180128 -0.25288897962424572 0 -0.29228871195381428 -0.26026779318925047 0 -0.28381060995199708 -0.25813344669316263 0 -0.28572779377900009 -0.26817942938960693 0 -0.27754696619779051 -0.26330592627792582 0 -0.28381060995199708 -0.25813344669316263 0 -0.28572779377900009 -0.26817942938960693 0 -0.27410948399678348 -0.2735227219876169 0 -0.28572779377900009 -0.26817942938960693 0 -0.28698317241257743 -0.27985285698749152 0 -0.29913619351258708 -0.28598938630246579 0 -0.28698317241257743 -0.27985285698749152 0 -0.29752926837405841 -0.27217358177832007 0 -0.28572779377900009 -0.26817942938960693 0 -0.28698317241257743 -0.27985285698749152 0 -0.29752926837405841 -0.27217358177832007 0 -0.29228871195381428 -0.26026779318925047 0 -0.28572779377900009 -0.26817942938960693 0 -0.29752926837405841 -0.27217358177832007 0 -0.29752926837405841 -0.27217358177832007 0 -0.30949068908349181 -0.26623171879153568 0 -0.30338658036448729 -0.26032597394055501 0 -0.31767606367135082 -0.2789171806231765 0 -0.29913619351258708 -0.28598938630246579 0 -0.29752926837405841 -0.27217358177832007 0 -0.31767606367135082 -0.2789171806231765 0 -0.29752926837405841 -0.27217358177832007 0 -0.30949068908349181 -0.26623171879153568 0 -0.30949068908349181 -0.26623171879153568 0 -0.31241265182105149 -0.25753732197967799 0 -0.30338658036448729 -0.26032597394055501 0 -0.31241265182105149 -0.25753732197967799 0 -0.30673579201176571 -0.25301260665616998 0 -0.30338658036448729 -0.26032597394055501 0 -0.31241265182105149 -0.25753732197967799 0 -0.30673579201176571 -0.25301260665616998 0 -0.3128026899048888 -0.2490093066069573 0 -0.30673579201176571 -0.25301260665616998 0 -0.29941935906180128 -0.25288897962424572 0 -0.30338658036448729 -0.26032597394055501 0 -0.30673579201176571 -0.25301260665616998 0 -0.29941935906180128 -0.25288897962424572 0 -0.30565767890659928 -0.24530145112941409 0 -0.29228871195381428 -0.26026779318925047 0 -0.29752926837405841 -0.27217358177832007 0 -0.30338658036448729 -0.26032597394055501 0 -0.29228871195381428 -0.26026779318925047 0 -0.29941935906180128 -0.25288897962424572 0 -0.30338658036448729 -0.26032597394055501 0 -0.33448658279877708 -0.46525493381801653 0 -0.33770100293325678 -0.45358808109822141 0 -0.32590460834597729 -0.44903353826134368 0 -0.33448658279877708 -0.46525493381801653 0 -0.34500366919571518 -0.47139756008343919 0 -0.34736256638146029 -0.46016838316467512 0 -0.33448658279877708 -0.46525493381801653 0 -0.33770100293325678 -0.45358808109822141 0 -0.34736256638146029 -0.46016838316467512 0 -0.33770100293325678 -0.45358808109822141 0 -0.34736256638146029 -0.46016838316467512 0 -0.34546167437660719 -0.44867315099317612 0 -0.33770100293325678 -0.45358808109822141 0 -0.33757982869469988 -0.44461837323773418 0 -0.34546167437660719 -0.44867315099317612 0 -0.33757982869469988 -0.44461837323773418 0 -0.32590460834597729 -0.44903353826134368 0 -0.34002890386918228 -0.43133022981237118 0 -0.32590460834597729 -0.44903353826134368 0 -0.34002890386918228 -0.43133022981237118 0 -0.33757982869469988 -0.44461837323773418 0 -0.34593716062657037 -0.43865608355053071 0 -0.34546167437660719 -0.44867315099317612 0 -0.33757982869469988 -0.44461837323773418 0 -0.34593716062657037 -0.43865608355053071 0 -0.34002890386918228 -0.43133022981237118 0 -0.33770100293325678 -0.45358808109822141 0 -0.33757982869469988 -0.44461837323773418 0 -0.32590460834597729 -0.44903353826134368 0 -0.32590460834597729 -0.44903353826134368 0 -0.31883184938736392 -0.44172903299934091 0 -0.32283100161172362 -0.43349461992011878 0 -0.32590460834597729 -0.44903353826134368 0 -0.31883184938736392 -0.44172903299934091 0 -0.31291829354510148 -0.45260655190139182 0 -0.31883184938736392 -0.44172903299934091 0 -0.31291829354510148 -0.45260655190139182 0 -0.30791438241432839 -0.44383516023861919 0 -0.32590460834597729 -0.44903353826134368 0 -0.31291829354510148 -0.45260655190139182 0 -0.31213467523737831 -0.46629269095627029 0 -0.33448658279877708 -0.46525493381801653 0 -0.32590460834597729 -0.44903353826134368 0 -0.31821413147662109 -0.47451676913067231 0 -0.32590460834597729 -0.44903353826134368 0 -0.31821413147662109 -0.47451676913067231 0 -0.31213467523737831 -0.46629269095627029 0 -0.32590460834597729 -0.44903353826134368 0 -0.31821413147662109 -0.47451676913067231 0 -0.32590460834597729 -0.44903353826134368 0 -0.31213467523737831 -0.46629269095627029 0 -0.31821413147662109 -0.47451676913067231 0 -0.32389127788925293 -0.48704792344616898 0 -0.33297942596336882 -0.47700496004361931 0 -0.31821413147662109 -0.47451676913067231 0 -0.32389127788925293 -0.48704792344616898 0 -0.31052365460726489 -0.50000000000000089 0 -0.31821413147662109 -0.47451676913067231 0 -0.31052365460726489 -0.50000000000000089 0 -0.31810667878862797 -0.49999999999999839 0 -0.32389127788925293 -0.48704792344616898 0 -0.31052365460726489 -0.50000000000000089 0 -0.31810667878862797 -0.49999999999999839 0 -0.32389127788925293 -0.48704792344616898 0 -0.34276548320786571 -0.48485317446362752 0 -0.31810667878862797 -0.49999999999999839 0 -0.34276548320786571 -0.48485317446362752 0 -0.34654291560857259 -0.5 0 -0.31810667878862797 -0.49999999999999839 0 -0.34276548320786571 -0.48485317446362752 0 -0.33448658279877708 -0.46525493381801653 0 -0.31821413147662109 -0.47451676913067231 0 -0.33297942596336882 -0.47700496004361931 0 -0.32389127788925293 -0.48704792344616898 0 -0.34276548320786571 -0.48485317446362752 0 -0.33297942596336882 -0.47700496004361931 0 -0.34276548320786571 -0.48485317446362752 0 -0.33297942596336882 -0.47700496004361931 0 -0.34500366919571518 -0.47139756008343919 0 -0.33448658279877708 -0.46525493381801653 0 -0.33297942596336882 -0.47700496004361931 0 -0.34500366919571518 -0.47139756008343919 0 -0.34276548320786571 -0.48485317446362752 0 -0.36555251123240529 -0.48747564515017172 0 -0.36742428762710388 -0.46970634892725782 0 -0.38418956980414898 -0.5 0 -0.34654291560857259 -0.5 0 -0.36555251123240529 -0.48747564515017172 0 -0.34276548320786571 -0.48485317446362752 0 -0.36742428762710388 -0.46970634892725782 0 -0.34276548320786571 -0.48485317446362752 0 -0.34500366919571518 -0.47139756008343919 0 -0.36742428762710388 -0.46970634892725782 0 -0.34276548320786571 -0.48485317446362752 0 -0.34654291560857259 -0.5 0 -0.36555251123240529 -0.48747564515017172 0 -0.36742428762710388 -0.46970634892725782 0 -0.35653247677278682 -0.45047042580037072 0 -0.36948293443814928 -0.44838814416989492 0 -0.36742428762710388 -0.46970634892725782 0 -0.34736256638146029 -0.46016838316467512 0 -0.35653247677278682 -0.45047042580037072 0 -0.34500366919571518 -0.47139756008343919 0 -0.36742428762710388 -0.46970634892725782 0 -0.34736256638146029 -0.46016838316467512 0 -0.34593716062657037 -0.43865608355053071 0 -0.34546167437660719 -0.44867315099317612 0 -0.35609112688513528 -0.43890132923012282 0 -0.34736256638146029 -0.46016838316467512 0 -0.34546167437660719 -0.44867315099317612 0 -0.35653247677278682 -0.45047042580037072 0 -0.34546167437660719 -0.44867315099317612 0 -0.35653247677278682 -0.45047042580037072 0 -0.35609112688513528 -0.43890132923012282 0 -0.35609112688513528 -0.43890132923012282 0 -0.36948293443814928 -0.44838814416989492 0 -0.37098302872015132 -0.43408639701922058 0 -0.35653247677278682 -0.45047042580037072 0 -0.35609112688513528 -0.43890132923012282 0 -0.36948293443814928 -0.44838814416989492 0 -0.38446330129505291 -0.44491985800488898 0 -0.36948293443814928 -0.44838814416989492 0 -0.37098302872015132 -0.43408639701922058 0 -0.37098302872015132 -0.43408639701922058 0 -0.37048952420164089 -0.41844790926598152 0 -0.35896467057847992 -0.42484537799911548 0 -0.35609112688513528 -0.43890132923012282 0 -0.37098302872015132 -0.43408639701922058 0 -0.35896467057847992 -0.42484537799911548 0 -0.37048952420164089 -0.41844790926598152 0 -0.35415319939238732 -0.41362692136339863 0 -0.3676828007387708 -0.3966689990774222 0 -0.37048952420164089 -0.41844790926598152 0 -0.35415319939238732 -0.41362692136339863 0 -0.35896467057847992 -0.42484537799911548 0 -0.38511814291255581 -0.41360735826705619 0 -0.37048952420164089 -0.41844790926598152 0 -0.3676828007387708 -0.3966689990774222 0 -0.35415319939238732 -0.41362692136339863 0 -0.34002890386918228 -0.43133022981237118 0 -0.34193469551397893 -0.41829776111848532 0 -0.35415319939238732 -0.41362692136339863 0 -0.35896467057847992 -0.42484537799911548 0 -0.35415319939238732 -0.41362692136339863 0 -0.34193469551397893 -0.41829776111848532 0 -0.33934215867202921 -0.40673615078754699 0 -0.35415319939238732 -0.41362692136339863 0 -0.34002890386918228 -0.43133022981237118 0 -0.35415319939238732 -0.41362692136339863 0 -0.35052426930722741 -0.42975733447924902 0 -0.35896467057847992 -0.42484537799911548 0 -0.35415319939238732 -0.41362692136339863 0 -0.35052426930722741 -0.42975733447924902 0 -0.34002890386918228 -0.43133022981237118 0 -0.34593716062657037 -0.43865608355053071 0 -0.35052426930722741 -0.42975733447924902 0 -0.34002890386918228 -0.43133022981237118 0 -0.34593716062657037 -0.43865608355053071 0 -0.35609112688513528 -0.43890132923012282 0 -0.35052426930722741 -0.42975733447924902 0 -0.35609112688513528 -0.43890132923012282 0 -0.35052426930722741 -0.42975733447924902 0 -0.35896467057847992 -0.42484537799911548 0 -0.36591632585438849 -0.37949871254638151 0 -0.3676828007387708 -0.3966689990774222 0 -0.34464807500177352 -0.39146471324263987 0 -0.38614913526049721 -0.37716824179615122 0 -0.36591632585438849 -0.37949871254638151 0 -0.3676828007387708 -0.3966689990774222 0 -0.35415319939238732 -0.41362692136339863 0 -0.3676828007387708 -0.3966689990774222 0 -0.35415319939238732 -0.41362692136339863 0 -0.34464807500177352 -0.39146471324263987 0 -0.35415319939238732 -0.41362692136339863 0 -0.34464807500177352 -0.39146471324263987 0 -0.33934215867202921 -0.40673615078754699 0 -0.35415319939238732 -0.41362692136339863 0 -0.3676828007387708 -0.3966689990774222 0 -0.34464807500177352 -0.39146471324263987 0 -0.35251810442559578 -0.36989162501885509 0 -0.36591632585438849 -0.37949871254638151 0 -0.34464807500177352 -0.39146471324263987 0 -0.35251810442559578 -0.36989162501885509 0 -0.33514295061115928 -0.36930250512188151 0 -0.34464807500177352 -0.39146471324263987 0 -0.33514295061115928 -0.36930250512188151 0 -0.34464807500177352 -0.39146471324263987 0 -0.33514295061115928 -0.36930250512188151 0 -0.34464807500177352 -0.39146471324263987 0 -0.32738484146145719 -0.39131188733744732 0 -0.32738484146145719 -0.39131188733744732 0 -0.33934215867202921 -0.40673615078754699 0 -0.32201309209410062 -0.40805278114694438 0 -0.34464807500177352 -0.39146471324263987 0 -0.32738484146145719 -0.39131188733744732 0 -0.33934215867202921 -0.40673615078754699 0 -0.32738484146145719 -0.39131188733744732 0 -0.32201309209410062 -0.40805278114694438 0 -0.3066585380964309 -0.39488193755159517 0 -0.32738484146145719 -0.39131188733744732 0 -0.31650423429324992 -0.37743323617407581 0 -0.3066585380964309 -0.39488193755159517 0 -0.33514295061115928 -0.36930250512188151 0 -0.32738484146145719 -0.39131188733744732 0 -0.31650423429324992 -0.37743323617407581 0 -0.32590460834597729 -0.44903353826134368 0 -0.33421452012231678 -0.42149774251062411 0 -0.32590460834597729 -0.44903353826134368 0 -0.34002890386918228 -0.43133022981237118 0 -0.33421452012231678 -0.42149774251062411 0 -0.34002890386918228 -0.43133022981237118 0 -0.34193469551397893 -0.41829776111848532 0 -0.33421452012231678 -0.42149774251062411 0 -0.34193469551397893 -0.41829776111848532 0 -0.33934215867202921 -0.40673615078754699 0 -0.33421452012231678 -0.42149774251062411 0 -0.33934215867202921 -0.40673615078754699 0 -0.33421452012231678 -0.42149774251062411 0 -0.32201309209410062 -0.40805278114694438 0 -0.33421452012231678 -0.42149774251062411 0 -0.32201309209410062 -0.40805278114694438 0 -0.3176888450997013 -0.42240671406388719 0 -0.32201309209410062 -0.40805278114694438 0 -0.3176888450997013 -0.42240671406388719 0 -0.30284325588070471 -0.41298142316519459 0 -0.32590460834597729 -0.44903353826134368 0 -0.33421452012231678 -0.42149774251062411 0 -0.32283100161172362 -0.43349461992011878 0 -0.3176888450997013 -0.42240671406388719 0 -0.32283100161172362 -0.43349461992011878 0 -0.31468323892744648 -0.43191628277174438 0 -0.33421452012231678 -0.42149774251062411 0 -0.3176888450997013 -0.42240671406388719 0 -0.32283100161172362 -0.43349461992011878 0 -0.31883184938736392 -0.44172903299934091 0 -0.32283100161172362 -0.43349461992011878 0 -0.31468323892744648 -0.43191628277174438 0 -0.31883184938736392 -0.44172903299934091 0 -0.31468323892744648 -0.43191628277174438 0 -0.29938125961099771 -0.43003476410363062 0 -0.3176888450997013 -0.42240671406388719 0 -0.31468323892744648 -0.43191628277174438 0 -0.29938125961099771 -0.43003476410363062 0 -0.31883184938736392 -0.44172903299934091 0 -0.29938125961099771 -0.43003476410363062 0 -0.3176888450997013 -0.42240671406388719 0 -0.29938125961099771 -0.43003476410363062 0 -0.30284325588070471 -0.41298142316519459 0 -0.29938125961099771 -0.43003476410363062 0 -0.30284325588070471 -0.41298142316519459 0 -0.2799306698346315 -0.41834049520792033 0 -0.29138713054836629 -0.4041718469171901 0 -0.27366961785001559 -0.39991851525183197 0 -0.2799306698346315 -0.41834049520792033 0 -0.30284325588070471 -0.41298142316519459 0 -0.29138713054836629 -0.4041718469171901 0 -0.2799306698346315 -0.41834049520792033 0 -0.29938125961099771 -0.43003476410363062 0 -0.2799306698346315 -0.41834049520792033 0 -0.29938125961099771 -0.43003476410363062 0 -0.2799306698346315 -0.41834049520792033 0 -0.27954158645732202 -0.43840601668577939 0 -0.31650423429324992 -0.37743323617407581 0 -0.3066585380964309 -0.39488193755159517 0 -0.29629721773317619 -0.37943608819169372 0 -0.32201309209410062 -0.40805278114694438 0 -0.30284325588070471 -0.41298142316519459 0 -0.3066585380964309 -0.39488193755159517 0 -0.30284325588070471 -0.41298142316519459 0 -0.3066585380964309 -0.39488193755159517 0 -0.29138713054836629 -0.4041718469171901 0 -0.29138713054836629 -0.4041718469171901 0 -0.28479067659213431 -0.39262142236356701 0 -0.27366961785001559 -0.39991851525183197 0 -0.3066585380964309 -0.39488193755159517 0 -0.29138713054836629 -0.4041718469171901 0 -0.28479067659213431 -0.39262142236356701 0 -0.3066585380964309 -0.39488193755159517 0 -0.28479067659213431 -0.39262142236356701 0 -0.29629721773317619 -0.37943608819169372 0 -0.28479067659213431 -0.39262142236356701 0 -0.29629721773317619 -0.37943608819169372 0 -0.27632217061747077 -0.38236423372716638 0 -0.27632217061747077 -0.38236423372716638 0 -0.26344362723278197 -0.38654721792172148 0 -0.26238691137726639 -0.37509691369023929 0 -0.28479067659213431 -0.39262142236356701 0 -0.27632217061747077 -0.38236423372716638 0 -0.2718860516422037 -0.39146470530207911 0 -0.27632217061747077 -0.38236423372716638 0 -0.2718860516422037 -0.39146470530207911 0 -0.26344362723278197 -0.38654721792172148 0 -0.2718860516422037 -0.39146470530207911 0 -0.27366961785001559 -0.39991851525183197 0 -0.26120416591861589 -0.39587213724610842 0 -0.28479067659213431 -0.39262142236356701 0 -0.2718860516422037 -0.39146470530207911 0 -0.27366961785001559 -0.39991851525183197 0 -0.27366961785001559 -0.39991851525183197 0 -0.26048008005826639 -0.40664622631220831 0 -0.26048008005826639 -0.40664622631220831 0 -0.24318202550031651 -0.39624612514822799 0 -0.24754985532100679 -0.3970639891143794 0 -0.26048008005826639 -0.40664622631220831 0 -0.24318202550031651 -0.39624612514822799 0 -0.27366961785001559 -0.39991851525183197 0 -0.26120416591861589 -0.39587213724610842 0 -0.26048008005826639 -0.40664622631220831 0 -0.26120416591861589 -0.39587213724610842 0 -0.26048008005826639 -0.40664622631220831 0 -0.24754985532100679 -0.3970639891143794 0 -0.26120416591861589 -0.39587213724610842 0 -0.25368471674856857 -0.39024688062815588 0 -0.24754985532100679 -0.3970639891143794 0 -0.26120416591861589 -0.39587213724610842 0 -0.26344362723278197 -0.38654721792172148 0 -0.25368471674856857 -0.39024688062815588 0 -0.2718860516422037 -0.39146470530207911 0 -0.26120416591861589 -0.39587213724610842 0 -0.26344362723278197 -0.38654721792172148 0 -0.26344362723278197 -0.38654721792172148 0 -0.25368471674856857 -0.39024688062815588 0 -0.25587409263531069 -0.38120771004676202 0 -0.25368471674856857 -0.39024688062815588 0 -0.25587409263531069 -0.38120771004676202 0 -0.2488988270452879 -0.38398328131875142 0 -0.25368471674856857 -0.39024688062815588 0 -0.2483704375696674 -0.38946062495943862 0 -0.2488988270452879 -0.38398328131875142 0 -0.25090887138991741 -0.37434439095463218 0 -0.25587409263531069 -0.38120771004676202 0 -0.2488988270452879 -0.38398328131875142 0 -0.25090887138991741 -0.37434439095463218 0 -0.25587409263531069 -0.38120771004676202 0 -0.26238691137726639 -0.37509691369023929 0 -0.26344362723278197 -0.38654721792172148 0 -0.25587409263531069 -0.38120771004676202 0 -0.26238691137726639 -0.37509691369023929 0 -0.2799306698346315 -0.41834049520792033 0 -0.26333651958853482 -0.4239180414298363 0 -0.27954158645732202 -0.43840601668577939 0 -0.26333651958853482 -0.4239180414298363 0 -0.25964467043627709 -0.44103075875014008 0 -0.27954158645732202 -0.43840601668577939 0 -0.27366961785001559 -0.39991851525183197 0 -0.2799306698346315 -0.41834049520792033 0 -0.26048008005826639 -0.40664622631220831 0 -0.2799306698346315 -0.41834049520792033 0 -0.26048008005826639 -0.40664622631220831 0 -0.2799306698346315 -0.41834049520792033 0 -0.26048008005826639 -0.40664622631220831 0 -0.26333651958853482 -0.4239180414298363 0 -0.26048008005826639 -0.40664622631220831 0 -0.26333651958853482 -0.4239180414298363 0 -0.23922848361506099 -0.41748622712944711 0 -0.25060622239264868 -0.43068886144846652 0 -0.25964467043627709 -0.44103075875014008 0 -0.24021521593072201 -0.44032041848444248 0 -0.25060622239264868 -0.43068886144846652 0 -0.26333651958853482 -0.4239180414298363 0 -0.25964467043627709 -0.44103075875014008 0 -0.25060622239264868 -0.43068886144846652 0 -0.26333651958853482 -0.4239180414298363 0 -0.23922848361506099 -0.41748622712944711 0 -0.25964467043627709 -0.44103075875014008 0 -0.25233939806696798 -0.45641972303482009 0 -0.24021521593072201 -0.44032041848444248 0 -0.25964467043627709 -0.44103075875014008 0 -0.25233939806696798 -0.45641972303482009 0 -0.26839586943767269 -0.4565310156756075 0 -0.25233939806696798 -0.45641972303482009 0 -0.26839586943767269 -0.4565310156756075 0 -0.26033957885465359 -0.47145914900489261 0 -0.25233939806696798 -0.45641972303482009 0 -0.26033957885465359 -0.47145914900489261 0 -0.2451623079523135 -0.47186888494189611 0 -0.27154038767407013 -0.46857192566847428 0 -0.26839586943767269 -0.4565310156756075 0 -0.28511171473488922 -0.45855525787725182 0 -0.27154038767407013 -0.46857192566847428 0 -0.28511171473488922 -0.45855525787725182 0 -0.28038020587299828 -0.47726678672689993 0 -0.27154038767407013 -0.46857192566847428 0 -0.26839586943767269 -0.4565310156756075 0 -0.26033957885465359 -0.47145914900489261 0 -0.26839586943767269 -0.4565310156756075 0 -0.27954158645732202 -0.43840601668577939 0 -0.28511171473488922 -0.45855525787725182 0 -0.25964467043627709 -0.44103075875014008 0 -0.26839586943767269 -0.4565310156756075 0 -0.27954158645732202 -0.43840601668577939 0 -0.29938125961099771 -0.43003476410363062 0 -0.27954158645732202 -0.43840601668577939 0 -0.29021552471993439 -0.44576335800873779 0 -0.27954158645732202 -0.43840601668577939 0 -0.29021552471993439 -0.44576335800873779 0 -0.28511171473488922 -0.45855525787725182 0 -0.29938125961099771 -0.43003476410363062 0 -0.29021552471993439 -0.44576335800873779 0 -0.30052612711385102 -0.45097029195011351 0 -0.29021552471993439 -0.44576335800873779 0 -0.28511171473488922 -0.45855525787725182 0 -0.30052612711385102 -0.45097029195011351 0 -0.28511171473488922 -0.45855525787725182 0 -0.29860174169392972 -0.46408504341981732 0 -0.29216974553442721 -0.47283010837431938 0 -0.28511171473488922 -0.45855525787725182 0 -0.29860174169392972 -0.46408504341981732 0 -0.30052612711385102 -0.45097029195011351 0 -0.29860174169392972 -0.46408504341981732 0 -0.30604520939756508 -0.45848864455689819 0 -0.30052612711385102 -0.45097029195011351 0 -0.29860174169392972 -0.46408504341981732 0 -0.31213467523737831 -0.46629269095627029 0 -0.30604520939756508 -0.45848864455689819 0 -0.31291829354510148 -0.45260655190139182 0 -0.30604520939756508 -0.45848864455689819 0 -0.30052612711385102 -0.45097029195011351 0 -0.31291829354510148 -0.45260655190139182 0 -0.31213467523737831 -0.46629269095627029 0 -0.30604520939756508 -0.45848864455689819 0 -0.31291829354510148 -0.45260655190139182 0 -0.30791438241432839 -0.44383516023861919 0 -0.30052612711385102 -0.45097029195011351 0 -0.31883184938736392 -0.44172903299934091 0 -0.29938125961099771 -0.43003476410363062 0 -0.30791438241432839 -0.44383516023861919 0 -0.29938125961099771 -0.43003476410363062 0 -0.30791438241432839 -0.44383516023861919 0 -0.30052612711385102 -0.45097029195011351 0 -0.31052365460726489 -0.50000000000000089 0 -0.30423006248935808 -0.47730897694909979 0 -0.29494784989209571 -0.48532402272851177 0 -0.31052365460726489 -0.50000000000000089 0 -0.28620201721862448 -0.5 0 -0.29494784989209571 -0.48532402272851177 0 -0.31821413147662109 -0.47451676913067231 0 -0.31052365460726489 -0.50000000000000089 0 -0.30423006248935808 -0.47730897694909979 0 -0.31821413147662109 -0.47451676913067231 0 -0.31213467523737831 -0.46629269095627029 0 -0.30423006248935808 -0.47730897694909979 0 -0.29860174169392972 -0.46408504341981732 0 -0.31213467523737831 -0.46629269095627029 0 -0.30423006248935808 -0.47730897694909979 0 -0.29860174169392972 -0.46408504341981732 0 -0.30423006248935808 -0.47730897694909979 0 -0.29216974553442721 -0.47283010837431938 0 -0.30423006248935808 -0.47730897694909979 0 -0.29216974553442721 -0.47283010837431938 0 -0.29494784989209571 -0.48532402272851177 0 -0.29216974553442721 -0.47283010837431938 0 -0.29494784989209571 -0.48532402272851177 0 -0.28038020587299828 -0.47726678672689993 0 -0.28511171473488922 -0.45855525787725182 0 -0.29216974553442721 -0.47283010837431938 0 -0.28038020587299828 -0.47726678672689993 0 -0.28620201721862448 -0.5 0 -0.29494784989209571 -0.48532402272851177 0 -0.28038020587299828 -0.47726678672689993 0 -0.28620201721862448 -0.5 0 -0.28038020587299828 -0.47726678672689993 0 -0.26720397759482217 -0.48393207156219431 0 -0.28620201721862448 -0.5 0 -0.26720397759482217 -0.48393207156219431 0 -0.26188037982998408 -0.5 0 -0.27154038767407013 -0.46857192566847428 0 -0.28038020587299828 -0.47726678672689993 0 -0.26720397759482217 -0.48393207156219431 0 -0.27154038767407013 -0.46857192566847428 0 -0.26720397759482217 -0.48393207156219431 0 -0.26033957885465359 -0.47145914900489261 0 -0.26720397759482217 -0.48393207156219431 0 -0.26033957885465359 -0.47145914900489261 0 -0.25442899733462337 -0.48545202110179658 0 -0.26033957885465359 -0.47145914900489261 0 -0.2451623079523135 -0.47186888494189611 0 -0.26033957885465359 -0.47145914900489261 0 -0.25442899733462337 -0.48545202110179658 0 -0.2451623079523135 -0.47186888494189611 0 -0.26720397759482217 -0.48393207156219431 0 -0.26188037982998408 -0.5 0 -0.25442899733462337 -0.48545202110179658 0 -0.26188037982998408 -0.5 0 -0.25442899733462337 -0.48545202110179658 0 -0.2375587424413437 -0.49999999999999861 0 -0.25442899733462337 -0.48545202110179658 0 -0.2375587424413437 -0.49999999999999861 0 -0.2451623079523135 -0.47186888494189611 0 -0.2375587424413437 -0.49999999999999861 0 -0.2451623079523135 -0.47186888494189611 0 -0.22998503704997339 -0.47227862087889738 0 -0.2451623079523135 -0.47186888494189611 0 -0.22998503704997339 -0.47227862087889738 0 -0.22998503704997339 -0.47227862087889738 0 -0.21790050116262119 -0.46266498925711208 0 -0.20936692116834299 -0.47283524157074652 0 -0.22998503704997339 -0.47227862087889738 0 -0.21998032052041591 -0.48646043930993249 0 -0.20936692116834299 -0.47283524157074652 0 -0.22998503704997339 -0.47227862087889738 0 -0.20936692116834299 -0.47283524157074652 0 -0.2375587424413437 -0.49999999999999861 0 -0.21998032052041591 -0.48646043930993249 0 -0.21764391570364969 -0.5 0 -0.2375587424413437 -0.49999999999999861 0 -0.22998503704997339 -0.47227862087889738 0 -0.21998032052041591 -0.48646043930993249 0 -0.2375587424413437 -0.49999999999999861 0 -0.22998503704997339 -0.47227862087889738 0 -0.25233939806696798 -0.45641972303482009 0 -0.24021521593072201 -0.44032041848444248 0 -0.2376239410885973 -0.45852847511306338 0 -0.25233939806696798 -0.45641972303482009 0 -0.2451623079523135 -0.47186888494189611 0 -0.2376239410885973 -0.45852847511306338 0 -0.2451623079523135 -0.47186888494189611 0 -0.22998503704997339 -0.47227862087889738 0 -0.2376239410885973 -0.45852847511306338 0 -0.22998503704997339 -0.47227862087889738 0 -0.22398096211091509 -0.45030242441279211 0 -0.22998503704997339 -0.47227862087889738 0 -0.2376239410885973 -0.45852847511306338 0 -0.22398096211091509 -0.45030242441279211 0 -0.22998503704997339 -0.47227862087889738 0 -0.22398096211091509 -0.45030242441279211 0 -0.21790050116262119 -0.46266498925711208 0 -0.22398096211091509 -0.45030242441279211 0 -0.21797688717185629 -0.42832622794668701 0 -0.24021521593072201 -0.44032041848444248 0 -0.22398096211091509 -0.45030242441279211 0 -0.21797688717185629 -0.42832622794668701 0 -0.24021521593072201 -0.44032041848444248 0 -0.2376239410885973 -0.45852847511306338 0 -0.22398096211091509 -0.45030242441279211 0 -0.22398096211091509 -0.45030242441279211 0 -0.21129749525587049 -0.44323143219839573 0 -0.21797688717185629 -0.42832622794668701 0 -0.22398096211091509 -0.45030242441279211 0 -0.21129749525587049 -0.44323143219839573 0 -0.20826908432125299 -0.45524367016601253 0 -0.21129749525587049 -0.44323143219839573 0 -0.20358755060781841 -0.44556882616750848 0 -0.19747384846287011 -0.43878440491025489 0 -0.21129749525587049 -0.44323143219839573 0 -0.20358755060781841 -0.44556882616750848 0 -0.20826908432125299 -0.45524367016601253 0 -0.20358755060781841 -0.44556882616750848 0 -0.20826908432125299 -0.45524367016601253 0 -0.19888034100579091 -0.45105557825587872 0 -0.21790050116262119 -0.46266498925711208 0 -0.20826908432125299 -0.45524367016601253 0 -0.20936692116834299 -0.47283524157074652 0 -0.20826908432125299 -0.45524367016601253 0 -0.19541552588151251 -0.4595572633936017 0 -0.20936692116834299 -0.47283524157074652 0 -0.22398096211091509 -0.45030242441279211 0 -0.21790050116262119 -0.46266498925711208 0 -0.20826908432125299 -0.45524367016601253 0 -0.19541552588151251 -0.4595572633936017 0 -0.20936692116834299 -0.47283524157074652 0 -0.18874880528671259 -0.47339186226259061 0 -0.19541552588151251 -0.4595572633936017 0 -0.18874880528671259 -0.47339186226259061 0 -0.18093056190495399 -0.45022679262816312 0 -0.20826908432125299 -0.45524367016601253 0 -0.19541552588151251 -0.4595572633936017 0 -0.19888034100579091 -0.45105557825587872 0 -0.19541552588151251 -0.4595572633936017 0 -0.19888034100579091 -0.45105557825587872 0 -0.19259370585963539 -0.44930404101188892 0 -0.19888034100579091 -0.45105557825587872 0 -0.19259370585963539 -0.44930404101188892 0 -0.19678561947748671 -0.44270729123280028 0 -0.20358755060781841 -0.44556882616750848 0 -0.19888034100579091 -0.45105557825587872 0 -0.19678561947748671 -0.44270729123280028 0 -0.19541552588151251 -0.4595572633936017 0 -0.19259370585963539 -0.44930404101188892 0 -0.18093056190495399 -0.45022679262816312 0 -0.19259370585963539 -0.44930404101188892 0 -0.1935799244691058 -0.44077061518802962 0 -0.18093056190495399 -0.45022679262816312 0 -0.19259370585963539 -0.44930404101188892 0 -0.1935799244691058 -0.44077061518802962 0 -0.19678561947748671 -0.44270729123280028 0 -0.1935799244691058 -0.44077061518802962 0 -0.19747384846287011 -0.43878440491025489 0 -0.19678561947748671 -0.44270729123280028 0 -0.19747384846287011 -0.43878440491025489 0 -0.19678561947748671 -0.44270729123280028 0 -0.1935799244691058 -0.44077061518802962 0 -0.19747384846287011 -0.43878440491025489 0 -0.20358755060781841 -0.44556882616750848 0 -0.19747384846287011 -0.43878440491025489 0 -0.19678561947748671 -0.44270729123280028 0 -0.2066938103290156 -0.48653750862865391 0 -0.21764391570364969 -0.5 0 -0.19772908896595581 -0.50000000000000733 0 -0.21998032052041591 -0.48646043930993249 0 -0.2066938103290156 -0.48653750862865391 0 -0.21764391570364969 -0.5 0 -0.21998032052041591 -0.48646043930993249 0 -0.2066938103290156 -0.48653750862865391 0 -0.20936692116834299 -0.47283524157074652 0 -0.20936692116834299 -0.47283524157074652 0 -0.18874880528671259 -0.47339186226259061 0 -0.2066938103290156 -0.48653750862865391 0 -0.20936692116834299 -0.47283524157074652 0 -0.18874880528671259 -0.47339186226259061 0 -0.2066938103290156 -0.48653750862865391 0 -0.18874880528671259 -0.47339186226259061 0 -0.19772908896595581 -0.50000000000000733 0 -0.18874880528671259 -0.47339186226259061 0 -0.19772908896595581 -0.50000000000000733 0 -0.1786273106901673 -0.4862509547188098 0 -0.18874880528671259 -0.47339186226259061 0 -0.19772908896595581 -0.50000000000000733 0 -0.19772908896595581 -0.50000000000000733 0 -0.1786273106901673 -0.4862509547188098 0 -0.16975236474547031 -0.5 0 -0.1786273106901673 -0.4862509547188098 0 -0.16975236474547031 -0.5 0 -0.15277290451223449 -0.48494944086271968 0 -0.1786273106901673 -0.4862509547188098 0 -0.16782675888839421 -0.47395668806956531 0 -0.15277290451223449 -0.48494944086271968 0 -0.16782675888839421 -0.47395668806956531 0 -0.1541676270232471 -0.45650500532266342 0 -0.15277290451223449 -0.48494944086271968 0 -0.18874880528671259 -0.47339186226259061 0 -0.16782675888839421 -0.47395668806956531 0 -0.18874880528671259 -0.47339186226259061 0 -0.16782675888839421 -0.47395668806956531 0 -0.16888431871902471 -0.4590577290432778 0 -0.18874880528671259 -0.47339186226259061 0 -0.1786273106901673 -0.4862509547188098 0 -0.16782675888839421 -0.47395668806956531 0 -0.18874880528671259 -0.47339186226259061 0 -0.18093056190495399 -0.45022679262816312 0 -0.18874880528671259 -0.47339186226259061 0 -0.18093056190495399 -0.45022679262816312 0 -0.16888431871902471 -0.4590577290432778 0 -0.1935799244691058 -0.44077061518802962 0 -0.18093056190495399 -0.45022679262816312 0 -0.17311231852319309 -0.42706172299373629 0 -0.18093056190495399 -0.45022679262816312 0 -0.17311231852319309 -0.42706172299373629 0 -0.18093056190495399 -0.45022679262816312 0 -0.16363997277321971 -0.44178336415819958 0 -0.17311231852319309 -0.42706172299373629 0 -0.18093056190495399 -0.45022679262816312 0 -0.16363997277321971 -0.44178336415819958 0 -0.16888431871902471 -0.4590577290432778 0 -0.16363997277321971 -0.44178336415819958 0 -0.16888431871902471 -0.4590577290432778 0 -0.1541676270232471 -0.45650500532266342 0 -0.16363997277321971 -0.44178336415819958 0 -0.1541676270232471 -0.45650500532266342 0 -0.16782675888839421 -0.47395668806956531 0 -0.16888431871902471 -0.4590577290432778 0 -0.1541676270232471 -0.45650500532266342 0 -0.1541676270232471 -0.45650500532266342 0 -0.13610754057095281 -0.45288630732329721 0 -0.13694122590382979 -0.47510987288489598 0 -0.1541676270232471 -0.45650500532266342 0 -0.14971125254285469 -0.44300501670879339 0 -0.13610754057095281 -0.45288630732329721 0 -0.14971125254285469 -0.44300501670879339 0 -0.13610754057095281 -0.45288630732329721 0 -0.1382937711683514 -0.43678085278816969 0 -0.16363997277321971 -0.44178336415819958 0 -0.1541676270232471 -0.45650500532266342 0 -0.14971125254285469 -0.44300501670879339 0 -0.13610754057095281 -0.45288630732329721 0 -0.1382937711683514 -0.43678085278816969 0 -0.1185860188496181 -0.44093879709350853 0 -0.13610754057095281 -0.45288630732329721 0 -0.13694122590382979 -0.47510987288489598 0 -0.1168989945026065 -0.46327545877547849 0 -0.13694122590382979 -0.47510987288489598 0 -0.1221394328480946 -0.48345149437937879 0 -0.1168989945026065 -0.46327545877547849 0 -0.13694122590382979 -0.47510987288489598 0 -0.1417756405249849 -0.5 0 -0.1221394328480946 -0.48345149437937879 0 -0.1417756405249849 -0.5 0 -0.1221394328480946 -0.48345149437937879 0 -0.1137989163044995 -0.5 0 -0.13694122590382979 -0.47510987288489598 0 -0.15277290451223449 -0.48494944086271968 0 -0.1417756405249849 -0.5 0 -0.16975236474547031 -0.5 0 -0.15277290451223449 -0.48494944086271968 0 -0.1417756405249849 -0.5 0 -0.1541676270232471 -0.45650500532266342 0 -0.13694122590382979 -0.47510987288489598 0 -0.15277290451223449 -0.48494944086271968 0 -0.15004008847911021 -0.39524441209292011 0 -0.13797182857012899 -0.38581825287213128 0 -0.13885789718912461 -0.40653452532146739 0 -0.15004008847911021 -0.39524441209292011 0 -0.13797182857012899 -0.38581825287213128 0 -0.1576694339549024 -0.38130521748310658 0 -0.13797182857012899 -0.38581825287213128 0 -0.1576694339549024 -0.38130521748310658 0 -0.14994799167075629 -0.35842696472779201 0 -0.13797182857012899 -0.38581825287213128 0 -0.12945893317934351 -0.37053440492462908 0 -0.1164518684188956 -0.38502674592336172 0 -0.13797182857012899 -0.38581825287213128 0 -0.1233765870987707 -0.40365549963164238 0 -0.1164518684188956 -0.38502674592336172 0 -0.13797182857012899 -0.38581825287213128 0 -0.13885789718912461 -0.40653452532146739 0 -0.1233765870987707 -0.40365549963164238 0 -0.13338338784179979 -0.4214089604989521 0 -0.13885789718912461 -0.40653452532146739 0 -0.1233765870987707 -0.40365549963164238 0 -0.13338338784179979 -0.4214089604989521 0 -0.1382937711683514 -0.43678085278816969 0 -0.1185860188496181 -0.44093879709350853 0 -0.13338338784179979 -0.4214089604989521 0 -0.1382937711683514 -0.43678085278816969 0 -0.1516214408685268 -0.42207193083964639 0 -0.14971125254285469 -0.44300501670879339 0 -0.1382937711683514 -0.43678085278816969 0 -0.1516214408685268 -0.42207193083964639 0 -0.16363997277321971 -0.44178336415819958 0 -0.14971125254285469 -0.44300501670879339 0 -0.1516214408685268 -0.42207193083964639 0 -0.13338338784179979 -0.4214089604989521 0 -0.13885789718912461 -0.40653452532146739 0 -0.1516214408685268 -0.42207193083964639 0 -0.15004008847911021 -0.39524441209292011 0 -0.1516214408685268 -0.42207193083964639 0 -0.1653908762390485 -0.40418347023842122 0 -0.15004008847911021 -0.39524441209292011 0 -0.13885789718912461 -0.40653452532146739 0 -0.1516214408685268 -0.42207193083964639 0 -0.1516214408685268 -0.42207193083964639 0 -0.17311231852319309 -0.42706172299373629 0 -0.1653908762390485 -0.40418347023842122 0 -0.17311231852319309 -0.42706172299373629 0 -0.1653908762390485 -0.40418347023842122 0 -0.16363997277321971 -0.44178336415819958 0 -0.1516214408685268 -0.42207193083964639 0 -0.17311231852319309 -0.42706172299373629 0 -0.16363997277321971 -0.44178336415819958 0 -0.17311231852319309 -0.42706172299373629 0 -0.1935799244691058 -0.44077061518802962 0 -0.17311231852319309 -0.42706172299373629 0 -0.1903903066634709 -0.42607522390595381 0 -0.17311231852319309 -0.42706172299373629 0 -0.18660757075879519 -0.40608779889082292 0 -0.17311231852319309 -0.42706172299373629 0 -0.18660757075879519 -0.40608779889082292 0 -0.1653908762390485 -0.40418347023842122 0 -0.17311231852319309 -0.42706172299373629 0 -0.18660757075879519 -0.40608779889082292 0 -0.1903903066634709 -0.42607522390595381 0 -0.18660757075879519 -0.40608779889082292 0 -0.1653908762390485 -0.40418347023842122 0 -0.17734085620080789 -0.38648015734977359 0 -0.15004008847911021 -0.39524441209292011 0 -0.1653908762390485 -0.40418347023842122 0 -0.1576694339549024 -0.38130521748310658 0 -0.1653908762390485 -0.40418347023842122 0 -0.1576694339549024 -0.38130521748310658 0 -0.1653908762390485 -0.40418347023842122 0 -0.1576694339549024 -0.38130521748310658 0 -0.17734085620080789 -0.38648015734977359 0 -0.1576694339549024 -0.38130521748310658 0 -0.17734085620080789 -0.38648015734977359 0 -0.1692307355042407 -0.36806616573785988 0 -0.17734085620080789 -0.38648015734977359 0 -0.18892229227168661 -0.37622041473678958 0 -0.1692307355042407 -0.36806616573785988 0 -0.20010282299439819 -0.38511387478791009 0 -0.18892229227168661 -0.37622041473678958 0 -0.2085859163844179 -0.37544592282026568 0 -0.17734085620080789 -0.38648015734977359 0 -0.20010282299439819 -0.38511387478791009 0 -0.18892229227168661 -0.37622041473678958 0 -0.18660757075879519 -0.40608779889082292 0 -0.17734085620080789 -0.38648015734977359 0 -0.20010282299439819 -0.38511387478791009 0 -0.18660757075879519 -0.40608779889082292 0 -0.20010282299439819 -0.38511387478791009 0 -0.18660757075879519 -0.40608779889082292 0 -0.20010282299439819 -0.38511387478791009 0 -0.20488189374390209 -0.39655875018359538 0 -0.20488189374390209 -0.39655875018359538 0 -0.21122516912173159 -0.40880642592978073 0 -0.22387150591693411 -0.40272252772724132 0 -0.20488189374390209 -0.39655875018359538 0 -0.22588397094236759 -0.38584602398424611 0 -0.22387150591693411 -0.40272252772724132 0 -0.20488189374390209 -0.39655875018359538 0 -0.2085859163844179 -0.37544592282026568 0 -0.20488189374390209 -0.39655875018359538 0 -0.2085859163844179 -0.37544592282026568 0 -0.22588397094236759 -0.38584602398424611 0 -0.20010282299439819 -0.38511387478791009 0 -0.20488189374390209 -0.39655875018359538 0 -0.2085859163844179 -0.37544592282026568 0 -0.2085859163844179 -0.37544592282026568 0 -0.22588397094236759 -0.38584602398424611 0 -0.19747384846287011 -0.43878440491025489 0 -0.20117787110338689 -0.41767157754692519 0 -0.19747384846287011 -0.43878440491025489 0 -0.1903903066634709 -0.42607522390595381 0 -0.20117787110338689 -0.41767157754692519 0 -0.1935799244691058 -0.44077061518802962 0 -0.19747384846287011 -0.43878440491025489 0 -0.1903903066634709 -0.42607522390595381 0 -0.18660757075879519 -0.40608779889082292 0 -0.1903903066634709 -0.42607522390595381 0 -0.20117787110338689 -0.41767157754692519 0 -0.18660757075879519 -0.40608779889082292 0 -0.20488189374390209 -0.39655875018359538 0 -0.20117787110338689 -0.41767157754692519 0 -0.20488189374390209 -0.39655875018359538 0 -0.20117787110338689 -0.41767157754692519 0 -0.20488189374390209 -0.39655875018359538 0 -0.20117787110338689 -0.41767157754692519 0 -0.21122516912173159 -0.40880642592978073 0 -0.21122516912173159 -0.40880642592978073 0 -0.21584499793019971 -0.42052305805054863 0 -0.2225425391459816 -0.41238455970925442 0 -0.20117787110338689 -0.41767157754692519 0 -0.21122516912173159 -0.40880642592978073 0 -0.21584499793019971 -0.42052305805054863 0 -0.19747384846287011 -0.43878440491025489 0 -0.21797688717185629 -0.42832622794668701 0 -0.19747384846287011 -0.43878440491025489 0 -0.20117787110338689 -0.41767157754692519 0 -0.21797688717185629 -0.42832622794668701 0 -0.21129749525587049 -0.44323143219839573 0 -0.19747384846287011 -0.43878440491025489 0 -0.21797688717185629 -0.42832622794668701 0 -0.20117787110338689 -0.41767157754692519 0 -0.21584499793019971 -0.42052305805054863 0 -0.21797688717185629 -0.42832622794668701 0 -0.21584499793019971 -0.42052305805054863 0 -0.21797688717185629 -0.42832622794668701 0 -0.21584499793019971 -0.42052305805054863 0 -0.21797688717185629 -0.42832622794668701 0 -0.23922848361506099 -0.41748622712944711 0 -0.21797688717185629 -0.42832622794668701 0 -0.23922848361506099 -0.41748622712944711 0 -0.24021521593072201 -0.44032041848444248 0 -0.21797688717185629 -0.42832622794668701 0 -0.23922848361506099 -0.41748622712944711 0 -0.21584499793019971 -0.42052305805054863 0 -0.2225425391459816 -0.41238455970925442 0 -0.23922848361506099 -0.41748622712944711 0 -0.2225425391459816 -0.41238455970925442 0 -0.23922848361506099 -0.41748622712944711 0 -0.22387150591693411 -0.40272252772724132 0 -0.21122516912173159 -0.40880642592978073 0 -0.2225425391459816 -0.41238455970925442 0 -0.22387150591693411 -0.40272252772724132 0 -0.26048008005826639 -0.40664622631220831 0 -0.23922848361506099 -0.41748622712944711 0 -0.26048008005826639 -0.40664622631220831 0 -0.23922848361506099 -0.41748622712944711 0 -0.24318202550031651 -0.39624612514822799 0 -0.25060622239264868 -0.43068886144846652 0 -0.24021521593072201 -0.44032041848444248 0 -0.23922848361506099 -0.41748622712944711 0 -0.2085859163844179 -0.37544592282026568 0 -0.22588397094236759 -0.38584602398424611 0 -0.22928440524020691 -0.37932082885606427 0 -0.22588397094236759 -0.38584602398424611 0 -0.22928440524020691 -0.37932082885606427 0 -0.24318202550031651 -0.39624612514822799 0 -0.22928440524020691 -0.37932082885606427 0 -0.23728226026915131 -0.37750446309912111 0 -0.23376544622612849 -0.37009315482581212 0 -0.22588397094236759 -0.38584602398424611 0 -0.22387150591693411 -0.40272252772724132 0 -0.24318202550031651 -0.39624612514822799 0 -0.22928440524020691 -0.37932082885606427 0 -0.24318202550031651 -0.39624612514822799 0 -0.24754985532100679 -0.3970639891143794 0 -0.23922848361506099 -0.41748622712944711 0 -0.22387150591693411 -0.40272252772724132 0 -0.24318202550031651 -0.39624612514822799 0 -0.22588397094236759 -0.38584602398424611 0 -0.24318202550031651 -0.39624612514822799 0 -0.24754985532100679 -0.3970639891143794 0 -0.2483704375696674 -0.38946062495943862 0 -0.24476483574404559 -0.38691495704665579 0 -0.25368471674856857 -0.39024688062815588 0 -0.24754985532100679 -0.3970639891143794 0 -0.2483704375696674 -0.38946062495943862 0 -0.2483704375696674 -0.38946062495943862 0 -0.2488988270452879 -0.38398328131875142 0 -0.24476483574404559 -0.38691495704665579 0 -0.24754985532100679 -0.3970639891143794 0 -0.24476483574404559 -0.38691495704665579 0 -0.23899281173292031 -0.38441295156713601 0 -0.22928440524020691 -0.37932082885606427 0 -0.24754985532100679 -0.3970639891143794 0 -0.23899281173292031 -0.38441295156713601 0 -0.22928440524020691 -0.37932082885606427 0 -0.24754985532100679 -0.3970639891143794 0 -0.24476483574404559 -0.38691495704665579 0 -0.23899281173292031 -0.38441295156713601 0 -0.24284521621182481 -0.38038715481394991 0 -0.2488988270452879 -0.38398328131875142 0 -0.24476483574404559 -0.38691495704665579 0 -0.24284521621182481 -0.38038715481394991 0 -0.22928440524020691 -0.37932082885606427 0 -0.23899281173292031 -0.38441295156713601 0 -0.23728226026915131 -0.37750446309912111 0 -0.23899281173292031 -0.38441295156713601 0 -0.23728226026915131 -0.37750446309912111 0 -0.24284521621182481 -0.38038715481394991 0 -0.23728226026915131 -0.37750446309912111 0 -0.24284521621182481 -0.38038715481394991 0 -0.2415234219346761 -0.37330822543264308 0 -0.25090887138991741 -0.37434439095463218 0 -0.2488988270452879 -0.38398328131875142 0 -0.24284521621182481 -0.38038715481394991 0 -0.25090887138991741 -0.37434439095463218 0 -0.24284521621182481 -0.38038715481394991 0 -0.2415234219346761 -0.37330822543264308 0 -0.25090887138991741 -0.37434439095463218 0 -0.24381440695836001 -0.3646605432011934 0 -0.2415234219346761 -0.37330822543264308 0 -0.24381440695836001 -0.3646605432011934 0 -0.23376544622612849 -0.37009315482581212 0 -0.2337643236483925 -0.35702526191069711 0 -0.24381440695836001 -0.3646605432011934 0 -0.2415234219346761 -0.37330822543264308 0 -0.23376544622612849 -0.37009315482581212 0 -0.23728226026915131 -0.37750446309912111 0 -0.2415234219346761 -0.37330822543264308 0 -0.23376544622612849 -0.37009315482581212 0 -0.22928440524020691 -0.37932082885606427 0 -0.23376544622612849 -0.37009315482581212 0 -0.2255729772771542 -0.363940476225524 0 -0.22928440524020691 -0.37932082885606427 0 -0.21101895515940619 -0.36157766859775009 0 -0.22928440524020691 -0.37932082885606427 0 -0.2255729772771542 -0.363940476225524 0 -0.21101895515940619 -0.36157766859775009 0 -0.23376544622612849 -0.37009315482581212 0 -0.2255729772771542 -0.363940476225524 0 -0.2337643236483925 -0.35702526191069711 0 -0.2233546700865254 -0.35237136644840228 0 -0.23117103256556909 -0.34183014861169309 0 -0.2152460617821049 -0.33748327689634722 0 -0.2255729772771542 -0.363940476225524 0 -0.2233546700865254 -0.35237136644840228 0 -0.21101895515940619 -0.36157766859775009 0 -0.2255729772771542 -0.363940476225524 0 -0.2233546700865254 -0.35237136644840228 0 -0.2337643236483925 -0.35702526191069711 0 -0.2233546700865254 -0.35237136644840228 0 -0.2337643236483925 -0.35702526191069711 0 -0.23117103256556909 -0.34183014861169309 0 -0.2337643236483925 -0.35702526191069711 0 -0.24624540423146091 -0.35079766778937099 0 -0.23117103256556909 -0.34183014861169309 0 -0.24381440695836001 -0.3646605432011934 0 -0.2337643236483925 -0.35702526191069711 0 -0.24624540423146091 -0.35079766778937099 0 -0.25742178503506652 -0.36173700810592779 0 -0.24381440695836001 -0.3646605432011934 0 -0.24624540423146091 -0.35079766778937099 0 -0.25925010288925088 -0.34457708341817961 0 -0.24624540423146091 -0.35079766778937099 0 -0.24373079363408709 -0.33509573232901879 0 -0.24624540423146091 -0.35079766778937099 0 -0.24373079363408709 -0.33509573232901879 0 -0.23117103256556909 -0.34183014861169309 0 -0.24373079363408709 -0.33509573232901879 0 -0.23117103256556909 -0.34183014861169309 0 -0.22877288978148211 -0.32881128307717178 0 -0.25957388569728029 -0.32647200119809222 0 -0.24373079363408709 -0.33509573232901879 0 -0.23952352705104349 -0.31993044319651559 0 -0.25957388569728029 -0.32647200119809222 0 -0.23952352705104349 -0.31993044319651559 0 -0.24688355174196661 -0.3052802946029784 0 -0.25957388569728029 -0.32647200119809222 0 -0.23952352705104349 -0.31993044319651559 0 -0.24373079363408709 -0.33509573232901879 0 -0.23952352705104349 -0.31993044319651559 0 -0.22877288978148211 -0.32881128307717178 0 -0.21947316840480491 -0.31338888519494462 0 -0.22877288978148211 -0.32881128307717178 0 -0.2152460617821049 -0.33748327689634722 0 -0.23952352705104349 -0.31993044319651559 0 -0.21947316840480491 -0.31338888519494462 0 -0.23952352705104349 -0.31993044319651559 0 -0.21947316840480491 -0.31338888519494462 0 -0.22877288978148211 -0.32881128307717178 0 -0.23117103256556909 -0.34183014861169309 0 -0.22877288978148211 -0.32881128307717178 0 -0.2152460617821049 -0.33748327689634722 0 -0.2152460617821049 -0.33748327689634722 0 -0.20071683304783591 -0.33465247011980143 0 -0.19853084049726169 -0.34944664424332761 0 -0.2152460617821049 -0.33748327689634722 0 -0.20735164608924411 -0.32298273876006378 0 -0.20071683304783591 -0.33465247011980143 0 -0.21947316840480491 -0.31338888519494462 0 -0.2152460617821049 -0.33748327689634722 0 -0.20735164608924411 -0.32298273876006378 0 -0.21947316840480491 -0.31338888519494462 0 -0.2152460617821049 -0.33748327689634722 0 -0.21947316840480491 -0.31338888519494462 0 -0.20735164608924411 -0.32298273876006378 0 -0.20471727752208191 -0.30857468123094117 0 -0.1966048896893931 -0.3208143803582848 0 -0.18604272583511641 -0.33731561988890579 0 -0.1845125275782705 -0.32064745323250798 0 -0.1966048896893931 -0.3208143803582848 0 -0.20471727752208191 -0.30857468123094117 0 -0.1966048896893931 -0.3208143803582848 0 -0.20471727752208191 -0.30857468123094117 0 -0.19156246449257761 -0.31195678647907998 0 -0.20735164608924411 -0.32298273876006378 0 -0.1966048896893931 -0.3208143803582848 0 -0.20471727752208191 -0.30857468123094117 0 -0.20735164608924411 -0.32298273876006378 0 -0.1966048896893931 -0.3208143803582848 0 -0.20071683304783591 -0.33465247011980143 0 -0.1966048896893931 -0.3208143803582848 0 -0.19156246449257761 -0.31195678647907998 0 -0.1845125275782705 -0.32064745323250798 0 -0.1966048896893931 -0.3208143803582848 0 -0.20071683304783591 -0.33465247011980143 0 -0.18604272583511641 -0.33731561988890579 0 -0.20071683304783591 -0.33465247011980143 0 -0.19853084049726169 -0.34944664424332761 0 -0.18604272583511641 -0.33731561988890579 0 -0.19853084049726169 -0.34944664424332761 0 -0.18604272583511641 -0.33731561988890579 0 -0.19853084049726169 -0.34944664424332761 0 -0.18468680308997101 -0.34922132293380798 0 -0.18604272583511641 -0.33731561988890579 0 -0.19853084049726169 -0.34944664424332761 0 -0.1981435604981274 -0.35967013707552947 0 -0.21101895515940619 -0.36157766859775009 0 -0.1981435604981274 -0.35967013707552947 0 -0.18646612738514939 -0.36214685253766848 0 -0.18468680308997101 -0.34922132293380798 0 -0.19853084049726169 -0.34944664424332761 0 -0.1981435604981274 -0.35967013707552947 0 -0.18468680308997101 -0.34922132293380798 0 -0.2085859163844179 -0.37544592282026568 0 -0.1981435604981274 -0.35967013707552947 0 -0.18646612738514939 -0.36214685253766848 0 -0.18892229227168661 -0.37622041473678958 0 -0.2085859163844179 -0.37544592282026568 0 -0.18646612738514939 -0.36214685253766848 0 -0.2085859163844179 -0.37544592282026568 0 -0.18646612738514939 -0.36214685253766848 0 -0.2085859163844179 -0.37544592282026568 0 -0.1981435604981274 -0.35967013707552947 0 -0.21101895515940619 -0.36157766859775009 0 -0.2085859163844179 -0.37544592282026568 0 -0.22928440524020691 -0.37932082885606427 0 -0.21101895515940619 -0.36157766859775009 0 -0.2085859163844179 -0.37544592282026568 0 -0.21101895515940619 -0.36157766859775009 0 -0.2233546700865254 -0.35237136644840228 0 -0.2152460617821049 -0.33748327689634722 0 -0.21101895515940619 -0.36157766859775009 0 -0.2152460617821049 -0.33748327689634722 0 -0.19853084049726169 -0.34944664424332761 0 -0.21101895515940619 -0.36157766859775009 0 -0.2152460617821049 -0.33748327689634722 0 -0.21101895515940619 -0.36157766859775009 0 -0.19853084049726169 -0.34944664424332761 0 -0.21101895515940619 -0.36157766859775009 0 -0.23838471254159249 -0.25382708185242608 0 -0.213906627972692 -0.25979180294998538 0 -0.22441584723821559 -0.24466846318819871 0 -0.23901631857675831 -0.25682543655429402 0 -0.2264088517889396 -0.27584716029623579 0 -0.213906627972692 -0.25979180294998538 0 -0.23838471254159249 -0.25382708185242608 0 -0.213906627972692 -0.25979180294998538 0 -0.23901631857675831 -0.25682543655429402 0 -0.23838471254159249 -0.25382708185242608 0 -0.213906627972692 -0.25979180294998538 0 -0.23901631857675831 -0.25682543655429402 0 -0.24738714355606559 -0.26170102317732241 0 -0.24289862655948749 -0.27525549539798699 0 -0.23901631857675831 -0.25682543655429402 0 -0.23838471254159249 -0.25382708185242608 0 -0.23901631857675831 -0.25682543655429402 0 -0.23838471254159249 -0.25382708185242608 0 -0.24150804688605401 -0.25306600031409049 0 -0.23901631857675831 -0.25682543655429402 0 -0.24150804688605401 -0.25306600031409049 0 -0.23838471254159249 -0.25382708185242608 0 -0.24150804688605401 -0.25306600031409049 0 -0.24150804688605401 -0.25306600031409049 0 -0.24951370693373881 -0.25111521330492559 0 -0.24150804688605401 -0.25306600031409049 0 -0.24625503687005809 -0.25581876547728089 0 -0.24951370693373881 -0.25111521330492559 0 -0.23901631857675831 -0.25682543655429402 0 -0.24150804688605401 -0.25306600031409049 0 -0.24625503687005809 -0.25581876547728089 0 -0.25384996839767199 -0.25638615403576931 0 -0.24625503687005809 -0.25581876547728089 0 -0.24951370693373881 -0.25111521330492559 0 -0.23901631857675831 -0.25682543655429402 0 -0.24625503687005809 -0.25581876547728089 0 -0.24738714355606559 -0.26170102317732241 0 -0.25384996839767199 -0.25638615403576931 0 -0.24625503687005809 -0.25581876547728089 0 -0.24738714355606559 -0.26170102317732241 0 -0.23901631857675831 -0.25682543655429402 0 -0.24289862655948749 -0.27525549539798699 0 -0.23901631857675831 -0.25682543655429402 0 -0.24289862655948749 -0.27525549539798699 0 -0.2264088517889396 -0.27584716029623579 0 -0.24289862655948749 -0.27525549539798699 0 -0.2264088517889396 -0.27584716029623579 0 -0.23417359624719411 -0.28283049699205948 0 -0.25445030499035098 -0.26478376377764218 0 -0.24738714355606559 -0.26170102317732241 0 -0.24289862655948749 -0.27525549539798699 0 -0.23901631857675831 -0.25682543655429402 0 -0.2264088517889396 -0.27584716029623579 0 -0.2264088517889396 -0.27584716029623579 0 -0.22493580530597951 -0.28225200482559759 0 -0.23417359624719411 -0.28283049699205948 0 -0.2264088517889396 -0.27584716029623579 0 -0.21380138500111859 -0.29486888403817613 0 -0.2264088517889396 -0.27584716029623579 0 -0.22493580530597951 -0.28225200482559759 0 -0.21380138500111859 -0.29486888403817613 0 -0.22493580530597951 -0.28225200482559759 0 -0.2215481075435379 -0.29318061525472389 0 -0.22220448685539179 -0.297820445010271 0 -0.22493580530597951 -0.28225200482559759 0 -0.22220448685539179 -0.297820445010271 0 -0.22493580530597951 -0.28225200482559759 0 -0.23103402277055871 -0.29119528293286001 0 -0.22220448685539179 -0.297820445010271 0 -0.22493580530597951 -0.28225200482559759 0 -0.2215481075435379 -0.29318061525472389 0 -0.21380138500111859 -0.29486888403817613 0 -0.2215481075435379 -0.29318061525472389 0 -0.22220448685539179 -0.297820445010271 0 -0.21380138500111859 -0.29486888403817613 0 -0.22493580530597951 -0.28225200482559759 0 -0.23103402277055871 -0.29119528293286001 0 -0.23417359624719411 -0.28283049699205948 0 -0.24289862655948749 -0.27525549539798699 0 -0.23417359624719411 -0.28283049699205948 0 -0.23995413891638021 -0.29154019307988649 0 -0.25171342304095778 -0.29287874859386742 0 -0.24289862655948749 -0.27525549539798699 0 -0.23995413891638021 -0.29154019307988649 0 -0.23103402277055871 -0.29119528293286001 0 -0.23417359624719411 -0.28283049699205948 0 -0.23995413891638021 -0.29154019307988649 0 -0.25171342304095778 -0.29287874859386742 0 -0.23995413891638021 -0.29154019307988649 0 -0.24688355174196661 -0.3052802946029784 0 -0.23103402277055871 -0.29119528293286001 0 -0.23995413891638021 -0.29154019307988649 0 -0.2329579142063776 -0.30257758405625301 0 -0.23995413891638021 -0.29154019307988649 0 -0.24688355174196661 -0.3052802946029784 0 -0.2329579142063776 -0.30257758405625301 0 -0.23952352705104349 -0.31993044319651559 0 -0.24688355174196661 -0.3052802946029784 0 -0.2329579142063776 -0.30257758405625301 0 -0.23952352705104349 -0.31993044319651559 0 -0.21947316840480491 -0.31338888519494462 0 -0.2329579142063776 -0.30257758405625301 0 -0.23103402277055871 -0.29119528293286001 0 -0.2329579142063776 -0.30257758405625301 0 -0.22220448685539179 -0.297820445010271 0 -0.21947316840480491 -0.31338888519494462 0 -0.2329579142063776 -0.30257758405625301 0 -0.22220448685539179 -0.297820445010271 0 -0.21947316840480491 -0.31338888519494462 0 -0.22220448685539179 -0.297820445010271 0 -0.21510379903468119 -0.30459851488900291 0 -0.21947316840480491 -0.31338888519494462 0 -0.22220448685539179 -0.297820445010271 0 -0.21947316840480491 -0.31338888519494462 0 -0.21510379903468119 -0.30459851488900291 0 -0.20471727752208191 -0.30857468123094117 0 -0.21947316840480491 -0.31338888519494462 0 -0.20471727752208191 -0.30857468123094117 0 -0.21510379903468119 -0.30459851488900291 0 -0.20471727752208191 -0.30857468123094117 0 -0.21380138500111859 -0.29486888403817613 0 -0.22220448685539179 -0.297820445010271 0 -0.21510379903468119 -0.30459851488900291 0 -0.21380138500111859 -0.29486888403817613 0 -0.20471727752208191 -0.30857468123094117 0 -0.21380138500111859 -0.29486888403817613 0 -0.20471727752208191 -0.30857468123094117 0 -0.19848545260762149 -0.29820673567901668 0 -0.21380138500111859 -0.29486888403817613 0 -0.20471727752208191 -0.30857468123094117 0 -0.19848545260762149 -0.29820673567901668 0 -0.18316952021412511 -0.30154458731986011 0 -0.20471727752208191 -0.30857468123094117 0 -0.18316952021412511 -0.30154458731986011 0 -0.20471727752208191 -0.30857468123094117 0 -0.19156246449257761 -0.31195678647907998 0 -0.18316952021412511 -0.30154458731986011 0 -0.19848545260762149 -0.29820673567901668 0 -0.18316952021412511 -0.30154458731986011 0 -0.19848545260762149 -0.29820673567901668 0 -0.18299326393264961 -0.29317342771380223 0 -0.18316952021412511 -0.30154458731986011 0 -0.19848545260762149 -0.29820673567901668 0 -0.2045684740103382 -0.27964546244122962 0 -0.18537998328786451 -0.2834016676364175 0 -0.19848545260762149 -0.29820673567901668 0 -0.18537998328786451 -0.2834016676364175 0 -0.18299326393264961 -0.29317342771380223 0 -0.2264088517889396 -0.27584716029623579 0 -0.21380138500111859 -0.29486888403817613 0 -0.2045684740103382 -0.27964546244122962 0 -0.19848545260762149 -0.29820673567901668 0 -0.21380138500111859 -0.29486888403817613 0 -0.2045684740103382 -0.27964546244122962 0 -0.19848545260762149 -0.29820673567901668 0 -0.21380138500111859 -0.29486888403817613 0 -0.2215481075435379 -0.29318061525472389 0 -0.21380138500111859 -0.29486888403817613 0 -0.2264088517889396 -0.27584716029623579 0 -0.2045684740103382 -0.27964546244122962 0 -0.213906627972692 -0.25979180294998538 0 -0.2045684740103382 -0.27964546244122962 0 -0.18942854340379159 -0.26575652404754491 0 -0.213906627972692 -0.25979180294998538 0 -0.2045684740103382 -0.27964546244122962 0 -0.18942854340379159 -0.26575652404754491 0 -0.18537998328786451 -0.2834016676364175 0 -0.18942854340379159 -0.26575652404754491 0 -0.19924082634182641 -0.2516805601160656 0 -0.213906627972692 -0.25979180294998538 0 -0.18942854340379159 -0.26575652404754491 0 -0.213906627972692 -0.25979180294998538 0 -0.18942854340379159 -0.26575652404754491 0 -0.19924082634182641 -0.2516805601160656 0 -0.18578127563206531 -0.26027945198664137 0 -0.19924082634182641 -0.2516805601160656 0 -0.213906627972692 -0.25979180294998538 0 -0.21111098704634379 -0.23899428896402469 0 -0.16740625420125729 -0.25150541185997699 0 -0.17712716582420771 -0.26041298676599328 0 -0.16495045883489121 -0.27172124514510432 0 -0.16740625420125729 -0.25150541185997699 0 -0.15079485233452269 -0.25897635658865781 0 -0.1533738733674842 -0.24456282998601989 0 -0.16740625420125729 -0.25150541185997699 0 -0.16495045883489121 -0.27172124514510432 0 -0.15079485233452269 -0.25897635658865781 0 -0.16740625420125729 -0.25150541185997699 0 -0.1780692970490331 -0.25280230079069899 0 -0.17712716582420771 -0.26041298676599328 0 -0.1780692970490331 -0.25280230079069899 0 -0.18578127563206531 -0.26027945198664137 0 -0.1816914759277479 -0.2425430722460537 0 -0.1780692970490331 -0.25280230079069899 0 -0.18578127563206531 -0.26027945198664137 0 -0.17712716582420771 -0.26041298676599328 0 -0.18942854340379159 -0.26575652404754491 0 -0.18578127563206531 -0.26027945198664137 0 -0.17712716582420771 -0.26041298676599328 0 -0.18942854340379159 -0.26575652404754491 0 -0.16495045883489121 -0.27172124514510432 0 -0.18942854340379159 -0.26575652404754491 0 -0.17712716582420771 -0.26041298676599328 0 -0.16495045883489121 -0.27172124514510432 0 -0.18942854340379159 -0.26575652404754491 0 -0.16495045883489121 -0.27172124514510432 0 -0.18537998328786451 -0.2834016676364175 0 -0.16495045883489121 -0.27172124514510432 0 -0.16798135351964669 -0.29006221369342899 0 -0.15400729342832231 -0.28339580161425071 0 -0.16798135351964669 -0.29006221369342899 0 -0.1692556844884312 -0.30457687541138428 0 -0.1426249870927607 -0.29411378137580602 0 -0.16798135351964669 -0.29006221369342899 0 -0.18537998328786451 -0.2834016676364175 0 -0.18299326393264961 -0.29317342771380223 0 -0.16495045883489121 -0.27172124514510432 0 -0.16798135351964669 -0.29006221369342899 0 -0.18537998328786451 -0.2834016676364175 0 -0.16798135351964669 -0.29006221369342899 0 -0.18299326393264961 -0.29317342771380223 0 -0.1778625242028275 -0.29981314586115387 0 -0.18316952021412511 -0.30154458731986011 0 -0.1692556844884312 -0.30457687541138428 0 -0.1778625242028275 -0.29981314586115387 0 -0.18316952021412511 -0.30154458731986011 0 -0.1692556844884312 -0.30457687541138428 0 -0.18299326393264961 -0.29317342771380223 0 -0.1778625242028275 -0.29981314586115387 0 -0.18316952021412511 -0.30154458731986011 0 -0.1778625242028275 -0.29981314586115387 0 -0.18316952021412511 -0.30154458731986011 0 -0.19156246449257761 -0.31195678647907998 0 -0.18316952021412511 -0.30154458731986011 0 -0.1824762192295166 -0.30977117040641677 0 -0.18316952021412511 -0.30154458731986011 0 -0.1824762192295166 -0.30977117040641677 0 -0.1692556844884312 -0.30457687541138428 0 -0.1824762192295166 -0.30977117040641677 0 -0.1692556844884312 -0.30457687541138428 0 -0.17324505863120659 -0.31697262222757411 0 -0.1824762192295166 -0.30977117040641677 0 -0.1692556844884312 -0.30457687541138428 0 -0.1692556844884312 -0.30457687541138428 0 -0.14843836286637149 -0.30911366294406312 0 -0.1692556844884312 -0.30457687541138428 0 -0.14843836286637149 -0.30911366294406312 0 -0.16132035612742621 -0.31677708954744149 0 -0.16798135351964669 -0.29006221369342899 0 -0.1778625242028275 -0.29981314586115387 0 -0.1692556844884312 -0.30457687541138428 0 -0.1692556844884312 -0.30457687541138428 0 -0.1426249870927607 -0.29411378137580602 0 -0.1692556844884312 -0.30457687541138428 0 -0.14843836286637149 -0.30911366294406312 0 -0.1426249870927607 -0.29411378137580602 0 -0.1426249870927607 -0.29411378137580602 0 -0.12762104124431159 -0.31365045047674051 0 -0.1237812469020399 -0.29805837773113042 0 -0.14843836286637149 -0.30911366294406312 0 -0.1426249870927607 -0.29411378137580602 0 -0.12762104124431159 -0.31365045047674051 0 -0.14843836286637149 -0.30911366294406312 0 -0.12762104124431159 -0.31365045047674051 0 -0.1426249870927607 -0.29411378137580602 0 -0.14047237426599071 -0.27768596624266367 0 -0.1159942896970909 -0.28365068734022569 0 -0.1426249870927607 -0.29411378137580602 0 -0.1159942896970909 -0.28365068734022569 0 -0.1426249870927607 -0.29411378137580602 0 -0.1159942896970909 -0.28365068734022569 0 -0.1237812469020399 -0.29805837773113042 0 -0.1426249870927607 -0.29411378137580602 0 -0.15400729342832231 -0.28339580161425071 0 -0.14047237426599071 -0.27768596624266367 0 -0.16798135351964669 -0.29006221369342899 0 -0.1426249870927607 -0.29411378137580602 0 -0.15400729342832231 -0.28339580161425071 0 -0.16495045883489121 -0.27172124514510432 0 -0.14047237426599071 -0.27768596624266367 0 -0.16495045883489121 -0.27172124514510432 0 -0.14047237426599071 -0.27768596624266367 0 -0.15079485233452269 -0.25897635658865781 0 -0.16495045883489121 -0.27172124514510432 0 -0.15400729342832231 -0.28339580161425071 0 -0.14047237426599071 -0.27768596624266367 0 -0.14047237426599071 -0.27768596624266367 0 -0.1159942896970909 -0.28365068734022569 0 -0.14047237426599071 -0.27768596624266367 0 -0.12687257305997829 -0.27179279243442561 0 -0.1159942896970909 -0.28365068734022569 0 -0.12687257305997829 -0.27179279243442561 0 -0.13362675178396591 -0.25875165604669192 0 -0.11739687649286661 -0.26708286010812332 0 -0.14047237426599071 -0.27768596624266367 0 -0.12687257305997829 -0.27179279243442561 0 -0.13362675178396591 -0.25875165604669192 0 -0.13362675178396591 -0.25875165604669192 0 -0.15079485233452269 -0.25897635658865781 0 -0.14095758992927279 -0.24453912381761109 0 -0.14047237426599071 -0.27768596624266367 0 -0.13362675178396591 -0.25875165604669192 0 -0.15079485233452269 -0.25897635658865781 0 -0.16434633838588 -0.34884778225507268 0 -0.1692307355042407 -0.36806616573785988 0 -0.14994799167075629 -0.35842696472779201 0 -0.1576694339549024 -0.38130521748310658 0 -0.1692307355042407 -0.36806616573785988 0 -0.14994799167075629 -0.35842696472779201 0 -0.16434633838588 -0.34884778225507268 0 -0.1692307355042407 -0.36806616573785988 0 -0.18646612738514939 -0.36214685253766848 0 -0.18892229227168661 -0.37622041473678958 0 -0.1692307355042407 -0.36806616573785988 0 -0.18646612738514939 -0.36214685253766848 0 -0.16434633838588 -0.34884778225507268 0 -0.18646612738514939 -0.36214685253766848 0 -0.16434633838588 -0.34884778225507268 0 -0.18646612738514939 -0.36214685253766848 0 -0.18468680308997101 -0.34922132293380798 0 -0.16434633838588 -0.34884778225507268 0 -0.18468680308997101 -0.34922132293380798 0 -0.17459122593829149 -0.33790090160234382 0 -0.18468680308997101 -0.34922132293380798 0 -0.18604272583511641 -0.33731561988890579 0 -0.17459122593829149 -0.33790090160234382 0 -0.18604272583511641 -0.33731561988890579 0 -0.1845125275782705 -0.32064745323250798 0 -0.17641767362053959 -0.32723399555687532 0 -0.18604272583511641 -0.33731561988890579 0 -0.17459122593829149 -0.33790090160234382 0 -0.17641767362053959 -0.32723399555687532 0 -0.17459122593829149 -0.33790090160234382 0 -0.17641767362053959 -0.32723399555687532 0 -0.1647067795084852 -0.32707436309422078 0 -0.1824762192295166 -0.30977117040641677 0 -0.1845125275782705 -0.32064745323250798 0 -0.17324505863120659 -0.31697262222757411 0 -0.19156246449257761 -0.31195678647907998 0 -0.1824762192295166 -0.30977117040641677 0 -0.1845125275782705 -0.32064745323250798 0 -0.1845125275782705 -0.32064745323250798 0 -0.17641767362053959 -0.32723399555687532 0 -0.17324505863120659 -0.31697262222757411 0 -0.17324505863120659 -0.31697262222757411 0 -0.1647067795084852 -0.32707436309422078 0 -0.16132035612742621 -0.31677708954744149 0 -0.1692556844884312 -0.30457687541138428 0 -0.17324505863120659 -0.31697262222757411 0 -0.16132035612742621 -0.31677708954744149 0 -0.17641767362053959 -0.32723399555687532 0 -0.17324505863120659 -0.31697262222757411 0 -0.1647067795084852 -0.32707436309422078 0 -0.1647067795084852 -0.32707436309422078 0 -0.16132035612742621 -0.31677708954744149 0 -0.1509558951426363 -0.32614792405996601 0 -0.16434633838588 -0.34884778225507268 0 -0.17459122593829149 -0.33790090160234382 0 -0.1647067795084852 -0.32707436309422078 0 -0.16434633838588 -0.34884778225507268 0 -0.1647067795084852 -0.32707436309422078 0 -0.1509558951426363 -0.32614792405996601 0 -0.16434633838588 -0.34884778225507268 0 -0.14222654938661039 -0.33554871197247732 0 -0.1509558951426363 -0.32614792405996601 0 -0.16434633838588 -0.34884778225507268 0 -0.14222654938661039 -0.33554871197247732 0 -0.14222654938661039 -0.33554871197247732 0 -0.1509558951426363 -0.32614792405996601 0 -0.14029116016992249 -0.32981424915453961 0 -0.14222654938661039 -0.33554871197247732 0 -0.14029116016992249 -0.32981424915453961 0 -0.14843836286637149 -0.30911366294406312 0 -0.16132035612742621 -0.31677708954744149 0 -0.1509558951426363 -0.32614792405996601 0 -0.14843836286637149 -0.30911366294406312 0 -0.1509558951426363 -0.32614792405996601 0 -0.14059668373201981 -0.32011015479227839 0 -0.1509558951426363 -0.32614792405996601 0 -0.14059668373201981 -0.32011015479227839 0 -0.14029116016992249 -0.32981424915453961 0 -0.14843836286637149 -0.30911366294406312 0 -0.14059668373201981 -0.32011015479227839 0 -0.12762104124431159 -0.31365045047674051 0 -0.14059668373201981 -0.32011015479227839 0 -0.1326200647537768 -0.32476823172436609 0 -0.12762104124431159 -0.31365045047674051 0 -0.14059668373201981 -0.32011015479227839 0 -0.1326200647537768 -0.32476823172436609 0 -0.14029116016992249 -0.32981424915453961 0 -0.1326200647537768 -0.32476823172436609 0 -0.12762104124431159 -0.31365045047674051 0 -0.1207580513520491 -0.32605675128030498 0 -0.14222654938661039 -0.33554871197247732 0 -0.13501131998349189 -0.33977451581560741 0 -0.13416792717234349 -0.34747769915049009 0 -0.14222654938661039 -0.33554871197247732 0 -0.13501131998349189 -0.33977451581560741 0 -0.1355749872068637 -0.33397321874610941 0 -0.14222654938661039 -0.33554871197247732 0 -0.14029116016992249 -0.32981424915453961 0 -0.1355749872068637 -0.33397321874610941 0 -0.1326200647537768 -0.32476823172436609 0 -0.14029116016992249 -0.32981424915453961 0 -0.1355749872068637 -0.33397321874610941 0 -0.13501131998349189 -0.33977451581560741 0 -0.1355749872068637 -0.33397321874610941 0 -0.12877918427314991 -0.33373986279425788 0 -0.1326200647537768 -0.32476823172436609 0 -0.1355749872068637 -0.33397321874610941 0 -0.12877918427314991 -0.33373986279425788 0 -0.1326200647537768 -0.32476823172436609 0 -0.12877918427314991 -0.33373986279425788 0 -0.1207580513520491 -0.32605675128030498 0 -0.12877918427314991 -0.33373986279425788 0 -0.1270291813799303 -0.34128928146032089 0 -0.1194890649526035 -0.33630657441892647 0 -0.13501131998349189 -0.33977451581560741 0 -0.12877918427314991 -0.33373986279425788 0 -0.1270291813799303 -0.34128928146032089 0 -0.13501131998349189 -0.33977451581560741 0 -0.1270291813799303 -0.34128928146032089 0 -0.13416792717234349 -0.34747769915049009 0 -0.12702733965907961 -0.35762360973064872 0 -0.13416792717234349 -0.34747769915049009 0 -0.1208197902452622 -0.34828668463108348 0 -0.1270291813799303 -0.34128928146032089 0 -0.13416792717234349 -0.34747769915049009 0 -0.1208197902452622 -0.34828668463108348 0 -0.12702733965907961 -0.35762360973064872 0 -0.13416792717234349 -0.34747769915049009 0 -0.14994799167075629 -0.35842696472779201 0 -0.14222654938661039 -0.33554871197247732 0 -0.13416792717234349 -0.34747769915049009 0 -0.14994799167075629 -0.35842696472779201 0 -0.16434633838588 -0.34884778225507268 0 -0.14222654938661039 -0.33554871197247732 0 -0.14994799167075629 -0.35842696472779201 0 -0.14222654938661039 -0.33554871197247732 0 -0.14994799167075629 -0.35842696472779201 0 -0.1576694339549024 -0.38130521748310658 0 -0.14994799167075629 -0.35842696472779201 0 -0.13797182857012899 -0.38581825287213128 0 -0.14994799167075629 -0.35842696472779201 0 -0.12945893317934351 -0.37053440492462908 0 -0.12702733965907961 -0.35762360973064872 0 -0.14994799167075629 -0.35842696472779201 0 -0.12945893317934351 -0.37053440492462908 0 -0.12945893317934351 -0.37053440492462908 0 -0.1144467343406686 -0.36783416049032869 0 -0.1164518684188956 -0.38502674592336172 0 -0.12702733965907961 -0.35762360973064872 0 -0.1144467343406686 -0.36783416049032869 0 -0.1108823906495417 -0.35477103676249372 0 -0.12702733965907961 -0.35762360973064872 0 -0.12945893317934351 -0.37053440492462908 0 -0.1144467343406686 -0.36783416049032869 0 -0.1144467343406686 -0.36783416049032869 0 -0.1018280935565293 -0.36285595767647832 0 -0.1005395162664974 -0.37594072643823562 0 -0.1144467343406686 -0.36783416049032869 0 -0.1018280935565293 -0.36285595767647832 0 -0.1108823906495417 -0.35477103676249372 0 -0.1018280935565293 -0.36285595767647832 0 -0.096283651219647493 -0.35156690327999918 0 -0.086988175306291396 -0.3641669614113342 0 -0.1018280935565293 -0.36285595767647832 0 -0.086988175306291396 -0.3641669614113342 0 -0.1005395162664974 -0.37594072643823562 0 -0.096283651219647493 -0.35156690327999918 0 -0.1078135276466273 -0.34303735438688338 0 -0.089799047230678372 -0.33781884330120771 0 -0.1018280935565293 -0.36285595767647832 0 -0.096283651219647493 -0.35156690327999918 0 -0.1108823906495417 -0.35477103676249372 0 -0.096283651219647493 -0.35156690327999918 0 -0.1108823906495417 -0.35477103676249372 0 -0.1078135276466273 -0.34303735438688338 0 -0.12702733965907961 -0.35762360973064872 0 -0.1108823906495417 -0.35477103676249372 0 -0.1208197902452622 -0.34828668463108348 0 -0.1108823906495417 -0.35477103676249372 0 -0.1208197902452622 -0.34828668463108348 0 -0.1078135276466273 -0.34303735438688338 0 -0.1270291813799303 -0.34128928146032089 0 -0.1208197902452622 -0.34828668463108348 0 -0.1194890649526035 -0.33630657441892647 0 -0.12877918427314991 -0.33373986279425788 0 -0.1194890649526035 -0.33630657441892647 0 -0.1207580513520491 -0.32605675128030498 0 -0.1194890649526035 -0.33630657441892647 0 -0.1207580513520491 -0.32605675128030498 0 -0.1063763903520438 -0.33064440402729528 0 -0.1194890649526035 -0.33630657441892647 0 -0.1078135276466273 -0.34303735438688338 0 -0.1063763903520438 -0.33064440402729528 0 -0.1208197902452622 -0.34828668463108348 0 -0.1194890649526035 -0.33630657441892647 0 -0.1078135276466273 -0.34303735438688338 0 -0.12762104124431159 -0.31365045047674051 0 -0.1068037196222516 -0.31818723800941778 0 -0.12762104124431159 -0.31365045047674051 0 -0.1207580513520491 -0.32605675128030498 0 -0.1068037196222516 -0.31818723800941778 0 -0.1207580513520491 -0.32605675128030498 0 -0.1068037196222516 -0.31818723800941778 0 -0.1063763903520438 -0.33064440402729528 0 -0.1068037196222516 -0.31818723800941778 0 -0.093594931308052909 -0.32245966276703142 0 -0.090427990852372811 -0.30758426527268939 0 -0.1068037196222516 -0.31818723800941778 0 -0.1063763903520438 -0.33064440402729528 0 -0.093594931308052909 -0.32245966276703142 0 -0.1063763903520438 -0.33064440402729528 0 -0.089799047230678372 -0.33781884330120771 0 -0.093594931308052909 -0.32245966276703142 0 -0.1078135276466273 -0.34303735438688338 0 -0.1063763903520438 -0.33064440402729528 0 -0.089799047230678372 -0.33781884330120771 0 -0.093594931308052909 -0.32245966276703142 0 -0.071708665568760557 -0.31901981699372051 0 -0.090427990852372811 -0.30758426527268939 0 -0.089799047230678372 -0.33781884330120771 0 -0.093594931308052909 -0.32245966276703142 0 -0.071708665568760557 -0.31901981699372051 0 -0.089799047230678372 -0.33781884330120771 0 -0.071708665568760557 -0.31901981699372051 0 -0.064338814422802537 -0.34196069045552741 0 -0.064338814422802537 -0.34196069045552741 0 -0.066787924546312993 -0.36224480987609348 0 -0.080839522545146564 -0.35155164166483238 0 -0.066787924546312993 -0.36224480987609348 0 -0.076803281138494578 -0.37322591177850678 0 -0.066961244388347885 -0.38382060041625082 0 -0.066787924546312993 -0.36224480987609348 0 -0.076803281138494578 -0.37322591177850678 0 -0.086988175306291396 -0.3641669614113342 0 -0.076803281138494578 -0.37322591177850678 0 -0.086988175306291396 -0.3641669614113342 0 -0.08539621561470008 -0.38438905652344019 0 -0.086988175306291396 -0.3641669614113342 0 -0.1005395162664974 -0.37594072643823562 0 -0.08539621561470008 -0.38438905652344019 0 -0.096283651219647493 -0.35156690327999918 0 -0.086988175306291396 -0.3641669614113342 0 -0.080839522545146564 -0.35155164166483238 0 -0.066787924546312993 -0.36224480987609348 0 -0.086988175306291396 -0.3641669614113342 0 -0.080839522545146564 -0.35155164166483238 0 -0.089799047230678372 -0.33781884330120771 0 -0.064338814422802537 -0.34196069045552741 0 -0.080839522545146564 -0.35155164166483238 0 -0.096283651219647493 -0.35156690327999918 0 -0.089799047230678372 -0.33781884330120771 0 -0.080839522545146564 -0.35155164166483238 0 -0.099461273068779596 -0.25616235110919527 0 -0.1131838175330814 -0.25591181426591569 0 -0.1121023689593434 -0.24013640649916301 0 -0.099461273068779596 -0.25616235110919527 0 -0.10052945189443289 -0.26837735686935399 0 -0.086820177178219174 -0.27218829571923031 0 -0.099461273068779596 -0.25616235110919527 0 -0.092102503243444669 -0.25617213772046871 0 -0.095354488531948001 -0.24934129224895829 0 -0.099461273068779596 -0.25616235110919527 0 -0.1079179831049014 -0.26396404476098262 0 -0.1131838175330814 -0.25591181426591569 0 -0.099461273068779596 -0.25616235110919527 0 -0.1079179831049014 -0.26396404476098262 0 -0.10052945189443289 -0.26837735686935399 0 -0.13362675178396591 -0.25875165604669192 0 -0.1131838175330814 -0.25591181426591569 0 -0.1121023689593434 -0.24013640649916301 0 -0.13362675178396591 -0.25875165604669192 0 -0.1131838175330814 -0.25591181426591569 0 -0.11739687649286661 -0.26708286010812332 0 -0.1079179831049014 -0.26396404476098262 0 -0.1131838175330814 -0.25591181426591569 0 -0.11739687649286661 -0.26708286010812332 0 -0.1079179831049014 -0.26396404476098262 0 -0.11739687649286661 -0.26708286010812332 0 -0.1089223570075568 -0.27226320678691379 0 -0.12687257305997829 -0.27179279243442561 0 -0.11739687649286661 -0.26708286010812332 0 -0.1159942896970909 -0.28365068734022569 0 -0.11739687649286661 -0.26708286010812332 0 -0.1089223570075568 -0.27226320678691379 0 -0.1159942896970909 -0.28365068734022569 0 -0.1089223570075568 -0.27226320678691379 0 -0.1014072334376542 -0.27791949152973011 0 -0.1159942896970909 -0.28365068734022569 0 -0.1014072334376542 -0.27791949152973011 0 -0.1159942896970909 -0.28365068734022569 0 -0.1089223570075568 -0.27226320678691379 0 -0.10052945189443289 -0.26837735686935399 0 -0.1014072334376542 -0.27791949152973011 0 -0.1079179831049014 -0.26396404476098262 0 -0.1089223570075568 -0.27226320678691379 0 -0.10052945189443289 -0.26837735686935399 0 -0.10052945189443289 -0.26837735686935399 0 -0.1014072334376542 -0.27791949152973011 0 -0.086820177178219174 -0.27218829571923031 0 -0.1014072334376542 -0.27791949152973011 0 -0.086820177178219174 -0.27218829571923031 0 -0.1159942896970909 -0.28365068734022569 0 -0.092892977406627442 -0.28927992211193798 0 -0.1014072334376542 -0.27791949152973011 0 -0.1159942896970909 -0.28365068734022569 0 -0.092892977406627442 -0.28927992211193798 0 -0.1159942896970909 -0.28365068734022569 0 -0.1088846695739972 -0.30081859173175213 0 -0.092892977406627442 -0.28927992211193798 0 -0.1014072334376542 -0.27791949152973011 0 -0.092892977406627442 -0.28927992211193798 0 -0.090959671151378207 -0.27808108908402618 0 -0.1159942896970909 -0.28365068734022569 0 -0.1237812469020399 -0.29805837773113042 0 -0.1088846695739972 -0.30081859173175213 0 -0.12762104124431159 -0.31365045047674051 0 -0.1068037196222516 -0.31818723800941778 0 -0.1088846695739972 -0.30081859173175213 0 -0.12762104124431159 -0.31365045047674051 0 -0.1237812469020399 -0.29805837773113042 0 -0.1088846695739972 -0.30081859173175213 0 -0.1088846695739972 -0.30081859173175213 0 -0.090427990852372811 -0.30758426527268939 0 -0.092892977406627442 -0.28927992211193798 0 -0.1068037196222516 -0.31818723800941778 0 -0.1088846695739972 -0.30081859173175213 0 -0.090427990852372811 -0.30758426527268939 0 -0.090427990852372811 -0.30758426527268939 0 -0.069791665116164664 -0.29490915688365288 0 -0.092892977406627442 -0.28927992211193798 0 -0.071708665568760557 -0.31901981699372051 0 -0.069791665116164664 -0.29490915688365288 0 -0.054894709543425402 -0.29883410729116339 0 -0.071708665568760557 -0.31901981699372051 0 -0.090427990852372811 -0.30758426527268939 0 -0.069791665116164664 -0.29490915688365288 0 -0.069791665116164664 -0.29490915688365288 0 -0.075391283651624896 -0.28121829543639237 0 -0.062006297405172162 -0.2817268186405919 0 -0.069791665116164664 -0.29490915688365288 0 -0.082807738813818241 -0.28413266596695819 0 -0.075391283651624896 -0.28121829543639237 0 -0.069791665116164664 -0.29490915688365288 0 -0.092892977406627442 -0.28927992211193798 0 -0.069791665116164664 -0.29490915688365288 0 -0.082807738813818241 -0.28413266596695819 0 -0.092892977406627442 -0.28927992211193798 0 -0.082807738813818241 -0.28413266596695819 0 -0.092892977406627442 -0.28927992211193798 0 -0.090959671151378207 -0.27808108908402618 0 -0.082807738813818241 -0.28413266596695819 0 -0.090959671151378207 -0.27808108908402618 0 -0.084354359156245215 -0.27748084870566753 0 -0.1014072334376542 -0.27791949152973011 0 -0.090959671151378207 -0.27808108908402618 0 -0.086820177178219174 -0.27218829571923031 0 -0.090959671151378207 -0.27808108908402618 0 -0.086820177178219174 -0.27218829571923031 0 -0.084354359156245215 -0.27748084870566753 0 -0.086820177178219174 -0.27218829571923031 0 -0.078931722273584512 -0.27481579353097818 0 -0.077288274199984325 -0.26844324932718772 0 -0.086820177178219174 -0.27218829571923031 0 -0.077288274199984325 -0.26844324932718772 0 -0.082502665412935688 -0.26503142611623781 0 -0.086820177178219174 -0.27218829571923031 0 -0.077288274199984325 -0.26844324932718772 0 -0.078931722273584512 -0.27481579353097818 0 -0.084354359156245215 -0.27748084870566753 0 -0.075391283651624896 -0.28121829543639237 0 -0.082807738813818241 -0.28413266596695819 0 -0.084354359156245215 -0.27748084870566753 0 -0.075391283651624896 -0.28121829543639237 0 -0.086820177178219174 -0.27218829571923031 0 -0.078931722273584512 -0.27481579353097818 0 -0.084354359156245215 -0.27748084870566753 0 -0.078931722273584512 -0.27481579353097818 0 -0.075391283651624896 -0.28121829543639237 0 -0.071209869808543214 -0.27423438641155568 0 -0.071209869808543214 -0.27423438641155568 0 -0.065267348322231647 -0.26830389679765698 0 -0.062006297405172162 -0.2817268186405919 0 -0.075391283651624896 -0.28121829543639237 0 -0.071209869808543214 -0.27423438641155568 0 -0.062006297405172162 -0.2817268186405919 0 -0.071209869808543214 -0.27423438641155568 0 -0.065267348322231647 -0.26830389679765698 0 -0.077288274199984325 -0.26844324932718772 0 -0.078931722273584512 -0.27481579353097818 0 -0.071209869808543214 -0.27423438641155568 0 -0.077288274199984325 -0.26844324932718772 0 -0.065267348322231647 -0.26830389679765698 0 -0.077288274199984325 -0.26844324932718772 0 -0.073811911824308435 -0.25540473286183141 0 -0.077288274199984325 -0.26844324932718772 0 -0.073811911824308435 -0.25540473286183141 0 -0.080566643200101734 -0.259935266081877 0 -0.065267348322231647 -0.26830389679765698 0 -0.073811911824308435 -0.25540473286183141 0 -0.05968357260973943 -0.24910568326275209 0 -0.073811911824308435 -0.25540473286183141 0 -0.084912236002220559 -0.25132134058067351 0 -0.080566643200101734 -0.259935266081877 0 -0.099461273068779596 -0.25616235110919527 0 -0.086820177178219174 -0.27218829571923031 0 -0.099461273068779596 -0.25616235110919527 0 -0.086820177178219174 -0.27218829571923031 0 -0.092102503243444669 -0.25617213772046871 0 -0.086820177178219174 -0.27218829571923031 0 -0.086353005585815504 -0.25964220514985797 0 -0.092102503243444669 -0.25617213772046871 0 -0.084912236002220559 -0.25132134058067351 0 -0.080566643200101734 -0.259935266081877 0 -0.086353005585815504 -0.25964220514985797 0 -0.086820177178219174 -0.27218829571923031 0 -0.082502665412935688 -0.26503142611623781 0 -0.086353005585815504 -0.25964220514985797 0 -0.077288274199984325 -0.26844324932718772 0 -0.080566643200101734 -0.259935266081877 0 -0.082502665412935688 -0.26503142611623781 0 -0.080566643200101734 -0.259935266081877 0 -0.082502665412935688 -0.26503142611623781 0 -0.086353005585815504 -0.25964220514985797 0 -0.084912236002220559 -0.25132134058067351 0 -0.092102503243444669 -0.25617213772046871 0 -0.095354488531948001 -0.24934129224895829 0 -0.084912236002220559 -0.25132134058067351 0 -0.086353005585815504 -0.25964220514985797 0 -0.092102503243444669 -0.25617213772046871 0 -0.031376289553592222 -0.26099105452929611 0 -0.046715094576625697 -0.26078323370405498 0 -0.034816988989392388 -0.24467627063641609 0 -0.031376289553592222 -0.26099105452929611 0 -0.046715094576625697 -0.26078323370405498 0 -0.037143264337942773 -0.27133436309183367 0 -0.065267348322231647 -0.26830389679765698 0 -0.046715094576625697 -0.26078323370405498 0 -0.05968357260973943 -0.24910568326275209 0 -0.065267348322231647 -0.26830389679765698 0 -0.05968357260973943 -0.24910568326275209 0 -0.046715094576625697 -0.26078323370405498 0 -0.05968357260973943 -0.24910568326275209 0 -0.034816988989392388 -0.24467627063641609 0 -0.052412433730558518 -0.27305657635228792 0 -0.044748409034554827 -0.28381463624587489 0 -0.062006297405172162 -0.2817268186405919 0 -0.065267348322231647 -0.26830389679765698 0 -0.046715094576625697 -0.26078323370405498 0 -0.052412433730558518 -0.27305657635228792 0 -0.065267348322231647 -0.26830389679765698 0 -0.052412433730558518 -0.27305657635228792 0 -0.062006297405172162 -0.2817268186405919 0 -0.037143264337942773 -0.27133436309183367 0 -0.044748409034554827 -0.28381463624587489 0 -0.028081439349214879 -0.28312122219941188 0 -0.052412433730558518 -0.27305657635228792 0 -0.037143264337942773 -0.27133436309183367 0 -0.044748409034554827 -0.28381463624587489 0 -0.046715094576625697 -0.26078323370405498 0 -0.052412433730558518 -0.27305657635228792 0 -0.037143264337942773 -0.27133436309183367 0 -0.044748409034554827 -0.28381463624587489 0 -0.03526853919973591 -0.29954268230883602 0 -0.028081439349214879 -0.28312122219941188 0 -0.044748409034554827 -0.28381463624587489 0 -0.054894709543425402 -0.29883410729116339 0 -0.03526853919973591 -0.29954268230883602 0 -0.044748409034554827 -0.28381463624587489 0 -0.062006297405172162 -0.2817268186405919 0 -0.054894709543425402 -0.29883410729116339 0 -0.069791665116164664 -0.29490915688365288 0 -0.062006297405172162 -0.2817268186405919 0 -0.054894709543425402 -0.29883410729116339 0 -0.071708665568760557 -0.31901981699372051 0 -0.054894709543425402 -0.29883410729116339 0 -0.045844680936164353 -0.31399153267430452 0 -0.054894709543425402 -0.29883410729116339 0 -0.03526853919973591 -0.29954268230883602 0 -0.045844680936164353 -0.31399153267430452 0 -0.03526853919973591 -0.29954268230883602 0 -0.020229932295891439 -0.29534929055095649 0 -0.01877156703011798 -0.32428694925937651 0 -0.020229932295891439 -0.29534929055095649 0 -0.01877156703011798 -0.32428694925937651 0 -0.0036628431567857921 -0.30790438005404319 0 -0.020229932295891439 -0.29534929055095649 0 -0.01877156703011798 -0.32428694925937651 0 -0.0036628431567857921 -0.30790438005404319 0 -0.0020415466716850409 -0.28718111468312502 0 -0.020229932295891439 -0.29534929055095649 0 -0.0020415466716850409 -0.28718111468312502 0 -0.020229932295891439 -0.29534929055095649 0 -0.028081439349214879 -0.28312122219941188 0 -0.03526853919973591 -0.29954268230883602 0 -0.020229932295891439 -0.29534929055095649 0 -0.028081439349214879 -0.28312122219941188 0 -0.0020415466716850409 -0.28718111468312502 0 -0.028081439349214879 -0.28312122219941188 0 -0.022671918782463021 -0.26871633366919118 0 -0.037143264337942773 -0.27133436309183367 0 -0.028081439349214879 -0.28312122219941188 0 -0.022671918782463021 -0.26871633366919118 0 -0.031376289553592222 -0.26099105452929611 0 -0.037143264337942773 -0.27133436309183367 0 -0.022671918782463021 -0.26871633366919118 0 -0.022671918782463021 -0.26871633366919118 0 -0.0094685152031538794 -0.27149811577518479 0 -0.01553418108153717 -0.25944507154498458 0 -0.0094685152031538794 -0.27149811577518479 0 -0.01553418108153717 -0.25944507154498458 0 0.003748626826318064 -0.27421387245355328 0 -0.0020415466716850409 -0.28718111468312502 0 -0.0094685152031538794 -0.27149811577518479 0 0.003748626826318064 -0.27421387245355328 0 -0.0020415466716850409 -0.28718111468312502 0 -0.022671918782463021 -0.26871633366919118 0 -0.01553418108153717 -0.25944507154498458 0 0.003748626826318064 -0.27421387245355328 0 -0.0020415466716850409 -0.28718111468312502 0 -0.022671918782463021 -0.26871633366919118 0 -0.0094685152031538794 -0.27149811577518479 0 -0.01553418108153717 -0.25944507154498458 0 0.003748626826318064 -0.27421387245355328 0 0.00156694213917784 -0.257089728430478 0 -0.01553418108153717 -0.25944507154498458 0 -0.0056769124435055267 -0.2498402483549487 0 0.00156694213917784 -0.257089728430478 0 -0.01553418108153717 -0.25944507154498458 0 -0.016461416315424599 -0.24565294134489449 0 -0.0056769124435055267 -0.2498402483549487 0 -0.031376289553592222 -0.26099105452929611 0 -0.01553418108153717 -0.25944507154498458 0 -0.034816988989392388 -0.24467627063641609 0 -0.031376289553592222 -0.26099105452929611 0 -0.022671918782463021 -0.26871633366919118 0 -0.01553418108153717 -0.25944507154498458 0 -0.01553418108153717 -0.25944507154498458 0 -0.034816988989392388 -0.24467627063641609 0 -0.041915765889513942 -0.35214226775668511 0 -0.031513535480280942 -0.36943388715721481 0 -0.048142103313320868 -0.37398817750830587 0 -0.066787924546312993 -0.36224480987609348 0 -0.048142103313320868 -0.37398817750830587 0 -0.066961244388347885 -0.38382060041625082 0 -0.066787924546312993 -0.36224480987609348 0 -0.041915765889513942 -0.35214226775668511 0 -0.048142103313320868 -0.37398817750830587 0 -0.064338814422802537 -0.34196069045552741 0 -0.066787924546312993 -0.36224480987609348 0 -0.041915765889513942 -0.35214226775668511 0 -0.071708665568760557 -0.31901981699372051 0 -0.064338814422802537 -0.34196069045552741 0 -0.046298125946435301 -0.33275608510647542 0 -0.064338814422802537 -0.34196069045552741 0 -0.041915765889513942 -0.35214226775668511 0 -0.046298125946435301 -0.33275608510647542 0 -0.071708665568760557 -0.31901981699372051 0 -0.045844680936164353 -0.31399153267430452 0 -0.046298125946435301 -0.33275608510647542 0 -0.03526853919973591 -0.29954268230883602 0 -0.045844680936164353 -0.31399153267430452 0 -0.01877156703011798 -0.32428694925937651 0 -0.045844680936164353 -0.31399153267430452 0 -0.046298125946435301 -0.33275608510647542 0 -0.01877156703011798 -0.32428694925937651 0 -0.046298125946435301 -0.33275608510647542 0 -0.029559370618418509 -0.33964594211689447 0 -0.01877156703011798 -0.32428694925937651 0 -0.041915765889513942 -0.35214226775668511 0 -0.046298125946435301 -0.33275608510647542 0 -0.029559370618418509 -0.33964594211689447 0 -0.029559370618418509 -0.33964594211689447 0 -0.01877156703011798 -0.32428694925937651 0 -0.017313201764344519 -0.35322460796779648 0 -0.01877156703011798 -0.32428694925937651 0 -0.017313201764344519 -0.35322460796779648 0 -0.0036628431567857921 -0.30790438005404319 0 -0.01877156703011798 -0.32428694925937651 0 0.0028960786952263351 -0.32475737615524147 0 -0.01877156703011798 -0.32428694925937651 0 -0.0040002244658034706 -0.3400820810183236 0 -0.017313201764344519 -0.35322460796779648 0 -0.01877156703011798 -0.32428694925937651 0 -0.0040002244658034706 -0.3400820810183236 0 0.0028960786952263351 -0.32475737615524147 0 -0.0040002244658034706 -0.3400820810183236 0 -0.017313201764344519 -0.35322460796779648 0 0.00073220869437371828 -0.3547654393227937 0 -0.017313201764344519 -0.35322460796779648 0 -0.0088063739851901527 -0.36312777307715838 0 0.00073220869437371828 -0.3547654393227937 0 -0.041915765889513942 -0.35214226775668511 0 -0.031513535480280942 -0.36943388715721481 0 -0.017313201764344519 -0.35322460796779648 0 -0.041915765889513942 -0.35214226775668511 0 -0.029559370618418509 -0.33964594211689447 0 -0.017313201764344519 -0.35322460796779648 0 -0.017313201764344519 -0.35322460796779648 0 -0.01585483649857106 -0.38216226667621661 0 -0.031513535480280942 -0.36943388715721481 0 -0.017313201764344519 -0.35322460796779648 0 -0.01585483649857106 -0.38216226667621661 0 -0.017313201764344519 -0.35322460796779648 0 -0.0088063739851901527 -0.36312777307715838 0 -0.01585483649857106 -0.38216226667621661 0 -0.0083460861794386106 -0.37495534338034842 0 -0.0088063739851901527 -0.36312777307715838 0 -0.01585483649857106 -0.38216226667621661 0 -0.0088063739851901527 -0.36312777307715838 0 -0.00032887885909539032 -0.36340970159860808 0 -0.0054200658356264309 -0.36745389216608337 0 -0.0088063739851901527 -0.36312777307715838 0 -0.00032887885909539032 -0.36340970159860808 0 0.00073220869437371828 -0.3547654393227937 0 -0.00032887885909539032 -0.36340970159860808 0 -0.0054200658356264309 -0.36745389216608337 0 -0.0022931150187130121 -0.36796759314239519 0 -0.00032887885909539032 -0.36340970159860808 0 -0.0022931150187130121 -0.36796759314239519 0 0.00077806585478472975 -0.36746979302991051 0 -0.0083460861794386106 -0.37495534338034842 0 -0.0088063739851901527 -0.36312777307715838 0 -0.0054200658356264309 -0.36745389216608337 0 -0.0083460861794386106 -0.37495534338034842 0 -0.0043649341689213639 -0.37035418433466638 0 -0.0038253876563550089 -0.37386348266163849 0 -0.0083460861794386106 -0.37495534338034842 0 -0.0054200658356264309 -0.36745389216608337 0 -0.0043649341689213639 -0.37035418433466638 0 -0.0054200658356264309 -0.36745389216608337 0 -0.0043649341689213639 -0.37035418433466638 0 -0.0022931150187130121 -0.36796759314239519 0 -0.0043649341689213639 -0.37035418433466638 0 -0.0022931150187130121 -0.36796759314239519 0 -0.0017924852961554659 -0.3713073872806788 0 -0.0043649341689213639 -0.37035418433466638 0 -0.0017924852961554659 -0.3713073872806788 0 -0.0022931150187130121 -0.36796759314239519 0 -0.0017924852961554659 -0.3713073872806788 0 0.00077806585478472975 -0.36746979302991051 0 -0.0017924852961554659 -0.3713073872806788 0 -0.001495888248680218 -0.37470733324660188 0 0.0030301478643253899 -0.37674626274827772 0 -0.0043649341689213639 -0.37035418433466638 0 -0.0017924852961554659 -0.3713073872806788 0 -0.0038253876563550089 -0.37386348266163849 0 -0.0017924852961554659 -0.3713073872806788 0 -0.0038253876563550089 -0.37386348266163849 0 -0.001495888248680218 -0.37470733324660188 0 -0.001495888248680218 -0.37470733324660188 0 -0.003395827906535788 -0.37691220029581268 0 0.0030301478643253899 -0.37674626274827772 0 -0.0033287973072917208 -0.38217907348461538 0 -0.01585483649857106 -0.38216226667621661 0 0.0019270013280409299 -0.39265068081603111 0 -0.003395827906535788 -0.37691220029581268 0 -0.0033287973072917208 -0.38217907348461538 0 0.0030301478643253899 -0.37674626274827772 0 -0.0038253876563550089 -0.37386348266163849 0 -0.001495888248680218 -0.37470733324660188 0 -0.003395827906535788 -0.37691220029581268 0 -0.0083460861794386106 -0.37495534338034842 0 -0.0038253876563550089 -0.37386348266163849 0 -0.003395827906535788 -0.37691220029581268 0 -0.0083460861794386106 -0.37495534338034842 0 -0.003395827906535788 -0.37691220029581268 0 -0.0033287973072917208 -0.38217907348461538 0 -0.0083460861794386106 -0.37495534338034842 0 -0.0033287973072917208 -0.38217907348461538 0 -0.01585483649857106 -0.38216226667621661 0 -0.01585483649857106 -0.38216226667621661 0 -0.01439647123279761 -0.41109992538463652 0 0.0019270013280409299 -0.39265068081603111 0 -0.01439647123279761 -0.41109992538463652 0 0.0019270013280409299 -0.39265068081603111 0 0.0040838551649926324 -0.40920466907649111 0 -0.01585483649857106 -0.38216226667621661 0 -0.01439647123279761 -0.41109992538463652 0 -0.01585483649857106 -0.38216226667621661 0 -0.036045988006479422 -0.39868151888406811 0 -0.01439647123279761 -0.41109992538463652 0 -0.031513535480280942 -0.36943388715721481 0 -0.01585483649857106 -0.38216226667621661 0 -0.036667051599967693 -0.38303178833422957 0 -0.01585483649857106 -0.38216226667621661 0 -0.036667051599967693 -0.38303178833422957 0 -0.036045988006479422 -0.39868151888406811 0 -0.031513535480280942 -0.36943388715721481 0 -0.048142103313320868 -0.37398817750830587 0 -0.036667051599967693 -0.38303178833422957 0 -0.036667051599967693 -0.38303178833422957 0 -0.036045988006479422 -0.39868151888406811 0 -0.050270091589153777 -0.38916593275128142 0 -0.048142103313320868 -0.37398817750830587 0 -0.036667051599967693 -0.38303178833422957 0 -0.050270091589153777 -0.38916593275128142 0 -0.036045988006479422 -0.39868151888406811 0 -0.06051666441358821 -0.40285326122542969 0 -0.050270091589153777 -0.38916593275128142 0 -0.06051666441358821 -0.40285326122542969 0 -0.050270091589153777 -0.38916593275128142 0 -0.066961244388347885 -0.38382060041625082 0 -0.048142103313320868 -0.37398817750830587 0 -0.050270091589153777 -0.38916593275128142 0 -0.066961244388347885 -0.38382060041625082 0 -0.043911256422401727 -0.42096298901410789 0 -0.07035574397946559 -0.41636705402167967 0 -0.064715942288712747 -0.43519397134680582 0 -0.043911256422401727 -0.42096298901410789 0 -0.042361741205644163 -0.44520597589163319 0 -0.064715942288712747 -0.43519397134680582 0 -0.06051666441358821 -0.40285326122542969 0 -0.043911256422401727 -0.42096298901410789 0 -0.07035574397946559 -0.41636705402167967 0 -0.036045988006479422 -0.39868151888406811 0 -0.043911256422401727 -0.42096298901410789 0 -0.01439647123279761 -0.41109992538463652 0 -0.036045988006479422 -0.39868151888406811 0 -0.06051666441358821 -0.40285326122542969 0 -0.043911256422401727 -0.42096298901410789 0 -0.043911256422401727 -0.42096298901410789 0 -0.01293810596702415 -0.44003758409305638 0 -0.042361741205644163 -0.44520597589163319 0 -0.043911256422401727 -0.42096298901410789 0 -0.01439647123279761 -0.41109992538463652 0 -0.01293810596702415 -0.44003758409305638 0 -0.01439647123279761 -0.41109992538463652 0 0.0040838551649926324 -0.40920466907649111 0 0.003915753597516153 -0.42503506544684971 0 -0.01439647123279761 -0.41109992538463652 0 -0.01293810596702415 -0.44003758409305638 0 -0.01439647123279761 -0.41109992538463652 0 -0.01293810596702415 -0.44003758409305638 0 0.003915753597516153 -0.42503506544684971 0 -0.024098210086207598 -0.45746204444120547 0 -0.022708831939982681 -0.47856381879757059 0 0.0081167468260517003 -0.46573914569044872 0 -0.01293810596702415 -0.44003758409305638 0 -0.024098210086207598 -0.45746204444120547 0 0.0081167468260517003 -0.46573914569044872 0 -0.024098210086207598 -0.45746204444120547 0 -0.022708831939982681 -0.47856381879757059 0 -0.04385710575328599 -0.464733841795683 0 -0.01293810596702415 -0.44003758409305638 0 -0.024098210086207598 -0.45746204444120547 0 -0.042361741205644163 -0.44520597589163319 0 -0.0018920194225578999 -0.5 0 -0.022708831939982681 -0.47856381879757059 0 0.0081167468260517003 -0.46573914569044872 0 -0.0018920194225578999 -0.5 0 -0.022708831939982681 -0.47856381879757059 0 -0.02986874364304332 -0.5 0 -0.022708831939982681 -0.47856381879757059 0 -0.02986874364304332 -0.5 0 -0.043351800101320372 -0.48430009580154659 0 -0.02986874364304332 -0.5 0 -0.043351800101320372 -0.48430009580154659 0 -0.057845467863528677 -0.5 0 -0.022708831939982681 -0.47856381879757059 0 -0.043351800101320372 -0.48430009580154659 0 -0.04385710575328599 -0.464733841795683 0 -0.043351800101320372 -0.48430009580154659 0 -0.062478851306761188 -0.47820281841447959 0 -0.04385710575328599 -0.464733841795683 0 -0.043351800101320372 -0.48430009580154659 0 -0.062478851306761188 -0.47820281841447959 0 -0.057845467863528677 -0.5 0 -0.024098210086207598 -0.45746204444120547 0 -0.042361741205644163 -0.44520597589163319 0 -0.04385710575328599 -0.464733841795683 0 -0.062478851306761188 -0.47820281841447959 0 -0.04385710575328599 -0.464733841795683 0 -0.062302002580799348 -0.45595334711320629 0 -0.042361741205644163 -0.44520597589163319 0 -0.04385710575328599 -0.464733841795683 0 -0.062302002580799348 -0.45595334711320629 0 -0.042361741205644163 -0.44520597589163319 0 -0.062302002580799348 -0.45595334711320629 0 -0.064715942288712747 -0.43519397134680582 0 -0.062302002580799348 -0.45595334711320629 0 -0.079544347238092297 -0.44709793874912201 0 -0.064715942288712747 -0.43519397134680582 0 -0.062478851306761188 -0.47820281841447959 0 -0.062302002580799348 -0.45595334711320629 0 -0.080854027692299699 -0.46528553648151461 0 -0.062302002580799348 -0.45595334711320629 0 -0.080854027692299699 -0.46528553648151461 0 -0.079544347238092297 -0.44709793874912201 0 -0.080854027692299699 -0.46528553648151461 0 -0.1012823870045526 -0.47887214023651931 0 -0.097772677288558915 -0.45893223265183952 0 -0.080854027692299699 -0.46528553648151461 0 -0.079544347238092297 -0.44709793874912201 0 -0.097772677288558915 -0.45893223265183952 0 -0.079544347238092297 -0.44709793874912201 0 -0.096258766723862202 -0.44092353340632878 0 -0.083794469538049449 -0.42931458316990462 0 -0.079544347238092297 -0.44709793874912201 0 -0.096258766723862202 -0.44092353340632878 0 -0.097772677288558915 -0.45893223265183952 0 -0.080854027692299699 -0.46528553648151461 0 -0.085822192084014093 -0.5 0 -0.1012823870045526 -0.47887214023651931 0 -0.062478851306761188 -0.47820281841447959 0 -0.080854027692299699 -0.46528553648151461 0 -0.085822192084014093 -0.5 0 -0.062478851306761188 -0.47820281841447959 0 -0.057845467863528677 -0.5 0 -0.085822192084014093 -0.5 0 -0.085822192084014093 -0.5 0 -0.1012823870045526 -0.47887214023651931 0 -0.1137989163044995 -0.5 0 -0.1012823870045526 -0.47887214023651931 0 -0.1221394328480946 -0.48345149437937879 0 -0.1168989945026065 -0.46327545877547849 0 -0.1012823870045526 -0.47887214023651931 0 -0.1221394328480946 -0.48345149437937879 0 -0.1137989163044995 -0.5 0 -0.096258766723862202 -0.44092353340632878 0 -0.097772677288558915 -0.45893223265183952 0 -0.1185860188496181 -0.44093879709350853 0 -0.1012823870045526 -0.47887214023651931 0 -0.097772677288558915 -0.45893223265183952 0 -0.1168989945026065 -0.46327545877547849 0 -0.097772677288558915 -0.45893223265183952 0 -0.1168989945026065 -0.46327545877547849 0 -0.1185860188496181 -0.44093879709350853 0 -0.13610754057095281 -0.45288630732329721 0 -0.1168989945026065 -0.46327545877547849 0 -0.1185860188496181 -0.44093879709350853 0 -0.1185860188496181 -0.44093879709350853 0 -0.10154463820262841 -0.42498665638805561 0 -0.11715882583549921 -0.4194518981523806 0 -0.13338338784179979 -0.4214089604989521 0 -0.1185860188496181 -0.44093879709350853 0 -0.11715882583549921 -0.4194518981523806 0 -0.096258766723862202 -0.44092353340632878 0 -0.1185860188496181 -0.44093879709350853 0 -0.10154463820262841 -0.42498665638805561 0 -0.096258766723862202 -0.44092353340632878 0 -0.10154463820262841 -0.42498665638805561 0 -0.083794469538049449 -0.42931458316990462 0 -0.10154463820262841 -0.42498665638805561 0 -0.11715882583549921 -0.4194518981523806 0 -0.1076832820298982 -0.40495161963058612 0 -0.10154463820262841 -0.42498665638805561 0 -0.1076832820298982 -0.40495161963058612 0 -0.090631554884453125 -0.41113010603803918 0 -0.11715882583549921 -0.4194518981523806 0 -0.1233765870987707 -0.40365549963164238 0 -0.1076832820298982 -0.40495161963058612 0 -0.13338338784179979 -0.4214089604989521 0 -0.11715882583549921 -0.4194518981523806 0 -0.1233765870987707 -0.40365549963164238 0 -0.1233765870987707 -0.40365549963164238 0 -0.1164518684188956 -0.38502674592336172 0 -0.1076832820298982 -0.40495161963058612 0 -0.1144467343406686 -0.36783416049032869 0 -0.1164518684188956 -0.38502674592336172 0 -0.1005395162664974 -0.37594072643823562 0 -0.1005395162664974 -0.37594072643823562 0 -0.098274210178866672 -0.39225814130750769 0 -0.08539621561470008 -0.38438905652344019 0 -0.1164518684188956 -0.38502674592336172 0 -0.1005395162664974 -0.37594072643823562 0 -0.098274210178866672 -0.39225814130750769 0 -0.098274210178866672 -0.39225814130750769 0 -0.1076832820298982 -0.40495161963058612 0 -0.090631554884453125 -0.41113010603803918 0 -0.1164518684188956 -0.38502674592336172 0 -0.098274210178866672 -0.39225814130750769 0 -0.1076832820298982 -0.40495161963058612 0 -0.098274210178866672 -0.39225814130750769 0 -0.079114524991617891 -0.39839402663585088 0 -0.090631554884453125 -0.41113010603803918 0 -0.098274210178866672 -0.39225814130750769 0 -0.079114524991617891 -0.39839402663585088 0 -0.08539621561470008 -0.38438905652344019 0 -0.076803281138494578 -0.37322591177850678 0 -0.08539621561470008 -0.38438905652344019 0 -0.066961244388347885 -0.38382060041625082 0 -0.079114524991617891 -0.39839402663585088 0 -0.08539621561470008 -0.38438905652344019 0 -0.066961244388347885 -0.38382060041625082 0 -0.06051666441358821 -0.40285326122542969 0 -0.079114524991617891 -0.39839402663585088 0 -0.066961244388347885 -0.38382060041625082 0 -0.06051666441358821 -0.40285326122542969 0 -0.079114524991617891 -0.39839402663585088 0 -0.07035574397946559 -0.41636705402167967 0 -0.079544347238092297 -0.44709793874912201 0 -0.064715942288712747 -0.43519397134680582 0 -0.083794469538049449 -0.42931458316990462 0 -0.07035574397946559 -0.41636705402167967 0 -0.064715942288712747 -0.43519397134680582 0 -0.083794469538049449 -0.42931458316990462 0 -0.07035574397946559 -0.41636705402167967 0 -0.083794469538049449 -0.42931458316990462 0 -0.090631554884453125 -0.41113010603803918 0 -0.10154463820262841 -0.42498665638805561 0 -0.083794469538049449 -0.42931458316990462 0 -0.090631554884453125 -0.41113010603803918 0 -0.079114524991617891 -0.39839402663585088 0 -0.07035574397946559 -0.41636705402167967 0 -0.090631554884453125 -0.41113010603803918 0 -0.084900589448642441 -0.071037475400200306 0 -0.078317484809420454 -0.099240880527492442 0 -0.107157558075562 -0.088076435784452289 0 -0.084900589448642441 -0.071037475400200306 0 -0.064454543257806834 -0.076194692906489198 0 -0.062643620821722854 -0.053998515015947907 0 -0.084900589448642441 -0.071037475400200306 0 -0.062643620821722854 -0.053998515015947907 0 -0.084900589448642441 -0.071037475400200306 0 -0.064454543257806834 -0.076194692906489198 0 -0.078317484809420454 -0.099240880527492442 0 -0.064454543257806834 -0.076194692906489198 0 -0.078317484809420454 -0.099240880527492442 0 -0.056473283862346339 -0.094096590485682752 0 -0.078317484809420454 -0.099240880527492442 0 -0.059829794975131169 -0.1207435158767198 0 -0.056473283862346339 -0.094096590485682752 0 -0.078317484809420454 -0.099240880527492442 0 -0.059829794975131169 -0.1207435158767198 0 -0.079876034051492503 -0.12769071503318899 0 -0.078317484809420454 -0.099240880527492442 0 -0.096813241815559004 -0.1179122088520235 0 -0.079876034051492503 -0.12769071503318899 0 -0.078317484809420454 -0.099240880527492442 0 -0.096813241815559004 -0.1179122088520235 0 -0.107157558075562 -0.088076435784452289 0 -0.096813241815559004 -0.1179122088520235 0 -0.11540526837687171 -0.1154874301373815 0 -0.107157558075562 -0.088076435784452289 0 -0.096813241815559004 -0.1179122088520235 0 -0.11540526837687171 -0.1154874301373815 0 -0.10806753436944171 -0.13175920839317781 0 -0.11540526837687171 -0.1154874301373815 0 -0.12136262411702101 -0.12981934099527351 0 -0.13205461353806941 -0.12018141026988099 0 -0.1242469030499448 -0.091954025595064687 0 -0.107157558075562 -0.088076435784452289 0 -0.12941452670248091 -0.1051153961687054 0 -0.11540526837687171 -0.1154874301373815 0 -0.107157558075562 -0.088076435784452289 0 -0.12941452670248091 -0.1051153961687054 0 -0.107157558075562 -0.088076435784452289 0 -0.12941452670248091 -0.1051153961687054 0 -0.1242469030499448 -0.091954025595064687 0 -0.107157558075562 -0.088076435784452289 0 -0.1200022000670774 -0.0744369922820554 0 -0.084900589448642441 -0.071037475400200306 0 -0.1200022000670774 -0.0744369922820554 0 -0.1150016942000025 -0.049774801446042329 0 -0.084900589448642441 -0.071037475400200306 0 -0.107157558075562 -0.088076435784452289 0 -0.1200022000670774 -0.0744369922820554 0 -0.084900589448642441 -0.071037475400200306 0 -0.107157558075562 -0.088076435784452289 0 -0.1200022000670774 -0.0744369922820554 0 -0.1150016942000025 -0.049774801446042329 0 -0.13978550443159191 -0.067857218025003593 0 -0.1150016942000025 -0.049774801446042329 0 -0.1034396416637023 -0.020118770800665799 0 -0.083041631242712105 -0.037058642908306287 0 -0.084900589448642441 -0.071037475400200306 0 -0.1150016942000025 -0.049774801446042329 0 -0.083041631242712105 -0.037058642908306287 0 -0.1150016942000025 -0.049774801446042329 0 -0.1034396416637023 -0.020118770800665799 0 -0.1303090768464959 -0.024760112000338539 0 -0.1238376520846925 -0.003178898693025302 0 -0.1034396416637023 -0.020118770800665799 0 -0.1238376520846925 -0.003178898693025302 0 -0.1034396416637023 -0.020118770800665799 0 -0.1066168776230814 -0.0002609920833909378 0 -0.1238376520846925 -0.003178898693025302 0 -0.1034396416637023 -0.020118770800665799 0 -0.1303090768464959 -0.024760112000338539 0 -0.1034396416637023 -0.020118770800665799 0 -0.1066168776230814 -0.0002609920833909378 0 -0.086642348690371879 -0.010471720479631821 0 -0.1066168776230814 -0.0002609920833909378 0 -0.086642348690371879 -0.010471720479631821 0 -0.093168168815275315 0.0099037328048501554 0 -0.1034396416637023 -0.020118770800665799 0 -0.086642348690371879 -0.010471720479631821 0 -0.083041631242712105 -0.037058642908306287 0 -0.086642348690371879 -0.010471720479631821 0 -0.067112438452878037 -0.014426689931046829 0 -0.083041631242712105 -0.037058642908306287 0 -0.1034396416637023 -0.020118770800665799 0 -0.083041631242712105 -0.037058642908306287 0 -0.067112438452878037 -0.014426689931046829 0 -0.083041631242712105 -0.037058642908306287 0 -0.060378482762466081 -0.032232311142353913 0 -0.086642348690371879 -0.010471720479631821 0 -0.067112438452878037 -0.014426689931046829 0 -0.073521406826148411 0.0051031726183403594 0 -0.067112438452878037 -0.014426689931046829 0 -0.053589612230985843 -0.00040132381324650641 0 -0.073521406826148411 0.0051031726183403594 0 -0.084900589448642441 -0.071037475400200306 0 -0.083041631242712105 -0.037058642908306287 0 -0.062643620821722854 -0.053998515015947907 0 -0.083041631242712105 -0.037058642908306287 0 -0.062643620821722854 -0.053998515015947907 0 -0.060378482762466081 -0.032232311142353913 0 -0.083041631242712105 -0.037058642908306287 0 -0.062643620821722854 -0.053998515015947907 0 -0.062643620821722854 -0.053998515015947907 0 -0.041139981855606883 -0.037536270826155543 0 -0.043559545976238158 -0.06984720714341365 0 -0.062643620821722854 -0.053998515015947907 0 -0.043559545976238158 -0.06984720714341365 0 -0.041139981855606883 -0.037536270826155543 0 -0.022702371247029101 -0.053877062353353607 0 -0.043559545976238158 -0.06984720714341365 0 -0.062643620821722854 -0.053998515015947907 0 -0.060378482762466081 -0.032232311142353913 0 -0.041139981855606883 -0.037536270826155543 0 -0.062643620821722854 -0.053998515015947907 0 -0.041139981855606883 -0.037536270826155543 0 -0.047954741439410753 -0.018141437030312669 0 -0.033062794546480478 -0.0035548247123766822 0 -0.015846618624544149 -0.02523918063224059 0 -0.041139981855606883 -0.037536270826155543 0 -0.047954741439410753 -0.018141437030312669 0 -0.015846618624544149 -0.02523918063224059 0 -0.067112438452878037 -0.014426689931046829 0 -0.053589612230985843 -0.00040132381324650641 0 -0.047954741439410753 -0.018141437030312669 0 -0.060378482762466081 -0.032232311142353913 0 -0.041139981855606883 -0.037536270826155543 0 -0.047954741439410753 -0.018141437030312669 0 -0.067112438452878037 -0.014426689931046829 0 -0.060378482762466081 -0.032232311142353913 0 -0.047954741439410753 -0.018141437030312669 0 -0.053589612230985843 -0.00040132381324650641 0 -0.047954741439410753 -0.018141437030312669 0 -0.033062794546480478 -0.0035548247123766822 0 -0.033062794546480478 -0.0035548247123766822 0 -0.015846618624544149 -0.02523918063224059 0 -0.01129150054699473 -0.0013760759300521341 0 -0.015846618624544149 -0.02523918063224059 0 -0.01129150054699473 -0.0013760759300521341 0 0.013560617637746009 -0.010546814510073379 0 -0.041139981855606883 -0.037536270826155543 0 -0.015846618624544149 -0.02523918063224059 0 -0.022702371247029101 -0.053877062353353607 0 -0.015846618624544149 -0.02523918063224059 0 -0.022702371247029101 -0.053877062353353607 0 -0.0020087529434394289 -0.049943804487541543 0 -0.015846618624544149 -0.02523918063224059 0 -0.0020087529434394289 -0.049943804487541543 0 0.01152460235589255 -0.038367179228915853 0 -0.0020087529434394289 -0.049943804487541543 0 -0.0096631587059269278 -0.072401477112145576 0 0.008044693004705103 -0.064644082804782468 0 -0.022702371247029101 -0.053877062353353607 0 -0.0020087529434394289 -0.049943804487541543 0 -0.0096631587059269278 -0.072401477112145576 0 -0.0096631587059269278 -0.072401477112145576 0 -0.00085598893660233238 -0.0896113271783123 0 0.0089737261826284814 -0.079045421565449248 0 -0.024475471130754409 -0.085695899270880491 0 -0.0053913962852711796 -0.101544591398348 0 -0.0096631587059269278 -0.072401477112145576 0 -0.00085598893660233238 -0.0896113271783123 0 -0.024475471130754409 -0.085695899270880491 0 -0.00085598893660233238 -0.0896113271783123 0 -0.024475471130754409 -0.085695899270880491 0 -0.0053913962852711796 -0.101544591398348 0 -0.022702371247029101 -0.053877062353353607 0 -0.0096631587059269278 -0.072401477112145576 0 -0.025179092001310879 -0.070193826512394794 0 -0.024475471130754409 -0.085695899270880491 0 -0.025179092001310879 -0.070193826512394794 0 -0.043559545976238158 -0.06984720714341365 0 -0.022702371247029101 -0.053877062353353607 0 -0.025179092001310879 -0.070193826512394794 0 -0.043559545976238158 -0.06984720714341365 0 -0.0096631587059269278 -0.072401477112145576 0 -0.024475471130754409 -0.085695899270880491 0 -0.025179092001310879 -0.070193826512394794 0 -0.024475471130754409 -0.085695899270880491 0 -0.043559545976238158 -0.06984720714341365 0 -0.024475471130754409 -0.085695899270880491 0 -0.043559545976238158 -0.06984720714341365 0 -0.056473283862346339 -0.094096590485682752 0 -0.064454543257806834 -0.076194692906489198 0 -0.043559545976238158 -0.06984720714341365 0 -0.056473283862346339 -0.094096590485682752 0 -0.064454543257806834 -0.076194692906489198 0 -0.062643620821722854 -0.053998515015947907 0 -0.043559545976238158 -0.06984720714341365 0 -0.024475471130754409 -0.085695899270880491 0 -0.056473283862346339 -0.094096590485682752 0 -0.027582059005639439 -0.10416352069771349 0 -0.059829794975131169 -0.1207435158767198 0 -0.056473283862346339 -0.094096590485682752 0 -0.03855554376917994 -0.1178782609386621 0 -0.056473283862346339 -0.094096590485682752 0 -0.03855554376917994 -0.1178782609386621 0 -0.056473283862346339 -0.094096590485682752 0 -0.03855554376917994 -0.1178782609386621 0 -0.027582059005639439 -0.10416352069771349 0 -0.03855554376917994 -0.1178782609386621 0 -0.027582059005639439 -0.10416352069771349 0 -0.0130145999806459 -0.1216022613949949 0 -0.024475471130754409 -0.085695899270880491 0 -0.027582059005639439 -0.10416352069771349 0 -0.0053913962852711796 -0.101544591398348 0 -0.027582059005639439 -0.10416352069771349 0 -0.0053913962852711796 -0.101544591398348 0 -0.0130145999806459 -0.1216022613949949 0 -0.00085598893660233238 -0.0896113271783123 0 -0.0053913962852711796 -0.101544591398348 0 -0.0053913962852711796 -0.101544591398348 0 -0.0130145999806459 -0.1216022613949949 0 -0.00086243604735932301 -0.1195602050418297 0 -0.0053913962852711796 -0.101544591398348 0 -0.0130145999806459 -0.1216022613949949 0 -0.0130145999806459 -0.1216022613949949 0 -0.00086243604735932301 -0.1195602050418297 0 -0.0052513643059792347 -0.13137269496406631 0 -0.0130145999806459 -0.1216022613949949 0 -0.0052513643059792347 -0.13137269496406631 0 -0.02063780367601635 -0.14165993139164329 0 -0.00086243604735932301 -0.1195602050418297 0 -0.0052513643059792347 -0.13137269496406631 0 0.0058983520323871962 -0.12805413721014969 0 -0.0052513643059792347 -0.13137269496406631 0 -0.0075201863491781307 -0.1417615895483339 0 0.005150969619539144 -0.13736195048391431 0 -0.0052513643059792347 -0.13137269496406631 0 -0.02063780367601635 -0.14165993139164329 0 -0.0075201863491781307 -0.1417615895483339 0 -0.03855554376917994 -0.1178782609386621 0 -0.0130145999806459 -0.1216022613949949 0 -0.02063780367601635 -0.14165993139164329 0 -0.03855554376917994 -0.1178782609386621 0 -0.02063780367601635 -0.14165993139164329 0 -0.0130145999806459 -0.1216022613949949 0 -0.02063780367601635 -0.14165993139164329 0 -0.02063780367601635 -0.14165993139164329 0 -0.0093425470342544496 -0.15665178135371241 0 -0.028048893606467569 -0.161159501661643 0 -0.02063780367601635 -0.14165993139164329 0 -0.028048893606467569 -0.161159501661643 0 -0.034389610927260728 -0.1509638806338974 0 -0.02063780367601635 -0.14165993139164329 0 -0.028048893606467569 -0.161159501661643 0 -0.02063780367601635 -0.14165993139164329 0 -0.0093425470342544496 -0.15665178135371241 0 -0.0093425470342544496 -0.15665178135371241 0 0.005150969619539144 -0.13736195048391431 0 -0.0075201863491781307 -0.1417615895483339 0 -0.0093425470342544496 -0.15665178135371241 0 0.005150969619539144 -0.13736195048391431 0 -0.02063780367601635 -0.14165993139164329 0 -0.0075201863491781307 -0.1417615895483339 0 -0.0093425470342544496 -0.15665178135371241 0 -0.0020317135505204132 -0.1663552278677661 0 -0.0093425470342544496 -0.15665178135371241 0 -0.022096601602459739 -0.1736265129803852 0 -0.0020317135505204132 -0.1663552278677661 0 -0.0093425470342544496 -0.15665178135371241 0 -0.0020317135505204132 -0.1663552278677661 0 -0.022096601602459739 -0.1736265129803852 0 -0.021395201946888528 -0.18610441864621849 0 -0.0020317135505204132 -0.1663552278677661 0 -0.0046190280866550953 -0.18583163642080541 0 -0.021395201946888528 -0.18610441864621849 0 -0.0020317135505204132 -0.1663552278677661 0 -0.021395201946888528 -0.18610441864621849 0 -0.022096601602459739 -0.1736265129803852 0 -0.021395201946888528 -0.18610441864621849 0 -0.034850656170665142 -0.1906012446070581 0 -0.022096601602459739 -0.1736265129803852 0 -0.034850656170665142 -0.1906012446070581 0 -0.022096601602459739 -0.1736265129803852 0 -0.035459983536917108 -0.18065907193164341 0 -0.034850656170665142 -0.1906012446070581 0 -0.0093425470342544496 -0.15665178135371241 0 -0.022096601602459739 -0.1736265129803852 0 -0.028048893606467569 -0.161159501661643 0 -0.022096601602459739 -0.1736265129803852 0 -0.028048893606467569 -0.161159501661643 0 -0.035459983536917108 -0.18065907193164341 0 -0.0093425470342544496 -0.15665178135371241 0 -0.022096601602459739 -0.1736265129803852 0 -0.028048893606467569 -0.161159501661643 0 -0.035459983536917108 -0.18065907193164341 0 -0.037328902260247467 -0.17224555188036131 0 -0.037666845761317853 -0.16219064511888501 0 -0.034389610927260728 -0.1509638806338974 0 -0.043202836967764023 -0.156186707572182 0 -0.028048893606467569 -0.161159501661643 0 -0.037666845761317853 -0.16219064511888501 0 -0.034389610927260728 -0.1509638806338974 0 -0.028048893606467569 -0.161159501661643 0 -0.035459983536917108 -0.18065907193164341 0 -0.028048893606467569 -0.161159501661643 0 -0.037666845761317853 -0.16219064511888501 0 -0.037328902260247467 -0.17224555188036131 0 -0.037666845761317853 -0.16219064511888501 0 -0.045590178371679793 -0.16690624467228121 0 -0.037328902260247467 -0.17224555188036131 0 -0.037666845761317853 -0.16219064511888501 0 -0.045590178371679793 -0.16690624467228121 0 -0.043202836967764023 -0.156186707572182 0 -0.035459983536917108 -0.18065907193164341 0 -0.037328902260247467 -0.17224555188036131 0 -0.042466806499558932 -0.18991076405704621 0 -0.037328902260247467 -0.17224555188036131 0 -0.042466806499558932 -0.18991076405704621 0 -0.037328902260247467 -0.17224555188036131 0 -0.046817246087904052 -0.17787728319090579 0 -0.042466806499558932 -0.18991076405704621 0 -0.045590178371679793 -0.16690624467228121 0 -0.037328902260247467 -0.17224555188036131 0 -0.046817246087904052 -0.17787728319090579 0 -0.046817246087904052 -0.17787728319090579 0 -0.049279405589077167 -0.1858042962602017 0 -0.042466806499558932 -0.18991076405704621 0 -0.049279405589077167 -0.1858042962602017 0 -0.052440446603231772 -0.17922181924169051 0 -0.059737422255623299 -0.1810255240602989 0 -0.046817246087904052 -0.17787728319090579 0 -0.049279405589077167 -0.1858042962602017 0 -0.052440446603231772 -0.17922181924169051 0 -0.045590178371679793 -0.16690624467228121 0 -0.046817246087904052 -0.17787728319090579 0 -0.053927712480322562 -0.17218017345535569 0 -0.046817246087904052 -0.17787728319090579 0 -0.052440446603231772 -0.17922181924169051 0 -0.053927712480322562 -0.17218017345535569 0 -0.052440446603231772 -0.17922181924169051 0 -0.053927712480322562 -0.17218017345535569 0 -0.059737422255623299 -0.1810255240602989 0 -0.053927712480322562 -0.17218017345535569 0 -0.059737422255623299 -0.1810255240602989 0 -0.065133027963958062 -0.16960511831128669 0 -0.045590178371679793 -0.16690624467228121 0 -0.055103794235688071 -0.15771688978993459 0 -0.043202836967764023 -0.156186707572182 0 -0.045590178371679793 -0.16690624467228121 0 -0.053927712480322562 -0.17218017345535569 0 -0.055103794235688071 -0.15771688978993459 0 -0.053927712480322562 -0.17218017345535569 0 -0.055103794235688071 -0.15771688978993459 0 -0.065133027963958062 -0.16960511831128669 0 -0.055103794235688071 -0.15771688978993459 0 -0.043202836967764023 -0.156186707572182 0 -0.044904626852016058 -0.14125732255128601 0 -0.055103794235688071 -0.15771688978993459 0 -0.044904626852016058 -0.14125732255128601 0 -0.0638937006377681 -0.1417377917984001 0 -0.059829794975131169 -0.1207435158767198 0 -0.044904626852016058 -0.14125732255128601 0 -0.0638937006377681 -0.1417377917984001 0 -0.059829794975131169 -0.1207435158767198 0 -0.03855554376917994 -0.1178782609386621 0 -0.044904626852016058 -0.14125732255128601 0 -0.03855554376917994 -0.1178782609386621 0 -0.02063780367601635 -0.14165993139164329 0 -0.044904626852016058 -0.14125732255128601 0 -0.02063780367601635 -0.14165993139164329 0 -0.034389610927260728 -0.1509638806338974 0 -0.044904626852016058 -0.14125732255128601 0 -0.034389610927260728 -0.1509638806338974 0 -0.043202836967764023 -0.156186707572182 0 -0.044904626852016058 -0.14125732255128601 0 -0.016461416315424599 -0.24565294134489449 0 -0.016767267831895999 -0.23183306162453979 0 -0.034816988989392388 -0.24467627063641609 0 -0.01553418108153717 -0.25944507154498458 0 -0.016461416315424599 -0.24565294134489449 0 -0.034816988989392388 -0.24467627063641609 0 -0.016461416315424599 -0.24565294134489449 0 -0.0056769124435055267 -0.2498402483549487 0 -0.0051559884870187138 -0.2407307696715815 0 -0.0056769124435055267 -0.2498402483549487 0 -0.0051559884870187138 -0.2407307696715815 0 0.0056956609450451471 -0.2455021219393467 0 -0.016461416315424599 -0.24565294134489449 0 -0.0051559884870187138 -0.2407307696715815 0 -0.016767267831895999 -0.23183306162453979 0 -0.0059761213381229446 -0.2188067746504132 0 -0.016767267831895999 -0.23183306162453979 0 0.0011048952862743721 -0.2301488496309107 0 -0.0051559884870187138 -0.2407307696715815 0 -0.016767267831895999 -0.23183306162453979 0 0.0011048952862743721 -0.2301488496309107 0 -0.0059761213381229446 -0.2188067746504132 0 -0.016767267831895999 -0.23183306162453979 0 -0.019891613913332912 -0.21728395878689991 0 -0.016767267831895999 -0.23183306162453979 0 -0.019891613913332912 -0.21728395878689991 0 -0.032976029896697998 -0.2257031663689088 0 -0.016767267831895999 -0.23183306162453979 0 -0.032976029896697998 -0.2257031663689088 0 -0.034816988989392388 -0.24467627063641609 0 -0.021575368818372069 -0.20529502522682491 0 -0.019891613913332912 -0.21728395878689991 0 -0.031296309715682279 -0.21241679695650109 0 -0.019891613913332912 -0.21728395878689991 0 -0.031296309715682279 -0.21241679695650109 0 -0.032976029896697998 -0.2257031663689088 0 -0.021575368818372069 -0.20529502522682491 0 -0.030374030549851751 -0.20199289740422291 0 -0.031296309715682279 -0.21241679695650109 0 -0.021575368818372069 -0.20529502522682491 0 -0.019891613913332912 -0.21728395878689991 0 -0.0096704727895799512 -0.20630454215375121 0 -0.0059761213381229446 -0.2188067746504132 0 -0.0096704727895799512 -0.20630454215375121 0 0.00624130957561369 -0.20495453016200471 0 -0.0059761213381229446 -0.2188067746504132 0 -0.019891613913332912 -0.21728395878689991 0 -0.0096704727895799512 -0.20630454215375121 0 -0.0096704727895799512 -0.20630454215375121 0 -0.0141894049744086 -0.1960344994608621 0 -0.0036762998895434121 -0.19595119679920611 0 -0.0046190280866550953 -0.18583163642080541 0 -0.021395201946888528 -0.18610441864621849 0 -0.0141894049744086 -0.1960344994608621 0 -0.0096704727895799512 -0.20630454215375121 0 -0.0036762998895434121 -0.19595119679920611 0 0.00624130957561369 -0.20495453016200471 0 -0.021575368818372069 -0.20529502522682491 0 -0.0096704727895799512 -0.20630454215375121 0 -0.0141894049744086 -0.1960344994608621 0 -0.0046190280866550953 -0.18583163642080541 0 -0.0141894049744086 -0.1960344994608621 0 -0.0036762998895434121 -0.19595119679920611 0 -0.0046190280866550953 -0.18583163642080541 0 -0.0036762998895434121 -0.19595119679920611 0 0.0057136835058208182 -0.19152004318334401 0 -0.021395201946888528 -0.18610441864621849 0 -0.0141894049744086 -0.1960344994608621 0 -0.02188350157238023 -0.1973567101845321 0 -0.021395201946888528 -0.18610441864621849 0 -0.040758690343256722 -0.20585360942467101 0 -0.021395201946888528 -0.18610441864621849 0 -0.02188350157238023 -0.1973567101845321 0 -0.030374030549851751 -0.20199289740422291 0 -0.021395201946888528 -0.18610441864621849 0 -0.030374030549851751 -0.20199289740422291 0 -0.040758690343256722 -0.20585360942467101 0 -0.021575368818372069 -0.20529502522682491 0 -0.0141894049744086 -0.1960344994608621 0 -0.02188350157238023 -0.1973567101845321 0 -0.021575368818372069 -0.20529502522682491 0 -0.02188350157238023 -0.1973567101845321 0 -0.030374030549851751 -0.20199289740422291 0 -0.042334545951157612 -0.20056176499436701 0 -0.042466806499558932 -0.18991076405704621 0 -0.047604710738870473 -0.207575976233731 0 -0.035459983536917108 -0.18065907193164341 0 -0.034850656170665142 -0.1906012446070581 0 -0.042334545951157612 -0.20056176499436701 0 -0.035459983536917108 -0.18065907193164341 0 -0.042334545951157612 -0.20056176499436701 0 -0.042466806499558932 -0.18991076405704621 0 -0.021395201946888528 -0.18610441864621849 0 -0.034850656170665142 -0.1906012446070581 0 -0.040758690343256722 -0.20585360942467101 0 -0.035459983536917108 -0.18065907193164341 0 -0.042334545951157612 -0.20056176499436701 0 -0.042466806499558932 -0.18991076405704621 0 -0.047604710738870473 -0.207575976233731 0 -0.034850656170665142 -0.1906012446070581 0 -0.042334545951157612 -0.20056176499436701 0 -0.034850656170665142 -0.1906012446070581 0 -0.042334545951157612 -0.20056176499436701 0 -0.040758690343256722 -0.20585360942467101 0 -0.049279405589077167 -0.1858042962602017 0 -0.059737422255623299 -0.1810255240602989 0 -0.063933748706048302 -0.19847802801363951 0 -0.049279405589077167 -0.1858042962602017 0 -0.042466806499558932 -0.18991076405704621 0 -0.052045945916778732 -0.1974171298570756 0 -0.042466806499558932 -0.18991076405704621 0 -0.052045945916778732 -0.1974171298570756 0 -0.047604710738870473 -0.207575976233731 0 -0.049279405589077167 -0.1858042962602017 0 -0.063933748706048302 -0.19847802801363951 0 -0.049279405589077167 -0.1858042962602017 0 -0.052045945916778732 -0.1974171298570756 0 -0.063933748706048302 -0.19847802801363951 0 -0.052045945916778732 -0.1974171298570756 0 -0.06317816894965049 -0.20971811963707479 0 -0.063933748706048302 -0.19847802801363951 0 -0.047604710738870473 -0.207575976233731 0 -0.054099796897247351 -0.22990746972784709 0 -0.047604710738870473 -0.207575976233731 0 -0.053346217753035767 -0.21521751016138671 0 -0.054099796897247351 -0.22990746972784709 0 -0.052045945916778732 -0.1974171298570756 0 -0.047604710738870473 -0.207575976233731 0 -0.06317816894965049 -0.20971811963707479 0 -0.047604710738870473 -0.207575976233731 0 -0.041312166748254643 -0.2181205437808203 0 -0.054099796897247351 -0.22990746972784709 0 -0.047604710738870473 -0.207575976233731 0 -0.053346217753035767 -0.21521751016138671 0 -0.06317816894965049 -0.20971811963707479 0 -0.053346217753035767 -0.21521751016138671 0 -0.066343944360135035 -0.22052961474745969 0 -0.06317816894965049 -0.20971811963707479 0 -0.047604710738870473 -0.207575976233731 0 -0.053346217753035767 -0.21521751016138671 0 -0.047604710738870473 -0.207575976233731 0 -0.041312166748254643 -0.2181205437808203 0 -0.040758690343256722 -0.20585360942467101 0 -0.042334545951157612 -0.20056176499436701 0 -0.047604710738870473 -0.207575976233731 0 -0.040758690343256722 -0.20585360942467101 0 -0.042334545951157612 -0.20056176499436701 0 -0.047604710738870473 -0.207575976233731 0 -0.030374030549851751 -0.20199289740422291 0 -0.040758690343256722 -0.20585360942467101 0 -0.031296309715682279 -0.21241679695650109 0 -0.041312166748254643 -0.2181205437808203 0 -0.040758690343256722 -0.20585360942467101 0 -0.031296309715682279 -0.21241679695650109 0 -0.041312166748254643 -0.2181205437808203 0 -0.031296309715682279 -0.21241679695650109 0 -0.032976029896697998 -0.2257031663689088 0 -0.041312166748254643 -0.2181205437808203 0 -0.032976029896697998 -0.2257031663689088 0 -0.054099796897247351 -0.22990746972784709 0 -0.032976029896697998 -0.2257031663689088 0 -0.054099796897247351 -0.22990746972784709 0 -0.034816988989392388 -0.24467627063641609 0 -0.054099796897247351 -0.22990746972784709 0 -0.066343944360135035 -0.22052961474745969 0 -0.053346217753035767 -0.21521751016138671 0 -0.054099796897247351 -0.22990746972784709 0 -0.066343944360135035 -0.22052961474745969 0 -0.054099796897247351 -0.22990746972784709 0 -0.05968357260973943 -0.24910568326275209 0 -0.054099796897247351 -0.22990746972784709 0 -0.05968357260973943 -0.24910568326275209 0 -0.034816988989392388 -0.24467627063641609 0 -0.054099796897247351 -0.22990746972784709 0 -0.05968357260973943 -0.24910568326275209 0 -0.067243326760131936 -0.23408263028617529 0 -0.054099796897247351 -0.22990746972784709 0 -0.034816988989392388 -0.24467627063641609 0 -0.086536375327346746 -0.2395309939404047 0 -0.095788897479337012 -0.2260277862863917 0 -0.095354488531948001 -0.24934129224895829 0 -0.084912236002220559 -0.25132134058067351 0 -0.086536375327346746 -0.2395309939404047 0 -0.095354488531948001 -0.24934129224895829 0 -0.086536375327346746 -0.2395309939404047 0 -0.077563817379835157 -0.24244281897202369 0 -0.079062437243392625 -0.22852173161397701 0 -0.073811911824308435 -0.25540473286183141 0 -0.084912236002220559 -0.25132134058067351 0 -0.077563817379835157 -0.24244281897202369 0 -0.084912236002220559 -0.25132134058067351 0 -0.086536375327346746 -0.2395309939404047 0 -0.077563817379835157 -0.24244281897202369 0 -0.05968357260973943 -0.24910568326275209 0 -0.077563817379835157 -0.24244281897202369 0 -0.067243326760131936 -0.23408263028617529 0 -0.073811911824308435 -0.25540473286183141 0 -0.05968357260973943 -0.24910568326275209 0 -0.077563817379835157 -0.24244281897202369 0 -0.077563817379835157 -0.24244281897202369 0 -0.067243326760131936 -0.23408263028617529 0 -0.079062437243392625 -0.22852173161397701 0 -0.066343944360135035 -0.22052961474745969 0 -0.079062437243392625 -0.22852173161397701 0 -0.078588091823023176 -0.2111517597670729 0 -0.067243326760131936 -0.23408263028617529 0 -0.066343944360135035 -0.22052961474745969 0 -0.079062437243392625 -0.22852173161397701 0 -0.054099796897247351 -0.22990746972784709 0 -0.067243326760131936 -0.23408263028617529 0 -0.066343944360135035 -0.22052961474745969 0 -0.086536375327346746 -0.2395309939404047 0 -0.079062437243392625 -0.22852173161397701 0 -0.095788897479337012 -0.2260277862863917 0 -0.079062437243392625 -0.22852173161397701 0 -0.078588091823023176 -0.2111517597670729 0 -0.095788897479337012 -0.2260277862863917 0 -0.078588091823023176 -0.2111517597670729 0 -0.096319134376921064 -0.197571463856268 0 -0.095788897479337012 -0.2260277862863917 0 -0.078588091823023176 -0.2111517597670729 0 -0.096319134376921064 -0.197571463856268 0 -0.078588091823023176 -0.2111517597670729 0 -0.095788897479337012 -0.2260277862863917 0 -0.066343944360135035 -0.22052961474745969 0 -0.078588091823023176 -0.2111517597670729 0 -0.066343944360135035 -0.22052961474745969 0 -0.078588091823023176 -0.2111517597670729 0 -0.06317816894965049 -0.20971811963707479 0 -0.078588091823023176 -0.2111517597670729 0 -0.06317816894965049 -0.20971811963707479 0 -0.063933748706048302 -0.19847802801363951 0 -0.078588091823023176 -0.2111517597670729 0 -0.063933748706048302 -0.19847802801363951 0 -0.063933748706048302 -0.19847802801363951 0 -0.080032599427896228 -0.19467240400081801 0 -0.07254297608248067 -0.18189351685812991 0 -0.078588091823023176 -0.2111517597670729 0 -0.063933748706048302 -0.19847802801363951 0 -0.080032599427896228 -0.19467240400081801 0 -0.078588091823023176 -0.2111517597670729 0 -0.080032599427896228 -0.19467240400081801 0 -0.096319134376921064 -0.197571463856268 0 -0.080032599427896228 -0.19467240400081801 0 -0.096319134376921064 -0.197571463856268 0 -0.085277399835823053 -0.1838647808221941 0 -0.096319134376921064 -0.197571463856268 0 -0.1127998200032357 -0.2093472517028343 0 -0.1111910786897109 -0.18618096586818919 0 -0.096319134376921064 -0.197571463856268 0 -0.096687332038740997 -0.17781133129953711 0 -0.096319134376921064 -0.197571463856268 0 -0.1111910786897109 -0.18618096586818919 0 -0.12135527920018969 -0.19711413213061271 0 -0.1127998200032357 -0.2093472517028343 0 -0.1111910786897109 -0.18618096586818919 0 -0.1127998200032357 -0.2093472517028343 0 -0.12226152621943021 -0.22725697793187441 0 -0.1324206834795176 -0.21437754936458631 0 -0.12135527920018969 -0.19711413213061271 0 -0.1127998200032357 -0.2093472517028343 0 -0.1324206834795176 -0.21437754936458631 0 -0.096319134376921064 -0.197571463856268 0 -0.1127998200032357 -0.2093472517028343 0 -0.095788897479337012 -0.2260277862863917 0 -0.096319134376921064 -0.197571463856268 0 -0.095788897479337012 -0.2260277862863917 0 -0.1127998200032357 -0.2093472517028343 0 -0.095788897479337012 -0.2260277862863917 0 -0.1103010585080126 -0.22483687885550349 0 -0.095788897479337012 -0.2260277862863917 0 -0.1121023689593434 -0.24013640649916301 0 -0.095788897479337012 -0.2260277862863917 0 -0.1103010585080126 -0.22483687885550349 0 -0.1121023689593434 -0.24013640649916301 0 -0.1127998200032357 -0.2093472517028343 0 -0.1103010585080126 -0.22483687885550349 0 -0.12226152621943021 -0.22725697793187441 0 -0.1103010585080126 -0.22483687885550349 0 -0.12226152621943021 -0.22725697793187441 0 -0.1121023689593434 -0.24013640649916301 0 -0.12226152621943021 -0.22725697793187441 0 -0.1121023689593434 -0.24013640649916301 0 -0.13362675178396591 -0.25875165604669192 0 -0.1121023689593434 -0.24013640649916301 0 -0.13362675178396591 -0.25875165604669192 0 -0.1121023689593434 -0.24013640649916301 0 -0.128509398016278 -0.24056580828855359 0 -0.12226152621943021 -0.22725697793187441 0 -0.1121023689593434 -0.24013640649916301 0 -0.128509398016278 -0.24056580828855359 0 -0.099461273068779596 -0.25616235110919527 0 -0.1121023689593434 -0.24013640649916301 0 -0.095354488531948001 -0.24934129224895829 0 -0.095788897479337012 -0.2260277862863917 0 -0.1121023689593434 -0.24013640649916301 0 -0.095354488531948001 -0.24934129224895829 0 -0.095788897479337012 -0.2260277862863917 0 -0.095354488531948001 -0.24934129224895829 0 -0.099461273068779596 -0.25616235110919527 0 -0.1121023689593434 -0.24013640649916301 0 -0.080904924898040534 -0.1448094044119837 0 -0.097055529700560361 -0.15805119874280629 0 -0.096207336864781626 -0.1415291778675356 0 -0.080904924898040534 -0.1448094044119837 0 -0.079876034051492503 -0.12769071503318899 0 -0.096207336864781626 -0.1415291778675356 0 -0.096813241815559004 -0.1179122088520235 0 -0.079876034051492503 -0.12769071503318899 0 -0.096207336864781626 -0.1415291778675356 0 -0.059829794975131169 -0.1207435158767198 0 -0.079876034051492503 -0.12769071503318899 0 -0.0638937006377681 -0.1417377917984001 0 -0.080904924898040534 -0.1448094044119837 0 -0.079876034051492503 -0.12769071503318899 0 -0.0638937006377681 -0.1417377917984001 0 -0.080904924898040534 -0.1448094044119837 0 -0.069074476376307967 -0.15614487016875059 0 -0.080804957253075835 -0.1673751880962176 0 -0.055103794235688071 -0.15771688978993459 0 -0.0638937006377681 -0.1417377917984001 0 -0.069074476376307967 -0.15614487016875059 0 -0.080904924898040534 -0.1448094044119837 0 -0.0638937006377681 -0.1417377917984001 0 -0.069074476376307967 -0.15614487016875059 0 -0.069074476376307967 -0.15614487016875059 0 -0.065133027963958062 -0.16960511831128669 0 -0.080804957253075835 -0.1673751880962176 0 -0.055103794235688071 -0.15771688978993459 0 -0.069074476376307967 -0.15614487016875059 0 -0.065133027963958062 -0.16960511831128669 0 -0.065133027963958062 -0.16960511831128669 0 -0.07254297608248067 -0.18189351685812991 0 -0.080804957253075835 -0.1673751880962176 0 -0.059737422255623299 -0.1810255240602989 0 -0.063933748706048302 -0.19847802801363951 0 -0.07254297608248067 -0.18189351685812991 0 -0.059737422255623299 -0.1810255240602989 0 -0.065133027963958062 -0.16960511831128669 0 -0.07254297608248067 -0.18189351685812991 0 -0.07254297608248067 -0.18189351685812991 0 -0.085277399835823053 -0.1838647808221941 0 -0.080804957253075835 -0.1673751880962176 0 -0.085277399835823053 -0.1838647808221941 0 -0.080804957253075835 -0.1673751880962176 0 -0.096687332038740997 -0.17781133129953711 0 -0.096319134376921064 -0.197571463856268 0 -0.085277399835823053 -0.1838647808221941 0 -0.096687332038740997 -0.17781133129953711 0 -0.080032599427896228 -0.19467240400081801 0 -0.07254297608248067 -0.18189351685812991 0 -0.085277399835823053 -0.1838647808221941 0 -0.080904924898040534 -0.1448094044119837 0 -0.080804957253075835 -0.1673751880962176 0 -0.097055529700560361 -0.15805119874280629 0 -0.080804957253075835 -0.1673751880962176 0 -0.097055529700560361 -0.15805119874280629 0 -0.096687332038740997 -0.17781133129953711 0 -0.097055529700560361 -0.15805119874280629 0 -0.096687332038740997 -0.17781133129953711 0 -0.097055529700560361 -0.15805119874280629 0 -0.11189405277450749 -0.16821118694193241 0 -0.1170227076456917 -0.14738468082655801 0 -0.097055529700560361 -0.15805119874280629 0 -0.096687332038740997 -0.17781133129953711 0 -0.11189405277450749 -0.16821118694193241 0 -0.096319134376921064 -0.197571463856268 0 -0.096687332038740997 -0.17781133129953711 0 -0.1111910786897109 -0.18618096586818919 0 -0.096687332038740997 -0.17781133129953711 0 -0.1111910786897109 -0.18618096586818919 0 -0.11189405277450749 -0.16821118694193241 0 -0.1229668705502686 -0.17764299287837629 0 -0.1111910786897109 -0.18618096586818919 0 -0.11189405277450749 -0.16821118694193241 0 -0.12135527920018969 -0.19711413213061271 0 -0.1229668705502686 -0.17764299287837629 0 -0.1111910786897109 -0.18618096586818919 0 -0.11189405277450749 -0.16821118694193241 0 -0.1170227076456917 -0.14738468082655801 0 -0.13393669474227871 -0.161624132702233 0 -0.1229668705502686 -0.17764299287837629 0 -0.11189405277450749 -0.16821118694193241 0 -0.13393669474227871 -0.161624132702233 0 -0.097055529700560361 -0.15805119874280629 0 -0.1170227076456917 -0.14738468082655801 0 -0.096207336864781626 -0.1415291778675356 0 -0.1170227076456917 -0.14738468082655801 0 -0.096207336864781626 -0.1415291778675356 0 -0.10806753436944171 -0.13175920839317781 0 -0.096813241815559004 -0.1179122088520235 0 -0.096207336864781626 -0.1415291778675356 0 -0.10806753436944171 -0.13175920839317781 0 -0.11540526837687171 -0.1154874301373815 0 -0.10806753436944171 -0.13175920839317781 0 -0.12136262411702101 -0.12981934099527351 0 -0.1170227076456917 -0.14738468082655801 0 -0.12136262411702101 -0.12981934099527351 0 -0.1346947003736593 -0.13524742437105641 0 -0.1170227076456917 -0.14738468082655801 0 -0.10806753436944171 -0.13175920839317781 0 -0.12136262411702101 -0.12981934099527351 0 -0.12136262411702101 -0.12981934099527351 0 -0.1346947003736593 -0.13524742437105641 0 -0.13205461353806941 -0.12018141026988099 0 -0.1346947003736593 -0.13524742437105641 0 -0.13205461353806941 -0.12018141026988099 0 -0.1346947003736593 -0.13524742437105641 0 -0.1349564972342164 -0.1261375455692765 0 -0.13944766982355439 -0.12527199051924881 0 -0.1346947003736593 -0.13524742437105641 0 -0.1349564972342164 -0.1261375455692765 0 -0.1346947003736593 -0.13524742437105641 0 -0.1349564972342164 -0.1261375455692765 0 -0.13205461353806941 -0.12018141026988099 0 -0.15057374130138099 -0.1348661304149496 0 -0.16353030891812059 -0.1312329448517251 0 -0.14571402836902131 -0.11759358076942771 0 -0.1346947003736593 -0.13524742437105641 0 -0.13944766982355439 -0.12527199051924881 0 -0.15057374130138099 -0.1348661304149496 0 -0.13944766982355439 -0.12527199051924881 0 -0.15057374130138099 -0.1348661304149496 0 -0.14571402836902131 -0.11759358076942771 0 -0.1346947003736593 -0.13524742437105641 0 -0.15344328023174439 -0.1533306647458941 0 -0.1398081517814129 -0.16442802933311371 0 -0.1346947003736593 -0.13524742437105641 0 -0.15057374130138099 -0.1348661304149496 0 -0.15344328023174439 -0.1533306647458941 0 -0.1346947003736593 -0.13524742437105641 0 -0.1398081517814129 -0.16442802933311371 0 -0.1170227076456917 -0.14738468082655801 0 -0.1346947003736593 -0.13524742437105641 0 -0.13393669474227871 -0.161624132702233 0 -0.1346947003736593 -0.13524742437105641 0 -0.13393669474227871 -0.161624132702233 0 -0.1346947003736593 -0.13524742437105641 0 -0.13393669474227871 -0.161624132702233 0 -0.1398081517814129 -0.16442802933311371 0 -0.13393669474227871 -0.161624132702233 0 -0.1398081517814129 -0.16442802933311371 0 -0.13317868911089839 -0.18800084103340961 0 -0.1398081517814129 -0.16442802933311371 0 -0.13317868911089839 -0.18800084103340961 0 -0.144921603189165 -0.19360863429517131 0 -0.1229668705502686 -0.17764299287837629 0 -0.13393669474227871 -0.161624132702233 0 -0.13317868911089839 -0.18800084103340961 0 -0.13393669474227871 -0.161624132702233 0 -0.13317868911089839 -0.18800084103340961 0 -0.1398081517814129 -0.16442802933311371 0 -0.15706326528185 -0.17736319250812169 0 -0.144921603189165 -0.19360863429517131 0 -0.15706326528185 -0.17736319250812169 0 -0.144921603189165 -0.19360863429517131 0 -0.1398081517814129 -0.16442802933311371 0 -0.144921603189165 -0.19360863429517131 0 -0.15344328023174439 -0.1533306647458941 0 -0.1398081517814129 -0.16442802933311371 0 -0.15706326528185 -0.17736319250812169 0 -0.16920492737453641 -0.16111775072107309 0 -0.15706326528185 -0.17736319250812169 0 -0.15344328023174439 -0.1533306647458941 0 -0.16920492737453641 -0.16111775072107309 0 -0.15706326528185 -0.17736319250812169 0 -0.15706326528185 -0.17736319250812169 0 -0.17490913606282291 -0.1819091978765382 0 -0.16070830400919181 -0.19372081726520371 0 -0.16920492737453641 -0.16111775072107309 0 -0.15706326528185 -0.17736319250812169 0 -0.17490913606282291 -0.1819091978765382 0 -0.17490913606282291 -0.1819091978765382 0 -0.18327406973129351 -0.19131578313752351 0 -0.19135920561351341 -0.17433955488834749 0 -0.17490913606282291 -0.1819091978765382 0 -0.182144438597209 -0.16135451470351531 0 -0.19135920561351341 -0.17433955488834749 0 -0.16920492737453641 -0.16111775072107309 0 -0.17490913606282291 -0.1819091978765382 0 -0.182144438597209 -0.16135451470351531 0 -0.182144438597209 -0.16135451470351531 0 -0.1866929753492958 -0.14896526780774039 0 -0.19179481197159351 -0.1595449214275102 0 -0.16920492737453641 -0.16111775072107309 0 -0.18134658946722021 -0.1448723089340225 0 -0.16920492737453641 -0.16111775072107309 0 -0.182144438597209 -0.16135451470351531 0 -0.18134658946722021 -0.1448723089340225 0 -0.16920492737453641 -0.16111775072107309 0 -0.18134658946722021 -0.1448723089340225 0 -0.16583343816549259 -0.14614631808542419 0 -0.182144438597209 -0.16135451470351531 0 -0.1866929753492958 -0.14896526780774039 0 -0.18134658946722021 -0.1448723089340225 0 -0.1866929753492958 -0.14896526780774039 0 -0.18134658946722021 -0.1448723089340225 0 -0.18966165995565851 -0.1437208945276359 0 -0.18134658946722021 -0.1448723089340225 0 -0.1843914747167652 -0.14079827807300449 0 -0.18966165995565851 -0.1437208945276359 0 -0.18134658946722021 -0.1448723089340225 0 -0.1843914747167652 -0.14079827807300449 0 -0.1866929753492958 -0.14896526780774039 0 -0.18134658946722021 -0.1448723089340225 0 -0.18011991504525959 -0.13428014659808599 0 -0.16353030891812059 -0.1312329448517251 0 -0.18026544503748429 -0.12284446647832691 0 -0.18134658946722021 -0.1448723089340225 0 -0.16353030891812059 -0.1312329448517251 0 -0.18134658946722021 -0.1448723089340225 0 -0.18011991504525959 -0.13428014659808599 0 -0.16353030891812059 -0.1312329448517251 0 -0.1843914747167652 -0.14079827807300449 0 -0.18011991504525959 -0.13428014659808599 0 -0.19106575708670781 -0.13165273465335089 0 -0.18134658946722021 -0.1448723089340225 0 -0.1843914747167652 -0.14079827807300449 0 -0.18011991504525959 -0.13428014659808599 0 -0.18011991504525959 -0.13428014659808599 0 -0.19106575708670781 -0.13165273465335089 0 -0.18026544503748429 -0.12284446647832691 0 -0.15057374130138099 -0.1348661304149496 0 -0.16353030891812059 -0.1312329448517251 0 -0.16583343816549259 -0.14614631808542419 0 -0.15344328023174439 -0.1533306647458941 0 -0.16920492737453641 -0.16111775072107309 0 -0.16583343816549259 -0.14614631808542419 0 -0.15057374130138099 -0.1348661304149496 0 -0.15344328023174439 -0.1533306647458941 0 -0.16583343816549259 -0.14614631808542419 0 -0.18134658946722021 -0.1448723089340225 0 -0.16353030891812059 -0.1312329448517251 0 -0.16583343816549259 -0.14614631808542419 0 -0.1533738733674842 -0.24456282998601989 0 -0.14898470442372999 -0.23235829871012001 0 -0.16034112795132391 -0.23665618143705311 0 -0.14095758992927279 -0.24453912381761109 0 -0.13584360571775039 -0.23223422276300201 0 -0.14898470442372999 -0.23235829871012001 0 -0.1533738733674842 -0.24456282998601989 0 -0.14095758992927279 -0.24453912381761109 0 -0.14898470442372999 -0.23235829871012001 0 -0.15079485233452269 -0.25897635658865781 0 -0.1533738733674842 -0.24456282998601989 0 -0.14095758992927279 -0.24453912381761109 0 -0.13362675178396591 -0.25875165604669192 0 -0.14095758992927279 -0.24453912381761109 0 -0.128509398016278 -0.24056580828855359 0 -0.14095758992927279 -0.24453912381761109 0 -0.128509398016278 -0.24056580828855359 0 -0.13584360571775039 -0.23223422276300201 0 -0.13584360571775039 -0.23223422276300201 0 -0.1356640853400877 -0.22382548988487971 0 -0.1431183454176666 -0.2261798052996126 0 -0.12226152621943021 -0.22725697793187441 0 -0.128509398016278 -0.24056580828855359 0 -0.13584360571775039 -0.23223422276300201 0 -0.12226152621943021 -0.22725697793187441 0 -0.13584360571775039 -0.23223422276300201 0 -0.1356640853400877 -0.22382548988487971 0 -0.12226152621943021 -0.22725697793187441 0 -0.13234325268120689 -0.2170719483219995 0 -0.1324206834795176 -0.21437754936458631 0 -0.12226152621943021 -0.22725697793187441 0 -0.1356640853400877 -0.22382548988487971 0 -0.13234325268120689 -0.2170719483219995 0 -0.12226152621943021 -0.22725697793187441 0 -0.1324206834795176 -0.21437754936458631 0 -0.1356640853400877 -0.22382548988487971 0 -0.13600967558342739 -0.21851038647811891 0 -0.13234325268120689 -0.2170719483219995 0 -0.1356640853400877 -0.22382548988487971 0 -0.14042769370127489 -0.22129763133345981 0 -0.1431183454176666 -0.2261798052996126 0 -0.1356640853400877 -0.22382548988487971 0 -0.14042769370127489 -0.22129763133345981 0 -0.13600967558342739 -0.21851038647811891 0 -0.14601272267297299 -0.21958904681451011 0 -0.1431183454176666 -0.2261798052996126 0 -0.15125312995189821 -0.22245375953888061 0 -0.14042769370127489 -0.22129763133345981 0 -0.14601272267297299 -0.21958904681451011 0 -0.1391926627150494 -0.2159793134856694 0 -0.14042769370127489 -0.22129763133345981 0 -0.14601272267297299 -0.21958904681451011 0 -0.1431183454176666 -0.2261798052996126 0 -0.13584360571775039 -0.23223422276300201 0 -0.1431183454176666 -0.2261798052996126 0 -0.14898470442372999 -0.23235829871012001 0 -0.1431183454176666 -0.2261798052996126 0 -0.14898470442372999 -0.23235829871012001 0 -0.15125312995189821 -0.22245375953888061 0 -0.14898470442372999 -0.23235829871012001 0 -0.15125312995189821 -0.22245375953888061 0 -0.15990224472473921 -0.22591753027475711 0 -0.14601272267297299 -0.21958904681451011 0 -0.15125312995189821 -0.22245375953888061 0 -0.15111046133480771 -0.2135896079216727 0 -0.15125312995189821 -0.22245375953888061 0 -0.15111046133480771 -0.2135896079216727 0 -0.15839030113747241 -0.2170882682126109 0 -0.15111046133480771 -0.2135896079216727 0 -0.15891856899790199 -0.20737265827202631 0 -0.15839030113747241 -0.2170882682126109 0 -0.15111046133480771 -0.2135896079216727 0 -0.150437001027418 -0.2052591941121481 0 -0.15891856899790199 -0.20737265827202631 0 -0.15111046133480771 -0.2135896079216727 0 -0.150437001027418 -0.2052591941121481 0 -0.14623890441198159 -0.20991425269601471 0 -0.150437001027418 -0.2052591941121481 0 -0.15217717415594731 -0.19983110768133819 0 -0.15891856899790199 -0.20737265827202631 0 -0.150437001027418 -0.2052591941121481 0 -0.14623890441198159 -0.20991425269601471 0 -0.1439347106279443 -0.20465685738881001 0 -0.1439347106279443 -0.20465685738881001 0 -0.14112694509003421 -0.20968608510740261 0 -0.13844868628929041 -0.20226934267978511 0 -0.14623890441198159 -0.20991425269601471 0 -0.1439347106279443 -0.20465685738881001 0 -0.14112694509003421 -0.20968608510740261 0 -0.14623890441198159 -0.20991425269601471 0 -0.14112694509003421 -0.20968608510740261 0 -0.14434025848088039 -0.21434611063381451 0 -0.14112694509003421 -0.20968608510740261 0 -0.14434025848088039 -0.21434611063381451 0 -0.1391926627150494 -0.2159793134856694 0 -0.15111046133480771 -0.2135896079216727 0 -0.14623890441198159 -0.20991425269601471 0 -0.14434025848088039 -0.21434611063381451 0 -0.14601272267297299 -0.21958904681451011 0 -0.15111046133480771 -0.2135896079216727 0 -0.14434025848088039 -0.21434611063381451 0 -0.14601272267297299 -0.21958904681451011 0 -0.14434025848088039 -0.21434611063381451 0 -0.1391926627150494 -0.2159793134856694 0 -0.14042769370127489 -0.22129763133345981 0 -0.1391926627150494 -0.2159793134856694 0 -0.13600967558342739 -0.21851038647811891 0 -0.13511777611775461 -0.21095826850454691 0 -0.1324206834795176 -0.21437754936458631 0 -0.13317868911089839 -0.18800084103340961 0 -0.14112694509003421 -0.20968608510740261 0 -0.1391926627150494 -0.2159793134856694 0 -0.13511777611775461 -0.21095826850454691 0 -0.1391926627150494 -0.2159793134856694 0 -0.13511777611775461 -0.21095826850454691 0 -0.1324206834795176 -0.21437754936458631 0 -0.13511777611775461 -0.21095826850454691 0 -0.1324206834795176 -0.21437754936458631 0 -0.13600967558342739 -0.21851038647811891 0 -0.13234325268120689 -0.2170719483219995 0 -0.1324206834795176 -0.21437754936458631 0 -0.1391926627150494 -0.2159793134856694 0 -0.13600967558342739 -0.21851038647811891 0 -0.1324206834795176 -0.21437754936458631 0 -0.13234325268120689 -0.2170719483219995 0 -0.1324206834795176 -0.21437754936458631 0 -0.14112694509003421 -0.20968608510740261 0 -0.13511777611775461 -0.21095826850454691 0 -0.13844868628929041 -0.20226934267978511 0 -0.13511777611775461 -0.21095826850454691 0 -0.13844868628929041 -0.20226934267978511 0 -0.13317868911089839 -0.18800084103340961 0 -0.12135527920018969 -0.19711413213061271 0 -0.1324206834795176 -0.21437754936458631 0 -0.13317868911089839 -0.18800084103340961 0 -0.1324206834795176 -0.21437754936458631 0 -0.13317868911089839 -0.18800084103340961 0 -0.12135527920018969 -0.19711413213061271 0 -0.1229668705502686 -0.17764299287837629 0 -0.13317868911089839 -0.18800084103340961 0 -0.13844868628929041 -0.20226934267978511 0 -0.13317868911089839 -0.18800084103340961 0 -0.144921603189165 -0.19360863429517131 0 -0.144921603189165 -0.19360863429517131 0 -0.15217717415594731 -0.19983110768133819 0 -0.16070830400919181 -0.19372081726520371 0 -0.15706326528185 -0.17736319250812169 0 -0.144921603189165 -0.19360863429517131 0 -0.16070830400919181 -0.19372081726520371 0 -0.13844868628929041 -0.20226934267978511 0 -0.144921603189165 -0.19360863429517131 0 -0.14590039355605819 -0.19919423446214149 0 -0.13844868628929041 -0.20226934267978511 0 -0.144921603189165 -0.19360863429517131 0 -0.1439347106279443 -0.20465685738881001 0 -0.13844868628929041 -0.20226934267978511 0 -0.14590039355605819 -0.19919423446214149 0 -0.150437001027418 -0.2052591941121481 0 -0.1439347106279443 -0.20465685738881001 0 -0.14590039355605819 -0.19919423446214149 0 -0.144921603189165 -0.19360863429517131 0 -0.14590039355605819 -0.19919423446214149 0 -0.144921603189165 -0.19360863429517131 0 -0.14590039355605819 -0.19919423446214149 0 -0.15217717415594731 -0.19983110768133819 0 -0.150437001027418 -0.2052591941121481 0 -0.14590039355605819 -0.19919423446214149 0 -0.15217717415594731 -0.19983110768133819 0 -0.17490913606282291 -0.1819091978765382 0 -0.16070830400919181 -0.19372081726520371 0 -0.17579375002826489 -0.2001618023420926 0 -0.16070830400919181 -0.19372081726520371 0 -0.16811748771439339 -0.20664710457372759 0 -0.15891856899790199 -0.20737265827202631 0 -0.15217717415594731 -0.19983110768133819 0 -0.16070830400919181 -0.19372081726520371 0 -0.15891856899790199 -0.20737265827202631 0 -0.16070830400919181 -0.19372081726520371 0 -0.17579375002826489 -0.2001618023420926 0 -0.16811748771439339 -0.20664710457372759 0 -0.18327406973129351 -0.19131578313752351 0 -0.17579375002826489 -0.2001618023420926 0 -0.18770935979252601 -0.20756145755911001 0 -0.17490913606282291 -0.1819091978765382 0 -0.18327406973129351 -0.19131578313752351 0 -0.17579375002826489 -0.2001618023420926 0 -0.17579375002826489 -0.2001618023420926 0 -0.17592089995422819 -0.21041185406726151 0 -0.16811748771439339 -0.20664710457372759 0 -0.17579375002826489 -0.2001618023420926 0 -0.17592089995422819 -0.21041185406726151 0 -0.18770935979252601 -0.20756145755911001 0 -0.18030559817870029 -0.22057094717619369 0 -0.19069099713063101 -0.22072323088886031 0 -0.18770935979252601 -0.20756145755911001 0 -0.17592089995422819 -0.21041185406726151 0 -0.18030559817870029 -0.22057094717619369 0 -0.18770935979252601 -0.20756145755911001 0 -0.17592089995422819 -0.21041185406726151 0 -0.16767830405725631 -0.21711795868518349 0 -0.18030559817870029 -0.22057094717619369 0 -0.17592089995422819 -0.21041185406726151 0 -0.16767830405725631 -0.21711795868518349 0 -0.16811748771439339 -0.20664710457372759 0 -0.16767830405725631 -0.21711795868518349 0 -0.16811748771439339 -0.20664710457372759 0 -0.15891856899790199 -0.20737265827202631 0 -0.16767830405725631 -0.21711795868518349 0 -0.15891856899790199 -0.20737265827202631 0 -0.15839030113747241 -0.2170882682126109 0 -0.15125312995189821 -0.22245375953888061 0 -0.15839030113747241 -0.2170882682126109 0 -0.15990224472473921 -0.22591753027475711 0 -0.16767830405725631 -0.21711795868518349 0 -0.15839030113747241 -0.2170882682126109 0 -0.15990224472473921 -0.22591753027475711 0 -0.14898470442372999 -0.23235829871012001 0 -0.15990224472473921 -0.22591753027475711 0 -0.16034112795132391 -0.23665618143705311 0 -0.15990224472473921 -0.22591753027475711 0 -0.17172249324461 -0.23215152162773359 0 -0.16034112795132391 -0.23665618143705311 0 -0.16767830405725631 -0.21711795868518349 0 -0.15990224472473921 -0.22591753027475711 0 -0.17172249324461 -0.23215152162773359 0 -0.16767830405725631 -0.21711795868518349 0 -0.17172249324461 -0.23215152162773359 0 -0.18030559817870029 -0.22057094717619369 0 -0.18030559817870029 -0.22057094717619369 0 -0.1842457802472266 -0.2303440080282905 0 -0.19069099713063101 -0.22072323088886031 0 -0.17172249324461 -0.23215152162773359 0 -0.18030559817870029 -0.22057094717619369 0 -0.1842457802472266 -0.2303440080282905 0 -0.16740625420125729 -0.25150541185997699 0 -0.17172249324461 -0.23215152162773359 0 -0.1816914759277479 -0.2425430722460537 0 -0.17172249324461 -0.23215152162773359 0 -0.1842457802472266 -0.2303440080282905 0 -0.1816914759277479 -0.2425430722460537 0 -0.1842457802472266 -0.2303440080282905 0 -0.1816914759277479 -0.2425430722460537 0 -0.19597669765423939 -0.2335807326321318 0 -0.16740625420125729 -0.25150541185997699 0 -0.1780692970490331 -0.25280230079069899 0 -0.1816914759277479 -0.2425430722460537 0 -0.16740625420125729 -0.25150541185997699 0 -0.1816914759277479 -0.2425430722460537 0 -0.16740625420125729 -0.25150541185997699 0 -0.17172249324461 -0.23215152162773359 0 -0.16034112795132391 -0.23665618143705311 0 -0.16740625420125729 -0.25150541185997699 0 -0.1533738733674842 -0.24456282998601989 0 -0.16034112795132391 -0.23665618143705311 0 -0.213906627972692 -0.25979180294998538 0 -0.21111098704634379 -0.23899428896402469 0 -0.22441584723821559 -0.24466846318819871 0 -0.18578127563206531 -0.26027945198664137 0 -0.19597669765423939 -0.2335807326321318 0 -0.19924082634182641 -0.2516805601160656 0 -0.21111098704634379 -0.23899428896402469 0 -0.19597669765423939 -0.2335807326321318 0 -0.18578127563206531 -0.26027945198664137 0 -0.1816914759277479 -0.2425430722460537 0 -0.19597669765423939 -0.2335807326321318 0 -0.19924082634182641 -0.2516805601160656 0 -0.18578127563206531 -0.26027945198664137 0 -0.19597669765423939 -0.2335807326321318 0 -0.1816914759277479 -0.2425430722460537 0 -0.19597669765423939 -0.2335807326321318 0 -0.19597669765423939 -0.2335807326321318 0 -0.20479673023036071 -0.21048374126333561 0 -0.19597669765423939 -0.2335807326321318 0 -0.19069099713063101 -0.22072323088886031 0 -0.20479673023036071 -0.21048374126333561 0 -0.1842457802472266 -0.2303440080282905 0 -0.19597669765423939 -0.2335807326321318 0 -0.19069099713063101 -0.22072323088886031 0 -0.21111098704634379 -0.23899428896402469 0 -0.21282198802974731 -0.22301224331281549 0 -0.22153630120409529 -0.23202778833982951 0 -0.19597669765423939 -0.2335807326321318 0 -0.21282198802974731 -0.22301224331281549 0 -0.21111098704634379 -0.23899428896402469 0 -0.19597669765423939 -0.2335807326321318 0 -0.21282198802974731 -0.22301224331281549 0 -0.19597669765423939 -0.2335807326321318 0 -0.21282198802974731 -0.22301224331281549 0 -0.20479673023036071 -0.21048374126333561 0 -0.21282198802974731 -0.22301224331281549 0 -0.21625859484723831 -0.2121538474208855 0 -0.20479673023036071 -0.21048374126333561 0 -0.21625859484723831 -0.2121538474208855 0 -0.20479673023036071 -0.21048374126333561 0 -0.21774838272358951 -0.20267565111389069 0 -0.20479673023036071 -0.21048374126333561 0 -0.18770935979252601 -0.20756145755911001 0 -0.19627669918309609 -0.19322789449623651 0 -0.19069099713063101 -0.22072323088886031 0 -0.20479673023036071 -0.21048374126333561 0 -0.18770935979252601 -0.20756145755911001 0 -0.18327406973129351 -0.19131578313752351 0 -0.18770935979252601 -0.20756145755911001 0 -0.19627669918309609 -0.19322789449623651 0 -0.20479673023036071 -0.21048374126333561 0 -0.21774838272358951 -0.20267565111389069 0 -0.21361676280648001 -0.18738674989453871 0 -0.19627669918309609 -0.19322789449623651 0 -0.201914947323932 -0.18228289768421199 0 -0.21361676280648001 -0.18738674989453871 0 -0.20479673023036071 -0.21048374126333561 0 -0.19627669918309609 -0.19322789449623651 0 -0.21361676280648001 -0.18738674989453871 0 -0.20479673023036071 -0.21048374126333561 0 -0.21361676280648001 -0.18738674989453871 0 -0.21774838272358951 -0.20267565111389069 0 -0.22507752885757959 -0.19065533467752879 0 -0.229667278405256 -0.21244375399350049 0 -0.22507752885757959 -0.19065533467752879 0 -0.229667278405256 -0.21244375399350049 0 -0.22507752885757959 -0.19065533467752879 0 -0.23787414091418629 -0.1944181413604697 0 -0.229667278405256 -0.21244375399350049 0 -0.21774838272358951 -0.20267565111389069 0 -0.22507752885757959 -0.19065533467752879 0 -0.21361676280648001 -0.18738674989453871 0 -0.22507752885757959 -0.19065533467752879 0 -0.23787414091418629 -0.1944181413604697 0 -0.2426818939050584 -0.17743954786805319 0 -0.23787414091418629 -0.1944181413604697 0 -0.2426818939050584 -0.17743954786805319 0 -0.25406986248885111 -0.19713392890279641 0 -0.23787414091418629 -0.1944181413604697 0 -0.229667278405256 -0.21244375399350049 0 -0.25406986248885111 -0.19713392890279641 0 -0.229667278405256 -0.21244375399350049 0 -0.24639934416944459 -0.22034903935041281 0 -0.25406986248885111 -0.19713392890279641 0 -0.229667278405256 -0.21244375399350049 0 -0.25406986248885111 -0.19713392890279641 0 -0.21282198802974731 -0.22301224331281549 0 -0.21625859484723831 -0.2121538474208855 0 -0.229667278405256 -0.21244375399350049 0 -0.21282198802974731 -0.22301224331281549 0 -0.229667278405256 -0.21244375399350049 0 -0.21625859484723831 -0.2121538474208855 0 -0.21774838272358951 -0.20267565111389069 0 -0.229667278405256 -0.21244375399350049 0 -0.229667278405256 -0.21244375399350049 0 -0.23402599547342379 -0.2331354179229633 0 -0.21282198802974731 -0.22301224331281549 0 -0.229667278405256 -0.21244375399350049 0 -0.22153630120409529 -0.23202778833982951 0 -0.229667278405256 -0.21244375399350049 0 -0.22153630120409529 -0.23202778833982951 0 -0.23402599547342379 -0.2331354179229633 0 -0.229667278405256 -0.21244375399350049 0 -0.23402599547342379 -0.2331354179229633 0 -0.24639934416944459 -0.22034903935041281 0 -0.23402599547342379 -0.2331354179229633 0 -0.24639934416944459 -0.22034903935041281 0 -0.25191387712191438 -0.23736603208229759 0 -0.24150804688605401 -0.25306600031409049 0 -0.24951370693373881 -0.25111521330492559 0 -0.25191387712191438 -0.23736603208229759 0 -0.23838471254159249 -0.25382708185242608 0 -0.23402599547342379 -0.2331354179229633 0 -0.24150804688605401 -0.25306600031409049 0 -0.25191387712191438 -0.23736603208229759 0 -0.24150804688605401 -0.25306600031409049 0 -0.23402599547342379 -0.2331354179229633 0 -0.25191387712191438 -0.23736603208229759 0 -0.23838471254159249 -0.25382708185242608 0 -0.24150804688605401 -0.25306600031409049 0 -0.23402599547342379 -0.2331354179229633 0 -0.23838471254159249 -0.25382708185242608 0 -0.23402599547342379 -0.2331354179229633 0 -0.22441584723821559 -0.24466846318819871 0 -0.22153630120409529 -0.23202778833982951 0 -0.23402599547342379 -0.2331354179229633 0 -0.22441584723821559 -0.24466846318819871 0 -0.21111098704634379 -0.23899428896402469 0 -0.22153630120409529 -0.23202778833982951 0 -0.22441584723821559 -0.24466846318819871 0 -0.215898029762227 -0.1470784960455854 0 -0.2022725025562469 -0.13326390366231811 0 -0.19724939711819239 -0.14177955732435299 0 -0.215898029762227 -0.1470784960455854 0 -0.19592824043736681 -0.1517093425428333 0 -0.2028491998605825 -0.16135592719511441 0 -0.215898029762227 -0.1470784960455854 0 -0.21503366713488301 -0.131787999840209 0 -0.2022725025562469 -0.13326390366231811 0 -0.21503366713488301 -0.131787999840209 0 -0.21143668145900699 -0.119455631554162 0 -0.2022999588710919 -0.1242177147351796 0 -0.21503366713488301 -0.131787999840209 0 -0.2022725025562469 -0.13326390366231811 0 -0.2022999588710919 -0.1242177147351796 0 -0.2022725025562469 -0.13326390366231811 0 -0.19106575708670781 -0.13165273465335089 0 -0.19724939711819239 -0.14177955732435299 0 -0.2022725025562469 -0.13326390366231811 0 -0.19106575708670781 -0.13165273465335089 0 -0.2022999588710919 -0.1242177147351796 0 -0.19106575708670781 -0.13165273465335089 0 -0.18966165995565851 -0.1437208945276359 0 -0.19724939711819239 -0.14177955732435299 0 -0.1843914747167652 -0.14079827807300449 0 -0.19106575708670781 -0.13165273465335089 0 -0.18966165995565851 -0.1437208945276359 0 -0.215898029762227 -0.1470784960455854 0 -0.19724939711819239 -0.14177955732435299 0 -0.19592824043736681 -0.1517093425428333 0 -0.1866929753492958 -0.14896526780774039 0 -0.18966165995565851 -0.1437208945276359 0 -0.19592824043736681 -0.1517093425428333 0 -0.18966165995565851 -0.1437208945276359 0 -0.19724939711819239 -0.14177955732435299 0 -0.19592824043736681 -0.1517093425428333 0 -0.1866929753492958 -0.14896526780774039 0 -0.19592824043736681 -0.1517093425428333 0 -0.19179481197159351 -0.1595449214275102 0 -0.182144438597209 -0.16135451470351531 0 -0.19179481197159351 -0.1595449214275102 0 -0.19135920561351341 -0.17433955488834749 0 -0.2028491998605825 -0.16135592719511441 0 -0.19135920561351341 -0.17433955488834749 0 -0.20640712169263831 -0.17417739145772521 0 -0.19179481197159351 -0.1595449214275102 0 -0.2028491998605825 -0.16135592719511441 0 -0.19135920561351341 -0.17433955488834749 0 -0.19592824043736681 -0.1517093425428333 0 -0.19179481197159351 -0.1595449214275102 0 -0.2028491998605825 -0.16135592719511441 0 -0.19627669918309609 -0.19322789449623651 0 -0.19135920561351341 -0.17433955488834749 0 -0.201914947323932 -0.18228289768421199 0 -0.18327406973129351 -0.19131578313752351 0 -0.19627669918309609 -0.19322789449623651 0 -0.19135920561351341 -0.17433955488834749 0 -0.19135920561351341 -0.17433955488834749 0 -0.201914947323932 -0.18228289768421199 0 -0.20640712169263831 -0.17417739145772521 0 -0.20640712169263831 -0.17417739145772521 0 -0.21361676280648001 -0.18738674989453871 0 -0.22048777930990329 -0.16886691536155701 0 -0.201914947323932 -0.18228289768421199 0 -0.20640712169263831 -0.17417739145772521 0 -0.21361676280648001 -0.18738674989453871 0 -0.215898029762227 -0.1470784960455854 0 -0.2028491998605825 -0.16135592719511441 0 -0.22048777930990329 -0.16886691536155701 0 -0.2028491998605825 -0.16135592719511441 0 -0.20640712169263831 -0.17417739145772521 0 -0.22048777930990329 -0.16886691536155701 0 -0.215898029762227 -0.1470784960455854 0 -0.22048777930990329 -0.16886691536155701 0 -0.215898029762227 -0.1470784960455854 0 -0.22048777930990329 -0.16886691536155701 0 -0.2360518224707594 -0.1569207299701243 0 -0.22048777930990329 -0.16886691536155701 0 -0.2426818939050584 -0.17743954786805319 0 -0.2360518224707594 -0.1569207299701243 0 -0.22507752885757959 -0.19065533467752879 0 -0.21361676280648001 -0.18738674989453871 0 -0.22048777930990329 -0.16886691536155701 0 -0.22507752885757959 -0.19065533467752879 0 -0.22048777930990329 -0.16886691536155701 0 -0.22507752885757959 -0.19065533467752879 0 -0.22048777930990329 -0.16886691536155701 0 -0.2426818939050584 -0.17743954786805319 0 -0.2426818939050584 -0.17743954786805319 0 -0.2360518224707594 -0.1569207299701243 0 -0.25496577270936083 -0.15765617205481219 0 -0.2360518224707594 -0.1569207299701243 0 -0.24656022456848539 -0.14215814440695279 0 -0.25496577270936083 -0.15765617205481219 0 -0.2360518224707594 -0.1569207299701243 0 -0.24656022456848539 -0.14215814440695279 0 -0.23135225863240691 -0.1417880268425023 0 -0.215898029762227 -0.1470784960455854 0 -0.2360518224707594 -0.1569207299701243 0 -0.23135225863240691 -0.1417880268425023 0 -0.215898029762227 -0.1470784960455854 0 -0.21503366713488301 -0.131787999840209 0 -0.23135225863240691 -0.1417880268425023 0 -0.21503366713488301 -0.131787999840209 0 -0.23135225863240691 -0.1417880268425023 0 -0.22743114708757459 -0.1303508871648936 0 -0.21503366713488301 -0.131787999840209 0 -0.22743114708757459 -0.1303508871648936 0 -0.22477199512943949 -0.1203785187368247 0 -0.23135225863240691 -0.1417880268425023 0 -0.22743114708757459 -0.1303508871648936 0 -0.2384209405572045 -0.13023788311179499 0 -0.22743114708757459 -0.1303508871648936 0 -0.2384209405572045 -0.13023788311179499 0 -0.22477199512943949 -0.1203785187368247 0 -0.24656022456848539 -0.14215814440695279 0 -0.23135225863240691 -0.1417880268425023 0 -0.2384209405572045 -0.13023788311179499 0 -0.24656022456848539 -0.14215814440695279 0 -0.2384209405572045 -0.13023788311179499 0 -0.25270849986012589 -0.13205252124913441 0 -0.2384209405572045 -0.13023788311179499 0 -0.2467354927537497 -0.1176809491985347 0 -0.25270849986012589 -0.13205252124913441 0 -0.2384209405572045 -0.13023788311179499 0 -0.2467354927537497 -0.1176809491985347 0 -0.22477199512943949 -0.1203785187368247 0 -0.2467354927537497 -0.1176809491985347 0 -0.22217026291591191 -0.1068286452675353 0 -0.2467354927537497 -0.1176809491985347 0 -0.24053208064119391 -0.10247476166639161 0 -0.22217026291591191 -0.1068286452675353 0 -0.24053208064119391 -0.10247476166639161 0 -0.22217026291591191 -0.1068286452675353 0 -0.2159494956187524 -0.094949891392371311 0 -0.24053208064119391 -0.10247476166639161 0 -0.2313398260200506 -0.088588250014252926 0 -0.2159494956187524 -0.094949891392371311 0 -0.24053208064119391 -0.10247476166639161 0 -0.2159494956187524 -0.094949891392371311 0 -0.22217026291591191 -0.1068286452675353 0 -0.22477199512943949 -0.1203785187368247 0 -0.21025888285284969 -0.1075789041496833 0 -0.2467354927537497 -0.1176809491985347 0 -0.22217026291591191 -0.1068286452675353 0 -0.22477199512943949 -0.1203785187368247 0 -0.24888002638929119 -0.074485521188584425 0 -0.235030123744635 -0.075245258580541513 0 -0.2414372807485986 -0.059127940098452028 0 -0.24053208064119391 -0.10247476166639161 0 -0.24342874465170189 -0.086374018590709603 0 -0.2313398260200506 -0.088588250014252926 0 -0.24053208064119391 -0.10247476166639161 0 -0.24342874465170189 -0.086374018590709603 0 -0.26000364850348923 -0.089370121506313419 0 -0.235030123744635 -0.075245258580541513 0 -0.24342874465170189 -0.086374018590709603 0 -0.2313398260200506 -0.088588250014252926 0 -0.24888002638929119 -0.074485521188584425 0 -0.235030123744635 -0.075245258580541513 0 -0.24342874465170189 -0.086374018590709603 0 -0.2313398260200506 -0.088588250014252926 0 -0.22012829731750949 -0.079340490718469658 0 -0.2159494956187524 -0.094949891392371311 0 -0.235030123744635 -0.075245258580541513 0 -0.2313398260200506 -0.088588250014252926 0 -0.22012829731750949 -0.079340490718469658 0 -0.235030123744635 -0.075245258580541513 0 -0.22012829731750949 -0.079340490718469658 0 -0.22264674586250241 -0.061336028799205418 0 -0.235030123744635 -0.075245258580541513 0 -0.22264674586250241 -0.061336028799205418 0 -0.2414372807485986 -0.059127940098452028 0 -0.22012829731750949 -0.079340490718469658 0 -0.20900784546431189 -0.070512049193862267 0 -0.22264674586250241 -0.061336028799205418 0 -0.22012829731750949 -0.079340490718469658 0 -0.20900784546431189 -0.070512049193862267 0 -0.20674016474749671 -0.081191149836560506 0 -0.20900784546431189 -0.070512049193862267 0 -0.20674016474749671 -0.081191149836560506 0 -0.19724827474059889 -0.07372829675974818 0 -0.20674016474749671 -0.081191149836560506 0 -0.19136691059631089 -0.087425021118351084 0 -0.2159494956187524 -0.094949891392371311 0 -0.19136691059631089 -0.087425021118351084 0 -0.2159494956187524 -0.094949891392371311 0 -0.22012829731750949 -0.079340490718469658 0 -0.20674016474749671 -0.081191149836560506 0 -0.2159494956187524 -0.094949891392371311 0 -0.20674016474749671 -0.081191149836560506 0 -0.19136691059631089 -0.087425021118351084 0 -0.19724827474059889 -0.07372829675974818 0 -0.20900784546431189 -0.070512049193862267 0 -0.19724827474059889 -0.07372829675974818 0 -0.20012233949012539 -0.050924987909149497 0 -0.19724827474059889 -0.07372829675974818 0 -0.1819862357830889 -0.073147852195907415 0 -0.20012233949012539 -0.050924987909149497 0 -0.19136691059631089 -0.087425021118351084 0 -0.19724827474059889 -0.07372829675974818 0 -0.1819862357830889 -0.073147852195907415 0 -0.21143668145900699 -0.119455631554162 0 -0.21025888285284969 -0.1075789041496833 0 -0.1954465411137464 -0.1151006384068025 0 -0.21503366713488301 -0.131787999840209 0 -0.22477199512943949 -0.1203785187368247 0 -0.21143668145900699 -0.119455631554162 0 -0.22477199512943949 -0.1203785187368247 0 -0.21143668145900699 -0.119455631554162 0 -0.21025888285284969 -0.1075789041496833 0 -0.2159494956187524 -0.094949891392371311 0 -0.21025888285284969 -0.1075789041496833 0 -0.19948523719538341 -0.1015288627434853 0 -0.22217026291591191 -0.1068286452675353 0 -0.2159494956187524 -0.094949891392371311 0 -0.21025888285284969 -0.1075789041496833 0 -0.21025888285284969 -0.1075789041496833 0 -0.19948523719538341 -0.1015288627434853 0 -0.1954465411137464 -0.1151006384068025 0 -0.19136691059631089 -0.087425021118351084 0 -0.2159494956187524 -0.094949891392371311 0 -0.19948523719538341 -0.1015288627434853 0 -0.19136691059631089 -0.087425021118351084 0 -0.19948523719538341 -0.1015288627434853 0 -0.18440435579525741 -0.1025898586502185 0 -0.19948523719538341 -0.1015288627434853 0 -0.1954465411137464 -0.1151006384068025 0 -0.18440435579525741 -0.1025898586502185 0 -0.19106575708670781 -0.13165273465335089 0 -0.1954465411137464 -0.1151006384068025 0 -0.2022999588710919 -0.1242177147351796 0 -0.1954465411137464 -0.1151006384068025 0 -0.1845112059790974 -0.1136239329859029 0 -0.18440435579525741 -0.1025898586502185 0 -0.19106575708670781 -0.13165273465335089 0 -0.1954465411137464 -0.1151006384068025 0 -0.18026544503748429 -0.12284446647832691 0 -0.21143668145900699 -0.119455631554162 0 -0.1954465411137464 -0.1151006384068025 0 -0.2022999588710919 -0.1242177147351796 0 -0.1954465411137464 -0.1151006384068025 0 -0.18026544503748429 -0.12284446647832691 0 -0.1845112059790974 -0.1136239329859029 0 -0.1845112059790974 -0.1136239329859029 0 -0.17037924602917209 -0.11387591670304439 0 -0.18440435579525741 -0.1025898586502185 0 -0.18026544503748429 -0.12284446647832691 0 -0.1845112059790974 -0.1136239329859029 0 -0.17037924602917209 -0.11387591670304439 0 -0.16353030891812059 -0.1312329448517251 0 -0.18026544503748429 -0.12284446647832691 0 -0.17037924602917209 -0.11387591670304439 0 -0.16353030891812059 -0.1312329448517251 0 -0.17037924602917209 -0.11387591670304439 0 -0.14571402836902131 -0.11759358076942771 0 -0.17037924602917209 -0.11387591670304439 0 -0.1638501320760524 -0.095370716482665346 0 -0.14571402836902131 -0.11759358076942771 0 -0.19136691059631089 -0.087425021118351084 0 -0.1638501320760524 -0.095370716482665346 0 -0.18440435579525741 -0.1025898586502185 0 -0.17037924602917209 -0.11387591670304439 0 -0.1638501320760524 -0.095370716482665346 0 -0.18440435579525741 -0.1025898586502185 0 -0.19136691059631089 -0.087425021118351084 0 -0.1638501320760524 -0.095370716482665346 0 -0.1819862357830889 -0.073147852195907415 0 -0.1638501320760524 -0.095370716482665346 0 -0.1819862357830889 -0.073147852195907415 0 -0.1819862357830889 -0.073147852195907415 0 -0.16190254469567189 -0.072643189873430644 0 -0.18109868320631431 -0.054521767797922872 0 -0.1638501320760524 -0.095370716482665346 0 -0.1819862357830889 -0.073147852195907415 0 -0.16190254469567189 -0.072643189873430644 0 -0.1638501320760524 -0.095370716482665346 0 -0.16190254469567189 -0.072643189873430644 0 -0.14644661048561419 -0.086733128046345587 0 -0.16190254469567189 -0.072643189873430644 0 -0.14644661048561419 -0.086733128046345587 0 -0.13978550443159191 -0.067857218025003593 0 -0.16190254469567189 -0.072643189873430644 0 -0.13978550443159191 -0.067857218025003593 0 -0.1617855604759868 -0.051938826474432181 0 -0.1200022000670774 -0.0744369922820554 0 -0.13978550443159191 -0.067857218025003593 0 -0.13328384436359619 -0.086243925190850584 0 -0.14644661048561419 -0.086733128046345587 0 -0.13978550443159191 -0.067857218025003593 0 -0.13328384436359619 -0.086243925190850584 0 -0.1242469030499448 -0.091954025595064687 0 -0.1200022000670774 -0.0744369922820554 0 -0.13328384436359619 -0.086243925190850584 0 -0.13328384436359619 -0.086243925190850584 0 -0.13021561007676369 -0.095507206141619852 0 -0.13538098229742049 -0.097200452878033819 0 -0.14644661048561419 -0.086733128046345587 0 -0.13328384436359619 -0.086243925190850584 0 -0.13538098229742049 -0.097200452878033819 0 -0.1242469030499448 -0.091954025595064687 0 -0.13328384436359619 -0.086243925190850584 0 -0.13021561007676369 -0.095507206141619852 0 -0.12941452670248091 -0.1051153961687054 0 -0.14571402836902131 -0.11759358076942771 0 -0.1444766550493522 -0.1010832658280896 0 -0.13021561007676369 -0.095507206141619852 0 -0.13538098229742049 -0.097200452878033819 0 -0.12941452670248091 -0.1051153961687054 0 -0.1242469030499448 -0.091954025595064687 0 -0.13021561007676369 -0.095507206141619852 0 -0.12941452670248091 -0.1051153961687054 0 -0.13538098229742049 -0.097200452878033819 0 -0.12941452670248091 -0.1051153961687054 0 -0.1444766550493522 -0.1010832658280896 0 -0.12941452670248091 -0.1051153961687054 0 -0.13205461353806941 -0.12018141026988099 0 -0.12941452670248091 -0.1051153961687054 0 -0.13205461353806941 -0.12018141026988099 0 -0.14571402836902131 -0.11759358076942771 0 -0.12941452670248091 -0.1051153961687054 0 -0.14571402836902131 -0.11759358076942771 0 -0.11540526837687171 -0.1154874301373815 0 -0.12941452670248091 -0.1051153961687054 0 -0.13205461353806941 -0.12018141026988099 0 -0.13944766982355439 -0.12527199051924881 0 -0.13205461353806941 -0.12018141026988099 0 -0.14571402836902131 -0.11759358076942771 0 -0.1349564972342164 -0.1261375455692765 0 -0.13944766982355439 -0.12527199051924881 0 -0.13205461353806941 -0.12018141026988099 0 -0.16353030891812059 -0.1312329448517251 0 -0.14571402836902131 -0.11759358076942771 0 -0.13944766982355439 -0.12527199051924881 0 -0.14571402836902131 -0.11759358076942771 0 -0.1638501320760524 -0.095370716482665346 0 -0.14571402836902131 -0.11759358076942771 0 -0.1638501320760524 -0.095370716482665346 0 -0.14571402836902131 -0.11759358076942771 0 -0.1444766550493522 -0.1010832658280896 0 -0.1638501320760524 -0.095370716482665346 0 -0.14644661048561419 -0.086733128046345587 0 -0.1444766550493522 -0.1010832658280896 0 -0.14644661048561419 -0.086733128046345587 0 -0.13538098229742049 -0.097200452878033819 0 -0.1444766550493522 -0.1010832658280896 0 -0.14021991755128291 -0.0037810170104977821 0 -0.1303090768464959 -0.024760112000338539 0 -0.15809923867586739 -0.025150512022512981 0 -0.14021991755128291 -0.0037810170104977821 0 -0.15648956439896139 -0.0050560779717764076 0 -0.15191854340496841 0.0056857037463043901 0 -0.14021991755128291 -0.0037810170104977821 0 -0.15809923867586739 -0.025150512022512981 0 -0.15648956439896139 -0.0050560779717764076 0 -0.1238376520846925 -0.003178898693025302 0 -0.14021991755128291 -0.0037810170104977821 0 -0.1303090768464959 -0.024760112000338539 0 -0.1150016942000025 -0.049774801446042329 0 -0.1303090768464959 -0.024760112000338539 0 -0.14146551571031421 -0.04492474213186895 0 -0.1150016942000025 -0.049774801446042329 0 -0.13978550443159191 -0.067857218025003593 0 -0.14146551571031421 -0.04492474213186895 0 -0.13978550443159191 -0.067857218025003593 0 -0.14146551571031421 -0.04492474213186895 0 -0.1617855604759868 -0.051938826474432181 0 -0.14146551571031421 -0.04492474213186895 0 -0.1617855604759868 -0.051938826474432181 0 -0.15809923867586739 -0.025150512022512981 0 -0.1303090768464959 -0.024760112000338539 0 -0.14146551571031421 -0.04492474213186895 0 -0.15809923867586739 -0.025150512022512981 0 -0.1617855604759868 -0.051938826474432181 0 -0.18175373135561629 -0.037429849671306921 0 -0.15809923867586739 -0.025150512022512981 0 -0.16190254469567189 -0.072643189873430644 0 -0.1617855604759868 -0.051938826474432181 0 -0.18109868320631431 -0.054521767797922872 0 -0.1617855604759868 -0.051938826474432181 0 -0.18109868320631431 -0.054521767797922872 0 -0.18175373135561629 -0.037429849671306921 0 -0.18175373135561629 -0.037429849671306921 0 -0.18700166108339511 -0.018458586884699129 0 -0.15809923867586739 -0.025150512022512981 0 -0.18700166108339511 -0.018458586884699129 0 -0.15809923867586739 -0.025150512022512981 0 -0.17015275754722531 -0.0084966019410974564 0 -0.15809923867586739 -0.025150512022512981 0 -0.15648956439896139 -0.0050560779717764076 0 -0.17015275754722531 -0.0084966019410974564 0 -0.15648956439896139 -0.0050560779717764076 0 -0.17015275754722531 -0.0084966019410974564 0 -0.16661461818764309 0.0064834708418648503 0 -0.18700166108339511 -0.018458586884699129 0 -0.17015275754722531 -0.0084966019410974564 0 -0.18255870539025951 -0.00030130366836361722 0 -0.17015275754722531 -0.0084966019410974564 0 -0.18255870539025951 -0.00030130366836361722 0 -0.16661461818764309 0.0064834708418648503 0 -0.18700166108339511 -0.018458586884699129 0 -0.20136602200140599 -0.0030079861901145229 0 -0.202414905202009 -0.0235844169391249 0 -0.18700166108339511 -0.018458586884699129 0 -0.18255870539025951 -0.00030130366836361722 0 -0.20136602200140599 -0.0030079861901145229 0 -0.18175373135561629 -0.037429849671306921 0 -0.18700166108339511 -0.018458586884699129 0 -0.202414905202009 -0.0235844169391249 0 -0.202414905202009 -0.0235844169391249 0 -0.2178658399941947 -0.029047474649792088 0 -0.21500148267145569 -0.01413077246912478 0 -0.20136602200140599 -0.0030079861901145229 0 -0.21500148267145569 -0.01413077246912478 0 -0.2196258464205352 0.0027153321176431179 0 -0.20136602200140599 -0.0030079861901145229 0 -0.202414905202009 -0.0235844169391249 0 -0.21500148267145569 -0.01413077246912478 0 -0.1819862357830889 -0.073147852195907415 0 -0.20012233949012539 -0.050924987909149497 0 -0.1819862357830889 -0.073147852195907415 0 -0.18109868320631431 -0.054521767797922872 0 -0.20012233949012539 -0.050924987909149497 0 -0.18109868320631431 -0.054521767797922872 0 -0.18175373135561629 -0.037429849671306921 0 -0.20012233949012539 -0.050924987909149497 0 -0.18175373135561629 -0.037429849671306921 0 -0.202414905202009 -0.0235844169391249 0 -0.20012233949012539 -0.050924987909149497 0 -0.2178658399941947 -0.029047474649792088 0 -0.20012233949012539 -0.050924987909149497 0 -0.2281079215891185 -0.04267463191960711 0 -0.202414905202009 -0.0235844169391249 0 -0.2178658399941947 -0.029047474649792088 0 -0.20012233949012539 -0.050924987909149497 0 -0.20900784546431189 -0.070512049193862267 0 -0.20012233949012539 -0.050924987909149497 0 -0.22264674586250241 -0.061336028799205418 0 -0.20012233949012539 -0.050924987909149497 0 -0.22264674586250241 -0.061336028799205418 0 -0.2281079215891185 -0.04267463191960711 0 -0.22264674586250241 -0.061336028799205418 0 -0.2281079215891185 -0.04267463191960711 0 -0.2414372807485986 -0.059127940098452028 0 -0.2281079215891185 -0.04267463191960711 0 -0.2478437530577286 -0.038173965486116117 0 -0.2281079215891185 -0.04267463191960711 0 -0.2478437530577286 -0.038173965486116117 0 -0.23373479973913339 -0.0177293166842355 0 -0.2281079215891185 -0.04267463191960711 0 -0.2478437530577286 -0.038173965486116117 0 -0.2414372807485986 -0.059127940098452028 0 -0.23345545866485429 -0.001590969249915503 0 -0.23373479973913339 -0.0177293166842355 0 -0.2196258464205352 0.0027153321176431179 0 -0.23373479973913339 -0.0177293166842355 0 -0.2196258464205352 0.0027153321176431179 0 -0.21500148267145569 -0.01413077246912478 0 -0.23373479973913339 -0.0177293166842355 0 -0.2196258464205352 0.0027153321176431179 0 -0.2178658399941947 -0.029047474649792088 0 -0.21500148267145569 -0.01413077246912478 0 -0.23373479973913339 -0.0177293166842355 0 -0.2178658399941947 -0.029047474649792088 0 -0.2281079215891185 -0.04267463191960711 0 -0.23373479973913339 -0.0177293166842355 0 -0.2478437530577286 -0.038173965486116117 0 -0.23373479973913339 -0.0177293166842355 0 -0.2478437530577286 -0.038173965486116117 0 -0.23373479973913339 -0.0177293166842355 0 -0.25058023959271558 -0.02452961551820778 0 -0.23373479973913339 -0.0177293166842355 0 -0.24751034395825131 -0.013518002113451499 0 -0.25058023959271558 -0.02452961551820778 0 -0.24751034395825131 -0.013518002113451499 0 -0.2401841775723623 -0.0085832810261615503 0 -0.24603610792721031 -0.001494836057043694 0 -0.23345545866485429 -0.001590969249915503 0 -0.23373479973913339 -0.0177293166842355 0 -0.2401841775723623 -0.0085832810261615503 0 -0.23373479973913339 -0.0177293166842355 0 -0.24751034395825131 -0.013518002113451499 0 -0.2401841775723623 -0.0085832810261615503 0 -0.23345545866485429 -0.001590969249915503 0 -0.2401841775723623 -0.0085832810261615503 0 -0.24603610792721031 -0.001494836057043694 0 -0.24751034395825131 -0.013518002113451499 0 -0.24603610792721031 -0.001494836057043694 0 -0.25439413989377241 -0.0032653670090099212 0 -0.25439413989377241 -0.0032653670090099212 0 -0.25940214703407938 -0.01883072010541469 0 -0.2797152221951521 -0.0086292804435675226 0 -0.24603610792721031 -0.001494836057043694 0 -0.25439413989377241 -0.0032653670090099212 0 -0.25439413989377241 -0.0032653670090099212 0 -0.25940214703407938 -0.01883072010541469 0 -0.24751034395825131 -0.013518002113451499 0 -0.25439413989377241 -0.0032653670090099212 0 -0.25940214703407938 -0.01883072010541469 0 -0.24751034395825131 -0.013518002113451499 0 -0.25058023959271558 -0.02452961551820778 0 -0.25940214703407938 -0.01883072010541469 0 -0.25058023959271558 -0.02452961551820778 0 -0.25940214703407938 -0.01883072010541469 0 -0.2644101541743854 -0.034396073201819748 0 -0.25940214703407938 -0.01883072010541469 0 -0.2644101541743854 -0.034396073201819748 0 -0.25940214703407938 -0.01883072010541469 0 -0.26711332505198659 -0.021686221679217368 0 -0.2644101541743854 -0.034396073201819748 0 -0.26711332505198659 -0.021686221679217368 0 -0.285080517463353 -0.020580647379195561 0 -0.27223936144942562 -0.032610658159152123 0 -0.26711332505198659 -0.021686221679217368 0 -0.2797152221951521 -0.0086292804435675226 0 -0.285080517463353 -0.020580647379195561 0 -0.25940214703407938 -0.01883072010541469 0 -0.26711332505198659 -0.021686221679217368 0 -0.2797152221951521 -0.0086292804435675226 0 -0.26711332505198659 -0.021686221679217368 0 -0.27223936144942562 -0.032610658159152123 0 -0.26711332505198659 -0.021686221679217368 0 -0.27223936144942562 -0.032610658159152123 0 -0.2644101541743854 -0.034396073201819748 0 -0.25439413989377241 -0.0032653670090099212 0 -0.2797152221951521 -0.0086292804435675226 0 -0.26839520126254701 0.0088666212175328163 0 -0.25439413989377241 -0.0032653670090099212 0 -0.2797152221951521 -0.0086292804435675226 0 -0.2797152221951521 -0.0086292804435675226 0 -0.285080517463353 -0.020580647379195561 0 -0.30503630449653202 -0.01399319387812435 0 -0.2797152221951521 -0.0086292804435675226 0 -0.30503630449653202 -0.01399319387812435 0 -0.28549640923868341 0.0058388088596524838 0 -0.2797152221951521 -0.0086292804435675226 0 -0.30503630449653202 -0.01399319387812435 0 -0.285080517463353 -0.020580647379195561 0 -0.30129837412366872 -0.025983882735916269 0 -0.27223936144942562 -0.032610658159152123 0 -0.30129837412366872 -0.025983882735916269 0 -0.27223936144942562 -0.032610658159152123 0 -0.285080517463353 -0.020580647379195561 0 -0.30129837412366872 -0.025983882735916269 0 -0.30503630449653202 -0.01399319387812435 0 -0.30129837412366872 -0.025983882735916269 0 -0.30503630449653202 -0.01399319387812435 0 -0.33035738679791199 -0.01935710731268064 0 -0.30503630449653202 -0.01399319387812435 0 -0.29991595031090612 0.01236481056600826 0 -0.32009090194009132 0.00022972968992290691 0 -0.3078019969261811 -0.053946040493063202 0 -0.3050422196109483 -0.065232868458703935 0 -0.32077740639462587 -0.060679222952071808 0 -0.3078019969261811 -0.053946040493063202 0 -0.29761218489927188 -0.044921833356316873 0 -0.29647616490884809 -0.058375849760347848 0 -0.3078019969261811 -0.053946040493063202 0 -0.29647616490884809 -0.058375849760347848 0 -0.3050422196109483 -0.065232868458703935 0 -0.30129837412366872 -0.025983882735916269 0 -0.29761218489927188 -0.044921833356316873 0 -0.31551370276250867 -0.037414994572555552 0 -0.3078019969261811 -0.053946040493063202 0 -0.29761218489927188 -0.044921833356316873 0 -0.31551370276250867 -0.037414994572555552 0 -0.29761218489927188 -0.044921833356316873 0 -0.28828428016490559 -0.039225324673935261 0 -0.28198720018725631 -0.053384924444355587 0 -0.30129837412366872 -0.025983882735916269 0 -0.28828428016490559 -0.039225324673935261 0 -0.27223936144942562 -0.032610658159152123 0 -0.30129837412366872 -0.025983882735916269 0 -0.29761218489927188 -0.044921833356316873 0 -0.28828428016490559 -0.039225324673935261 0 -0.28198720018725631 -0.053384924444355587 0 -0.29647616490884809 -0.058375849760347848 0 -0.29173503892508601 -0.074159190729559538 0 -0.29761218489927188 -0.044921833356316873 0 -0.28198720018725631 -0.053384924444355587 0 -0.29647616490884809 -0.058375849760347848 0 -0.28198720018725631 -0.053384924444355587 0 -0.27278353485635892 -0.060421321024758307 0 -0.2644101541743854 -0.034396073201819748 0 -0.27278353485635892 -0.060421321024758307 0 -0.2644101541743854 -0.034396073201819748 0 -0.27278353485635892 -0.060421321024758307 0 -0.2644101541743854 -0.034396073201819748 0 -0.26450033429803138 -0.062310267166905603 0 -0.28828428016490559 -0.039225324673935261 0 -0.28198720018725631 -0.053384924444355587 0 -0.27223936144942562 -0.032610658159152123 0 -0.28198720018725631 -0.053384924444355587 0 -0.27223936144942562 -0.032610658159152123 0 -0.28198720018725631 -0.053384924444355587 0 -0.27223936144942562 -0.032610658159152123 0 -0.2644101541743854 -0.034396073201819748 0 -0.27223936144942562 -0.032610658159152123 0 -0.2644101541743854 -0.034396073201819748 0 -0.2478437530577286 -0.038173965486116117 0 -0.2644101541743854 -0.034396073201819748 0 -0.2478437530577286 -0.038173965486116117 0 -0.25058023959271558 -0.02452961551820778 0 -0.2644101541743854 -0.034396073201819748 0 -0.2478437530577286 -0.038173965486116117 0 -0.2644101541743854 -0.034396073201819748 0 -0.26450033429803138 -0.062310267166905603 0 -0.2478437530577286 -0.038173965486116117 0 -0.2414372807485986 -0.059127940098452028 0 -0.26450033429803138 -0.062310267166905603 0 -0.2478437530577286 -0.038173965486116117 0 -0.26450033429803138 -0.062310267166905603 0 -0.24888002638929119 -0.074485521188584425 0 -0.26450033429803138 -0.062310267166905603 0 -0.26000364850348923 -0.089370121506313419 0 -0.24888002638929119 -0.074485521188584425 0 -0.2414372807485986 -0.059127940098452028 0 -0.26450033429803138 -0.062310267166905603 0 -0.24888002638929119 -0.074485521188584425 0 -0.24342874465170189 -0.086374018590709603 0 -0.26000364850348923 -0.089370121506313419 0 -0.26000364850348923 -0.089370121506313419 0 -0.28115691553833161 -0.086446568847696956 0 -0.27361490147267908 -0.098549428069192743 0 -0.26450033429803138 -0.062310267166905603 0 -0.26000364850348923 -0.089370121506313419 0 -0.28115691553833161 -0.086446568847696956 0 -0.27278353485635892 -0.060421321024758307 0 -0.28115691553833161 -0.086446568847696956 0 -0.26450033429803138 -0.062310267166905603 0 -0.28115691553833161 -0.086446568847696956 0 -0.27278353485635892 -0.060421321024758307 0 -0.26450033429803138 -0.062310267166905603 0 -0.28115691553833161 -0.086446568847696956 0 -0.2467354927537497 -0.1176809491985347 0 -0.27130072259158738 -0.12853325312953401 0 -0.2467354927537497 -0.1176809491985347 0 -0.26511466566363551 -0.1099996319404118 0 -0.27130072259158738 -0.12853325312953401 0 -0.2467354927537497 -0.1176809491985347 0 -0.24053208064119391 -0.10247476166639161 0 -0.26511466566363551 -0.1099996319404118 0 -0.24053208064119391 -0.10247476166639161 0 -0.26511466566363551 -0.1099996319404118 0 -0.24053208064119391 -0.10247476166639161 0 -0.26000364850348923 -0.089370121506313419 0 -0.26511466566363551 -0.1099996319404118 0 -0.26000364850348923 -0.089370121506313419 0 -0.26511466566363551 -0.1099996319404118 0 -0.27361490147267908 -0.098549428069192743 0 -0.28115691553833161 -0.086446568847696956 0 -0.27361490147267908 -0.098549428069192743 0 -0.28679933837068577 -0.10398374506255161 0 -0.27361490147267908 -0.098549428069192743 0 -0.28006358869468811 -0.1136573832943857 0 -0.28679933837068577 -0.10398374506255161 0 -0.26511466566363551 -0.1099996319404118 0 -0.27361490147267908 -0.098549428069192743 0 -0.28006358869468811 -0.1136573832943857 0 -0.26511466566363551 -0.1099996319404118 0 -0.28006358869468811 -0.1136573832943857 0 -0.27130072259158738 -0.12853325312953401 0 -0.28006358869468811 -0.1136573832943857 0 -0.27130072259158738 -0.12853325312953401 0 -0.28698964513629782 -0.12579359834588019 0 -0.2908559311833343 -0.1120977688201162 0 -0.29277766668156469 -0.1032856759432077 0 -0.30439841782479798 -0.1201247830387184 0 -0.29024064434493491 -0.1194372567617175 0 -0.28698964513629782 -0.12579359834588019 0 -0.29747731762085372 -0.1279545414832306 0 -0.29024064434493491 -0.1194372567617175 0 -0.2908559311833343 -0.1120977688201162 0 -0.30439841782479798 -0.1201247830387184 0 -0.28006358869468811 -0.1136573832943857 0 -0.29024064434493491 -0.1194372567617175 0 -0.28698964513629782 -0.12579359834588019 0 -0.28006358869468811 -0.1136573832943857 0 -0.2908559311833343 -0.1120977688201162 0 -0.28679933837068577 -0.10398374506255161 0 -0.28006358869468811 -0.1136573832943857 0 -0.29024064434493491 -0.1194372567617175 0 -0.2908559311833343 -0.1120977688201162 0 -0.28115691553833161 -0.086446568847696956 0 -0.28679933837068577 -0.10398374506255161 0 -0.28115691553833161 -0.086446568847696956 0 -0.29277766668156469 -0.1032856759432077 0 -0.28115691553833161 -0.086446568847696956 0 -0.29277766668156469 -0.1032856759432077 0 -0.28679933837068577 -0.10398374506255161 0 -0.2908559311833343 -0.1120977688201162 0 -0.29277766668156469 -0.1032856759432077 0 -0.28679933837068577 -0.10398374506255161 0 -0.29277766668156469 -0.1032856759432077 0 -0.29663905124552908 -0.099420431895894612 0 -0.29780914770143718 -0.1025381535298473 0 -0.29277766668156469 -0.1032856759432077 0 -0.29405146498519891 -0.095056837623374246 0 -0.2906496372534349 -0.091355642219240571 0 -0.29405146498519891 -0.095056837623374246 0 -0.30148287766291598 -0.094933457014763384 0 -0.2906496372534349 -0.091355642219240571 0 -0.29277766668156469 -0.1032856759432077 0 -0.29663905124552908 -0.099420431895894612 0 -0.29405146498519891 -0.095056837623374246 0 -0.29663905124552908 -0.099420431895894612 0 -0.29405146498519891 -0.095056837623374246 0 -0.29915215045109322 -0.096438876402544449 0 -0.30148287766291598 -0.094933457014763384 0 -0.30299852816551681 -0.107137639145181 0 -0.3124497649012829 -0.11830571849109239 0 -0.30148287766291598 -0.094933457014763384 0 -0.3124497649012829 -0.11830571849109239 0 -0.30148287766291598 -0.094933457014763384 0 -0.3124497649012829 -0.11830571849109239 0 -0.31275475757875149 -0.10463689580807591 0 -0.30148287766291598 -0.094933457014763384 0 -0.31275475757875149 -0.10463689580807591 0 -0.32177061063829648 -0.099673021106906165 0 -0.29940482640835159 -0.099782615980499284 0 -0.30148287766291598 -0.094933457014763384 0 -0.30299852816551681 -0.107137639145181 0 -0.29405146498519891 -0.095056837623374246 0 -0.29915215045109322 -0.096438876402544449 0 -0.30148287766291598 -0.094933457014763384 0 -0.29915215045109322 -0.096438876402544449 0 -0.29940482640835159 -0.099782615980499284 0 -0.30148287766291598 -0.094933457014763384 0 -0.29915215045109322 -0.096438876402544449 0 -0.30148287766291598 -0.094933457014763384 0 -0.29663905124552908 -0.099420431895894612 0 -0.29915215045109322 -0.096438876402544449 0 -0.29940482640835159 -0.099782615980499284 0 -0.29663905124552908 -0.099420431895894612 0 -0.29940482640835159 -0.099782615980499284 0 -0.29780914770143718 -0.1025381535298473 0 -0.29277766668156469 -0.1032856759432077 0 -0.30299852816551681 -0.107137639145181 0 -0.29780914770143718 -0.1025381535298473 0 -0.29940482640835159 -0.099782615980499284 0 -0.30299852816551681 -0.107137639145181 0 -0.29780914770143718 -0.1025381535298473 0 -0.29277766668156469 -0.1032856759432077 0 -0.30439841782479798 -0.1201247830387184 0 -0.29277766668156469 -0.1032856759432077 0 -0.30299852816551681 -0.107137639145181 0 -0.30439841782479798 -0.1201247830387184 0 -0.30299852816551681 -0.107137639145181 0 -0.3124497649012829 -0.11830571849109239 0 -0.30439841782479798 -0.1201247830387184 0 -0.3124497649012829 -0.11830571849109239 0 -0.30439841782479798 -0.1201247830387184 0 -0.31006355623993481 -0.1263872934522848 0 -0.29024064434493491 -0.1194372567617175 0 -0.30439841782479798 -0.1201247830387184 0 -0.29747731762085372 -0.1279545414832306 0 -0.30439841782479798 -0.1201247830387184 0 -0.31006355623993481 -0.1263872934522848 0 -0.29747731762085372 -0.1279545414832306 0 -0.28198720018725631 -0.053384924444355587 0 -0.27278353485635892 -0.060421321024758307 0 -0.29173503892508601 -0.074159190729559538 0 -0.27278353485635892 -0.060421321024758307 0 -0.28115691553833161 -0.086446568847696956 0 -0.29173503892508601 -0.074159190729559538 0 -0.28198720018725631 -0.053384924444355587 0 -0.29173503892508601 -0.074159190729559538 0 -0.30148287766291598 -0.094933457014763384 0 -0.29173503892508601 -0.074159190729559538 0 -0.28115691553833161 -0.086446568847696956 0 -0.29277766668156469 -0.1032856759432077 0 -0.2906496372534349 -0.091355642219240571 0 -0.30148287766291598 -0.094933457014763384 0 -0.29173503892508601 -0.074159190729559538 0 -0.2906496372534349 -0.091355642219240571 0 -0.28115691553833161 -0.086446568847696956 0 -0.29173503892508601 -0.074159190729559538 0 -0.2906496372534349 -0.091355642219240571 0 -0.30148287766291598 -0.094933457014763384 0 -0.30842049090000029 -0.079004038358477316 0 -0.32579361056971751 -0.079231126659090281 0 -0.30148287766291598 -0.094933457014763384 0 -0.29173503892508601 -0.074159190729559538 0 -0.30842049090000029 -0.079004038358477316 0 -0.30842049090000029 -0.079004038358477316 0 -0.3050422196109483 -0.065232868458703935 0 -0.32077740639462587 -0.060679222952071808 0 -0.29647616490884809 -0.058375849760347848 0 -0.29173503892508601 -0.074159190729559538 0 -0.3050422196109483 -0.065232868458703935 0 -0.29173503892508601 -0.074159190729559538 0 -0.30842049090000029 -0.079004038358477316 0 -0.3050422196109483 -0.065232868458703935 0 -0.30842049090000029 -0.079004038358477316 0 -0.32579361056971751 -0.079231126659090281 0 -0.32077740639462587 -0.060679222952071808 0 -0.30148287766291598 -0.094933457014763384 0 -0.32579361056971751 -0.079231126659090281 0 -0.30148287766291598 -0.094933457014763384 0 -0.32579361056971751 -0.079231126659090281 0 -0.32177061063829648 -0.099673021106906165 0 -0.32579361056971751 -0.079231126659090281 0 -0.33783029826804978 -0.098345765448175804 0 -0.34928891845574478 -0.087347671738169319 0 -0.32579361056971751 -0.079231126659090281 0 -0.32177061063829648 -0.099673021106906165 0 -0.33783029826804978 -0.098345765448175804 0 -0.32579361056971751 -0.079231126659090281 0 -0.35010434347651792 -0.063528796303415389 0 -0.32579361056971751 -0.079231126659090281 0 -0.35010434347651792 -0.063528796303415389 0 -0.32077740639462587 -0.060679222952071808 0 -0.32579361056971751 -0.079231126659090281 0 -0.35010434347651792 -0.063528796303415389 0 -0.34928891845574478 -0.087347671738169319 0 -0.3124497649012829 -0.11830571849109239 0 -0.3225036501573223 -0.12404634494251141 0 -0.31887234553357052 -0.1098708739817712 0 -0.3124497649012829 -0.11830571849109239 0 -0.3225036501573223 -0.12404634494251141 0 -0.31006355623993481 -0.1263872934522848 0 -0.3124497649012829 -0.11830571849109239 0 -0.31887234553357052 -0.1098708739817712 0 -0.31275475757875149 -0.10463689580807591 0 -0.3225036501573223 -0.12404634494251141 0 -0.31887234553357052 -0.1098708739817712 0 -0.33070926484734958 -0.1109000996775957 0 -0.31887234553357052 -0.1098708739817712 0 -0.32177061063829648 -0.099673021106906165 0 -0.33070926484734958 -0.1109000996775957 0 -0.31887234553357052 -0.1098708739817712 0 -0.31275475757875149 -0.10463689580807591 0 -0.32177061063829648 -0.099673021106906165 0 -0.32177061063829648 -0.099673021106906165 0 -0.33783029826804978 -0.098345765448175804 0 -0.33070926484734958 -0.1109000996775957 0 -0.33783029826804978 -0.098345765448175804 0 -0.33070926484734958 -0.1109000996775957 0 -0.34567262958018269 -0.1123987934140105 0 -0.33070926484734958 -0.1109000996775957 0 -0.33811219102594647 -0.1217605482715514 0 -0.34567262958018269 -0.1123987934140105 0 -0.3225036501573223 -0.12404634494251141 0 -0.33070926484734958 -0.1109000996775957 0 -0.33811219102594647 -0.1217605482715514 0 -0.34567262958018269 -0.1123987934140105 0 -0.36066989083157353 -0.1125884967593167 0 -0.35567264038270568 -0.12859403757664631 0 -0.33811219102594647 -0.1217605482715514 0 -0.34567262958018269 -0.1123987934140105 0 -0.35567264038270568 -0.12859403757664631 0 -0.35313467600345522 -0.10091032459622459 0 -0.37221164288172492 -0.093870895621450484 0 -0.34928891845574478 -0.087347671738169319 0 -0.34567262958018269 -0.1123987934140105 0 -0.35313467600345522 -0.10091032459622459 0 -0.36066989083157353 -0.1125884967593167 0 -0.33783029826804978 -0.098345765448175804 0 -0.34567262958018269 -0.1123987934140105 0 -0.35313467600345522 -0.10091032459622459 0 -0.33783029826804978 -0.098345765448175804 0 -0.35313467600345522 -0.10091032459622459 0 -0.34928891845574478 -0.087347671738169319 0 -0.35313467600345522 -0.10091032459622459 0 -0.37221164288172492 -0.093870895621450484 0 -0.36066989083157353 -0.1125884967593167 0 -0.37221164288172492 -0.093870895621450484 0 -0.36066989083157353 -0.1125884967593167 0 -0.37538114861739841 -0.1202770349219929 0 -0.37221164288172492 -0.093870895621450484 0 -0.37538114861739841 -0.1202770349219929 0 -0.36066989083157353 -0.1125884967593167 0 -0.35567264038270568 -0.12859403757664631 0 -0.37538114861739841 -0.1202770349219929 0 -0.35010434347651792 -0.063528796303415389 0 -0.35745186536441448 -0.075703729853609389 0 -0.34928891845574478 -0.087347671738169319 0 -0.35010434347651792 -0.063528796303415389 0 -0.35745186536441448 -0.075703729853609389 0 -0.36904213714605161 -0.067464756320908037 0 -0.37221164288172492 -0.093870895621450484 0 -0.35745186536441448 -0.075703729853609389 0 -0.36904213714605161 -0.067464756320908037 0 -0.37221164288172492 -0.093870895621450484 0 -0.35745186536441448 -0.075703729853609389 0 -0.34928891845574478 -0.087347671738169319 0 -0.37221164288172492 -0.093870895621450484 0 -0.36904213714605161 -0.067464756320908037 0 -0.35010434347651792 -0.063528796303415389 0 -0.36904213714605161 -0.067464756320908037 0 -0.37441507638331828 -0.047826465947740468 0 -0.35010434347651792 -0.063528796303415389 0 -0.37441507638331828 -0.047826465947740468 0 -0.35010434347651792 -0.063528796303415389 0 -0.37441507638331828 -0.047826465947740468 0 -0.35885342917835689 -0.045949169934127197 0 -0.35010434347651792 -0.063528796303415389 0 -0.3464858261225835 -0.038103962039358577 0 -0.35885342917835689 -0.045949169934127197 0 -0.3464858261225835 -0.038103962039358577 0 -0.36440847073100813 -0.034337455445994342 0 -0.35610908952696491 -0.0252236034957669 0 -0.3464858261225835 -0.038103962039358577 0 -0.35885342917835689 -0.045949169934127197 0 -0.36440847073100813 -0.034337455445994342 0 -0.37441507638331828 -0.047826465947740468 0 -0.35885342917835689 -0.045949169934127197 0 -0.36440847073100813 -0.034337455445994342 0 -0.37441507638331828 -0.047826465947740468 0 -0.36440847073100813 -0.034337455445994342 0 -0.37861335428236148 -0.032300542027819283 0 -0.36440847073100813 -0.034337455445994342 0 -0.37383096054174009 -0.01694448260508848 0 -0.35610908952696491 -0.0252236034957669 0 -0.36440847073100813 -0.034337455445994342 0 -0.37383096054174009 -0.01694448260508848 0 -0.37861335428236148 -0.032300542027819283 0 -0.37383096054174009 -0.01694448260508848 0 -0.35176926176700141 -0.01447422679635987 0 -0.35610908952696491 -0.0252236034957669 0 -0.37383096054174009 -0.01694448260508848 0 -0.35297224887296907 -0.002069934093802447 0 -0.37383096054174009 -0.01694448260508848 0 -0.35297224887296907 -0.002069934093802447 0 -0.36630240863329833 0.0029484098375479289 0 -0.37383096054174009 -0.01694448260508848 0 -0.35297224887296907 -0.002069934093802447 0 -0.35176926176700141 -0.01447422679635987 0 -0.37383096054174009 -0.01694448260508848 0 -0.38080236514241322 0.004967057045595173 0 -0.36630240863329833 0.0029484098375479289 0 -0.35297224887296907 -0.002069934093802447 0 -0.35176926176700141 -0.01447422679635987 0 -0.33753724430434129 -0.0053325751836834773 0 -0.3464858261225835 -0.038103962039358577 0 -0.35610908952696491 -0.0252236034957669 0 -0.34405092847249119 -0.02225789059203321 0 -0.35176926176700141 -0.01447422679635987 0 -0.35610908952696491 -0.0252236034957669 0 -0.34405092847249119 -0.02225789059203321 0 -0.35176926176700141 -0.01447422679635987 0 -0.34405092847249119 -0.02225789059203321 0 -0.33035738679791199 -0.01935710731268064 0 -0.35176926176700141 -0.01447422679635987 0 -0.33035738679791199 -0.01935710731268064 0 -0.3464858261225835 -0.038103962039358577 0 -0.34405092847249119 -0.02225789059203321 0 -0.33369335619912582 -0.032446033489245477 0 -0.34405092847249119 -0.02225789059203321 0 -0.33035738679791199 -0.01935710731268064 0 -0.33369335619912582 -0.032446033489245477 0 -0.34405092847249119 -0.02225789059203321 0 -0.33035738679791199 -0.01935710731268064 0 -0.33035738679791199 -0.01935710731268064 0 -0.33753724430434129 -0.0053325751836834773 0 -0.32009090194009132 0.00022972968992290691 0 -0.35176926176700141 -0.01447422679635987 0 -0.33035738679791199 -0.01935710731268064 0 -0.33753724430434129 -0.0053325751836834773 0 -0.30503630449653202 -0.01399319387812435 0 -0.33035738679791199 -0.01935710731268064 0 -0.32009090194009132 0.00022972968992290691 0 -0.30129837412366872 -0.025983882735916269 0 -0.33035738679791199 -0.01935710731268064 0 -0.33035738679791199 -0.01935710731268064 0 -0.31551370276250867 -0.037414994572555552 0 -0.33369335619912582 -0.032446033489245477 0 -0.30129837412366872 -0.025983882735916269 0 -0.33035738679791199 -0.01935710731268064 0 -0.31551370276250867 -0.037414994572555552 0 -0.30503630449653202 -0.01399319387812435 0 -0.33035738679791199 -0.01935710731268064 0 -0.31551370276250867 -0.037414994572555552 0 -0.33369335619912582 -0.032446033489245477 0 -0.33205893684013321 -0.045096212929599921 0 -0.3078019969261811 -0.053946040493063202 0 -0.31551370276250867 -0.037414994572555552 0 -0.32077740639462587 -0.060679222952071808 0 -0.31551370276250867 -0.037414994572555552 0 -0.32077740639462587 -0.060679222952071808 0 -0.33205893684013321 -0.045096212929599921 0 -0.35010434347651792 -0.063528796303415389 0 -0.3464858261225835 -0.038103962039358577 0 -0.33205893684013321 -0.045096212929599921 0 -0.35010434347651792 -0.063528796303415389 0 -0.32077740639462587 -0.060679222952071808 0 -0.33205893684013321 -0.045096212929599921 0 -0.3464858261225835 -0.038103962039358577 0 -0.33369335619912582 -0.032446033489245477 0 -0.33205893684013321 -0.045096212929599921 0 -0.30439839118101719 -0.23519537456661699 0 -0.30565767890659928 -0.24530145112941409 0 -0.2948337266856621 -0.2451058964859964 0 -0.30439839118101719 -0.23519537456661699 0 -0.29359062396150287 -0.23619953920734779 0 -0.2948337266856621 -0.2451058964859964 0 -0.29941935906180128 -0.25288897962424572 0 -0.30565767890659928 -0.24530145112941409 0 -0.2948337266856621 -0.2451058964859964 0 -0.30565767890659928 -0.24530145112941409 0 -0.31400301762240418 -0.23795941011151489 0 -0.3128026899048888 -0.2490093066069573 0 -0.30673579201176571 -0.25301260665616998 0 -0.30565767890659928 -0.24530145112941409 0 -0.3128026899048888 -0.2490093066069573 0 -0.30439839118101719 -0.23519537456661699 0 -0.30565767890659928 -0.24530145112941409 0 -0.31400301762240418 -0.23795941011151489 0 -0.30439839118101719 -0.23519537456661699 0 -0.31125929781508349 -0.2228581231231512 0 -0.2922204210236104 -0.22317926084139519 0 -0.30439839118101719 -0.23519537456661699 0 -0.31125929781508349 -0.2228581231231512 0 -0.31400301762240418 -0.23795941011151489 0 -0.30439839118101719 -0.23519537456661699 0 -0.2922204210236104 -0.22317926084139519 0 -0.29359062396150287 -0.23619953920734779 0 -0.2922204210236104 -0.22317926084139519 0 -0.28256507838318218 -0.23771305606603979 0 -0.29359062396150287 -0.23619953920734779 0 -0.2922204210236104 -0.22317926084139519 0 -0.28256507838318218 -0.23771305606603979 0 -0.27685728561411399 -0.22225124945947661 0 -0.28256507838318218 -0.23771305606603979 0 -0.29359062396150287 -0.23619953920734779 0 -0.2948337266856621 -0.2451058964859964 0 -0.28754251027753353 -0.25066974673964437 0 -0.29941935906180128 -0.25288897962424572 0 -0.2948337266856621 -0.2451058964859964 0 -0.28754251027753353 -0.25066974673964437 0 -0.28256507838318218 -0.23771305606603979 0 -0.27997576050329209 -0.2470579843557148 0 -0.28754251027753353 -0.25066974673964437 0 -0.28256507838318218 -0.23771305606603979 0 -0.2948337266856621 -0.2451058964859964 0 -0.28256507838318218 -0.23771305606603979 0 -0.27997576050329209 -0.2470579843557148 0 -0.26944482005067788 -0.24477679142051259 0 -0.27626246977033653 -0.2545754308368342 0 -0.27997576050329209 -0.2470579843557148 0 -0.26944482005067788 -0.24477679142051259 0 -0.28256507838318218 -0.23771305606603979 0 -0.26944482005067788 -0.24477679142051259 0 -0.27074754789748801 -0.23212210733465419 0 -0.26944482005067788 -0.24477679142051259 0 -0.26296052657984281 -0.23776352083032939 0 -0.27074754789748801 -0.23212210733465419 0 -0.26172330181697562 -0.2541893147956889 0 -0.26944482005067788 -0.24477679142051259 0 -0.25800086889519658 -0.2465457939377326 0 -0.26944482005067788 -0.24477679142051259 0 -0.25800086889519658 -0.2465457939377326 0 -0.26296052657984281 -0.23776352083032939 0 -0.25800086889519658 -0.2465457939377326 0 -0.26296052657984281 -0.23776352083032939 0 -0.25191387712191438 -0.23736603208229759 0 -0.24951370693373881 -0.25111521330492559 0 -0.25800086889519658 -0.2465457939377326 0 -0.25191387712191438 -0.23736603208229759 0 -0.25191387712191438 -0.23736603208229759 0 -0.2623197073577776 -0.22166606385050661 0 -0.26296052657984281 -0.23776352083032939 0 -0.25191387712191438 -0.23736603208229759 0 -0.2623197073577776 -0.22166606385050661 0 -0.26296052657984281 -0.23776352083032939 0 -0.2623197073577776 -0.22166606385050661 0 -0.27074754789748801 -0.23212210733465419 0 -0.24639934416944459 -0.22034903935041281 0 -0.25191387712191438 -0.23736603208229759 0 -0.2623197073577776 -0.22166606385050661 0 -0.2623197073577776 -0.22166606385050661 0 -0.27074754789748801 -0.23212210733465419 0 -0.27685728561411399 -0.22225124945947661 0 -0.28256507838318218 -0.23771305606603979 0 -0.27074754789748801 -0.23212210733465419 0 -0.27685728561411399 -0.22225124945947661 0 -0.2623197073577776 -0.22166606385050661 0 -0.27685728561411399 -0.22225124945947661 0 -0.27725303040482069 -0.20369604911197539 0 -0.24639934416944459 -0.22034903935041281 0 -0.2623197073577776 -0.22166606385050661 0 -0.25406986248885111 -0.19713392890279641 0 -0.2623197073577776 -0.22166606385050661 0 -0.27725303040482069 -0.20369604911197539 0 -0.25406986248885111 -0.19713392890279641 0 -0.27725303040482069 -0.20369604911197539 0 -0.25406986248885111 -0.19713392890279641 0 -0.2692844866879161 -0.17923643903519129 0 -0.27725303040482069 -0.20369604911197539 0 -0.28919860579192919 -0.19078228128237301 0 -0.2692844866879161 -0.17923643903519129 0 -0.27725303040482069 -0.20369604911197539 0 -0.28919860579192919 -0.19078228128237301 0 -0.30083048510493898 -0.2054967275705834 0 -0.2922204210236104 -0.22317926084139519 0 -0.27725303040482069 -0.20369604911197539 0 -0.30083048510493898 -0.2054967275705834 0 -0.2922204210236104 -0.22317926084139519 0 -0.27685728561411399 -0.22225124945947661 0 -0.27725303040482069 -0.20369604911197539 0 -0.31125929781508349 -0.2228581231231512 0 -0.2922204210236104 -0.22317926084139519 0 -0.30083048510493898 -0.2054967275705834 0 -0.28919860579192919 -0.19078228128237301 0 -0.30083048510493898 -0.2054967275705834 0 -0.30696194478611838 -0.18621837476502071 0 -0.30083048510493898 -0.2054967275705834 0 -0.30696194478611838 -0.18621837476502071 0 -0.32640171422037162 -0.2067562546483043 0 -0.30696194478611838 -0.18621837476502071 0 -0.30538097886430288 -0.1607163531945589 0 -0.28973270284091712 -0.1749432919597266 0 -0.30538097886430288 -0.1607163531945589 0 -0.28973270284091712 -0.1749432919597266 0 -0.27612434910700823 -0.15084354008191889 0 -0.28919860579192919 -0.19078228128237301 0 -0.28973270284091712 -0.1749432919597266 0 -0.2692844866879161 -0.17923643903519129 0 -0.28919860579192919 -0.19078228128237301 0 -0.30696194478611838 -0.18621837476502071 0 -0.28973270284091712 -0.1749432919597266 0 -0.2426818939050584 -0.17743954786805319 0 -0.25406986248885111 -0.19713392890279641 0 -0.2692844866879161 -0.17923643903519129 0 -0.2426818939050584 -0.17743954786805319 0 -0.2692844866879161 -0.17923643903519129 0 -0.25496577270936083 -0.15765617205481219 0 -0.28973270284091712 -0.1749432919597266 0 -0.2692844866879161 -0.17923643903519129 0 -0.27612434910700823 -0.15084354008191889 0 -0.2692844866879161 -0.17923643903519129 0 -0.25496577270936083 -0.15765617205481219 0 -0.27612434910700823 -0.15084354008191889 0 -0.25496577270936083 -0.15765617205481219 0 -0.27612434910700823 -0.15084354008191889 0 -0.2605251188296025 -0.141652376398856 0 -0.24656022456848539 -0.14215814440695279 0 -0.25496577270936083 -0.15765617205481219 0 -0.2605251188296025 -0.141652376398856 0 -0.2605251188296025 -0.141652376398856 0 -0.25270849986012589 -0.13205252124913441 0 -0.27130072259158738 -0.12853325312953401 0 -0.2467354927537497 -0.1176809491985347 0 -0.25270849986012589 -0.13205252124913441 0 -0.27130072259158738 -0.12853325312953401 0 -0.24656022456848539 -0.14215814440695279 0 -0.2605251188296025 -0.141652376398856 0 -0.25270849986012589 -0.13205252124913441 0 -0.27612434910700823 -0.15084354008191889 0 -0.2605251188296025 -0.141652376398856 0 -0.27130072259158738 -0.12853325312953401 0 -0.27612434910700823 -0.15084354008191889 0 -0.27130072259158738 -0.12853325312953401 0 -0.29586595242942543 -0.13938555706053329 0 -0.27130072259158738 -0.12853325312953401 0 -0.29586595242942543 -0.13938555706053329 0 -0.27130072259158738 -0.12853325312953401 0 -0.28698964513629782 -0.12579359834588019 0 -0.29586595242942543 -0.13938555706053329 0 -0.28698964513629782 -0.12579359834588019 0 -0.29586595242942543 -0.13938555706053329 0 -0.29747731762085372 -0.1279545414832306 0 -0.30538097886430288 -0.1607163531945589 0 -0.27612434910700823 -0.15084354008191889 0 -0.29586595242942543 -0.13938555706053329 0 -0.30538097886430288 -0.1607163531945589 0 -0.29586595242942543 -0.13938555706053329 0 -0.31307925575344558 -0.1384942810828155 0 -0.29586595242942543 -0.13938555706053329 0 -0.29747731762085372 -0.1279545414832306 0 -0.31307925575344558 -0.1384942810828155 0 -0.31006355623993481 -0.1263872934522848 0 -0.29747731762085372 -0.1279545414832306 0 -0.31307925575344558 -0.1384942810828155 0 -0.3225036501573223 -0.12404634494251141 0 -0.31307925575344558 -0.1384942810828155 0 -0.3342835947972061 -0.1347873950942847 0 -0.3225036501573223 -0.12404634494251141 0 -0.31006355623993481 -0.1263872934522848 0 -0.31307925575344558 -0.1384942810828155 0 -0.30538097886430288 -0.1607163531945589 0 -0.31307925575344558 -0.1384942810828155 0 -0.32787843898020969 -0.15584715147898279 0 -0.31307925575344558 -0.1384942810828155 0 -0.32787843898020969 -0.15584715147898279 0 -0.3342835947972061 -0.1347873950942847 0 -0.32787843898020969 -0.15584715147898279 0 -0.3342835947972061 -0.1347873950942847 0 -0.35330255987653197 -0.14955286406747301 0 -0.33811219102594647 -0.1217605482715514 0 -0.3342835947972061 -0.1347873950942847 0 -0.35567264038270568 -0.12859403757664631 0 -0.3225036501573223 -0.12404634494251141 0 -0.33811219102594647 -0.1217605482715514 0 -0.3342835947972061 -0.1347873950942847 0 -0.3342835947972061 -0.1347873950942847 0 -0.35567264038270568 -0.12859403757664631 0 -0.35330255987653197 -0.14955286406747301 0 -0.36884517744043788 -0.13558738470653109 0 -0.37855065435307172 -0.1466831742225351 0 -0.37538114861739841 -0.1202770349219929 0 -0.35567264038270568 -0.12859403757664631 0 -0.36884517744043788 -0.13558738470653109 0 -0.36577626640857602 -0.14679529210494999 0 -0.35567264038270568 -0.12859403757664631 0 -0.36884517744043788 -0.13558738470653109 0 -0.37538114861739841 -0.1202770349219929 0 -0.37177587339135271 -0.15489205407800821 0 -0.36577626640857602 -0.14679529210494999 0 -0.36641928828261178 -0.16101491986341329 0 -0.37177587339135271 -0.15489205407800821 0 -0.36577626640857602 -0.14679529210494999 0 -0.37855065435307172 -0.1466831742225351 0 -0.36884517744043788 -0.13558738470653109 0 -0.36577626640857602 -0.14679529210494999 0 -0.37855065435307172 -0.1466831742225351 0 -0.36577626640857602 -0.14679529210494999 0 -0.35330255987653197 -0.14955286406747301 0 -0.36641928828261178 -0.16101491986341329 0 -0.35567264038270568 -0.12859403757664631 0 -0.36577626640857602 -0.14679529210494999 0 -0.35330255987653197 -0.14955286406747301 0 -0.32787843898020969 -0.15584715147898279 0 -0.35330255987653197 -0.14955286406747301 0 -0.35534244434382761 -0.1755861707541628 0 -0.35330255987653197 -0.14955286406747301 0 -0.36641928828261178 -0.16101491986341329 0 -0.35534244434382761 -0.1755861707541628 0 -0.35330255987653197 -0.14955286406747301 0 -0.35534244434382761 -0.1755861707541628 0 -0.36641928828261178 -0.16101491986341329 0 -0.37008581414090258 -0.17227520085974471 0 -0.35534244434382761 -0.1755861707541628 0 -0.36641928828261178 -0.16101491986341329 0 -0.37008581414090258 -0.17227520085974471 0 -0.37635728452115108 -0.1650748301211343 0 -0.37177587339135271 -0.15489205407800821 0 -0.36641928828261178 -0.16101491986341329 0 -0.37635728452115108 -0.1650748301211343 0 -0.36821472642966019 -0.1828474118050829 0 -0.37057118668358091 -0.20037104882530959 0 -0.38172016008874421 -0.17308931352307749 0 -0.36821472642966019 -0.1828474118050829 0 -0.37008581414090258 -0.17227520085974471 0 -0.38172016008874421 -0.17308931352307749 0 -0.36821472642966019 -0.1828474118050829 0 -0.37008581414090258 -0.17227520085974471 0 -0.35534244434382761 -0.1755861707541628 0 -0.36821472642966019 -0.1828474118050829 0 -0.35534244434382761 -0.1755861707541628 0 -0.36287767156704798 -0.19010602720635189 0 -0.35534244434382761 -0.1755861707541628 0 -0.32714007660029071 -0.1813017030636436 0 -0.34869148346176071 -0.20133189079518429 0 -0.32787843898020969 -0.15584715147898279 0 -0.35534244434382761 -0.1755861707541628 0 -0.32714007660029071 -0.1813017030636436 0 -0.32787843898020969 -0.15584715147898279 0 -0.32714007660029071 -0.1813017030636436 0 -0.30538097886430288 -0.1607163531945589 0 -0.32787843898020969 -0.15584715147898279 0 -0.32714007660029071 -0.1813017030636436 0 -0.30696194478611838 -0.18621837476502071 0 -0.30538097886430288 -0.1607163531945589 0 -0.32714007660029071 -0.1813017030636436 0 -0.30696194478611838 -0.18621837476502071 0 -0.32714007660029071 -0.1813017030636436 0 -0.32640171422037162 -0.2067562546483043 0 -0.32714007660029071 -0.1813017030636436 0 -0.32640171422037162 -0.2067562546483043 0 -0.31125929781508349 -0.2228581231231512 0 -0.30083048510493898 -0.2054967275705834 0 -0.32640171422037162 -0.2067562546483043 0 -0.32640171422037162 -0.2067562546483043 0 -0.34869148346176071 -0.20133189079518429 0 -0.33835301019829073 -0.22719365407118169 0 -0.34869148346176071 -0.20133189079518429 0 -0.33835301019829073 -0.22719365407118169 0 -0.32714007660029071 -0.1813017030636436 0 -0.32640171422037162 -0.2067562546483043 0 -0.34869148346176071 -0.20133189079518429 0 -0.35534244434382761 -0.1755861707541628 0 -0.3573823288111232 -0.2016194774408524 0 -0.36287767156704798 -0.19010602720635189 0 -0.35534244434382761 -0.1755861707541628 0 -0.3573823288111232 -0.2016194774408524 0 -0.35534244434382761 -0.1755861707541628 0 -0.34869148346176071 -0.20133189079518429 0 -0.3573823288111232 -0.2016194774408524 0 -0.36821472642966019 -0.1828474118050829 0 -0.36287767156704798 -0.19010602720635189 0 -0.37057118668358091 -0.20037104882530959 0 -0.3573823288111232 -0.2016194774408524 0 -0.36287767156704798 -0.19010602720635189 0 -0.37057118668358091 -0.20037104882530959 0 -0.37057118668358091 -0.20037104882530959 0 -0.35942221327841839 -0.22765278412754211 0 -0.37057118668358091 -0.20037104882530959 0 -0.37322784133871512 -0.22011919425356541 0 -0.38011935835803989 -0.21250459539245531 0 -0.37057118668358091 -0.20037104882530959 0 -0.35942221327841839 -0.22765278412754211 0 -0.37322784133871512 -0.22011919425356541 0 -0.3573823288111232 -0.2016194774408524 0 -0.37057118668358091 -0.20037104882530959 0 -0.35942221327841839 -0.22765278412754211 0 -0.3573823288111232 -0.2016194774408524 0 -0.35036972706394087 -0.2163832171451 0 -0.35942221327841839 -0.22765278412754211 0 -0.3573823288111232 -0.2016194774408524 0 -0.35942221327841839 -0.22765278412754211 0 -0.34869148346176071 -0.20133189079518429 0 -0.35036972706394087 -0.2163832171451 0 -0.33835301019829073 -0.22719365407118169 0 -0.34869148346176071 -0.20133189079518429 0 -0.3573823288111232 -0.2016194774408524 0 -0.35036972706394087 -0.2163832171451 0 -0.35036972706394087 -0.2163832171451 0 -0.34874127534846361 -0.22675654501749301 0 -0.33835301019829073 -0.22719365407118169 0 -0.34874127534846361 -0.22675654501749301 0 -0.34682015085320422 -0.23579652472614809 0 -0.33835301019829073 -0.22719365407118169 0 -0.34874127534846361 -0.22675654501749301 0 -0.35942221327841839 -0.22765278412754211 0 -0.34682015085320422 -0.23579652472614809 0 -0.35036972706394087 -0.2163832171451 0 -0.34874127534846361 -0.22675654501749301 0 -0.35942221327841839 -0.22765278412754211 0 -0.35942221327841839 -0.22765278412754211 0 -0.37322784133871512 -0.22011919425356541 0 -0.37391372286860919 -0.23617982309288749 0 -0.37139449004158193 -0.25050051947318991 0 -0.37391372286860919 -0.23617982309288749 0 -0.36060906861732539 -0.24279960715887561 0 -0.35942221327841839 -0.22765278412754211 0 -0.37391372286860919 -0.23617982309288749 0 -0.36060906861732539 -0.24279960715887561 0 -0.35942221327841839 -0.22765278412754211 0 -0.36060906861732539 -0.24279960715887561 0 -0.34805119160101139 -0.25547787548306539 0 -0.34682015085320422 -0.23579652472614809 0 -0.3402747396181886 -0.24454003065821181 0 -0.34805119160101139 -0.25547787548306539 0 -0.35942221327841839 -0.22765278412754211 0 -0.34805119160101139 -0.25547787548306539 0 -0.35942221327841839 -0.22765278412754211 0 -0.34682015085320422 -0.23579652472614809 0 -0.34805119160101139 -0.25547787548306539 0 -0.35942221327841839 -0.22765278412754211 0 -0.36060906861732539 -0.24279960715887561 0 -0.32801453693482069 -0.25305541734717912 0 -0.3402747396181886 -0.24454003065821181 0 -0.33835301019829073 -0.22719365407118169 0 -0.34682015085320422 -0.23579652472614809 0 -0.3402747396181886 -0.24454003065821181 0 -0.33835301019829073 -0.22719365407118169 0 -0.32801453693482069 -0.25305541734717912 0 -0.33835301019829073 -0.22719365407118169 0 -0.32801453693482069 -0.25305541734717912 0 -0.33835301019829073 -0.22719365407118169 0 -0.32566335184045248 -0.23221080623296489 0 -0.32640171422037162 -0.2067562546483043 0 -0.33835301019829073 -0.22719365407118169 0 -0.32566335184045248 -0.23221080623296489 0 -0.31125929781508349 -0.2228581231231512 0 -0.32640171422037162 -0.2067562546483043 0 -0.32566335184045248 -0.23221080623296489 0 -0.32640171422037162 -0.2067562546483043 0 -0.32566335184045248 -0.23221080623296489 0 -0.31125929781508349 -0.2228581231231512 0 -0.32566335184045248 -0.23221080623296489 0 -0.31400301762240418 -0.23795941011151489 0 -0.32492498946053339 -0.25766535781762562 0 -0.32566335184045248 -0.23221080623296489 0 -0.32566335184045248 -0.23221080623296489 0 -0.31400301762240418 -0.23795941011151489 0 -0.3196985982825582 -0.24607621173107741 0 -0.32801453693482069 -0.25305541734717912 0 -0.32492498946053339 -0.25766535781762562 0 -0.32566335184045248 -0.23221080623296489 0 -0.32492498946053339 -0.25766535781762562 0 -0.32566335184045248 -0.23221080623296489 0 -0.3196985982825582 -0.24607621173107741 0 -0.31400301762240418 -0.23795941011151489 0 -0.3196985982825582 -0.24607621173107741 0 -0.3128026899048888 -0.2490093066069573 0 -0.31739474192710271 -0.2546974775692164 0 -0.3196985982825582 -0.24607621173107741 0 -0.3128026899048888 -0.2490093066069573 0 -0.43470717633851957 -0.25130824331758839 0 -0.41861209482226069 -0.23857156752833081 0 -0.43929607622674333 -0.2360122189590288 0 -0.41861209482226069 -0.23857156752833081 0 -0.43429994684084772 -0.2183135850739811 0 -0.43929607622674333 -0.2360122189590288 0 -0.40981033083772911 -0.22262292339398199 0 -0.41861209482226069 -0.23857156752833081 0 -0.43429994684084772 -0.2183135850739811 0 -0.40981033083772911 -0.22262292339398199 0 -0.41861209482226069 -0.23857156752833081 0 -0.39470122960746168 -0.23374799771988641 0 -0.40002834122183201 -0.25088796108084532 0 -0.41794274386765629 -0.26031799379438691 0 -0.41861209482226069 -0.23857156752833081 0 -0.38353271496343849 -0.25037699086215182 0 -0.40002834122183201 -0.25088796108084532 0 -0.39470122960746168 -0.23374799771988641 0 -0.40002834122183201 -0.25088796108084532 0 -0.41861209482226069 -0.23857156752833081 0 -0.39470122960746168 -0.23374799771988641 0 -0.38353271496343849 -0.25037699086215182 0 -0.37391372286860919 -0.23617982309288749 0 -0.39470122960746168 -0.23374799771988641 0 -0.38353271496343849 -0.25037699086215182 0 -0.37139449004158193 -0.25050051947318991 0 -0.37391372286860919 -0.23617982309288749 0 -0.38211272550492748 -0.2238877198296324 0 -0.39470122960746168 -0.23374799771988641 0 -0.39459572701633061 -0.21455416342795491 0 -0.37391372286860919 -0.23617982309288749 0 -0.38211272550492748 -0.2238877198296324 0 -0.39470122960746168 -0.23374799771988641 0 -0.37322784133871512 -0.22011919425356541 0 -0.37391372286860919 -0.23617982309288749 0 -0.38211272550492748 -0.2238877198296324 0 -0.37322784133871512 -0.22011919425356541 0 -0.38211272550492748 -0.2238877198296324 0 -0.38011935835803989 -0.21250459539245531 0 -0.40981033083772911 -0.22262292339398199 0 -0.39470122960746168 -0.23374799771988641 0 -0.39459572701633061 -0.21455416342795491 0 -0.40981033083772911 -0.22262292339398199 0 -0.39459572701633061 -0.21455416342795491 0 -0.41129835290489591 -0.20629514269825239 0 -0.39459572701633061 -0.21455416342795491 0 -0.39813067367614441 -0.2000530572418317 0 -0.41129835290489591 -0.20629514269825239 0 -0.39459572701633061 -0.21455416342795491 0 -0.38599741822511657 -0.20276770771964461 0 -0.39813067367614441 -0.2000530572418317 0 -0.38211272550492748 -0.2238877198296324 0 -0.39459572701633061 -0.21455416342795491 0 -0.38011935835803989 -0.21250459539245531 0 -0.39459572701633061 -0.21455416342795491 0 -0.38011935835803989 -0.21250459539245531 0 -0.38599741822511657 -0.20276770771964461 0 -0.37057118668358091 -0.20037104882530959 0 -0.38011935835803989 -0.21250459539245531 0 -0.38599741822511657 -0.20276770771964461 0 -0.37057118668358091 -0.20037104882530959 0 -0.38907934866248289 -0.1900100932880471 0 -0.38221614655988329 -0.1772215312694137 0 -0.37057118668358091 -0.20037104882530959 0 -0.38599741822511657 -0.20276770771964461 0 -0.38907934866248289 -0.1900100932880471 0 -0.38907934866248289 -0.1900100932880471 0 -0.39813067367614441 -0.2000530572418317 0 -0.40530302564967641 -0.19135898694787509 0 -0.38599741822511657 -0.20276770771964461 0 -0.38907934866248289 -0.1900100932880471 0 -0.39813067367614441 -0.2000530572418317 0 -0.39813067367614441 -0.2000530572418317 0 -0.40530302564967641 -0.19135898694787509 0 -0.41129835290489591 -0.20629514269825239 0 -0.40530302564967641 -0.19135898694787509 0 -0.41129835290489591 -0.20629514269825239 0 -0.42640780904327807 -0.19219590080648041 0 -0.40530302564967641 -0.19135898694787509 0 -0.42640780904327807 -0.19219590080648041 0 -0.40911339471691721 -0.1796792898253019 0 -0.40981033083772911 -0.22262292339398199 0 -0.41129835290489591 -0.20629514269825239 0 -0.43429994684084772 -0.2183135850739811 0 -0.43429994684084772 -0.2183135850739811 0 -0.42640780904327807 -0.19219590080648041 0 -0.4490611343448182 -0.20394858131056789 0 -0.41129835290489591 -0.20629514269825239 0 -0.43429994684084772 -0.2183135850739811 0 -0.42640780904327807 -0.19219590080648041 0 -0.43429994684084772 -0.2183135850739811 0 -0.42640780904327807 -0.19219590080648041 0 -0.42640780904327807 -0.19219590080648041 0 -0.41851567124570838 -0.16607821653897961 0 -0.42640780904327807 -0.19219590080648041 0 -0.43339752378087187 -0.17038685030690129 0 -0.41851567124570838 -0.16607821653897961 0 -0.42640780904327807 -0.19219590080648041 0 -0.43339752378087187 -0.17038685030690129 0 -0.44514738207402449 -0.18048510213161009 0 -0.43339752378087187 -0.17038685030690129 0 -0.42662473556966601 -0.15339768982018859 0 -0.44123362980323072 -0.15702162295265229 0 -0.43339752378087187 -0.17038685030690129 0 -0.41851567124570838 -0.16607821653897961 0 -0.42662473556966601 -0.15339768982018859 0 -0.41851567124570838 -0.16607821653897961 0 -0.40911339471691721 -0.1796792898253019 0 -0.39969513578232779 -0.17004917132083361 0 -0.42640780904327807 -0.19219590080648041 0 -0.41851567124570838 -0.16607821653897961 0 -0.40911339471691721 -0.1796792898253019 0 -0.38907934866248289 -0.1900100932880471 0 -0.40530302564967641 -0.19135898694787509 0 -0.39778857489434061 -0.1799204378273376 0 -0.40530302564967641 -0.19135898694787509 0 -0.40911339471691721 -0.1796792898253019 0 -0.39778857489434061 -0.1799204378273376 0 -0.40911339471691721 -0.1796792898253019 0 -0.39778857489434061 -0.1799204378273376 0 -0.39969513578232779 -0.17004917132083361 0 -0.39246699157627551 -0.17499514395732041 0 -0.39778857489434061 -0.1799204378273376 0 -0.39969513578232779 -0.17004917132083361 0 -0.39246699157627551 -0.17499514395732041 0 -0.39778857489434061 -0.1799204378273376 0 -0.38947837552063391 -0.17936755928908871 0 -0.38907934866248289 -0.1900100932880471 0 -0.39778857489434061 -0.1799204378273376 0 -0.38947837552063391 -0.17936755928908871 0 -0.37057118668358091 -0.20037104882530959 0 -0.38172016008874421 -0.17308931352307749 0 -0.37057118668358091 -0.20037104882530959 0 -0.38221614655988329 -0.1772215312694137 0 -0.38172016008874421 -0.17308931352307749 0 -0.38907934866248289 -0.1900100932880471 0 -0.38947837552063391 -0.17936755928908871 0 -0.38221614655988329 -0.1772215312694137 0 -0.39246699157627551 -0.17499514395732041 0 -0.38947837552063391 -0.17936755928908871 0 -0.3863918439260452 -0.1737090613350388 0 -0.39246699157627551 -0.17499514395732041 0 -0.3863918439260452 -0.1737090613350388 0 -0.38996060135925981 -0.1691522562735773 0 -0.3863918439260452 -0.1737090613350388 0 -0.38221614655988329 -0.1772215312694137 0 -0.38172016008874421 -0.17308931352307749 0 -0.3863918439260452 -0.1737090613350388 0 -0.38172016008874421 -0.17308931352307749 0 -0.38340331456774179 -0.16897060471464731 0 -0.38947837552063391 -0.17936755928908871 0 -0.3863918439260452 -0.1737090613350388 0 -0.38221614655988329 -0.1772215312694137 0 -0.38221614655988329 -0.1772215312694137 0 -0.38172016008874421 -0.17308931352307749 0 -0.38172016008874421 -0.17308931352307749 0 -0.37855065435307172 -0.1466831742225351 0 -0.38172016008874421 -0.17308931352307749 0 -0.37635728452115108 -0.1650748301211343 0 -0.37855065435307172 -0.1466831742225351 0 -0.38340331456774179 -0.16897060471464731 0 -0.38424052887217641 -0.15711631531194231 0 -0.37855065435307172 -0.1466831742225351 0 -0.38172016008874421 -0.17308931352307749 0 -0.38340331456774179 -0.16897060471464731 0 -0.37855065435307172 -0.1466831742225351 0 -0.37008581414090258 -0.17227520085974471 0 -0.38172016008874421 -0.17308931352307749 0 -0.37635728452115108 -0.1650748301211343 0 -0.38172016008874421 -0.17308931352307749 0 -0.38340331456774179 -0.16897060471464731 0 -0.3863918439260452 -0.1737090613350388 0 -0.38340331456774179 -0.16897060471464731 0 -0.38996060135925981 -0.1691522562735773 0 -0.38996060135925981 -0.1691522562735773 0 -0.38737476517511882 -0.16467835153513791 0 -0.39189461590129732 -0.16347422984038479 0 -0.38340331456774179 -0.16897060471464731 0 -0.38996060135925981 -0.1691522562735773 0 -0.38737476517511882 -0.16467835153513791 0 -0.38737476517511882 -0.16467835153513791 0 -0.38424052887217641 -0.15711631531194231 0 -0.39189461590129732 -0.16347422984038479 0 -0.38340331456774179 -0.16897060471464731 0 -0.38737476517511882 -0.16467835153513791 0 -0.38424052887217641 -0.15711631531194231 0 -0.39189461590129732 -0.16347422984038479 0 -0.39969513578232779 -0.17004917132083361 0 -0.39902062689876328 -0.1575866659998261 0 -0.41851567124570838 -0.16607821653897961 0 -0.39969513578232779 -0.17004917132083361 0 -0.39902062689876328 -0.1575866659998261 0 -0.38424052887217641 -0.15711631531194231 0 -0.39189461590129732 -0.16347422984038479 0 -0.39902062689876328 -0.1575866659998261 0 -0.38996060135925981 -0.1691522562735773 0 -0.39189461590129732 -0.16347422984038479 0 -0.39969513578232779 -0.17004917132083361 0 -0.39246699157627551 -0.17499514395732041 0 -0.38996060135925981 -0.1691522562735773 0 -0.39969513578232779 -0.17004917132083361 0 -0.39122151298678309 -0.14826476149203721 0 -0.38367222136176482 -0.13997711965440371 0 -0.41062353344813962 -0.13996053227147859 0 -0.39902062689876328 -0.1575866659998261 0 -0.39122151298678309 -0.14826476149203721 0 -0.41062353344813962 -0.13996053227147859 0 -0.38424052887217641 -0.15711631531194231 0 -0.39902062689876328 -0.1575866659998261 0 -0.39122151298678309 -0.14826476149203721 0 -0.38424052887217641 -0.15711631531194231 0 -0.39122151298678309 -0.14826476149203721 0 -0.37855065435307172 -0.1466831742225351 0 -0.37177587339135271 -0.15489205407800821 0 -0.37635728452115108 -0.1650748301211343 0 -0.37855065435307172 -0.1466831742225351 0 -0.39122151298678309 -0.14826476149203721 0 -0.37855065435307172 -0.1466831742225351 0 -0.38367222136176482 -0.13997711965440371 0 -0.37855065435307172 -0.1466831742225351 0 -0.37538114861739841 -0.1202770349219929 0 -0.38367222136176482 -0.13997711965440371 0 -0.39166551301888047 -0.12600444437155989 0 -0.37538114861739841 -0.1202770349219929 0 -0.37855065435307172 -0.1466831742225351 0 -0.38367222136176482 -0.13997711965440371 0 -0.37538114861739841 -0.1202770349219929 0 -0.39166551301888047 -0.12600444437155989 0 -0.41062353344813962 -0.13996053227147859 0 -0.40456446698810822 -0.1199090850187944 0 -0.38367222136176482 -0.13997711965440371 0 -0.39166551301888047 -0.12600444437155989 0 -0.41062353344813962 -0.13996053227147859 0 -0.38367222136176482 -0.13997711965440371 0 -0.41062353344813962 -0.13996053227147859 0 -0.42141751455395621 -0.12746583615606311 0 -0.41062353344813962 -0.13996053227147859 0 -0.43337891272890711 -0.13994652730620399 0 -0.42141751455395621 -0.12746583615606311 0 -0.41062353344813962 -0.13996053227147859 0 -0.40456446698810822 -0.1199090850187944 0 -0.41062353344813962 -0.13996053227147859 0 -0.40456446698810822 -0.1199090850187944 0 -0.41851567124570838 -0.16607821653897961 0 -0.41062353344813962 -0.13996053227147859 0 -0.42662473556966601 -0.15339768982018859 0 -0.41851567124570838 -0.16607821653897961 0 -0.41062353344813962 -0.13996053227147859 0 -0.41851567124570838 -0.16607821653897961 0 -0.39902062689876328 -0.1575866659998261 0 -0.41062353344813962 -0.13996053227147859 0 -0.42662473556966601 -0.15339768982018859 0 -0.43337891272890711 -0.13994652730620399 0 -0.44123362980323072 -0.15702162295265229 0 -0.41062353344813962 -0.13996053227147859 0 -0.42662473556966601 -0.15339768982018859 0 -0.43337891272890711 -0.13994652730620399 0 -0.41062353344813962 -0.13996053227147859 0 -0.43337891272890711 -0.13994652730620399 0 -0.42141751455395621 -0.12746583615606311 0 -0.43337891272890711 -0.13994652730620399 0 -0.4344654894736259 -0.1184030698884825 0 -0.43337891272890711 -0.13994652730620399 0 -0.45613429200967448 -0.1399325223409322 0 -0.43337891272890711 -0.13994652730620399 0 -0.44700390668255813 -0.12874299900512129 0 -0.4344654894736259 -0.1184030698884825 0 -0.43337891272890711 -0.13994652730620399 0 -0.44700390668255813 -0.12874299900512129 0 -0.45613429200967448 -0.1399325223409322 0 -0.45613429200967448 -0.1399325223409322 0 -0.45928276544890839 -0.1573255183892571 0 -0.44123362980323072 -0.15702162295265229 0 -0.43337891272890711 -0.13994652730620399 0 -0.45613429200967448 -0.1399325223409322 0 -0.44123362980323072 -0.15702162295265229 0 -0.45613429200967448 -0.1399325223409322 0 -0.47888967129044202 -0.13991851737566041 0 -0.45928276544890839 -0.1573255183892571 0 -0.44700390668255813 -0.12874299900512129 0 -0.45613429200967448 -0.1399325223409322 0 -0.4640369325180248 -0.1166898764848666 0 -0.45613429200967448 -0.1399325223409322 0 -0.47888967129044202 -0.13991851737566041 0 -0.4640369325180248 -0.1166898764848666 0 -0.45613429200967448 -0.1399325223409322 0 -0.47888967129044202 -0.13991851737566041 0 -0.48333479178802591 -0.12577140760093511 0 -0.47888967129044202 -0.13991851737566041 0 -0.4640369325180248 -0.1166898764848666 0 -0.5 -0.1313154071231766 0 -0.49680418778121282 -0.1315005534619656 0 -0.50000000000000211 -0.11460639040366941 0 -0.48333479178802591 -0.12577140760093511 0 -0.47888967129044202 -0.13991851737566041 0 -0.49680418778121282 -0.1315005534619656 0 -0.49680418778121282 -0.1315005534619656 0 -0.50000000000000089 -0.14802442384268369 0 -0.5 -0.1313154071231766 0 -0.49680418778121282 -0.1315005534619656 0 -0.50000000000000089 -0.14802442384268369 0 -0.47888967129044202 -0.13991851737566041 0 -0.49680418778121282 -0.1315005534619656 0 -0.50000000000000089 -0.14802442384268369 0 -0.47888967129044202 -0.13991851737566041 0 -0.50000000000000089 -0.14802442384268369 0 -0.4823658771875301 -0.16054228421342229 0 -0.47888967129044202 -0.13991851737566041 0 -0.4823658771875301 -0.16054228421342229 0 -0.45928276544890839 -0.1573255183892571 0 -0.4823658771875301 -0.16054228421342229 0 -0.46782008749016818 -0.1732102705851514 0 -0.45928276544890839 -0.1573255183892571 0 -0.50000000000000089 -0.14802442384268369 0 -0.4823658771875301 -0.16054228421342229 0 -0.5 -0.17309765303380659 0 -0.5 -0.17309765303380659 0 -0.48264238642240082 -0.18428783184047701 0 -0.5 -0.1981708822249296 0 -0.4823658771875301 -0.16054228421342229 0 -0.5 -0.17309765303380659 0 -0.48264238642240082 -0.18428783184047701 0 -0.48264238642240082 -0.18428783184047701 0 -0.46782008749016818 -0.1732102705851514 0 -0.46452736119336102 -0.1934704029411094 0 -0.4823658771875301 -0.16054228421342229 0 -0.48264238642240082 -0.18428783184047701 0 -0.46782008749016818 -0.1732102705851514 0 -0.46782008749016818 -0.1732102705851514 0 -0.44514738207402449 -0.18048510213161009 0 -0.46452736119336102 -0.1934704029411094 0 -0.46782008749016818 -0.1732102705851514 0 -0.45928276544890839 -0.1573255183892571 0 -0.44514738207402449 -0.18048510213161009 0 -0.43339752378087187 -0.17038685030690129 0 -0.44123362980323072 -0.15702162295265229 0 -0.44514738207402449 -0.18048510213161009 0 -0.44123362980323072 -0.15702162295265229 0 -0.44514738207402449 -0.18048510213161009 0 -0.45928276544890839 -0.1573255183892571 0 -0.44123362980323072 -0.15702162295265229 0 -0.44514738207402449 -0.18048510213161009 0 -0.44514738207402449 -0.18048510213161009 0 -0.4490611343448182 -0.20394858131056789 0 -0.42640780904327807 -0.19219590080648041 0 -0.44514738207402449 -0.18048510213161009 0 -0.4490611343448182 -0.20394858131056789 0 -0.44514738207402449 -0.18048510213161009 0 -0.4490611343448182 -0.20394858131056789 0 -0.46452736119336102 -0.1934704029411094 0 -0.4490611343448182 -0.20394858131056789 0 -0.45297488661561192 -0.22741206048952589 0 -0.43429994684084772 -0.2183135850739811 0 -0.4490611343448182 -0.20394858131056789 0 -0.45297488661561192 -0.22741206048952589 0 -0.4490611343448182 -0.20394858131056789 0 -0.46349181923471899 -0.2132168511628236 0 -0.45297488661561192 -0.22741206048952589 0 -0.4490611343448182 -0.20394858131056789 0 -0.46349181923471899 -0.2132168511628236 0 -0.46452736119336102 -0.1934704029411094 0 -0.48264238642240082 -0.18428783184047701 0 -0.46452736119336102 -0.1934704029411094 0 -0.48114099266334559 -0.20723549804444261 0 -0.48264238642240082 -0.18428783184047701 0 -0.5 -0.1981708822249296 0 -0.48114099266334559 -0.20723549804444261 0 -0.5 -0.1981708822249296 0 -0.48114099266334559 -0.20723549804444261 0 -0.5 -0.2232441114160526 0 -0.46349181923471899 -0.2132168511628236 0 -0.46452736119336102 -0.1934704029411094 0 -0.48114099266334559 -0.20723549804444261 0 -0.46349181923471899 -0.2132168511628236 0 -0.48114099266334559 -0.20723549804444261 0 -0.47612088491518212 -0.2321901948733415 0 -0.48114099266334559 -0.20723549804444261 0 -0.47612088491518212 -0.2321901948733415 0 -0.5 -0.2232441114160526 0 -0.47612088491518212 -0.2321901948733415 0 -0.5 -0.2232441114160526 0 -0.5 -0.24831734060717561 0 -0.48093252799823838 -0.25533176491691217 0 -0.47612088491518212 -0.2321901948733415 0 -0.5 -0.24831734060717561 0 -0.45688863888640568 -0.2508755396684838 0 -0.48093252799823838 -0.25533176491691217 0 -0.47612088491518212 -0.2321901948733415 0 -0.45688863888640568 -0.2508755396684838 0 -0.45297488661561192 -0.22741206048952589 0 -0.45688863888640568 -0.2508755396684838 0 -0.47612088491518212 -0.2321901948733415 0 -0.45297488661561192 -0.22741206048952589 0 -0.46349181923471899 -0.2132168511628236 0 -0.47612088491518212 -0.2321901948733415 0 -0.45297488661561192 -0.22741206048952589 0 -0.43429994684084772 -0.2183135850739811 0 -0.45297488661561192 -0.22741206048952589 0 -0.43929607622674333 -0.2360122189590288 0 -0.45688863888640568 -0.2508755396684838 0 -0.43470717633851957 -0.25130824331758839 0 -0.43929607622674333 -0.2360122189590288 0 -0.45688863888640568 -0.2508755396684838 0 -0.45297488661561192 -0.22741206048952589 0 -0.43929607622674333 -0.2360122189590288 0 -0.41612814263507503 -0.034713687586265377 0 -0.40989874706071411 -0.047623658253634737 0 -0.42745084025522517 -0.042358495134064852 0 -0.41612814263507503 -0.034713687586265377 0 -0.40989874706071411 -0.047623658253634737 0 -0.40321956358448319 -0.041453291499801058 0 -0.42055977815430179 -0.056827646225320799 0 -0.40989874706071411 -0.047623658253634737 0 -0.40340033615980131 -0.064037193306543866 0 -0.42055977815430179 -0.056827646225320799 0 -0.40989874706071411 -0.047623658253634737 0 -0.42745084025522517 -0.042358495134064852 0 -0.42055977815430179 -0.056827646225320799 0 -0.43700205161436417 -0.056843091038956933 0 -0.42745084025522517 -0.042358495134064852 0 -0.42055977815430179 -0.056827646225320799 0 -0.43700205161436417 -0.056843091038956933 0 -0.42449495483033151 -0.07293221561000944 0 -0.41612814263507503 -0.034713687586265377 0 -0.42745084025522517 -0.042358495134064852 0 -0.43592216005646561 -0.028163239130263029 0 -0.41612814263507503 -0.034713687586265377 0 -0.42303654219691922 -0.016421805236390589 0 -0.43592216005646561 -0.028163239130263029 0 -0.42303654219691922 -0.016421805236390589 0 -0.43592216005646561 -0.028163239130263029 0 -0.44817393074442441 -0.015937698336927309 0 -0.42303654219691922 -0.016421805236390589 0 -0.44817393074442441 -0.015937698336927309 0 -0.4370619965171243 7.1554614970265127e-05 0 -0.42303654219691922 -0.016421805236390589 0 -0.4370619965171243 7.1554614970265127e-05 0 -0.41883399922651388 0.0023550694591607199 0 -0.42303654219691922 -0.016421805236390589 0 -0.4007512518415568 -0.0023088368062816359 0 -0.41883399922651388 0.0023550694591607199 0 -0.42303654219691922 -0.016421805236390589 0 -0.39770493166896781 -0.018780038939487369 0 -0.4007512518415568 -0.0023088368062816359 0 -0.42303654219691922 -0.016421805236390589 0 -0.39770493166896781 -0.018780038939487369 0 -0.39872580929011858 -0.032124135592065582 0 -0.42303654219691922 -0.016421805236390589 0 -0.39872580929011858 -0.032124135592065582 0 -0.41612814263507503 -0.034713687586265377 0 -0.42303654219691922 -0.016421805236390589 0 -0.39872580929011858 -0.032124135592065582 0 -0.39770493166896781 -0.018780038939487369 0 -0.38713253087600602 -0.01166682718392492 0 -0.3946896722105111 -0.031819031116374512 0 -0.39770493166896781 -0.018780038939487369 0 -0.3946896722105111 -0.031819031116374512 0 -0.39872580929011858 -0.032124135592065582 0 -0.39770493166896781 -0.018780038939487369 0 -0.4007512518415568 -0.0023088368062816359 0 -0.38713253087600602 -0.01166682718392492 0 -0.37383096054174009 -0.01694448260508848 0 -0.38713253087600602 -0.01166682718392492 0 -0.38080236514241322 0.004967057045595173 0 -0.4007512518415568 -0.0023088368062816359 0 -0.38713253087600602 -0.01166682718392492 0 -0.38080236514241322 0.004967057045595173 0 -0.37383096054174009 -0.01694448260508848 0 -0.3946896722105111 -0.031819031116374512 0 -0.37383096054174009 -0.01694448260508848 0 -0.37861335428236148 -0.032300542027819283 0 -0.3946896722105111 -0.031819031116374512 0 -0.37383096054174009 -0.01694448260508848 0 -0.38713253087600602 -0.01166682718392492 0 -0.3946896722105111 -0.031819031116374512 0 -0.37441507638331828 -0.047826465947740468 0 -0.37861335428236148 -0.032300542027819283 0 -0.3946896722105111 -0.031819031116374512 0 -0.37441507638331828 -0.047826465947740468 0 -0.39872580929011858 -0.032124135592065582 0 -0.37441507638331828 -0.047826465947740468 0 -0.3946896722105111 -0.031819031116374512 0 -0.39872580929011858 -0.032124135592065582 0 -0.37441507638331828 -0.047826465947740468 0 -0.39872580929011858 -0.032124135592065582 0 -0.39292968423042729 -0.049820834235987849 0 -0.41612814263507503 -0.034713687586265377 0 -0.40321956358448319 -0.041453291499801058 0 -0.39872580929011858 -0.032124135592065582 0 -0.40321956358448319 -0.041453291499801058 0 -0.39872580929011858 -0.032124135592065582 0 -0.39292968423042729 -0.049820834235987849 0 -0.40989874706071411 -0.047623658253634737 0 -0.40321956358448319 -0.041453291499801058 0 -0.39292968423042729 -0.049820834235987849 0 -0.39292968423042729 -0.049820834235987849 0 -0.38530944224751301 -0.061576127093174123 0 -0.40340033615980131 -0.064037193306543866 0 -0.40989874706071411 -0.047623658253634737 0 -0.39292968423042729 -0.049820834235987849 0 -0.40340033615980131 -0.064037193306543866 0 -0.36904213714605161 -0.067464756320908037 0 -0.37441507638331828 -0.047826465947740468 0 -0.38530944224751301 -0.061576127093174123 0 -0.37441507638331828 -0.047826465947740468 0 -0.39292968423042729 -0.049820834235987849 0 -0.38530944224751301 -0.061576127093174123 0 -0.36904213714605161 -0.067464756320908037 0 -0.38530944224751301 -0.061576127093174123 0 -0.38675997731796619 -0.078731385654690386 0 -0.37221164288172492 -0.093870895621450484 0 -0.36904213714605161 -0.067464756320908037 0 -0.38675997731796619 -0.078731385654690386 0 -0.37221164288172492 -0.093870895621450484 0 -0.38675997731796619 -0.078731385654690386 0 -0.39850540052807748 -0.099857637766109897 0 -0.38675997731796619 -0.078731385654690386 0 -0.39850540052807748 -0.099857637766109897 0 -0.40850516465896608 -0.084350670097050232 0 -0.38530944224751301 -0.061576127093174123 0 -0.38675997731796619 -0.078731385654690386 0 -0.40340033615980131 -0.064037193306543866 0 -0.38675997731796619 -0.078731385654690386 0 -0.40340033615980131 -0.064037193306543866 0 -0.40850516465896608 -0.084350670097050232 0 -0.39166551301888047 -0.12600444437155989 0 -0.37538114861739841 -0.1202770349219929 0 -0.38814122312187788 -0.1115614454057391 0 -0.37221164288172492 -0.093870895621450484 0 -0.37538114861739841 -0.1202770349219929 0 -0.38814122312187788 -0.1115614454057391 0 -0.37221164288172492 -0.093870895621450484 0 -0.38814122312187788 -0.1115614454057391 0 -0.39850540052807748 -0.099857637766109897 0 -0.39166551301888047 -0.12600444437155989 0 -0.38814122312187788 -0.1115614454057391 0 -0.40456446698810822 -0.1199090850187944 0 -0.39850540052807748 -0.099857637766109897 0 -0.40456446698810822 -0.1199090850187944 0 -0.38814122312187788 -0.1115614454057391 0 -0.39850540052807748 -0.099857637766109897 0 -0.40456446698810822 -0.1199090850187944 0 -0.39850540052807748 -0.099857637766109897 0 -0.40456446698810822 -0.1199090850187944 0 -0.41902630756570669 -0.1094538160003011 0 -0.42141751455395621 -0.12746583615606311 0 -0.40456446698810822 -0.1199090850187944 0 -0.41902630756570669 -0.1094538160003011 0 -0.39850540052807748 -0.099857637766109897 0 -0.41902630756570669 -0.1094538160003011 0 -0.40850516465896608 -0.084350670097050232 0 -0.41902630756570669 -0.1094538160003011 0 -0.40850516465896608 -0.084350670097050232 0 -0.42497855726919798 -0.092229247362683175 0 -0.41902630756570669 -0.1094538160003011 0 -0.42497855726919798 -0.092229247362683175 0 -0.43915701500654819 -0.10373894302177079 0 -0.42497855726919798 -0.092229247362683175 0 -0.43987285451831309 -0.087385560503147691 0 -0.43915701500654819 -0.10373894302177079 0 -0.42141751455395621 -0.12746583615606311 0 -0.41902630756570669 -0.1094538160003011 0 -0.4344654894736259 -0.1184030698884825 0 -0.41902630756570669 -0.1094538160003011 0 -0.4344654894736259 -0.1184030698884825 0 -0.43915701500654819 -0.10373894302177079 0 -0.40340033615980131 -0.064037193306543866 0 -0.40850516465896608 -0.084350670097050232 0 -0.42449495483033151 -0.07293221561000944 0 -0.42055977815430179 -0.056827646225320799 0 -0.40340033615980131 -0.064037193306543866 0 -0.42449495483033151 -0.07293221561000944 0 -0.40850516465896608 -0.084350670097050232 0 -0.42497855726919798 -0.092229247362683175 0 -0.42449495483033151 -0.07293221561000944 0 -0.42497855726919798 -0.092229247362683175 0 -0.42449495483033151 -0.07293221561000944 0 -0.43987285451831309 -0.087385560503147691 0 -0.42449495483033151 -0.07293221561000944 0 -0.4450478898227983 -0.072087610448250489 0 -0.43987285451831309 -0.087385560503147691 0 -0.43700205161436417 -0.056843091038956933 0 -0.42449495483033151 -0.07293221561000944 0 -0.4450478898227983 -0.072087610448250489 0 -0.4450478898227983 -0.072087610448250489 0 -0.46105621767291022 -0.072841363544366433 0 -0.45275749887225653 -0.058252362302607233 0 -0.43987285451831309 -0.087385560503147691 0 -0.45593634810792311 -0.085658442964338333 0 -0.45256194869442112 -0.098272087891143944 0 -0.4450478898227983 -0.072087610448250489 0 -0.43987285451831309 -0.087385560503147691 0 -0.45593634810792311 -0.085658442964338333 0 -0.45593634810792311 -0.085658442964338333 0 -0.46542771273640288 -0.098117042517888317 0 -0.47300748109043228 -0.086439006542169267 0 -0.45593634810792311 -0.085658442964338333 0 -0.46105621767291022 -0.072841363544366433 0 -0.47300748109043228 -0.086439006542169267 0 -0.4450478898227983 -0.072087610448250489 0 -0.45593634810792311 -0.085658442964338333 0 -0.46105621767291022 -0.072841363544366433 0 -0.46105621767291022 -0.072841363544366433 0 -0.4743646763249027 -0.060568893512669232 0 -0.46337506697110292 -0.059696613329322808 0 -0.46105621767291022 -0.072841363544366433 0 -0.46337506697110292 -0.059696613329322808 0 -0.45275749887225653 -0.058252362302607233 0 -0.4344654894736259 -0.1184030698884825 0 -0.43915701500654819 -0.10373894302177079 0 -0.4640369325180248 -0.1166898764848666 0 -0.4344654894736259 -0.1184030698884825 0 -0.4640369325180248 -0.1166898764848666 0 -0.44700390668255813 -0.12874299900512129 0 -0.4344654894736259 -0.1184030698884825 0 -0.4640369325180248 -0.1166898764848666 0 -0.43987285451831309 -0.087385560503147691 0 -0.43915701500654819 -0.10373894302177079 0 -0.45256194869442112 -0.098272087891143944 0 -0.43915701500654819 -0.10373894302177079 0 -0.45256194869442112 -0.098272087891143944 0 -0.4640369325180248 -0.1166898764848666 0 -0.45256194869442112 -0.098272087891143944 0 -0.46542771273640288 -0.098117042517888317 0 -0.4640369325180248 -0.1166898764848666 0 -0.45593634810792311 -0.085658442964338333 0 -0.45256194869442112 -0.098272087891143944 0 -0.46542771273640288 -0.098117042517888317 0 -0.4640369325180248 -0.1166898764848666 0 -0.47812622174360869 -0.1028415142727778 0 -0.4936083755624236 -0.1149766830812478 0 -0.4640369325180248 -0.1166898764848666 0 -0.4936083755624236 -0.1149766830812478 0 -0.48333479178802591 -0.12577140760093511 0 -0.4640369325180248 -0.1166898764848666 0 -0.4936083755624236 -0.1149766830812478 0 -0.46542771273640288 -0.098117042517888317 0 -0.47812622174360869 -0.1028415142727778 0 -0.47300748109043228 -0.086439006542169267 0 -0.46542771273640288 -0.098117042517888317 0 -0.4640369325180248 -0.1166898764848666 0 -0.47812622174360869 -0.1028415142727778 0 -0.47812622174360869 -0.1028415142727778 0 -0.4936083755624236 -0.1149766830812478 0 -0.48840954506365503 -0.088096254754473427 0 -0.4936083755624236 -0.1149766830812478 0 -0.48840954506365503 -0.088096254754473427 0 -0.50000000000000211 -0.11460639040366941 0 -0.4936083755624236 -0.1149766830812478 0 -0.5 -0.086686357989542939 0 -0.4936083755624236 -0.1149766830812478 0 -0.48840954506365503 -0.088096254754473427 0 -0.5 -0.086686357989542939 0 -0.48333479178802591 -0.12577140760093511 0 -0.49680418778121282 -0.1315005534619656 0 -0.4936083755624236 -0.1149766830812478 0 -0.49680418778121282 -0.1315005534619656 0 -0.50000000000000211 -0.11460639040366941 0 -0.4936083755624236 -0.1149766830812478 0 -0.49680418778121282 -0.1315005534619656 0 -0.4936083755624236 -0.1149766830812478 0 -0.50000000000000211 -0.11460639040366941 0 -0.4936083755624236 -0.1149766830812478 0 -0.47300748109043228 -0.086439006542169267 0 -0.4743646763249027 -0.060568893512669232 0 -0.46105621767291022 -0.072841363544366433 0 -0.47300748109043228 -0.086439006542169267 0 -0.4743646763249027 -0.060568893512669232 0 -0.47300748109043228 -0.086439006542169267 0 -0.48321071456488612 -0.061215826427699169 0 -0.4743646763249027 -0.060568893512669232 0 -0.47300748109043228 -0.086439006542169267 0 -0.48840954506365503 -0.088096254754473427 0 -0.48321071456488612 -0.061215826427699169 0 -0.47812622174360869 -0.1028415142727778 0 -0.47300748109043228 -0.086439006542169267 0 -0.48840954506365503 -0.088096254754473427 0 -0.48840954506365503 -0.088096254754473427 0 -0.5 -0.086686357989542939 0 -0.49260416167150511 -0.073448072588008631 0 -0.48840954506365503 -0.088096254754473427 0 -0.49260416167150511 -0.073448072588008631 0 -0.48321071456488612 -0.061215826427699169 0 -0.48840954506365503 -0.088096254754473427 0 -0.48321071456488612 -0.061215826427699169 0 -0.5 -0.086686357989542939 0 -0.49260416167150511 -0.073448072588008631 0 -0.5 -0.058766325575416389 0 -0.49260416167150511 -0.073448072588008631 0 -0.5 -0.058766325575416389 0 -0.48321071456488612 -0.061215826427699169 0 -0.5 -0.058766325575416389 0 -0.48976176310743502 -0.046107455800107458 0 -0.48321071456488612 -0.061215826427699169 0 -0.47801188406611711 -0.034335398100925119 0 -0.49999999999999761 -0.03084629316128986 0 -0.48976176310743502 -0.046107455800107458 0 -0.47801188406611711 -0.034335398100925119 0 -0.49999999999999761 -0.03084629316128986 0 -0.5 -0.058766325575416389 0 -0.48976176310743502 -0.046107455800107458 0 -0.49999999999999761 -0.03084629316128986 0 -0.47801188406611711 -0.034335398100925119 0 -0.47572187155937218 -0.034698780483169142 0 -0.4743646763249027 -0.060568893512669232 0 -0.47801188406611711 -0.034335398100925119 0 -0.47572187155937218 -0.034698780483169142 0 -0.47622549787584262 -0.02509893117572165 0 -0.47801188406611711 -0.034335398100925119 0 -0.47572187155937218 -0.034698780483169142 0 -0.48976176310743502 -0.046107455800107458 0 -0.47801188406611711 -0.034335398100925119 0 -0.48321071456488612 -0.061215826427699169 0 -0.47572187155937218 -0.034698780483169142 0 -0.4743646763249027 -0.060568893512669232 0 -0.46532187501434208 -0.047123833957648423 0 -0.47572187155937218 -0.034698780483169142 0 -0.4743646763249027 -0.060568893512669232 0 -0.47801188406611711 -0.034335398100925119 0 -0.48321071456488612 -0.061215826427699169 0 -0.47801188406611711 -0.034335398100925119 0 -0.48321071456488612 -0.061215826427699169 0 -0.4743646763249027 -0.060568893512669232 0 -0.46532187501434208 -0.047123833957648423 0 -0.45158635590729829 -0.038528637808614999 0 -0.45275749887225653 -0.058252362302607233 0 -0.4743646763249027 -0.060568893512669232 0 -0.46337506697110292 -0.059696613329322808 0 -0.46532187501434208 -0.047123833957648423 0 -0.46337506697110292 -0.059696613329322808 0 -0.46532187501434208 -0.047123833957648423 0 -0.45275749887225653 -0.058252362302607233 0 -0.47572187155937218 -0.034698780483169142 0 -0.45158635590729829 -0.038528637808614999 0 -0.47572187155937218 -0.034698780483169142 0 -0.45158635590729829 -0.038528637808614999 0 -0.46255950394027429 -0.02698214433802754 0 -0.47572187155937218 -0.034698780483169142 0 -0.46532187501434208 -0.047123833957648423 0 -0.45158635590729829 -0.038528637808614999 0 -0.42745084025522517 -0.042358495134064852 0 -0.45158635590729829 -0.038528637808614999 0 -0.42745084025522517 -0.042358495134064852 0 -0.43592216005646561 -0.028163239130263029 0 -0.45158635590729829 -0.038528637808614999 0 -0.43700205161436417 -0.056843091038956933 0 -0.42745084025522517 -0.042358495134064852 0 -0.45158635590729829 -0.038528637808614999 0 -0.43700205161436417 -0.056843091038956933 0 -0.4450478898227983 -0.072087610448250489 0 -0.45275749887225653 -0.058252362302607233 0 -0.43700205161436417 -0.056843091038956933 0 -0.45158635590729829 -0.038528637808614999 0 -0.45275749887225653 -0.058252362302607233 0 -0.44817393074442441 -0.015937698336927309 0 -0.46045072757487943 -0.0028516328721894602 0 -0.4370619965171243 7.1554614970265127e-05 0 -0.43592216005646561 -0.028163239130263029 0 -0.45158635590729829 -0.038528637808614999 0 -0.44817393074442441 -0.015937698336927309 0 -0.44817393074442441 -0.015937698336927309 0 -0.46255950394027429 -0.02698214433802754 0 -0.46125641390778138 -0.016229455218376539 0 -0.45158635590729829 -0.038528637808614999 0 -0.44817393074442441 -0.015937698336927309 0 -0.46255950394027429 -0.02698214433802754 0 -0.46255950394027429 -0.02698214433802754 0 -0.46125641390778138 -0.016229455218376539 0 -0.47622549787584262 -0.02509893117572165 0 -0.46125641390778138 -0.016229455218376539 0 -0.46045072757487943 -0.0028516328721894602 0 -0.47410745492303458 -0.014147640919295769 0 -0.44817393074442441 -0.015937698336927309 0 -0.46125641390778138 -0.016229455218376539 0 -0.46045072757487943 -0.0028516328721894602 0 -0.47410745492303458 -0.014147640919295769 0 -0.47622549787584262 -0.02509893117572165 0 -0.47765648087023932 0.0021776837637466771 0 -0.46045072757487943 -0.0028516328721894602 0 -0.47410745492303458 -0.014147640919295769 0 -0.47765648087023932 0.0021776837637466771 0 -0.47622549787584262 -0.02509893117572165 0 -0.48836695319487128 -0.01857801119988255 0 -0.47765648087023932 0.0021776837637466771 0 -0.47622549787584262 -0.02509893117572165 0 -0.47765648087023932 0.0021776837637466771 0 -0.47801188406611711 -0.034335398100925119 0 -0.47622549787584262 -0.02509893117572165 0 -0.48836695319487128 -0.01857801119988255 0 -0.47572187155937218 -0.034698780483169142 0 -0.47622549787584262 -0.02509893117572165 0 -0.47572187155937218 -0.034698780483169142 0 -0.46255950394027429 -0.02698214433802754 0 -0.47622549787584262 -0.02509893117572165 0 -0.47410745492303458 -0.014147640919295769 0 -0.47622549787584262 -0.02509893117572165 0 -0.46125641390778138 -0.016229455218376539 0 -0.47410745492303458 -0.014147640919295769 0 -0.47622549787584262 -0.02509893117572165 0 -0.47801188406611711 -0.034335398100925119 0 -0.47622549787584262 -0.02509893117572165 0 -0.48836695319487128 -0.01857801119988255 0 -0.49999999999999761 -0.03084629316128986 0 -0.5 -0.0058619022051656922 0 -0.47801188406611711 -0.034335398100925119 0 -0.48836695319487128 -0.01857801119988255 0 -0.49999999999999761 -0.03084629316128986 0 -0.48836695319487128 -0.01857801119988255 0 -0.5 -0.0058619022051656922 0 -0.47765648087023932 0.0021776837637466771 0 -0.5 -0.0058619022051656922 0 -0.5 0.01912248875095857 0 -0.47765648087023932 0.0021776837637466771 0 -0.5 0.01912248875095857 0 -0.47908746386463569 0.029454298703215118 0 -0.5 0.044106879707082769 0 -0.5 0.01912248875095857 0 -0.47908746386463569 0.029454298703215118 0 -0.47765648087023932 0.0021776837637466771 0 -0.47908746386463569 0.029454298703215118 0 -0.47765648087023932 0.0021776837637466771 0 -0.47908746386463569 0.029454298703215118 0 -0.47765648087023932 0.0021776837637466771 0 -0.46565083058413342 0.013799769221309001 0 -0.5 0.044106879707082769 0 -0.48051844685903222 0.056730913642683428 0 -0.5 0.069091270663206972 0 -0.47908746386463569 0.029454298703215118 0 -0.5 0.044106879707082769 0 -0.48051844685903222 0.056730913642683428 0 -0.47908746386463569 0.029454298703215118 0 -0.48051844685903222 0.056730913642683428 0 -0.46840662202671918 0.043580285666373363 0 -0.47908746386463569 0.029454298703215118 0 -0.48051844685903222 0.056730913642683428 0 -0.47908746386463569 0.029454298703215118 0 -0.46840662202671918 0.043580285666373363 0 -0.46051380747272003 0.027945707014819479 0 -0.48051844685903222 0.056730913642683428 0 -0.46840662202671918 0.043580285666373363 0 -0.46779760718159241 0.063127588076605831 0 -0.45263482542370692 0.055505782572788182 0 -0.45071793963611118 0.064595248585115492 0 -0.46779760718159241 0.063127588076605831 0 -0.46840662202671918 0.043580285666373363 0 -0.45364578450975612 0.042247647571059879 0 -0.46779760718159241 0.063127588076605831 0 -0.45364578450975612 0.042247647571059879 0 -0.45263482542370692 0.055505782572788182 0 -0.46779760718159241 0.063127588076605831 0 -0.45364578450975612 0.042247647571059879 0 -0.46779760718159241 0.063127588076605831 0 -0.46840662202671918 0.043580285666373363 0 -0.45364578450975612 0.042247647571059879 0 -0.46051380747272003 0.027945707014819479 0 -0.44446182175278037 0.032162717777662372 0 -0.43837797036736798 0.052052646058371538 0 -0.45364578450975612 0.042247647571059879 0 -0.44446182175278037 0.032162717777662372 0 -0.43837797036736798 0.052052646058371538 0 -0.45364578450975612 0.042247647571059879 0 -0.44446182175278037 0.032162717777662372 0 -0.46051380747272003 0.027945707014819479 0 -0.45364578450975612 0.042247647571059879 0 -0.43837797036736798 0.052052646058371538 0 -0.45263482542370692 0.055505782572788182 0 -0.43837797036736798 0.052052646058371538 0 -0.45263482542370692 0.055505782572788182 0 -0.45071793963611118 0.064595248585115492 0 -0.46045072757487943 -0.0028516328721894602 0 -0.46565083058413342 0.013799769221309001 0 -0.45054567313819271 0.01227278949695319 0 -0.46045072757487943 -0.0028516328721894602 0 -0.47765648087023932 0.0021776837637466771 0 -0.46565083058413342 0.013799769221309001 0 -0.47908746386463569 0.029454298703215118 0 -0.46565083058413342 0.013799769221309001 0 -0.46051380747272003 0.027945707014819479 0 -0.46565083058413342 0.013799769221309001 0 -0.46051380747272003 0.027945707014819479 0 -0.45054567313819271 0.01227278949695319 0 -0.44446182175278037 0.032162717777662372 0 -0.45054567313819271 0.01227278949695319 0 -0.43362585305048362 0.026370252832627859 0 -0.44446182175278037 0.032162717777662372 0 -0.45054567313819271 0.01227278949695319 0 -0.44446182175278037 0.032162717777662372 0 -0.46051380747272003 0.027945707014819479 0 -0.45054567313819271 0.01227278949695319 0 -0.45054567313819271 0.01227278949695319 0 -0.4370619965171243 7.1554614970265127e-05 0 -0.42695481873938662 0.014698102171828891 0 -0.46045072757487943 -0.0028516328721894602 0 -0.45054567313819271 0.01227278949695319 0 -0.4370619965171243 7.1554614970265127e-05 0 -0.4370619965171243 7.1554614970265127e-05 0 -0.42695481873938662 0.014698102171828891 0 -0.41883399922651388 0.0023550694591607199 0 -0.42695481873938662 0.014698102171828891 0 -0.41883399922651388 0.0023550694591607199 0 -0.40636538683758222 0.015736332551676668 0 -0.4007512518415568 -0.0023088368062816359 0 -0.41883399922651388 0.0023550694591607199 0 -0.40636538683758222 0.015736332551676668 0 -0.42695481873938662 0.014698102171828891 0 -0.40636538683758222 0.015736332551676668 0 -0.41650680544887092 0.032220039953751688 0 -0.40636538683758222 0.015736332551676668 0 -0.41650680544887092 0.032220039953751688 0 -0.40145110647280258 0.031949364862800769 0 -0.45054567313819271 0.01227278949695319 0 -0.42695481873938662 0.014698102171828891 0 -0.43362585305048362 0.026370252832627859 0 -0.42695481873938662 0.014698102171828891 0 -0.43362585305048362 0.026370252832627859 0 -0.41650680544887092 0.032220039953751688 0 -0.44446182175278037 0.032162717777662372 0 -0.43362585305048362 0.026370252832627859 0 -0.4296601461731871 0.040497614762943147 0 -0.44446182175278037 0.032162717777662372 0 -0.43837797036736798 0.052052646058371538 0 -0.4296601461731871 0.040497614762943147 0 -0.43362585305048362 0.026370252832627859 0 -0.4296601461731871 0.040497614762943147 0 -0.41650680544887092 0.032220039953751688 0 -0.43837797036736798 0.052052646058371538 0 -0.4296601461731871 0.040497614762943147 0 -0.42683497128128428 0.056534325313874069 0 -0.4296601461731871 0.040497614762943147 0 -0.42683497128128428 0.056534325313874069 0 -0.41636092678876768 0.051078406373428413 0 -0.43837797036736798 0.052052646058371538 0 -0.42683497128128428 0.056534325313874069 0 -0.4322941189819548 0.07194257433908044 0 -0.43837797036736798 0.052052646058371538 0 -0.4322941189819548 0.07194257433908044 0 -0.41636092678876768 0.051078406373428413 0 -0.40266926920833279 0.062258195732013077 0 -0.41748169409514391 0.067100385035546786 0 -0.42683497128128428 0.056534325313874069 0 -0.41636092678876768 0.051078406373428413 0 -0.41748169409514391 0.067100385035546786 0 -0.41636092678876768 0.051078406373428413 0 -0.40364737790358052 0.04552424823329905 0 -0.40266926920833279 0.062258195732013077 0 -0.4296601461731871 0.040497614762943147 0 -0.41636092678876768 0.051078406373428413 0 -0.41650680544887092 0.032220039953751688 0 -0.41636092678876768 0.051078406373428413 0 -0.41650680544887092 0.032220039953751688 0 -0.40364737790358052 0.04552424823329905 0 -0.41650680544887092 0.032220039953751688 0 -0.40145110647280258 0.031949364862800769 0 -0.40364737790358052 0.04552424823329905 0 -0.40145110647280258 0.031949364862800769 0 -0.39127852911692901 0.041723251055067002 0 -0.38945714678993287 0.023500899978206601 0 -0.40145110647280258 0.031949364862800769 0 -0.40364737790358052 0.04552424823329905 0 -0.39127852911692901 0.041723251055067002 0 -0.40364737790358052 0.04552424823329905 0 -0.40266926920833279 0.062258195732013077 0 -0.39361763038578002 0.053916231422733413 0 -0.40364737790358052 0.04552424823329905 0 -0.39127852911692901 0.041723251055067002 0 -0.39361763038578002 0.053916231422733413 0 -0.40266926920833279 0.062258195732013077 0 -0.39361763038578002 0.053916231422733413 0 -0.39167820526631231 0.064998639129889804 0 -0.37881448416662777 0.05403477042139529 0 -0.39167820526631231 0.064998639129889804 0 -0.36923477768781721 0.067959962031115387 0 -0.39361763038578002 0.053916231422733413 0 -0.37881448416662777 0.05403477042139529 0 -0.39167820526631231 0.064998639129889804 0 -0.39127852911692901 0.041723251055067002 0 -0.39361763038578002 0.053916231422733413 0 -0.37881448416662777 0.05403477042139529 0 -0.39127852911692901 0.041723251055067002 0 -0.37949143914559857 0.036242752105375461 0 -0.38945714678993287 0.023500899978206601 0 -0.39127852911692901 0.041723251055067002 0 -0.37881448416662777 0.05403477042139529 0 -0.37949143914559857 0.036242752105375461 0 -0.37530289853567472 0.024066489134638241 0 -0.38945714678993287 0.023500899978206601 0 -0.38080236514241322 0.004967057045595173 0 -0.37949143914559857 0.036242752105375461 0 -0.37530289853567472 0.024066489134638241 0 -0.38945714678993287 0.023500899978206601 0 -0.38945714678993287 0.023500899978206601 0 -0.38080236514241322 0.004967057045595173 0 -0.39434403765287118 0.010473863192299201 0 -0.4007512518415568 -0.0023088368062816359 0 -0.38080236514241322 0.004967057045595173 0 -0.39434403765287118 0.010473863192299201 0 -0.4007512518415568 -0.0023088368062816359 0 -0.40636538683758222 0.015736332551676668 0 -0.39434403765287118 0.010473863192299201 0 -0.40636538683758222 0.015736332551676668 0 -0.38945714678993287 0.023500899978206601 0 -0.39434403765287118 0.010473863192299201 0 -0.40636538683758222 0.015736332551676668 0 -0.40145110647280258 0.031949364862800769 0 -0.38945714678993287 0.023500899978206601 0 -0.39516205123788789 0.097029060920832216 0 -0.38994225145532407 0.11309264056990589 0 -0.40919742424558447 0.1025799360978743 0 -0.39516205123788789 0.097029060920832216 0 -0.40015093153361392 0.084981967430904706 0 -0.40919742424558447 0.1025799360978743 0 -0.38994225145532407 0.11309264056990589 0 -0.40919742424558447 0.1025799360978743 0 -0.38994225145532407 0.11309264056990589 0 -0.40919742424558447 0.1025799360978743 0 -0.41091339531256499 0.11985446763867851 0 -0.38994225145532407 0.11309264056990589 0 -0.41091339531256499 0.11985446763867851 0 -0.39824728542694371 0.13788872927615101 0 -0.38994225145532407 0.11309264056990589 0 -0.38081074812960902 0.118078147420154 0 -0.38994225145532407 0.11309264056990589 0 -0.38081074812960902 0.118078147420154 0 -0.38426453797111237 0.12968304781706139 0 -0.38994225145532407 0.11309264056990589 0 -0.38081074812960902 0.118078147420154 0 -0.3744588290726677 0.10588125947093401 0 -0.38994225145532407 0.11309264056990589 0 -0.38135759771702921 0.087461699584644087 0 -0.3744588290726677 0.10588125947093401 0 -0.39516205123788789 0.097029060920832216 0 -0.38994225145532407 0.11309264056990589 0 -0.38135759771702921 0.087461699584644087 0 -0.38994225145532407 0.11309264056990589 0 -0.38135759771702921 0.087461699584644087 0 -0.38135759771702921 0.087461699584644087 0 -0.38770806322894308 0.076776986752666032 0 -0.40015093153361392 0.084981967430904706 0 -0.39167820526631231 0.064998639129889804 0 -0.36923477768781721 0.067959962031115387 0 -0.38135759771702921 0.087461699584644087 0 -0.38770806322894308 0.076776986752666032 0 -0.36923477768781721 0.067959962031115387 0 -0.38770806322894308 0.076776986752666032 0 -0.39167820526631231 0.064998639129889804 0 -0.36923477768781721 0.067959962031115387 0 -0.40266926920833279 0.062258195732013077 0 -0.39167820526631231 0.064998639129889804 0 -0.39837046617690841 0.072566644051778692 0 -0.38770806322894308 0.076776986752666032 0 -0.39167820526631231 0.064998639129889804 0 -0.39837046617690841 0.072566644051778692 0 -0.38770806322894308 0.076776986752666032 0 -0.39837046617690841 0.072566644051778692 0 -0.40015093153361392 0.084981967430904706 0 -0.39837046617690841 0.072566644051778692 0 -0.40015093153361392 0.084981967430904706 0 -0.40895890545025249 0.075338867380473434 0 -0.40266926920833279 0.062258195732013077 0 -0.39837046617690841 0.072566644051778692 0 -0.40895890545025249 0.075338867380473434 0 -0.39516205123788789 0.097029060920832216 0 -0.38135759771702921 0.087461699584644087 0 -0.40015093153361392 0.084981967430904706 0 -0.40015093153361392 0.084981967430904706 0 -0.41539591730156028 0.087228720025027337 0 -0.40919742424558447 0.1025799360978743 0 -0.40015093153361392 0.084981967430904706 0 -0.41539591730156028 0.087228720025027337 0 -0.40895890545025249 0.075338867380473434 0 -0.41539591730156028 0.087228720025027337 0 -0.41968515438595588 0.07789729200757009 0 -0.42811031435002039 0.085620681971562168 0 -0.41539591730156028 0.087228720025027337 0 -0.40895890545025249 0.075338867380473434 0 -0.41968515438595588 0.07789729200757009 0 -0.40266926920833279 0.062258195732013077 0 -0.41748169409514391 0.067100385035546786 0 -0.40266926920833279 0.062258195732013077 0 -0.40895890545025249 0.075338867380473434 0 -0.41748169409514391 0.067100385035546786 0 -0.40895890545025249 0.075338867380473434 0 -0.41968515438595588 0.07789729200757009 0 -0.41748169409514391 0.067100385035546786 0 -0.42683497128128428 0.056534325313874069 0 -0.41748169409514391 0.067100385035546786 0 -0.4322941189819548 0.07194257433908044 0 -0.41748169409514391 0.067100385035546786 0 -0.4322941189819548 0.07194257433908044 0 -0.41968515438595588 0.07789729200757009 0 -0.41748169409514391 0.067100385035546786 0 -0.4322941189819548 0.07194257433908044 0 -0.42845259703584582 0.092067231625844348 0 -0.43572096814581002 0.081903245571944533 0 -0.44770776982610699 0.081554527153814449 0 -0.41539591730156028 0.087228720025027337 0 -0.42845259703584582 0.092067231625844348 0 -0.42811031435002039 0.085620681971562168 0 -0.41968515438595588 0.07789729200757009 0 -0.4322941189819548 0.07194257433908044 0 -0.42811031435002039 0.085620681971562168 0 -0.4322941189819548 0.07194257433908044 0 -0.42811031435002039 0.085620681971562168 0 -0.4322941189819548 0.07194257433908044 0 -0.42811031435002039 0.085620681971562168 0 -0.43572096814581002 0.081903245571944533 0 -0.42845259703584582 0.092067231625844348 0 -0.42811031435002039 0.085620681971562168 0 -0.43572096814581002 0.081903245571944533 0 -0.42845259703584582 0.092067231625844348 0 -0.43526958644754132 0.098499336538904414 0 -0.44357583155332603 0.093117415193050418 0 -0.43526958644754132 0.098499336538904414 0 -0.43205572915834822 0.1061912517698821 0 -0.44057626668841482 0.104540780718091 0 -0.43526958644754132 0.098499336538904414 0 -0.43205572915834822 0.1061912517698821 0 -0.42519296891236658 0.1018151414717553 0 -0.43205572915834822 0.1061912517698821 0 -0.42519296891236658 0.1018151414717553 0 -0.42098950767451337 0.1097379513262715 0 -0.42845259703584582 0.092067231625844348 0 -0.43526958644754132 0.098499336538904414 0 -0.42519296891236658 0.1018151414717553 0 -0.42519296891236658 0.1018151414717553 0 -0.40919742424558447 0.1025799360978743 0 -0.42098950767451337 0.1097379513262715 0 -0.42845259703584582 0.092067231625844348 0 -0.40919742424558447 0.1025799360978743 0 -0.41539591730156028 0.087228720025027337 0 -0.42845259703584582 0.092067231625844348 0 -0.40919742424558447 0.1025799360978743 0 -0.42845259703584582 0.092067231625844348 0 -0.42519296891236658 0.1018151414717553 0 -0.40919742424558447 0.1025799360978743 0 -0.41091339531256499 0.11985446763867851 0 -0.42098950767451337 0.1097379513262715 0 -0.42843871526248972 0.1195503787707476 0 -0.40919742424558447 0.1025799360978743 0 -0.41091339531256499 0.11985446763867851 0 -0.42098950767451337 0.1097379513262715 0 -0.43205572915834822 0.1061912517698821 0 -0.42098950767451337 0.1097379513262715 0 -0.42843871526248972 0.1195503787707476 0 -0.43205572915834822 0.1061912517698821 0 -0.42843871526248972 0.1195503787707476 0 -0.44111884157641379 0.11247782063164111 0 -0.42843871526248972 0.1195503787707476 0 -0.44339392736274491 0.1240025757341465 0 -0.43283935041835708 0.13023277035992861 0 -0.44339392736274491 0.1240025757341465 0 -0.4533304568866256 0.1161668058525617 0 -0.45431087667096709 0.13210183166380249 0 -0.42843871526248972 0.1195503787707476 0 -0.44339392736274491 0.1240025757341465 0 -0.44111884157641379 0.11247782063164111 0 -0.44339392736274491 0.1240025757341465 0 -0.44111884157641379 0.11247782063164111 0 -0.4533304568866256 0.1161668058525617 0 -0.44111884157641379 0.11247782063164111 0 -0.44981883286060842 0.1063138546991431 0 -0.4533304568866256 0.1161668058525617 0 -0.44111884157641379 0.11247782063164111 0 -0.44057626668841482 0.104540780718091 0 -0.44981883286060842 0.1063138546991431 0 -0.43205572915834822 0.1061912517698821 0 -0.44111884157641379 0.11247782063164111 0 -0.44057626668841482 0.104540780718091 0 -0.44057626668841482 0.104540780718091 0 -0.44461834339916201 0.099221639950884177 0 -0.44981883286060842 0.1063138546991431 0 -0.43526958644754132 0.098499336538904414 0 -0.44461834339916201 0.099221639950884177 0 -0.44357583155332603 0.093117415193050418 0 -0.43526958644754132 0.098499336538904414 0 -0.44057626668841482 0.104540780718091 0 -0.44461834339916201 0.099221639950884177 0 -0.44461834339916201 0.099221639950884177 0 -0.45162335632240669 0.097836524261584845 0 -0.44357583155332603 0.093117415193050418 0 -0.44461834339916201 0.099221639950884177 0 -0.45162335632240669 0.097836524261584845 0 -0.44981883286060842 0.1063138546991431 0 -0.45162335632240669 0.097836524261584845 0 -0.44981883286060842 0.1063138546991431 0 -0.45791397853277072 0.10277929998761121 0 -0.44981883286060842 0.1063138546991431 0 -0.45791397853277072 0.10277929998761121 0 -0.46156211942495368 0.11093009046359049 0 -0.45162335632240669 0.097836524261584845 0 -0.46036773850359902 0.096680681014349096 0 -0.45344541308497421 0.088906254724470959 0 -0.45162335632240669 0.097836524261584845 0 -0.45791397853277072 0.10277929998761121 0 -0.46036773850359902 0.096680681014349096 0 -0.45791397853277072 0.10277929998761121 0 -0.46036773850359902 0.096680681014349096 0 -0.46588125048399559 0.1031100801824162 0 -0.46036773850359902 0.096680681014349096 0 -0.4674014883008753 0.096222265042702926 0 -0.46560302109265228 0.090610684984509207 0 -0.46036773850359902 0.096680681014349096 0 -0.4674014883008753 0.096222265042702926 0 -0.46588125048399559 0.1031100801824162 0 -0.45791397853277072 0.10277929998761121 0 -0.46588125048399559 0.1031100801824162 0 -0.46156211942495368 0.11093009046359049 0 -0.46588125048399559 0.1031100801824162 0 -0.46156211942495368 0.11093009046359049 0 -0.47290792073729948 0.112590027989717 0 -0.46481262985809968 0.1231840057036422 0 -0.4533304568866256 0.1161668058525617 0 -0.45431087667096709 0.13210183166380249 0 -0.46156211942495368 0.11093009046359049 0 -0.46481262985809968 0.1231840057036422 0 -0.47290792073729948 0.112590027989717 0 -0.46156211942495368 0.11093009046359049 0 -0.46481262985809968 0.1231840057036422 0 -0.4533304568866256 0.1161668058525617 0 -0.44981883286060842 0.1063138546991431 0 -0.46156211942495368 0.11093009046359049 0 -0.4533304568866256 0.1161668058525617 0 -0.4322941189819548 0.07194257433908044 0 -0.44770776982610699 0.081554527153814449 0 -0.45723299651418331 0.080095106213602718 0 -0.4322941189819548 0.07194257433908044 0 -0.45723299651418331 0.080095106213602718 0 -0.4322941189819548 0.07194257433908044 0 -0.45071793963611118 0.064595248585115492 0 -0.45723299651418331 0.080095106213602718 0 -0.43837797036736798 0.052052646058371538 0 -0.4322941189819548 0.07194257433908044 0 -0.45071793963611118 0.064595248585115492 0 -0.42845259703584582 0.092067231625844348 0 -0.44770776982610699 0.081554527153814449 0 -0.42845259703584582 0.092067231625844348 0 -0.44770776982610699 0.081554527153814449 0 -0.44357583155332603 0.093117415193050418 0 -0.44770776982610699 0.081554527153814449 0 -0.45344541308497421 0.088906254724470959 0 -0.45723299651418331 0.080095106213602718 0 -0.4322941189819548 0.07194257433908044 0 -0.43572096814581002 0.081903245571944533 0 -0.44770776982610699 0.081554527153814449 0 -0.44770776982610699 0.081554527153814449 0 -0.44357583155332603 0.093117415193050418 0 -0.45344541308497421 0.088906254724470959 0 -0.45162335632240669 0.097836524261584845 0 -0.44357583155332603 0.093117415193050418 0 -0.45344541308497421 0.088906254724470959 0 -0.46560302109265228 0.090610684984509207 0 -0.45723299651418331 0.080095106213602718 0 -0.48217187404641121 0.088247638088125885 0 -0.45344541308497421 0.088906254724470959 0 -0.46560302109265228 0.090610684984509207 0 -0.45723299651418331 0.080095106213602718 0 -0.46036773850359902 0.096680681014349096 0 -0.45344541308497421 0.088906254724470959 0 -0.46560302109265228 0.090610684984509207 0 -0.45071793963611118 0.064595248585115492 0 -0.46028270760199608 0.070359811798434035 0 -0.46779760718159241 0.063127588076605831 0 -0.45071793963611118 0.064595248585115492 0 -0.45723299651418331 0.080095106213602718 0 -0.46028270760199608 0.070359811798434035 0 -0.46028270760199608 0.070359811798434035 0 -0.46779760718159241 0.063127588076605831 0 -0.47028901318714877 0.077643018486848514 0 -0.45723299651418331 0.080095106213602718 0 -0.46028270760199608 0.070359811798434035 0 -0.47028901318714877 0.077643018486848514 0 -0.48051844685903222 0.056730913642683428 0 -0.4819494298534287 0.084007528582151686 0 -0.48051844685903222 0.056730913642683428 0 -0.46779760718159241 0.063127588076605831 0 -0.4819494298534287 0.084007528582151686 0 -0.46779760718159241 0.063127588076605831 0 -0.4819494298534287 0.084007528582151686 0 -0.46779760718159241 0.063127588076605831 0 -0.47028901318714877 0.077643018486848514 0 -0.4819494298534287 0.084007528582151686 0 -0.46560302109265228 0.090610684984509207 0 -0.48217187404641121 0.088247638088125885 0 -0.47362291157993119 0.094308818292894669 0 -0.45723299651418331 0.080095106213602718 0 -0.47028901318714877 0.077643018486848514 0 -0.48217187404641121 0.088247638088125885 0 -0.45723299651418331 0.080095106213602718 0 -0.48217187404641121 0.088247638088125885 0 -0.47028901318714877 0.077643018486848514 0 -0.4819494298534287 0.084007528582151686 0 -0.48217187404641121 0.088247638088125885 0 -0.4674014883008753 0.096222265042702926 0 -0.46560302109265228 0.090610684984509207 0 -0.47362291157993119 0.094308818292894669 0 -0.48217187404641121 0.088247638088125885 0 -0.4855779076344291 0.089361072217472276 0 -0.48263942425885681 0.09715982443817936 0 -0.48217187404641121 0.088247638088125885 0 -0.47362291157993119 0.094308818292894669 0 -0.48263942425885681 0.09715982443817936 0 -0.48217187404641121 0.088247638088125885 0 -0.48263942425885681 0.09715982443817936 0 -0.4819494298534287 0.084007528582151686 0 -0.48217187404641121 0.088247638088125885 0 -0.4819494298534287 0.084007528582151686 0 -0.48217187404641121 0.088247638088125885 0 -0.4855779076344291 0.089361072217472276 0 -0.4819494298534287 0.084007528582151686 0 -0.4855779076344291 0.089361072217472276 0 -0.48217187404641121 0.088247638088125885 0 -0.4855779076344291 0.089361072217472276 0 -0.4855779076344291 0.089361072217472276 0 -0.5 0.069091270663206972 0 -0.50000000000000422 0.094075661619331133 0 -0.4819494298534287 0.084007528582151686 0 -0.4855779076344291 0.089361072217472276 0 -0.5 0.069091270663206972 0 -0.4855779076344291 0.089361072217472276 0 -0.50000000000000422 0.094075661619331133 0 -0.48051844685903222 0.056730913642683428 0 -0.4819494298534287 0.084007528582151686 0 -0.5 0.069091270663206972 0 -0.46481262985809968 0.1231840057036422 0 -0.47290792073729948 0.112590027989717 0 -0.484265849479741 0.1254732530392568 0 -0.47290792073729948 0.112590027989717 0 -0.48540810418175229 0.11120420965980619 0 -0.484265849479741 0.1254732530392568 0 -0.46588125048399559 0.1031100801824162 0 -0.47290792073729948 0.112590027989717 0 -0.47469799201062762 0.1022856531947187 0 -0.4674014883008753 0.096222265042702926 0 -0.46588125048399559 0.1031100801824162 0 -0.47469799201062762 0.1022856531947187 0 -0.4674014883008753 0.096222265042702926 0 -0.47469799201062762 0.1022856531947187 0 -0.47362291157993119 0.094308818292894669 0 -0.47469799201062762 0.1022856531947187 0 -0.47362291157993119 0.094308818292894669 0 -0.48263942425885681 0.09715982443817936 0 -0.47469799201062762 0.1022856531947187 0 -0.48263942425885681 0.09715982443817936 0 -0.48540810418175229 0.11120420965980619 0 -0.47290792073729948 0.112590027989717 0 -0.47469799201062762 0.1022856531947187 0 -0.48540810418175229 0.11120420965980619 0 -0.4855779076344291 0.089361072217472276 0 -0.50000000000000422 0.094075661619331133 0 -0.49999999999999911 0.1106397751479325 0 -0.48263942425885681 0.09715982443817936 0 -0.49999999999999911 0.1106397751479325 0 -0.48540810418175229 0.11120420965980619 0 -0.4855779076344291 0.089361072217472276 0 -0.48263942425885681 0.09715982443817936 0 -0.49999999999999911 0.1106397751479325 0 -0.4855779076344291 0.089361072217472276 0 -0.49999999999999911 0.1106397751479325 0 -0.49999999999999911 0.1106397751479325 0 -0.5 0.13713965413030721 0 -0.484265849479741 0.1254732530392568 0 -0.49999999999999911 0.1106397751479325 0 -0.48540810418175229 0.11120420965980619 0 -0.484265849479741 0.1254732530392568 0 -0.5 0.13713965413030721 0 -0.484265849479741 0.1254732530392568 0 -0.48316776953879831 0.1400455744600998 0 -0.46481262985809968 0.1231840057036422 0 -0.484265849479741 0.1254732530392568 0 -0.46852542168594358 0.13834185578140501 0 -0.484265849479741 0.1254732530392568 0 -0.48316776953879831 0.1400455744600998 0 -0.46852542168594358 0.13834185578140501 0 -0.48316776953879831 0.1400455744600998 0 -0.46852542168594358 0.13834185578140501 0 -0.46841727905673691 0.15215231162174639 0 -0.48316776953879831 0.1400455744600998 0 -0.48255357798344167 0.1555378984270073 0 -0.46841727905673691 0.15215231162174639 0 -0.5 0.13713965413030721 0 -0.48255357798344167 0.1555378984270073 0 -0.5 0.1636395331126819 0 -0.5 0.13713965413030721 0 -0.48316776953879831 0.1400455744600998 0 -0.48255357798344167 0.1555378984270073 0 -0.48255357798344167 0.1555378984270073 0 -0.5 0.1636395331126819 0 -0.47889976827961811 0.17390408998246379 0 -0.5 0.1636395331126819 0 -0.49043028334799521 0.18074757548944051 0 -0.50000000000000044 0.19013941209505661 0 -0.5 0.1636395331126819 0 -0.49043028334799521 0.18074757548944051 0 -0.47889976827961811 0.17390408998246379 0 -0.47889976827961811 0.17390408998246379 0 -0.46591398360407338 0.1831918212595082 0 -0.48052642446464022 0.18978636140597019 0 -0.49043028334799521 0.18074757548944051 0 -0.47889976827961811 0.17390408998246379 0 -0.48052642446464022 0.18978636140597019 0 -0.47889976827961811 0.17390408998246379 0 -0.46483665102549698 0.16634622725474521 0 -0.46591398360407338 0.1831918212595082 0 -0.46591398360407338 0.1831918212595082 0 -0.48052642446464022 0.18978636140597019 0 -0.48255357798344167 0.1555378984270073 0 -0.47889976827961811 0.17390408998246379 0 -0.46483665102549698 0.16634622725474521 0 -0.48255357798344167 0.1555378984270073 0 -0.46483665102549698 0.16634622725474521 0 -0.46841727905673691 0.15215231162174639 0 -0.46483665102549698 0.16634622725474521 0 -0.46841727905673691 0.15215231162174639 0 -0.45505178300016091 0.1509434600035453 0 -0.46483665102549698 0.16634622725474521 0 -0.44770033427020423 0.1749720691392492 0 -0.45245022324546841 0.16299082886497041 0 -0.46483665102549698 0.16634622725474521 0 -0.45245022324546841 0.16299082886497041 0 -0.45505178300016091 0.1509434600035453 0 -0.46591398360407338 0.1831918212595082 0 -0.44770033427020423 0.1749720691392492 0 -0.46483665102549698 0.16634622725474521 0 -0.46591398360407338 0.1831918212595082 0 -0.44770033427020423 0.1749720691392492 0 -0.46591398360407338 0.1831918212595082 0 -0.44770033427020423 0.1749720691392492 0 -0.45529494843704199 0.19418302809394031 0 -0.46483665102549698 0.16634622725474521 0 -0.46591398360407338 0.1831918212595082 0 -0.44770033427020423 0.1749720691392492 0 -0.45529494843704199 0.19418302809394031 0 -0.43507615090361268 0.19083196739128999 0 -0.44770033427020423 0.1749720691392492 0 -0.42948668493633479 0.16675231701899079 0 -0.44770033427020423 0.1749720691392492 0 -0.44132917321745768 0.15736951564693119 0 -0.42948668493633479 0.16675231701899079 0 -0.44770033427020423 0.1749720691392492 0 -0.45245022324546841 0.16299082886497041 0 -0.44132917321745768 0.15736951564693119 0 -0.45245022324546841 0.16299082886497041 0 -0.44132917321745768 0.15736951564693119 0 -0.45505178300016091 0.1509434600035453 0 -0.44132917321745768 0.15736951564693119 0 -0.44018440602587139 0.14036281809616361 0 -0.45505178300016091 0.1509434600035453 0 -0.44018440602587139 0.14036281809616361 0 -0.45431087667096709 0.13210183166380249 0 -0.45505178300016091 0.1509434600035453 0 -0.44339392736274491 0.1240025757341465 0 -0.44018440602587139 0.14036281809616361 0 -0.43283935041835708 0.13023277035992861 0 -0.44339392736274491 0.1240025757341465 0 -0.44018440602587139 0.14036281809616361 0 -0.45431087667096709 0.13210183166380249 0 -0.45431087667096709 0.13210183166380249 0 -0.46852542168594358 0.13834185578140501 0 -0.45505178300016091 0.1509434600035453 0 -0.46481262985809968 0.1231840057036422 0 -0.45431087667096709 0.13210183166380249 0 -0.46852542168594358 0.13834185578140501 0 -0.46852542168594358 0.13834185578140501 0 -0.46841727905673691 0.15215231162174639 0 -0.45505178300016091 0.1509434600035453 0 -0.46891111927803181 0.2300562081208917 0 -0.46829859294929671 0.24125222961407239 0 -0.47030806071801612 0.25189933141855891 0 -0.46891111927803181 0.2300562081208917 0 -0.47030806071801612 0.25189933141855891 0 -0.48487107148390468 0.23984817863281541 0 -0.46891111927803181 0.2300562081208917 0 -0.47030806071801612 0.25189933141855891 0 -0.48487107148390468 0.23984817863281541 0 -0.5 0.22551850204434101 0 -0.5 0.25246229055944291 0 -0.48487107148390468 0.23984817863281541 0 -0.5 0.22551850204434101 0 -0.48202499230161899 0.21321855483666391 0 -0.48487107148390468 0.23984817863281541 0 -0.46891111927803181 0.2300562081208917 0 -0.48202499230161899 0.21321855483666391 0 -0.46891111927803181 0.2300562081208917 0 -0.48202499230161899 0.21321855483666391 0 -0.46891111927803181 0.2300562081208917 0 -0.48202499230161899 0.21321855483666391 0 -0.46741255144105182 0.2066240146902 0 -0.48202499230161899 0.21321855483666391 0 -0.47843620342071258 0.20168405404498541 0 -0.46741255144105182 0.2066240146902 0 -0.48202499230161899 0.21321855483666391 0 -0.49513886532520551 0.19638090155243559 0 -0.5 0.22551850204434101 0 -0.48202499230161899 0.21321855483666391 0 -0.50000000000000011 0.19857471352923919 0 -0.48202499230161899 0.21321855483666391 0 -0.49513886532520551 0.19638090155243559 0 -0.47843620342071258 0.20168405404498541 0 -0.48202499230161899 0.21321855483666391 0 -0.49513886532520551 0.19638090155243559 0 -0.50000000000000011 0.19857471352923919 0 -0.49043028334799521 0.18074757548944051 0 -0.49513886532520551 0.19638090155243559 0 -0.48052642446464022 0.18978636140597019 0 -0.49043028334799521 0.18074757548944051 0 -0.49513886532520551 0.19638090155243559 0 -0.50000000000000044 0.19013941209505661 0 -0.49513886532520551 0.19638090155243559 0 -0.48052642446464022 0.18978636140597019 0 -0.47843620342071258 0.20168405404498541 0 -0.49513886532520551 0.19638090155243559 0 -0.50000000000000011 0.19857471352923919 0 -0.49513886532520551 0.19638090155243559 0 -0.50000000000000011 0.19857471352923919 0 -0.50000000000000044 0.19013941209505661 0 -0.49513886532520551 0.19638090155243559 0 -0.50000000000000044 0.19013941209505661 0 -0.49513886532520551 0.19638090155243559 0 -0.48052642446464022 0.18978636140597019 0 -0.46591398360407338 0.1831918212595082 0 -0.48052642446464022 0.18978636140597019 0 -0.47843620342071258 0.20168405404498541 0 -0.46591398360407338 0.1831918212595082 0 -0.47843620342071258 0.20168405404498541 0 -0.46741255144105182 0.2066240146902 0 -0.46591398360407338 0.1831918212595082 0 -0.45529494843704199 0.19418302809394031 0 -0.46741255144105182 0.2066240146902 0 -0.46591398360407338 0.1831918212595082 0 -0.46741255144105182 0.2066240146902 0 -0.45529494843704199 0.19418302809394031 0 -0.43507615090361268 0.19083196739128999 0 -0.45529494843704199 0.19418302809394031 0 -0.44332108990924501 0.2064547416925743 0 -0.43507615090361268 0.19083196739128999 0 -0.44332108990924501 0.2064547416925743 0 -0.45644021906532201 0.21482931636337671 0 -0.4463274506925361 0.22219510540042409 0 -0.44332108990924501 0.2064547416925743 0 -0.4463274506925361 0.22219510540042409 0 -0.42404834927402502 0.21492218513605349 0 -0.45529494843704199 0.19418302809394031 0 -0.44332108990924501 0.2064547416925743 0 -0.45644021906532201 0.21482931636337671 0 -0.45529494843704199 0.19418302809394031 0 -0.45644021906532201 0.21482931636337671 0 -0.46741255144105182 0.2066240146902 0 -0.46891111927803181 0.2300562081208917 0 -0.46741255144105182 0.2066240146902 0 -0.46891111927803181 0.2300562081208917 0 -0.45644021906532201 0.21482931636337671 0 -0.46741255144105182 0.2066240146902 0 -0.46891111927803181 0.2300562081208917 0 -0.45737415463402531 0.2294628001822297 0 -0.46049113127065799 0.2408671133714248 0 -0.45644021906532201 0.21482931636337671 0 -0.45737415463402531 0.2294628001822297 0 -0.4463274506925361 0.22219510540042409 0 -0.46891111927803181 0.2300562081208917 0 -0.45644021906532201 0.21482931636337671 0 -0.45737415463402531 0.2294628001822297 0 -0.4463274506925361 0.22219510540042409 0 -0.4391639888176283 0.232861810253565 0 -0.44944243757294211 0.23359780497830709 0 -0.45737415463402531 0.2294628001822297 0 -0.4463274506925361 0.22219510540042409 0 -0.44944243757294211 0.23359780497830709 0 -0.44689953720935099 0.23790310505455009 0 -0.43850059117617612 0.24428569161490341 0 -0.46049113127065799 0.2408671133714248 0 -0.44944243757294211 0.23359780497830709 0 -0.44689953720935099 0.23790310505455009 0 -0.46049113127065799 0.2408671133714248 0 -0.4391639888176283 0.232861810253565 0 -0.44944243757294211 0.23359780497830709 0 -0.44689953720935099 0.23790310505455009 0 -0.4391639888176283 0.232861810253565 0 -0.44689953720935099 0.23790310505455009 0 -0.43850059117617612 0.24428569161490341 0 -0.43850059117617612 0.24428569161490341 0 -0.45407962648622052 0.24944900702720779 0 -0.44435632404652542 0.25325983155990861 0 -0.43850059117617612 0.24428569161490341 0 -0.45407962648622052 0.24944900702720779 0 -0.46829859294929671 0.24125222961407239 0 -0.43850059117617612 0.24428569161490341 0 -0.46049113127065799 0.2408671133714248 0 -0.46829859294929671 0.24125222961407239 0 -0.43850059117617612 0.24428569161490341 0 -0.46829859294929671 0.24125222961407239 0 -0.45737415463402531 0.2294628001822297 0 -0.44944243757294211 0.23359780497830709 0 -0.46049113127065799 0.2408671133714248 0 -0.46891111927803181 0.2300562081208917 0 -0.46049113127065799 0.2408671133714248 0 -0.46891111927803181 0.2300562081208917 0 -0.46049113127065799 0.2408671133714248 0 -0.46829859294929671 0.24125222961407239 0 -0.45407962648622052 0.24944900702720779 0 -0.46829859294929671 0.24125222961407239 0 -0.46313750112468022 0.24981470823400551 0 -0.46829859294929671 0.24125222961407239 0 -0.46313750112468022 0.24981470823400551 0 -0.47030806071801612 0.25189933141855891 0 -0.4087025894030557 0.24731915361573439 0 -0.41745041572628289 0.2327756236722926 0 -0.40381137905018327 0.22649769235391709 0 -0.4087025894030557 0.24731915361573439 0 -0.43323934517786772 0.24236346358346539 0 -0.41745041572628289 0.2327756236722926 0 -0.43850059117617612 0.24428569161490341 0 -0.4087025894030557 0.24731915361573439 0 -0.42459853110205897 0.25559547230202512 0 -0.43850059117617612 0.24428569161490341 0 -0.4087025894030557 0.24731915361573439 0 -0.43323934517786772 0.24236346358346539 0 -0.43850059117617612 0.24428569161490341 0 -0.4087025894030557 0.24731915361573439 0 -0.4391639888176283 0.232861810253565 0 -0.43850059117617612 0.24428569161490341 0 -0.43323934517786772 0.24236346358346539 0 -0.43323934517786772 0.24236346358346539 0 -0.41745041572628289 0.2327756236722926 0 -0.42404834927402502 0.21492218513605349 0 -0.43323934517786772 0.24236346358346539 0 -0.42404834927402502 0.21492218513605349 0 -0.4463274506925361 0.22219510540042409 0 -0.4391639888176283 0.232861810253565 0 -0.42404834927402502 0.21492218513605349 0 -0.4391639888176283 0.232861810253565 0 -0.43323934517786772 0.24236346358346539 0 -0.42404834927402502 0.21492218513605349 0 -0.41745041572628289 0.2327756236722926 0 -0.42404834927402502 0.21492218513605349 0 -0.40381137905018327 0.22649769235391709 0 -0.42404834927402502 0.21492218513605349 0 -0.40171581647771792 0.20604722931767641 0 -0.40381137905018327 0.22649769235391709 0 -0.44332108990924501 0.2064547416925743 0 -0.42404834927402502 0.21492218513605349 0 -0.43507615090361268 0.19083196739128999 0 -0.42404834927402502 0.21492218513605349 0 -0.43507615090361268 0.19083196739128999 0 -0.41485735337018309 0.1874809066886414 0 -0.43507615090361268 0.19083196739128999 0 -0.41485735337018309 0.1874809066886414 0 -0.42404834927402502 0.21492218513605349 0 -0.40171581647771792 0.20604722931767641 0 -0.41485735337018309 0.1874809066886414 0 -0.42404834927402502 0.21492218513605349 0 -0.41485735337018309 0.1874809066886414 0 -0.40171581647771792 0.20604722931767641 0 -0.41485735337018309 0.1874809066886414 0 -0.39625526449226228 0.18439779905462039 0 -0.38557116171505079 0.19661153841976189 0 -0.40171581647771792 0.20604722931767641 0 -0.39625526449226228 0.18439779905462039 0 -0.38557116171505079 0.19661153841976189 0 -0.37765317561434109 0.181314691420601 0 -0.37185451132587982 0.19843202101231161 0 -0.38557116171505079 0.19661153841976189 0 -0.38169568447594349 0.21726690550201561 0 -0.40171581647771792 0.20604722931767641 0 -0.38557116171505079 0.19661153841976189 0 -0.38169568447594349 0.21726690550201561 0 -0.37185451132587982 0.19843202101231161 0 -0.38169568447594349 0.21726690550201561 0 -0.40171581647771792 0.20604722931767641 0 -0.40381137905018327 0.22649769235391709 0 -0.38169568447594349 0.21726690550201561 0 -0.40381137905018327 0.22649769235391709 0 -0.38774509679536712 0.23854247795735389 0 -0.38169568447594349 0.21726690550201561 0 -0.38774509679536712 0.23854247795735389 0 -0.37021098632183191 0.23455152808732249 0 -0.38774509679536712 0.23854247795735389 0 -0.36746752041369107 0.25111480917134987 0 -0.38774509679536712 0.23854247795735389 0 -0.37890458762993517 0.25035261561656552 0 -0.36746752041369107 0.25111480917134987 0 -0.38774509679536712 0.23854247795735389 0 -0.37021098632183191 0.23455152808732249 0 -0.36746752041369107 0.25111480917134987 0 -0.4087025894030557 0.24731915361573439 0 -0.38774509679536712 0.23854247795735389 0 -0.37890458762993517 0.25035261561656552 0 -0.4087025894030557 0.24731915361573439 0 -0.37890458762993517 0.25035261561656552 0 -0.4087025894030557 0.24731915361573439 0 -0.40381137905018327 0.22649769235391709 0 -0.38774509679536712 0.23854247795735389 0 -0.41934035302232242 0.13701530883865681 0 -0.42676425802092288 0.15248518590798171 0 -0.40655231939856301 0.16268481798239631 0 -0.41934035302232242 0.13701530883865681 0 -0.40655231939856301 0.16268481798239631 0 -0.39824728542694371 0.13788872927615101 0 -0.41091339531256499 0.11985446763867851 0 -0.41934035302232242 0.13701530883865681 0 -0.39824728542694371 0.13788872927615101 0 -0.41091339531256499 0.11985446763867851 0 -0.42843871526248972 0.1195503787707476 0 -0.41934035302232242 0.13701530883865681 0 -0.42843871526248972 0.1195503787707476 0 -0.41934035302232242 0.13701530883865681 0 -0.43283935041835708 0.13023277035992861 0 -0.44018440602587139 0.14036281809616361 0 -0.41934035302232242 0.13701530883865681 0 -0.43283935041835708 0.13023277035992861 0 -0.44132917321745768 0.15736951564693119 0 -0.44018440602587139 0.14036281809616361 0 -0.42676425802092288 0.15248518590798171 0 -0.44018440602587139 0.14036281809616361 0 -0.41934035302232242 0.13701530883865681 0 -0.42676425802092288 0.15248518590798171 0 -0.44132917321745768 0.15736951564693119 0 -0.42676425802092288 0.15248518590798171 0 -0.42948668493633479 0.16675231701899079 0 -0.43507615090361268 0.19083196739128999 0 -0.42948668493633479 0.16675231701899079 0 -0.41485735337018309 0.1874809066886414 0 -0.44770033427020423 0.1749720691392492 0 -0.43507615090361268 0.19083196739128999 0 -0.42948668493633479 0.16675231701899079 0 -0.41485735337018309 0.1874809066886414 0 -0.40655231939856301 0.16268481798239631 0 -0.42948668493633479 0.16675231701899079 0 -0.41485735337018309 0.1874809066886414 0 -0.40655231939856301 0.16268481798239631 0 -0.42676425802092288 0.15248518590798171 0 -0.42948668493633479 0.16675231701899079 0 -0.40655231939856301 0.16268481798239631 0 -0.40655231939856301 0.16268481798239631 0 -0.39625526449226228 0.18439779905462039 0 -0.38660126961116048 0.16374482183589351 0 -0.41485735337018309 0.1874809066886414 0 -0.39625526449226228 0.18439779905462039 0 -0.41485735337018309 0.1874809066886414 0 -0.40655231939856301 0.16268481798239631 0 -0.39625526449226228 0.18439779905462039 0 -0.39625526449226228 0.18439779905462039 0 -0.37765317561434109 0.181314691420601 0 -0.38557116171505079 0.19661153841976189 0 -0.39625526449226228 0.18439779905462039 0 -0.37765317561434109 0.181314691420601 0 -0.39625526449226228 0.18439779905462039 0 -0.37765317561434109 0.181314691420601 0 -0.38660126961116048 0.16374482183589351 0 -0.37765317561434109 0.181314691420601 0 -0.38660126961116048 0.16374482183589351 0 -0.36250846971583361 0.1670705518296714 0 -0.38660126961116048 0.16374482183589351 0 -0.39824728542694371 0.13788872927615101 0 -0.37455412299323421 0.14791890609254069 0 -0.40655231939856301 0.16268481798239631 0 -0.38660126961116048 0.16374482183589351 0 -0.39824728542694371 0.13788872927615101 0 -0.40655231939856301 0.16268481798239631 0 -0.39824728542694371 0.13788872927615101 0 -0.38994225145532407 0.11309264056990589 0 -0.39824728542694371 0.13788872927615101 0 -0.38994225145532407 0.11309264056990589 0 -0.39824728542694371 0.13788872927615101 0 -0.38426453797111237 0.12968304781706139 0 -0.39824728542694371 0.13788872927615101 0 -0.38426453797111237 0.12968304781706139 0 -0.37455412299323421 0.14791890609254069 0 -0.38426453797111237 0.12968304781706139 0 -0.37179195211218818 0.13082898094233089 0 -0.37455412299323421 0.14791890609254069 0 -0.38081074812960902 0.118078147420154 0 -0.38426453797111237 0.12968304781706139 0 -0.37179195211218818 0.13082898094233089 0 -0.37179195211218818 0.13082898094233089 0 -0.37455412299323421 0.14791890609254069 0 -0.36109479275648398 0.14174714174385761 0 -0.37179195211218818 0.13082898094233089 0 -0.35883378796463877 0.1285902162577425 0 -0.36109479275648398 0.14174714174385761 0 -0.37179195211218818 0.13082898094233089 0 -0.35883378796463877 0.1285902162577425 0 -0.36551678714643399 0.1182648797270809 0 -0.34378998236141373 0.1325811052390071 0 -0.34648150408815459 0.1458894611082775 0 -0.36109479275648398 0.14174714174385761 0 -0.35883378796463877 0.1285902162577425 0 -0.34378998236141373 0.1325811052390071 0 -0.36109479275648398 0.14174714174385761 0 -0.35883378796463877 0.1285902162577425 0 -0.34378998236141373 0.1325811052390071 0 -0.35006072096937452 0.1194457977994226 0 -0.34648150408815459 0.1458894611082775 0 -0.35681685966710619 0.15244950643647681 0 -0.33944540878182489 0.15962147140803709 0 -0.34648150408815459 0.1458894611082775 0 -0.35681685966710619 0.15244950643647681 0 -0.36109479275648398 0.14174714174385761 0 -0.35681685966710619 0.15244950643647681 0 -0.37455412299323421 0.14791890609254069 0 -0.36250846971583361 0.1670705518296714 0 -0.35681685966710619 0.15244950643647681 0 -0.37455412299323421 0.14791890609254069 0 -0.36109479275648398 0.14174714174385761 0 -0.38660126961116048 0.16374482183589351 0 -0.37455412299323421 0.14791890609254069 0 -0.36250846971583361 0.1670705518296714 0 -0.37765317561434109 0.181314691420601 0 -0.36250846971583361 0.1670705518296714 0 -0.3575121235417667 0.18630731409443341 0 -0.36250846971583361 0.1670705518296714 0 -0.3575121235417667 0.18630731409443341 0 -0.34388698482893071 0.17541811683167879 0 -0.3575121235417667 0.18630731409443341 0 -0.34388698482893071 0.17541811683167879 0 -0.34028465865790192 0.1890947290034535 0 -0.36250846971583361 0.1670705518296714 0 -0.34388698482893071 0.17541811683167879 0 -0.33944540878182489 0.15962147140803709 0 -0.35681685966710619 0.15244950643647681 0 -0.36250846971583361 0.1670705518296714 0 -0.33944540878182489 0.15962147140803709 0 -0.33944540878182489 0.15962147140803709 0 -0.33213637272007662 0.1748071154596208 0 -0.32052586442682102 0.16702718828380481 0 -0.34388698482893071 0.17541811683167879 0 -0.33944540878182489 0.15962147140803709 0 -0.33213637272007662 0.1748071154596208 0 -0.33213637272007662 0.1748071154596208 0 -0.32215489606647651 0.18377346075440021 0 -0.34028465865790192 0.1890947290034535 0 -0.34388698482893071 0.17541811683167879 0 -0.33213637272007662 0.1748071154596208 0 -0.34028465865790192 0.1890947290034535 0 -0.33213637272007662 0.1748071154596208 0 -0.32215489606647651 0.18377346075440021 0 -0.32052586442682102 0.16702718828380481 0 -0.32215489606647651 0.18377346075440021 0 -0.3138480064571928 0.17908476376436069 0 -0.30712986489500371 0.19744515587020739 0 -0.32215489606647651 0.18377346075440021 0 -0.3138480064571928 0.17908476376436069 0 -0.32052586442682102 0.16702718828380481 0 -0.33944540878182489 0.15962147140803709 0 -0.32052586442682102 0.16702718828380481 0 -0.32195024192711669 0.15208868878742729 0 -0.3138480064571928 0.17908476376436069 0 -0.32052586442682102 0.16702718828380481 0 -0.30558140044047011 0.16809325014903029 0 -0.32052586442682102 0.16702718828380481 0 -0.31470085631756289 0.1585371609342508 0 -0.30558140044047011 0.16809325014903029 0 -0.32052586442682102 0.16702718828380481 0 -0.31470085631756289 0.1585371609342508 0 -0.32195024192711669 0.15208868878742729 0 -0.31470085631756289 0.1585371609342508 0 -0.32195024192711669 0.15208868878742729 0 -0.31232695417734357 0.1503830775751902 0 -0.32195024192711669 0.15208868878742729 0 -0.31845869170851709 0.14134572123326991 0 -0.33214133050784322 0.14165506849516729 0 -0.32195024192711669 0.15208868878742729 0 -0.31845869170851709 0.14134572123326991 0 -0.31232695417734357 0.1503830775751902 0 -0.31845869170851709 0.14134572123326991 0 -0.32338945450278478 0.12786240373903121 0 -0.30410565189604982 0.13873768888887161 0 -0.31845869170851709 0.14134572123326991 0 -0.32338945450278478 0.12786240373903121 0 -0.33214133050784322 0.14165506849516729 0 -0.34378998236141373 0.1325811052390071 0 -0.32338945450278478 0.12786240373903121 0 -0.33214133050784322 0.14165506849516729 0 -0.34378998236141373 0.1325811052390071 0 -0.32338945450278478 0.12786240373903121 0 -0.33720184765550582 0.1197275374297867 0 -0.34378998236141373 0.1325811052390071 0 -0.34648150408815459 0.1458894611082775 0 -0.33214133050784322 0.14165506849516729 0 -0.33944540878182489 0.15962147140803709 0 -0.32195024192711669 0.15208868878742729 0 -0.33214133050784322 0.14165506849516729 0 -0.34648150408815459 0.1458894611082775 0 -0.33944540878182489 0.15962147140803709 0 -0.33214133050784322 0.14165506849516729 0 -0.35768221540864881 0.24032066889640971 0 -0.34237109131147281 0.23780188451099049 0 -0.34718994403201497 0.26368714038534602 0 -0.35768221540864881 0.24032066889640971 0 -0.35755704034962599 0.22643139928569311 0 -0.34237109131147281 0.23780188451099049 0 -0.35768221540864881 0.24032066889640971 0 -0.37021098632183191 0.23455152808732249 0 -0.36746752041369107 0.25111480917134987 0 -0.38169568447594349 0.21726690550201561 0 -0.37021098632183191 0.23455152808732249 0 -0.35755704034962599 0.22643139928569311 0 -0.35768221540864881 0.24032066889640971 0 -0.37021098632183191 0.23455152808732249 0 -0.35755704034962599 0.22643139928569311 0 -0.35755704034962599 0.22643139928569311 0 -0.33916415529944338 0.2201924419955768 0 -0.34237109131147281 0.23780188451099049 0 -0.35755704034962599 0.22643139928569311 0 -0.35684041128229688 0.2106596556247462 0 -0.33916415529944338 0.2201924419955768 0 -0.35684041128229688 0.2106596556247462 0 -0.33198513808865032 0.20405240574747691 0 -0.38169568447594349 0.21726690550201561 0 -0.35755704034962599 0.22643139928569311 0 -0.35684041128229688 0.2106596556247462 0 -0.38169568447594349 0.21726690550201561 0 -0.35684041128229688 0.2106596556247462 0 -0.38169568447594349 0.21726690550201561 0 -0.35684041128229688 0.2106596556247462 0 -0.37185451132587982 0.19843202101231161 0 -0.37765317561434109 0.181314691420601 0 -0.3575121235417667 0.18630731409443341 0 -0.37185451132587982 0.19843202101231161 0 -0.3575121235417667 0.18630731409443341 0 -0.35684041128229688 0.2106596556247462 0 -0.37185451132587982 0.19843202101231161 0 -0.3575121235417667 0.18630731409443341 0 -0.35684041128229688 0.2106596556247462 0 -0.34028465865790192 0.1890947290034535 0 -0.35684041128229688 0.2106596556247462 0 -0.34028465865790192 0.1890947290034535 0 -0.33198513808865032 0.20405240574747691 0 -0.32215489606647651 0.18377346075440021 0 -0.34028465865790192 0.1890947290034535 0 -0.33198513808865032 0.20405240574747691 0 -0.33198513808865032 0.20405240574747691 0 -0.30712986489500371 0.19744515587020739 0 -0.32215489606647651 0.18377346075440021 0 -0.33198513808865032 0.20405240574747691 0 -0.30712986489500371 0.19744515587020739 0 -0.32197406220590069 0.21452094748279779 0 -0.33198513808865032 0.20405240574747691 0 -0.30712986489500371 0.19744515587020739 0 -0.35684041128229688 0.2106596556247462 0 -0.33198513808865032 0.20405240574747691 0 -0.33916415529944338 0.2201924419955768 0 -0.32197406220590069 0.21452094748279779 0 -0.33198513808865032 0.20405240574747691 0 -0.33916415529944338 0.2201924419955768 0 -0.33916415529944338 0.2201924419955768 0 -0.32534981439283139 0.22860697969796609 0 -0.34237109131147281 0.23780188451099049 0 -0.32197406220590069 0.21452094748279779 0 -0.33916415529944338 0.2201924419955768 0 -0.32534981439283139 0.22860697969796609 0 -0.32534981439283139 0.22860697969796609 0 -0.30920185950743451 0.2401113512896435 0 -0.30812950424616242 0.21878008134941609 0 -0.32197406220590069 0.21452094748279779 0 -0.32534981439283139 0.22860697969796609 0 -0.30812950424616242 0.21878008134941609 0 -0.32534981439283139 0.22860697969796609 0 -0.30920185950743451 0.2401113512896435 0 -0.32688321527713321 0.25131824145219323 0 -0.32534981439283139 0.22860697969796609 0 -0.34237109131147281 0.23780188451099049 0 -0.32688321527713321 0.25131824145219323 0 -0.28682597215349082 0.24123755195021351 0 -0.29192725723398733 0.24551974856901621 0 -0.28141857519000429 0.22057087440773351 0 -0.285434535126875 0.24425141730610381 0 -0.28787906502867361 0.24702893637846299 0 -0.2831608256048781 0.24687078180887551 0 -0.285434535126875 0.24425141730610381 0 -0.28871638082395967 0.24453710730739661 0 -0.28682597215349082 0.24123755195021351 0 -0.285434535126875 0.24425141730610381 0 -0.28871638082395967 0.24453710730739661 0 -0.28787906502867361 0.24702893637846299 0 -0.28871638082395967 0.24453710730739661 0 -0.28787906502867361 0.24702893637846299 0 -0.28992113247653528 0.24615742583604211 0 -0.28787906502867361 0.24702893637846299 0 -0.2831608256048781 0.24687078180887551 0 -0.28657407794942868 0.25091609649300578 0 -0.28787906502867361 0.24702893637846299 0 -0.29148923229504348 0.24929222322603489 0 -0.28657407794942868 0.25091609649300578 0 -0.2831608256048781 0.24687078180887551 0 -0.28657407794942868 0.25091609649300578 0 -0.27967146927513509 0.25155831602854029 0 -0.285434535126875 0.24425141730610381 0 -0.28682597215349082 0.24123755195021351 0 -0.28059043202337292 0.24158270908557061 0 -0.285434535126875 0.24425141730610381 0 -0.2831608256048781 0.24687078180887551 0 -0.28059043202337292 0.24158270908557061 0 -0.28682597215349082 0.24123755195021351 0 -0.27912514908456232 0.23330960159718539 0 -0.28059043202337292 0.24158270908557061 0 -0.29192725723398733 0.24551974856901621 0 -0.29943009016011352 0.2497420521595328 0 -0.2988117873315051 0.24231714405126811 0 -0.29192725723398733 0.24551974856901621 0 -0.29148923229504348 0.24929222322603489 0 -0.29943009016011352 0.2497420521595328 0 -0.28871638082395967 0.24453710730739661 0 -0.28682597215349082 0.24123755195021351 0 -0.29192725723398733 0.24551974856901621 0 -0.28871638082395967 0.24453710730739661 0 -0.29192725723398733 0.24551974856901621 0 -0.28992113247653528 0.24615742583604211 0 -0.28787906502867361 0.24702893637846299 0 -0.28992113247653528 0.24615742583604211 0 -0.29148923229504348 0.24929222322603489 0 -0.29192725723398733 0.24551974856901621 0 -0.28992113247653528 0.24615742583604211 0 -0.29148923229504348 0.24929222322603489 0 -0.29192725723398733 0.24551974856901621 0 -0.29148923229504348 0.24929222322603489 0 -0.29943009016011352 0.2497420521595328 0 -0.2988117873315051 0.24231714405126811 0 -0.30920185950743451 0.2401113512896435 0 -0.29192725723398733 0.24551974856901621 0 -0.2988117873315051 0.24231714405126811 0 -0.30053727911634032 0.23381829586541319 0 -0.2988117873315051 0.24231714405126811 0 -0.30920185950743451 0.2401113512896435 0 -0.30053727911634032 0.23381829586541319 0 -0.30920185950743451 0.2401113512896435 0 -0.30053727911634032 0.23381829586541319 0 -0.30812950424616242 0.21878008134941609 0 -0.30920185950743451 0.2401113512896435 0 -0.30812950424616242 0.21878008134941609 0 -0.30053727911634032 0.23381829586541319 0 -0.30812950424616242 0.21878008134941609 0 -0.2946159872626124 0.22236315406772181 0 -0.29192725723398733 0.24551974856901621 0 -0.30053727911634032 0.23381829586541319 0 -0.2946159872626124 0.22236315406772181 0 -0.29192725723398733 0.24551974856901621 0 -0.2946159872626124 0.22236315406772181 0 -0.29192725723398733 0.24551974856901621 0 -0.28141857519000429 0.22057087440773351 0 -0.29192725723398733 0.24551974856901621 0 -0.2946159872626124 0.22236315406772181 0 -0.28141857519000429 0.22057087440773351 0 -0.28682597215349082 0.24123755195021351 0 -0.28141857519000429 0.22057087440773351 0 -0.27912514908456232 0.23330960159718539 0 -0.2946159872626124 0.22236315406772181 0 -0.28956599870194838 0.21007494828872181 0 -0.29730471729123831 0.1992065595664276 0 -0.28141857519000429 0.22057087440773351 0 -0.28956599870194838 0.21007494828872181 0 -0.28489331368084292 0.19852547619562269 0 -0.2946159872626124 0.22236315406772181 0 -0.29730471729123831 0.1992065595664276 0 -0.2946159872626124 0.22236315406772181 0 -0.28141857519000429 0.22057087440773351 0 -0.28956599870194838 0.21007494828872181 0 -0.30812950424616242 0.21878008134941609 0 -0.2946159872626124 0.22236315406772181 0 -0.29730471729123831 0.1992065595664276 0 -0.30812950424616242 0.21878008134941609 0 -0.30712986489500371 0.19744515587020739 0 -0.30812950424616242 0.21878008134941609 0 -0.30712986489500371 0.19744515587020739 0 -0.29730471729123831 0.1992065595664276 0 -0.32197406220590069 0.21452094748279779 0 -0.30812950424616242 0.21878008134941609 0 -0.30712986489500371 0.19744515587020739 0 -0.29730471729123831 0.1992065595664276 0 -0.29999344731986421 0.1760499650651334 0 -0.30712986489500371 0.19744515587020739 0 -0.29730471729123831 0.1992065595664276 0 -0.29999344731986421 0.1760499650651334 0 -0.29730471729123831 0.1992065595664276 0 -0.28489331368084292 0.19852547619562269 0 -0.28564141019288858 0.18611793148497219 0 -0.28956599870194838 0.21007494828872181 0 -0.29730471729123831 0.1992065595664276 0 -0.28489331368084292 0.19852547619562269 0 -0.28489331368084292 0.19852547619562269 0 -0.27090989314602049 0.1956220002464511 0 -0.28564141019288858 0.18611793148497219 0 -0.27090989314602049 0.1956220002464511 0 -0.25157622486723979 0.18960923580231259 0 -0.25690740407328971 0.21100693030726669 0 -0.25690740407328971 0.21100693030726669 0 -0.26913582617907422 0.21632965728921841 0 -0.26161130476441502 0.2265024552436094 0 -0.28141857519000429 0.22057087440773351 0 -0.28489331368084292 0.19852547619562269 0 -0.27090989314602049 0.1956220002464511 0 -0.27090989314602049 0.1956220002464511 0 -0.25690740407328971 0.21100693030726669 0 -0.26913582617907422 0.21632965728921841 0 -0.28141857519000429 0.22057087440773351 0 -0.27090989314602049 0.1956220002464511 0 -0.26913582617907422 0.21632965728921841 0 -0.28141857519000429 0.22057087440773351 0 -0.27090989314602049 0.1956220002464511 0 -0.28141857519000429 0.22057087440773351 0 -0.26913582617907422 0.21632965728921841 0 -0.27257532905162751 0.22687722343616221 0 -0.28141857519000429 0.22057087440773351 0 -0.27912514908456232 0.23330960159718539 0 -0.27257532905162751 0.22687722343616221 0 -0.27912514908456232 0.23330960159718539 0 -0.27257532905162751 0.22687722343616221 0 -0.27158579004008171 0.23767352864306401 0 -0.27257532905162751 0.22687722343616221 0 -0.26161130476441502 0.2265024552436094 0 -0.27158579004008171 0.23767352864306401 0 -0.26913582617907422 0.21632965728921841 0 -0.27257532905162751 0.22687722343616221 0 -0.26161130476441502 0.2265024552436094 0 -0.25690740407328971 0.21100693030726669 0 -0.26161130476441502 0.2265024552436094 0 -0.24750538697543659 0.22102034697483891 0 -0.26161130476441502 0.2265024552436094 0 -0.25183482859182199 0.2331833224768842 0 -0.24750538697543659 0.22102034697483891 0 -0.26161130476441502 0.2265024552436094 0 -0.25183482859182199 0.2331833224768842 0 -0.25994170841285108 0.240553324518512 0 -0.26161130476441502 0.2265024552436094 0 -0.25994170841285108 0.240553324518512 0 -0.27158579004008171 0.23767352864306401 0 -0.25183482859182199 0.2331833224768842 0 -0.25994170841285108 0.240553324518512 0 -0.24744121717665701 0.24359974376900731 0 -0.25994170841285108 0.240553324518512 0 -0.25586356126195242 0.25254648764433929 0 -0.24744121717665701 0.24359974376900731 0 -0.25994170841285108 0.240553324518512 0 -0.26673435921377309 0.24912711786423289 0 -0.25586356126195242 0.25254648764433929 0 -0.26673435921377309 0.24912711786423289 0 -0.27158579004008171 0.23767352864306401 0 -0.27642936889687458 0.24563194384886791 0 -0.25994170841285108 0.240553324518512 0 -0.26673435921377309 0.24912711786423289 0 -0.27158579004008171 0.23767352864306401 0 -0.27912514908456232 0.23330960159718539 0 -0.27158579004008171 0.23767352864306401 0 -0.28059043202337292 0.24158270908557061 0 -0.27158579004008171 0.23767352864306401 0 -0.28059043202337292 0.24158270908557061 0 -0.27642936889687458 0.24563194384886791 0 -0.2831608256048781 0.24687078180887551 0 -0.28059043202337292 0.24158270908557061 0 -0.27642936889687458 0.24563194384886791 0 -0.2831608256048781 0.24687078180887551 0 -0.27642936889687458 0.24563194384886791 0 -0.27967146927513509 0.25155831602854029 0 -0.28796757995062189 0.14656953089956529 0 -0.30268217734849001 0.1528933705638392 0 -0.29140789426202152 0.16250560913866169 0 -0.28796757995062189 0.14656953089956529 0 -0.29045535401113692 0.12750277853522429 0 -0.27542291317864531 0.13000042255835989 0 -0.28796757995062189 0.14656953089956529 0 -0.29045535401113692 0.12750277853522429 0 -0.30410565189604982 0.13873768888887161 0 -0.29045535401113692 0.12750277853522429 0 -0.30410565189604982 0.13873768888887161 0 -0.30262990335162948 0.1093821276287129 0 -0.32338945450278478 0.12786240373903121 0 -0.30410565189604982 0.13873768888887161 0 -0.30262990335162948 0.1093821276287129 0 -0.30410565189604982 0.13873768888887161 0 -0.30268217734849001 0.1528933705638392 0 -0.30558140044047011 0.16809325014903029 0 -0.28796757995062189 0.14656953089956529 0 -0.30410565189604982 0.13873768888887161 0 -0.30268217734849001 0.1528933705638392 0 -0.30410565189604982 0.13873768888887161 0 -0.30558140044047011 0.16809325014903029 0 -0.30410565189604982 0.13873768888887161 0 -0.31232695417734357 0.1503830775751902 0 -0.30558140044047011 0.16809325014903029 0 -0.31845869170851709 0.14134572123326991 0 -0.30410565189604982 0.13873768888887161 0 -0.31232695417734357 0.1503830775751902 0 -0.31470085631756289 0.1585371609342508 0 -0.31232695417734357 0.1503830775751902 0 -0.30558140044047011 0.16809325014903029 0 -0.30268217734849001 0.1528933705638392 0 -0.30558140044047011 0.16809325014903029 0 -0.29999344731986421 0.1760499650651334 0 -0.30268217734849001 0.1528933705638392 0 -0.29999344731986421 0.1760499650651334 0 -0.30268217734849001 0.1528933705638392 0 -0.29999344731986421 0.1760499650651334 0 -0.29140789426202152 0.16250560913866169 0 -0.30712986489500371 0.19744515587020739 0 -0.30558140044047011 0.16809325014903029 0 -0.30712986489500371 0.19744515587020739 0 -0.30558140044047011 0.16809325014903029 0 -0.29999344731986421 0.1760499650651334 0 -0.3138480064571928 0.17908476376436069 0 -0.30712986489500371 0.19744515587020739 0 -0.30558140044047011 0.16809325014903029 0 -0.29730471729123831 0.1992065595664276 0 -0.29999344731986421 0.1760499650651334 0 -0.28564141019288858 0.18611793148497219 0 -0.29999344731986421 0.1760499650651334 0 -0.28637725148530602 0.17332338913426171 0 -0.28564141019288858 0.18611793148497219 0 -0.28637725148530602 0.17332338913426171 0 -0.28564141019288858 0.18611793148497219 0 -0.27639372424904401 0.17777616170199331 0 -0.28796757995062189 0.14656953089956529 0 -0.29140789426202152 0.16250560913866169 0 -0.27863885531896809 0.16314436155911241 0 -0.29999344731986421 0.1760499650651334 0 -0.28637725148530602 0.17332338913426171 0 -0.29140789426202152 0.16250560913866169 0 -0.28637725148530602 0.17332338913426171 0 -0.29140789426202152 0.16250560913866169 0 -0.27863885531896809 0.16314436155911241 0 -0.27863885531896809 0.16314436155911241 0 -0.26040121110203679 0.17067312608516891 0 -0.26879085016601811 0.14839066108957211 0 -0.27863885531896809 0.16314436155911241 0 -0.27639372424904401 0.17777616170199331 0 -0.26040121110203679 0.17067312608516891 0 -0.28637725148530602 0.17332338913426171 0 -0.27863885531896809 0.16314436155911241 0 -0.27639372424904401 0.17777616170199331 0 -0.27090989314602049 0.1956220002464511 0 -0.27639372424904401 0.17777616170199331 0 -0.26040121110203679 0.17067312608516891 0 -0.27090989314602049 0.1956220002464511 0 -0.28564141019288858 0.18611793148497219 0 -0.27639372424904401 0.17777616170199331 0 -0.27090989314602049 0.1956220002464511 0 -0.26040121110203679 0.17067312608516891 0 -0.27090989314602049 0.1956220002464511 0 -0.25157622486723979 0.18960923580231259 0 -0.26040121110203679 0.17067312608516891 0 -0.26040121110203679 0.17067312608516891 0 -0.24989252905805309 0.14572425192388661 0 -0.26040121110203679 0.17067312608516891 0 -0.26879085016601811 0.14839066108957211 0 -0.24989252905805309 0.14572425192388661 0 -0.26879085016601811 0.14839066108957211 0 -0.25824117398475482 0.13157462597297609 0 -0.24989252905805309 0.14572425192388661 0 -0.28796757995062189 0.14656953089956529 0 -0.27863885531896809 0.16314436155911241 0 -0.26879085016601811 0.14839066108957211 0 -0.28796757995062189 0.14656953089956529 0 -0.26879085016601811 0.14839066108957211 0 -0.27542291317864531 0.13000042255835989 0 -0.27542291317864531 0.13000042255835989 0 -0.25824117398475482 0.13157462597297609 0 -0.26657404898383191 0.11628405645814301 0 -0.26879085016601811 0.14839066108957211 0 -0.27542291317864531 0.13000042255835989 0 -0.25824117398475482 0.13157462597297609 0 -0.25824117398475482 0.13157462597297609 0 -0.2504401116513022 0.1175669994668319 0 -0.26657404898383191 0.11628405645814301 0 -0.2504401116513022 0.1175669994668319 0 -0.25614250856294141 0.1060336952946898 0 -0.26657404898383191 0.11628405645814301 0 -0.2504401116513022 0.1175669994668319 0 -0.25614250856294141 0.1060336952946898 0 -0.24399133905966969 0.1017712822813191 0 -0.25614250856294141 0.1060336952946898 0 -0.25345726023504728 0.092538554859935451 0 -0.24399133905966969 0.1017712822813191 0 -0.25614250856294141 0.1060336952946898 0 -0.2673985475369049 0.1020723176603909 0 -0.26657404898383191 0.11628405645814301 0 -0.25614250856294141 0.1060336952946898 0 -0.2673985475369049 0.1020723176603909 0 -0.25345726023504728 0.092538554859935451 0 -0.2673985475369049 0.1020723176603909 0 -0.2668911809479298 0.087303920800490376 0 -0.25345726023504728 0.092538554859935451 0 -0.2673985475369049 0.1020723176603909 0 -0.28156652755607531 0.11324370744987081 0 -0.28411847247898508 0.096172871158113279 0 -0.2673985475369049 0.1020723176603909 0 -0.28411847247898508 0.096172871158113279 0 -0.2668911809479298 0.087303920800490376 0 -0.27542291317864531 0.13000042255835989 0 -0.26657404898383191 0.11628405645814301 0 -0.28156652755607531 0.11324370744987081 0 -0.2673985475369049 0.1020723176603909 0 -0.26657404898383191 0.11628405645814301 0 -0.28156652755607531 0.11324370744987081 0 -0.29045535401113692 0.12750277853522429 0 -0.28156652755607531 0.11324370744987081 0 -0.30262990335162948 0.1093821276287129 0 -0.28411847247898508 0.096172871158113279 0 -0.30262990335162948 0.1093821276287129 0 -0.30190449495233201 0.076843930734792107 0 -0.30262990335162948 0.1093821276287129 0 -0.30190449495233201 0.076843930734792107 0 -0.32232464320094628 0.095100195065147969 0 -0.29045535401113692 0.12750277853522429 0 -0.27542291317864531 0.13000042255835989 0 -0.28156652755607531 0.11324370744987081 0 -0.28156652755607531 0.11324370744987081 0 -0.28411847247898508 0.096172871158113279 0 -0.30262990335162948 0.1093821276287129 0 -0.30410565189604982 0.13873768888887161 0 -0.30262990335162948 0.1093821276287129 0 -0.30190449495233201 0.076843930734792107 0 -0.30336336020187388 0.057190159916313432 0 -0.32434792253082712 0.073882607833566538 0 -0.28411847247898508 0.096172871158113279 0 -0.30190449495233201 0.076843930734792107 0 -0.28023335146110839 0.079349917744914719 0 -0.30190449495233201 0.076843930734792107 0 -0.28142701919489421 0.062576539701893946 0 -0.28023335146110839 0.079349917744914719 0 -0.30190449495233201 0.076843930734792107 0 -0.28142701919489421 0.062576539701893946 0 -0.30336336020187388 0.057190159916313432 0 -0.28142701919489421 0.062576539701893946 0 -0.26946599790727721 0.073824816068535498 0 -0.26259185852319739 0.062901806931174253 0 -0.28142701919489421 0.062576539701893946 0 -0.26946599790727721 0.073824816068535498 0 -0.28023335146110839 0.079349917744914719 0 -0.28411847247898508 0.096172871158113279 0 -0.28023335146110839 0.079349917744914719 0 -0.2668911809479298 0.087303920800490376 0 -0.26946599790727721 0.073824816068535498 0 -0.28023335146110839 0.079349917744914719 0 -0.2668911809479298 0.087303920800490376 0 -0.2668911809479298 0.087303920800490376 0 -0.25345726023504728 0.092538554859935451 0 -0.25618657940925621 0.076991895164204183 0 -0.26946599790727721 0.073824816068535498 0 -0.2668911809479298 0.087303920800490376 0 -0.25618657940925621 0.076991895164204183 0 -0.25345726023504728 0.092538554859935451 0 -0.25618657940925621 0.076991895164204183 0 -0.24744940670915899 0.082982612093996336 0 -0.26946599790727721 0.073824816068535498 0 -0.26259185852319739 0.062901806931174253 0 -0.25618657940925621 0.076991895164204183 0 -0.25618657940925621 0.076991895164204183 0 -0.2519811322907059 0.063581899575077552 0 -0.24512548103058551 0.074285041536547206 0 -0.26259185852319739 0.062901806931174253 0 -0.25618657940925621 0.076991895164204183 0 -0.2519811322907059 0.063581899575077552 0 -0.26259185852319739 0.062901806931174253 0 -0.2519811322907059 0.063581899575077552 0 -0.25332614084858979 0.052582736700977219 0 -0.26259185852319739 0.062901806931174253 0 -0.25332614084858979 0.052582736700977219 0 -0.26575739479122318 0.04829647565578335 0 -0.25332614084858979 0.052582736700977219 0 -0.25393077756618421 0.041175500899520059 0 -0.26575739479122318 0.04829647565578335 0 -0.25332614084858979 0.052582736700977219 0 -0.25393077756618421 0.041175500899520059 0 -0.24735551461620839 0.044536386278428472 0 -0.25393077756618421 0.041175500899520059 0 -0.24996056485392651 0.029949614958286779 0 -0.2480435708098894 0.038562984200042033 0 -0.25393077756618421 0.041175500899520059 0 -0.26186027198777689 0.033778234709138703 0 -0.24996056485392651 0.029949614958286779 0 -0.25393077756618421 0.041175500899520059 0 -0.26186027198777689 0.033778234709138703 0 -0.26575739479122318 0.04829647565578335 0 -0.26186027198777689 0.033778234709138703 0 -0.26575739479122318 0.04829647565578335 0 -0.28160155961983052 0.043451884536013348 0 -0.26186027198777689 0.033778234709138703 0 -0.27824486054215608 0.02404329732483991 0 -0.28160155961983052 0.043451884536013348 0 -0.28142701919489421 0.062576539701893946 0 -0.26575739479122318 0.04829647565578335 0 -0.28160155961983052 0.043451884536013348 0 -0.28142701919489421 0.062576539701893946 0 -0.26259185852319739 0.062901806931174253 0 -0.26575739479122318 0.04829647565578335 0 -0.25439413989377241 -0.0032653670090099212 0 -0.25762566453262548 0.011077362923249619 0 -0.24766078304850581 0.017662533827461479 0 -0.25439413989377241 -0.0032653670090099212 0 -0.24766078304850581 0.017662533827461479 0 -0.25439413989377241 -0.0032653670090099212 0 -0.25762566453262548 0.011077362923249619 0 -0.26839520126254701 0.0088666212175328163 0 -0.25762566453262548 0.011077362923249619 0 -0.26005253392567651 0.021045663657013991 0 -0.26839520126254701 0.0088666212175328163 0 -0.26005253392567651 0.021045663657013991 0 -0.24996056485392651 0.029949614958286779 0 -0.24766078304850581 0.017662533827461479 0 -0.25762566453262548 0.011077362923249619 0 -0.26005253392567651 0.021045663657013991 0 -0.24766078304850581 0.017662533827461479 0 -0.26186027198777689 0.033778234709138703 0 -0.26005253392567651 0.021045663657013991 0 -0.24996056485392651 0.029949614958286779 0 -0.26005253392567651 0.021045663657013991 0 -0.27824486054215608 0.02404329732483991 0 -0.26839520126254701 0.0088666212175328163 0 -0.26186027198777689 0.033778234709138703 0 -0.26005253392567651 0.021045663657013991 0 -0.27824486054215608 0.02404329732483991 0 -0.27824486054215608 0.02404329732483991 0 -0.26839520126254701 0.0088666212175328163 0 -0.28549640923868341 0.0058388088596524838 0 -0.2797152221951521 -0.0086292804435675226 0 -0.26839520126254701 0.0088666212175328163 0 -0.28549640923868341 0.0058388088596524838 0 -0.27824486054215608 0.02404329732483991 0 -0.28549640923868341 0.0058388088596524838 0 -0.29991595031090612 0.01236481056600826 0 -0.30503630449653202 -0.01399319387812435 0 -0.28549640923868341 0.0058388088596524838 0 -0.29991595031090612 0.01236481056600826 0 -0.27824486054215608 0.02404329732483991 0 -0.29991595031090612 0.01236481056600826 0 -0.29893783638589749 0.03370007286539712 0 -0.29991595031090612 0.01236481056600826 0 -0.29893783638589749 0.03370007286539712 0 -0.31607994891177182 0.02210775111810491 0 -0.29991595031090612 0.01236481056600826 0 -0.32009090194009132 0.00022972968992290691 0 -0.31607994891177182 0.02210775111810491 0 -0.28142701919489421 0.062576539701893946 0 -0.28160155961983052 0.043451884536013348 0 -0.30336336020187388 0.057190159916313432 0 -0.27824486054215608 0.02404329732483991 0 -0.28160155961983052 0.043451884536013348 0 -0.29893783638589749 0.03370007286539712 0 -0.28160155961983052 0.043451884536013348 0 -0.29893783638589749 0.03370007286539712 0 -0.30336336020187388 0.057190159916313432 0 -0.29893783638589749 0.03370007286539712 0 -0.31507051671741138 0.041216162763960909 0 -0.31607994891177182 0.02210775111810491 0 -0.29893783638589749 0.03370007286539712 0 -0.30336336020187388 0.057190159916313432 0 -0.31507051671741138 0.041216162763960909 0 -0.30336336020187388 0.057190159916313432 0 -0.32565397068097501 0.055696115370954688 0 -0.32434792253082712 0.073882607833566538 0 -0.30336336020187388 0.057190159916313432 0 -0.32565397068097501 0.055696115370954688 0 -0.31507051671741138 0.041216162763960909 0 -0.31507051671741138 0.041216162763960909 0 -0.33035095091212707 0.032331116405856557 0 -0.31607994891177182 0.02210775111810491 0 -0.32565397068097501 0.055696115370954688 0 -0.31507051671741138 0.041216162763960909 0 -0.33035095091212707 0.032331116405856557 0 -0.32565397068097501 0.055696115370954688 0 -0.33035095091212707 0.032331116405856557 0 -0.34172237366091007 0.046878670849061173 0 -0.33035095091212707 0.032331116405856557 0 -0.34172237366091007 0.046878670849061173 0 -0.34717532602634837 0.027517980939089099 0 -0.32565397068097501 0.055696115370954688 0 -0.34172237366091007 0.046878670849061173 0 -0.34679135010932199 0.070921284932340969 0 -0.32009090194009132 0.00022972968992290691 0 -0.31607994891177182 0.02210775111810491 0 -0.3321135372041979 0.012804614417483699 0 -0.33035095091212707 0.032331116405856557 0 -0.31607994891177182 0.02210775111810491 0 -0.3321135372041979 0.012804614417483699 0 -0.3321135372041979 0.012804614417483699 0 -0.35066328345835063 0.012839518646858309 0 -0.34717532602634837 0.027517980939089099 0 -0.33035095091212707 0.032331116405856557 0 -0.3321135372041979 0.012804614417483699 0 -0.34717532602634837 0.027517980939089099 0 -0.35297224887296907 -0.002069934093802447 0 -0.3321135372041979 0.012804614417483699 0 -0.35297224887296907 -0.002069934093802447 0 -0.33753724430434129 -0.0053325751836834773 0 -0.3321135372041979 0.012804614417483699 0 -0.33753724430434129 -0.0053325751836834773 0 -0.32009090194009132 0.00022972968992290691 0 -0.3321135372041979 0.012804614417483699 0 -0.35297224887296907 -0.002069934093802447 0 -0.35066328345835063 0.012839518646858309 0 -0.36630240863329833 0.0029484098375479289 0 -0.35297224887296907 -0.002069934093802447 0 -0.3321135372041979 0.012804614417483699 0 -0.35066328345835063 0.012839518646858309 0 -0.34717532602634837 0.027517980939089099 0 -0.36376164912298592 0.01817276862949924 0 -0.3630018924774428 0.0374489679145147 0 -0.35066328345835063 0.012839518646858309 0 -0.34717532602634837 0.027517980939089099 0 -0.36376164912298592 0.01817276862949924 0 -0.37530289853567472 0.024066489134638241 0 -0.36376164912298592 0.01817276862949924 0 -0.3630018924774428 0.0374489679145147 0 -0.37530289853567472 0.024066489134638241 0 -0.38080236514241322 0.004967057045595173 0 -0.36376164912298592 0.01817276862949924 0 -0.35066328345835063 0.012839518646858309 0 -0.36376164912298592 0.01817276862949924 0 -0.36630240863329833 0.0029484098375479289 0 -0.38080236514241322 0.004967057045595173 0 -0.36376164912298592 0.01817276862949924 0 -0.36630240863329833 0.0029484098375479289 0 -0.34172237366091007 0.046878670849061173 0 -0.35756799466000422 0.055720920099965168 0 -0.34679135010932199 0.070921284932340969 0 -0.34172237366091007 0.046878670849061173 0 -0.34717532602634837 0.027517980939089099 0 -0.3630018924774428 0.0374489679145147 0 -0.34172237366091007 0.046878670849061173 0 -0.35756799466000422 0.055720920099965168 0 -0.3630018924774428 0.0374489679145147 0 -0.37881448416662777 0.05403477042139529 0 -0.37949143914559857 0.036242752105375461 0 -0.3630018924774428 0.0374489679145147 0 -0.37949143914559857 0.036242752105375461 0 -0.37530289853567472 0.024066489134638241 0 -0.3630018924774428 0.0374489679145147 0 -0.37881448416662777 0.05403477042139529 0 -0.35756799466000422 0.055720920099965168 0 -0.36923477768781721 0.067959962031115387 0 -0.37881448416662777 0.05403477042139529 0 -0.35756799466000422 0.055720920099965168 0 -0.3630018924774428 0.0374489679145147 0 -0.35756799466000422 0.055720920099965168 0 -0.36923477768781721 0.067959962031115387 0 -0.34679135010932199 0.070921284932340969 0 -0.36923477768781721 0.067959962031115387 0 -0.34679135010932199 0.070921284932340969 0 -0.35094235513860428 0.090864003732814502 0 -0.36923477768781721 0.067959962031115387 0 -0.34679135010932199 0.070921284932340969 0 -0.34679135010932199 0.070921284932340969 0 -0.35094235513860428 0.090864003732814502 0 -0.33613833718795699 0.086916591216606637 0 -0.36923477768781721 0.067959962031115387 0 -0.35094235513860428 0.090864003732814502 0 -0.36738458816629349 0.092635949826567421 0 -0.38135759771702921 0.087461699584644087 0 -0.36923477768781721 0.067959962031115387 0 -0.36738458816629349 0.092635949826567421 0 -0.38135759771702921 0.087461699584644087 0 -0.36738458816629349 0.092635949826567421 0 -0.3744588290726677 0.10588125947093401 0 -0.36738458816629349 0.092635949826567421 0 -0.3744588290726677 0.10588125947093401 0 -0.35905223097883082 0.105366610493816 0 -0.38081074812960902 0.118078147420154 0 -0.37179195211218818 0.13082898094233089 0 -0.36551678714643399 0.1182648797270809 0 -0.38081074812960902 0.118078147420154 0 -0.3744588290726677 0.10588125947093401 0 -0.36551678714643399 0.1182648797270809 0 -0.3744588290726677 0.10588125947093401 0 -0.36551678714643399 0.1182648797270809 0 -0.35905223097883082 0.105366610493816 0 -0.35006072096937452 0.1194457977994226 0 -0.35905223097883082 0.105366610493816 0 -0.34127467774544801 0.1064819949191291 0 -0.35883378796463877 0.1285902162577425 0 -0.36551678714643399 0.1182648797270809 0 -0.35006072096937452 0.1194457977994226 0 -0.36551678714643399 0.1182648797270809 0 -0.35006072096937452 0.1194457977994226 0 -0.35905223097883082 0.105366610493816 0 -0.35094235513860428 0.090864003732814502 0 -0.35905223097883082 0.105366610493816 0 -0.34127467774544801 0.1064819949191291 0 -0.35094235513860428 0.090864003732814502 0 -0.36738458816629349 0.092635949826567421 0 -0.35905223097883082 0.105366610493816 0 -0.34127467774544801 0.1064819949191291 0 -0.32232464320094628 0.095100195065147969 0 -0.33613833718795699 0.086916591216606637 0 -0.35094235513860428 0.090864003732814502 0 -0.34127467774544801 0.1064819949191291 0 -0.33613833718795699 0.086916591216606637 0 -0.34127467774544801 0.1064819949191291 0 -0.32749440269850788 0.1122663854523434 0 -0.32232464320094628 0.095100195065147969 0 -0.34378998236141373 0.1325811052390071 0 -0.35006072096937452 0.1194457977994226 0 -0.33720184765550582 0.1197275374297867 0 -0.35006072096937452 0.1194457977994226 0 -0.34127467774544801 0.1064819949191291 0 -0.33720184765550582 0.1197275374297867 0 -0.34127467774544801 0.1064819949191291 0 -0.33720184765550582 0.1197275374297867 0 -0.32749440269850788 0.1122663854523434 0 -0.32338945450278478 0.12786240373903121 0 -0.33720184765550582 0.1197275374297867 0 -0.32749440269850788 0.1122663854523434 0 -0.32338945450278478 0.12786240373903121 0 -0.30262990335162948 0.1093821276287129 0 -0.32749440269850788 0.1122663854523434 0 -0.30262990335162948 0.1093821276287129 0 -0.32749440269850788 0.1122663854523434 0 -0.32232464320094628 0.095100195065147969 0 -0.30190449495233201 0.076843930734792107 0 -0.32232464320094628 0.095100195065147969 0 -0.32434792253082712 0.073882607833566538 0 -0.32232464320094628 0.095100195065147969 0 -0.32434792253082712 0.073882607833566538 0 -0.33613833718795699 0.086916591216606637 0 -0.30190449495233201 0.076843930734792107 0 -0.32434792253082712 0.073882607833566538 0 -0.32565397068097501 0.055696115370954688 0 -0.34679135010932199 0.070921284932340969 0 -0.32434792253082712 0.073882607833566538 0 -0.34679135010932199 0.070921284932340969 0 -0.32434792253082712 0.073882607833566538 0 -0.34679135010932199 0.070921284932340969 0 -0.32434792253082712 0.073882607833566538 0 -0.33613833718795699 0.086916591216606637 0 -0.37970986147604191 0.47475688960593432 0 -0.40159987421830651 0.46639559680418241 0 -0.40839015412074853 0.48287893084953343 0 -0.39864959540656658 0.5 0 -0.37970986147604191 0.47475688960593432 0 -0.40839015412074853 0.48287893084953343 0 -0.39864959540656658 0.5 0 -0.37970986147604191 0.47475688960593432 0 -0.37055951731891279 0.5 0 -0.37970986147604191 0.47475688960593432 0 -0.39319124296951519 0.44983298757046269 0 -0.3668312948086474 0.44355591656239413 0 -0.39319124296951519 0.44983298757046269 0 -0.38571487447136549 0.43459852461144061 0 -0.3668312948086474 0.44355591656239413 0 -0.39319124296951519 0.44983298757046269 0 -0.41127741675959539 0.45688696688153468 0 -0.41002854892558771 0.43974393366278142 0 -0.39319124296951519 0.44983298757046269 0 -0.41002854892558771 0.43974393366278142 0 -0.39684383565145159 0.43541303444044721 0 -0.39319124296951519 0.44983298757046269 0 -0.39684383565145159 0.43541303444044721 0 -0.38571487447136549 0.43459852461144061 0 -0.39319124296951519 0.44983298757046269 0 -0.40159987421830651 0.46639559680418241 0 -0.41127741675959539 0.45688696688153468 0 -0.37970986147604191 0.47475688960593432 0 -0.39319124296951519 0.44983298757046269 0 -0.40159987421830651 0.46639559680418241 0 -0.40159987421830651 0.46639559680418241 0 -0.41127741675959539 0.45688696688153468 0 -0.4185912067943332 0.47122810939015108 0 -0.41127741675959539 0.45688696688153468 0 -0.43178120756625632 0.45772591489133879 0 -0.4185912067943332 0.47122810939015108 0 -0.41002854892558771 0.43974393366278142 0 -0.43178120756625632 0.45772591489133879 0 -0.41127741675959539 0.45688696688153468 0 -0.41002854892558771 0.43974393366278142 0 -0.43178120756625632 0.45772591489133879 0 -0.41002854892558771 0.43974393366278142 0 -0.43178120756625632 0.45772591489133879 0 -0.42798637342007118 0.43207109587577891 0 -0.43178120756625632 0.45772591489133879 0 -0.42798637342007118 0.43207109587577891 0 -0.43178120756625632 0.45772591489133879 0 -0.44072121040616108 0.44329544550161393 0 -0.42798637342007118 0.43207109587577891 0 -0.43178120756625632 0.45772591489133879 0 -0.43433543087100929 0.4749936357150884 0 -0.43178120756625632 0.45772591489133879 0 -0.43433543087100929 0.4749936357150884 0 -0.4185912067943332 0.47122810939015108 0 -0.43433543087100929 0.4749936357150884 0 -0.43688965417576209 0.49226135653883812 0 -0.43433543087100929 0.4749936357150884 0 -0.42505071333502242 0.48489298929693292 0 -0.43688965417576209 0.49226135653883812 0 -0.43433543087100929 0.4749936357150884 0 -0.4185912067943332 0.47122810939015108 0 -0.42505071333502242 0.48489298929693292 0 -0.40159987421830651 0.46639559680418241 0 -0.40839015412074853 0.48287893084953343 0 -0.4185912067943332 0.47122810939015108 0 -0.40839015412074853 0.48287893084953343 0 -0.4185912067943332 0.47122810939015108 0 -0.42505071333502242 0.48489298929693292 0 -0.40839015412074853 0.48287893084953343 0 -0.42673967349422037 0.5 0 -0.42505071333502242 0.48489298929693292 0 -0.39864959540656658 0.5 0 -0.40839015412074853 0.48287893084953343 0 -0.42673967349422037 0.5 0 -0.42673967349422037 0.5 0 -0.42505071333502242 0.48489298929693292 0 -0.43688965417576209 0.49226135653883812 0 -0.43688965417576209 0.49226135653883812 0 -0.45011131719227288 0.48627438041833088 0 -0.45482975158187411 0.5 0 -0.42673967349422037 0.5 0 -0.43688965417576209 0.49226135653883812 0 -0.45482975158187411 0.5 0 -0.43433543087100929 0.4749936357150884 0 -0.43688965417576209 0.49226135653883812 0 -0.45011131719227288 0.48627438041833088 0 -0.43433543087100929 0.4749936357150884 0 -0.45011131719227288 0.48627438041833088 0 -0.44882741493401301 0.47181727659422718 0 -0.44882741493401301 0.47181727659422718 0 -0.4658736223017701 0.48590863829711528 0 -0.45011131719227288 0.48627438041833088 0 -0.44882741493401301 0.47181727659422718 0 -0.4658736223017701 0.48590863829711528 0 -0.44882741493401301 0.47181727659422718 0 -0.46555178096022432 0.46945767897652319 0 -0.4658736223017701 0.48590863829711528 0 -0.45011131719227288 0.48627438041833088 0 -0.4658736223017701 0.48590863829711528 0 -0.45482975158187411 0.5 0 -0.4658736223017701 0.48590863829711528 0 -0.45482975158187411 0.5 0 -0.48291982966952812 0.50000000000000211 0 -0.4658736223017701 0.48590863829711528 0 -0.48291982966952812 0.50000000000000211 0 -0.48244158627099659 0.48237415505600539 0 -0.4658736223017701 0.48590863829711528 0 -0.48291982966952812 0.50000000000000211 0 -0.46555178096022432 0.46945767897652319 0 -0.4658736223017701 0.48590863829711528 0 -0.48244158627099659 0.48237415505600539 0 -0.46555178096022432 0.46945767897652319 0 -0.48244158627099659 0.48237415505600539 0 -0.47918673974543619 0.46120646105258573 0 -0.50000000000000144 0.47750369354486583 0 -0.47918673974543619 0.46120646105258573 0 -0.48244158627099659 0.48237415505600539 0 -0.50000000000000144 0.47750369354486583 0 -0.47918673974543619 0.46120646105258573 0 -0.48244158627099659 0.48237415505600539 0 -0.50000000000000144 0.47750369354486583 0 -0.5 0.5 0 -0.48291982966952812 0.50000000000000211 0 -0.48244158627099659 0.48237415505600539 0 -0.5 0.5 0 -0.5 0.4503836813998332 0 -0.482186678353478 0.44155128144564282 0 -0.5 0.42326366925480069 0 -0.5 0.4503836813998332 0 -0.47918673974543619 0.46120646105258573 0 -0.482186678353478 0.44155128144564282 0 -0.50000000000000144 0.47750369354486583 0 -0.5 0.4503836813998332 0 -0.47918673974543619 0.46120646105258573 0 -0.47918673974543619 0.46120646105258573 0 -0.45837347949087037 0.44490922856030629 0 -0.47918673974543619 0.46120646105258573 0 -0.482186678353478 0.44155128144564282 0 -0.45837347949087037 0.44490922856030629 0 -0.46555178096022432 0.46945767897652319 0 -0.47918673974543619 0.46120646105258573 0 -0.45837347949087037 0.44490922856030629 0 -0.44882741493401301 0.47181727659422718 0 -0.46555178096022432 0.46945767897652319 0 -0.45837347949087037 0.44490922856030629 0 -0.43178120756625632 0.45772591489133879 0 -0.44882741493401301 0.47181727659422718 0 -0.43178120756625632 0.45772591489133879 0 -0.43433543087100929 0.4749936357150884 0 -0.44882741493401301 0.47181727659422718 0 -0.43178120756625632 0.45772591489133879 0 -0.44882741493401301 0.47181727659422718 0 -0.44072121040616108 0.44329544550161393 0 -0.44882741493401301 0.47181727659422718 0 -0.45837347949087037 0.44490922856030629 0 -0.44072121040616108 0.44329544550161393 0 -0.45837347949087037 0.44490922856030629 0 -0.44072121040616108 0.44329544550161393 0 -0.45128080835636958 0.426930309457841 0 -0.44072121040616108 0.44329544550161393 0 -0.45128080835636958 0.426930309457841 0 -0.43662309505331831 0.42431803124163509 0 -0.45128080835636958 0.426930309457841 0 -0.4444809857055812 0.41791130407042049 0 -0.43662309505331831 0.42431803124163509 0 -0.4444809857055812 0.41791130407042049 0 -0.45600801576505468 0.40738748165483601 0 -0.43401202364758229 0.41300939392737002 0 -0.45128080835636958 0.426930309457841 0 -0.4444809857055812 0.41791130407042049 0 -0.45600801576505468 0.40738748165483601 0 -0.45600801576505468 0.40738748165483601 0 -0.43401202364758229 0.41300939392737002 0 -0.45600801576505468 0.40738748165483601 0 -0.43482747629417301 0.40443349611897578 0 -0.43401202364758229 0.41300939392737002 0 -0.4444809857055812 0.41791130407042049 0 -0.43401202364758229 0.41300939392737002 0 -0.43662309505331831 0.42431803124163509 0 -0.45128080835636958 0.426930309457841 0 -0.45600801576505468 0.40738748165483601 0 -0.47097549830804991 0.42430125662595469 0 -0.45600801576505468 0.40738748165483601 0 -0.47097549830804991 0.42430125662595469 0 -0.478004007882527 0.40176556938230201 0 -0.45837347949087037 0.44490922856030629 0 -0.45128080835636958 0.426930309457841 0 -0.47097549830804991 0.42430125662595469 0 -0.482186678353478 0.44155128144564282 0 -0.45837347949087037 0.44490922856030629 0 -0.47097549830804991 0.42430125662595469 0 -0.47097549830804991 0.42430125662595469 0 -0.5 0.42326366925480069 0 -0.478004007882527 0.40176556938230201 0 -0.5 0.42326366925480069 0 -0.49999999999999939 0.39614365710976818 0 -0.478004007882527 0.40176556938230201 0 -0.482186678353478 0.44155128144564282 0 -0.47097549830804991 0.42430125662595469 0 -0.5 0.42326366925480069 0 -0.5 0.37519365677476169 0 -0.49999999999999939 0.39614365710976818 0 -0.47755100820336571 0.37900058100025608 0 -0.49999999999999939 0.39614365710976818 0 -0.478004007882527 0.40176556938230201 0 -0.49999999999999939 0.39614365710976818 0 -0.478004007882527 0.40176556938230201 0 -0.47755100820336571 0.37900058100025608 0 -0.478004007882527 0.40176556938230201 0 -0.47755100820336571 0.37900058100025608 0 -0.45948040304135512 0.38731137843528068 0 -0.45948040304135512 0.38731137843528068 0 -0.44167601578374138 0.3782137112395334 0 -0.46111734385582792 0.36324035952793859 0 -0.47755100820336571 0.37900058100025608 0 -0.45948040304135512 0.38731137843528068 0 -0.46111734385582792 0.36324035952793859 0 -0.45600801576505468 0.40738748165483601 0 -0.478004007882527 0.40176556938230201 0 -0.45948040304135512 0.38731137843528068 0 -0.45600801576505468 0.40738748165483601 0 -0.478004007882527 0.40176556938230201 0 -0.45600801576505468 0.40738748165483601 0 -0.45948040304135512 0.38731137843528068 0 -0.44252602675761399 0.39426056780681878 0 -0.45600801576505468 0.40738748165483601 0 -0.44252602675761399 0.39426056780681878 0 -0.43482747629417301 0.40443349611897578 0 -0.45948040304135512 0.38731137843528068 0 -0.44252602675761399 0.39426056780681878 0 -0.44167601578374138 0.3782137112395334 0 -0.44167601578374138 0.3782137112395334 0 -0.42223468771165362 0.39318706295112621 0 -0.44252602675761399 0.39426056780681878 0 -0.44167601578374138 0.3782137112395334 0 -0.42223468771165362 0.39318706295112621 0 -0.44167601578374138 0.3782137112395334 0 -0.42223468771165362 0.39318706295112621 0 -0.41783725995846421 0.36345843482242302 0 -0.42223468771165362 0.39318706295112621 0 -0.40453832738447698 0.38634672320869229 0 -0.41783725995846421 0.36345843482242302 0 -0.42223468771165362 0.39318706295112621 0 -0.41783725995846421 0.36345843482242302 0 -0.40684578236468077 0.40549478543062301 0 -0.42419153927388698 0.40641627686021881 0 -0.40453832738447698 0.38634672320869229 0 -0.41815953575215969 0.39632566970378752 0 -0.42223468771165362 0.39318706295112621 0 -0.40453832738447698 0.38634672320869229 0 -0.41815953575215969 0.39632566970378752 0 -0.42419153927388698 0.40641627686021881 0 -0.40453832738447698 0.38634672320869229 0 -0.42419153927388698 0.40641627686021881 0 -0.40453832738447698 0.38634672320869229 0 -0.41815953575215969 0.39632566970378752 0 -0.42223468771165362 0.39318706295112621 0 -0.41815953575215969 0.39632566970378752 0 -0.42223468771165362 0.39318706295112621 0 -0.42419153927388698 0.40641627686021881 0 -0.44252602675761399 0.39426056780681878 0 -0.42223468771165362 0.39318706295112621 0 -0.43482747629417301 0.40443349611897578 0 -0.42223468771165362 0.39318706295112621 0 -0.43482747629417301 0.40443349611897578 0 -0.42419153927388698 0.40641627686021881 0 -0.42223468771165362 0.39318706295112621 0 -0.42419153927388698 0.40641627686021881 0 -0.42999256460924851 0.41234019351348561 0 -0.42419153927388698 0.40641627686021881 0 -0.42798637342007118 0.43207109587577891 0 -0.43482747629417301 0.40443349611897578 0 -0.43401202364758229 0.41300939392737002 0 -0.42999256460924851 0.41234019351348561 0 -0.42419153927388698 0.40641627686021881 0 -0.42798637342007118 0.43207109587577891 0 -0.43401202364758229 0.41300939392737002 0 -0.42999256460924851 0.41234019351348561 0 -0.43662309505331831 0.42431803124163509 0 -0.43482747629417301 0.40443349611897578 0 -0.42999256460924851 0.41234019351348561 0 -0.42419153927388698 0.40641627686021881 0 -0.42999256460924851 0.41234019351348561 0 -0.42419153927388698 0.40641627686021881 0 -0.42999256460924851 0.41234019351348561 0 -0.42798637342007118 0.43207109587577891 0 -0.43662309505331831 0.42431803124163509 0 -0.44072121040616108 0.44329544550161393 0 -0.42798637342007118 0.43207109587577891 0 -0.43662309505331831 0.42431803124163509 0 -0.41002854892558771 0.43974393366278142 0 -0.42798637342007118 0.43207109587577891 0 -0.41335551801995463 0.41988708812111408 0 -0.41002854892558771 0.43974393366278142 0 -0.41335551801995463 0.41988708812111408 0 -0.40210989515704137 0.41864511502718182 0 -0.42419153927388698 0.40641627686021881 0 -0.42798637342007118 0.43207109587577891 0 -0.41335551801995463 0.41988708812111408 0 -0.40684578236468077 0.40549478543062301 0 -0.42419153927388698 0.40641627686021881 0 -0.41335551801995463 0.41988708812111408 0 -0.40684578236468077 0.40549478543062301 0 -0.41335551801995463 0.41988708812111408 0 -0.40210989515704137 0.41864511502718182 0 -0.40684578236468077 0.40549478543062301 0 -0.40210989515704137 0.41864511502718182 0 -0.39219592457604457 0.40710697747620878 0 -0.40210989515704137 0.41864511502718182 0 -0.39219592457604457 0.40710697747620878 0 -0.38827589028491932 0.42176195243422349 0 -0.41002854892558771 0.43974393366278142 0 -0.39684383565145159 0.43541303444044721 0 -0.38827589028491932 0.42176195243422349 0 -0.41002854892558771 0.43974393366278142 0 -0.38827589028491932 0.42176195243422349 0 -0.41002854892558771 0.43974393366278142 0 -0.40210989515704137 0.41864511502718182 0 -0.38827589028491932 0.42176195243422349 0 -0.39684383565145159 0.43541303444044721 0 -0.38826700018613569 0.42450289028025773 0 -0.38827589028491932 0.42176195243422349 0 -0.38344099874107768 0.41968779420364127 0 -0.3668312948086474 0.44355591656239413 0 -0.38571487447136549 0.43459852461144061 0 -0.38344099874107768 0.41968779420364127 0 -0.3668312948086474 0.44355591656239413 0 -0.39684383565145159 0.43541303444044721 0 -0.38571487447136549 0.43459852461144061 0 -0.38826700018613569 0.42450289028025773 0 -0.38571487447136549 0.43459852461144061 0 -0.38826700018613569 0.42450289028025773 0 -0.38344099874107768 0.41968779420364127 0 -0.38826700018613569 0.42450289028025773 0 -0.38827589028491932 0.42176195243422349 0 -0.38344099874107768 0.41968779420364127 0 -0.38826700018613569 0.42450289028025773 0 -0.38344099874107768 0.41968779420364127 0 -0.39219592457604457 0.40710697747620878 0 -0.38344099874107768 0.41968779420364127 0 -0.36455429342647683 0.40084376738434452 0 -0.39219592457604457 0.40710697747620878 0 -0.38344099874107768 0.41968779420364127 0 -0.39219592457604457 0.40710697747620878 0 -0.38827589028491932 0.42176195243422349 0 -0.38344099874107768 0.41968779420364127 0 -0.39219592457604457 0.40710697747620878 0 -0.3831206870632981 0.38766252540295532 0 -0.36455429342647683 0.40084376738434452 0 -0.3831206870632981 0.38766252540295532 0 -0.38488511549506632 0.36627716955716688 0 -0.36673548599109601 0.38017737622897257 0 -0.3831206870632981 0.38766252540295532 0 -0.40453832738447698 0.38634672320869229 0 -0.38488511549506632 0.36627716955716688 0 -0.40453832738447698 0.38634672320869229 0 -0.38488511549506632 0.36627716955716688 0 -0.39219592457604457 0.40710697747620878 0 -0.3831206870632981 0.38766252540295532 0 -0.40453832738447698 0.38634672320869229 0 -0.40684578236468077 0.40549478543062301 0 -0.39219592457604457 0.40710697747620878 0 -0.40453832738447698 0.38634672320869229 0 -0.39689865310155642 0.3538410737138894 0 -0.39311369449648459 0.33754186958230631 0 -0.4061745528634812 0.34346789584517579 0 -0.39689865310155642 0.3538410737138894 0 -0.38212257022435703 0.34267813894350813 0 -0.39311369449648459 0.33754186958230631 0 -0.39689865310155642 0.3538410737138894 0 -0.40195724648696701 0.3691422204709735 0 -0.41783725995846421 0.36345843482242302 0 -0.39689865310155642 0.3538410737138894 0 -0.40195724648696701 0.3691422204709735 0 -0.38488511549506632 0.36627716955716688 0 -0.40453832738447698 0.38634672320869229 0 -0.40195724648696701 0.3691422204709735 0 -0.38488511549506632 0.36627716955716688 0 -0.38488511549506632 0.36627716955716688 0 -0.36523190360565799 0.3462076159056392 0 -0.38488511549506632 0.36627716955716688 0 -0.38212257022435703 0.34267813894350813 0 -0.36523190360565799 0.3462076159056392 0 -0.39689865310155642 0.3538410737138894 0 -0.38488511549506632 0.36627716955716688 0 -0.38212257022435703 0.34267813894350813 0 -0.38212257022435703 0.34267813894350813 0 -0.38696058311718629 0.32993114757855541 0 -0.37572796940123798 0.32700548764778892 0 -0.38212257022435703 0.34267813894350813 0 -0.38696058311718629 0.32993114757855541 0 -0.39311369449648459 0.33754186958230631 0 -0.38536958895497309 0.31909242379913449 0 -0.36637100609937712 0.32418286915583128 0 -0.37572796940123798 0.32700548764778892 0 -0.38536958895497309 0.31909242379913449 0 -0.36637100609937712 0.32418286915583128 0 -0.38696058311718629 0.32993114757855541 0 -0.37572796940123798 0.32700548764778892 0 -0.38536958895497309 0.31909242379913449 0 -0.38536958895497309 0.31909242379913449 0 -0.40958332455562502 0.32876829441354072 0 -0.38696058311718629 0.32993114757855541 0 -0.38536958895497309 0.31909242379913449 0 -0.40958332455562502 0.32876829441354072 0 -0.38536958895497309 0.31909242379913449 0 -0.40958332455562502 0.32876829441354072 0 -0.40730267761572619 0.31321571235282408 0 -0.38536958895497309 0.31909242379913449 0 -0.40730267761572619 0.31321571235282408 0 -0.38696058311718629 0.32993114757855541 0 -0.39311369449648459 0.33754186958230631 0 -0.40958332455562502 0.32876829441354072 0 -0.39311369449648459 0.33754186958230631 0 -0.4061745528634812 0.34346789584517579 0 -0.40958332455562502 0.32876829441354072 0 -0.4061745528634812 0.34346789584517579 0 -0.40958332455562502 0.32876829441354072 0 -0.41343983220527591 0.33372980669371949 0 -0.41343983220527591 0.33372980669371949 0 -0.42116343197350092 0.33197939615069622 0 -0.42382211320753288 0.34008373130356512 0 -0.41343983220527591 0.33372980669371949 0 -0.42116343197350092 0.33197939615069622 0 -0.41965310847614262 0.32377204751155791 0 -0.40958332455562502 0.32876829441354072 0 -0.41343983220527591 0.33372980669371949 0 -0.41965310847614262 0.32377204751155791 0 -0.40730267761572619 0.31321571235282408 0 -0.41965310847614262 0.32377204751155791 0 -0.4292357662764793 0.30733900090651389 0 -0.40958332455562502 0.32876829441354072 0 -0.40730267761572619 0.31321571235282408 0 -0.41965310847614262 0.32377204751155791 0 -0.41965310847614262 0.32377204751155791 0 -0.4317101855609729 0.32110649339278102 0 -0.4292357662764793 0.30733900090651389 0 -0.41965310847614262 0.32377204751155791 0 -0.4317101855609729 0.32110649339278102 0 -0.42773867400505239 0.3303319990939419 0 -0.4317101855609729 0.32110649339278102 0 -0.42773867400505239 0.3303319990939419 0 -0.43854110986065431 0.32768635174567318 0 -0.4317101855609729 0.32110649339278102 0 -0.44338226918653589 0.31640306770621812 0 -0.4292357662764793 0.30733900090651389 0 -0.42382211320753288 0.34008373130356512 0 -0.42773867400505239 0.3303319990939419 0 -0.43494989388067928 0.33913848042708328 0 -0.42382211320753288 0.34008373130356512 0 -0.43494989388067928 0.33913848042708328 0 -0.4301394477675578 0.34763796402419272 0 -0.42116343197350092 0.33197939615069622 0 -0.41965310847614262 0.32377204751155791 0 -0.42773867400505239 0.3303319990939419 0 -0.42116343197350092 0.33197939615069622 0 -0.42382211320753288 0.34008373130356512 0 -0.42773867400505239 0.3303319990939419 0 -0.42773867400505239 0.3303319990939419 0 -0.43494989388067928 0.33913848042708328 0 -0.43854110986065431 0.32768635174567318 0 -0.42382211320753288 0.34008373130356512 0 -0.4301394477675578 0.34763796402419272 0 -0.41783725995846421 0.36345843482242302 0 -0.43494989388067928 0.33913848042708328 0 -0.4301394477675578 0.34763796402419272 0 -0.44315849926902789 0.35151082535734968 0 -0.4301394477675578 0.34763796402419272 0 -0.41783725995846421 0.36345843482242302 0 -0.44315849926902789 0.35151082535734968 0 -0.4061745528634812 0.34346789584517579 0 -0.41343983220527591 0.33372980669371949 0 -0.41783725995846421 0.36345843482242302 0 -0.39689865310155642 0.3538410737138894 0 -0.4061745528634812 0.34346789584517579 0 -0.41783725995846421 0.36345843482242302 0 -0.41343983220527591 0.33372980669371949 0 -0.41783725995846421 0.36345843482242302 0 -0.41343983220527591 0.33372980669371949 0 -0.42382211320753288 0.34008373130356512 0 -0.41783725995846421 0.36345843482242302 0 -0.40453832738447698 0.38634672320869229 0 -0.40195724648696701 0.3691422204709735 0 -0.41783725995846421 0.36345843482242302 0 -0.44167601578374138 0.3782137112395334 0 -0.41783725995846421 0.36345843482242302 0 -0.44315849926902789 0.35151082535734968 0 -0.44167601578374138 0.3782137112395334 0 -0.44315849926902789 0.35151082535734968 0 -0.46111734385582792 0.36324035952793859 0 -0.44167601578374138 0.3782137112395334 0 -0.46111734385582792 0.36324035952793859 0 -0.44315849926902789 0.35151082535734968 0 -0.45900481174474672 0.34748843540166352 0 -0.45501938528704688 0.33714454484285422 0 -0.45900481174474672 0.34748843540166352 0 -0.46853240445054201 0.34817929709406059 0 -0.46111734385582792 0.36324035952793859 0 -0.44315849926902789 0.35151082535734968 0 -0.45900481174474672 0.34748843540166352 0 -0.46111734385582792 0.36324035952793859 0 -0.45900481174474672 0.34748843540166352 0 -0.46853240445054201 0.34817929709406059 0 -0.4657499135142274 0.33738355658495828 0 -0.47755100820336571 0.37900058100025608 0 -0.46111734385582792 0.36324035952793859 0 -0.48625726788124463 0.36433864186420911 0 -0.46111734385582792 0.36324035952793859 0 -0.4805586719279144 0.34826700781634379 0 -0.48625726788124463 0.36433864186420911 0 -0.46111734385582792 0.36324035952793859 0 -0.4805586719279144 0.34826700781634379 0 -0.46853240445054201 0.34817929709406059 0 -0.46111734385582792 0.36324035952793859 0 -0.4805586719279144 0.34826700781634379 0 -0.46853240445054201 0.34817929709406059 0 -0.47623128120999331 0.34451712613939911 0 -0.4805586719279144 0.34826700781634379 0 -0.4805586719279144 0.34826700781634379 0 -0.5 0.35424365643975531 0 -0.48625726788124463 0.36433864186420911 0 -0.4805586719279144 0.34826700781634379 0 -0.5 0.35424365643975531 0 -0.50000000000000067 0.33329365610474881 0 -0.5 0.37519365677476169 0 -0.5 0.35424365643975531 0 -0.48625726788124463 0.36433864186420911 0 -0.5 0.37519365677476169 0 -0.47755100820336571 0.37900058100025608 0 -0.48625726788124463 0.36433864186420911 0 -0.48902942154366291 0.31979260451315478 0 -0.50000000000000067 0.33329365610474881 0 -0.5 0.30634986758964688 0 -0.4805586719279144 0.34826700781634379 0 -0.50000000000000067 0.33329365610474881 0 -0.48461472212404272 0.33294099330716748 0 -0.4805586719279144 0.34826700781634379 0 -0.50000000000000067 0.33329365610474881 0 -0.48902942154366291 0.31979260451315478 0 -0.50000000000000067 0.33329365610474881 0 -0.48461472212404272 0.33294099330716748 0 -0.47623128120999331 0.34451712613939911 0 -0.47466661240398922 0.32005135207664631 0 -0.47623128120999331 0.34451712613939911 0 -0.48461472212404272 0.33294099330716748 0 -0.47466661240398922 0.32005135207664631 0 -0.47623128120999331 0.34451712613939911 0 -0.47466661240398922 0.32005135207664631 0 -0.4657499135142274 0.33738355658495828 0 -0.47623128120999331 0.34451712613939911 0 -0.4805586719279144 0.34826700781634379 0 -0.48461472212404272 0.33294099330716748 0 -0.46853240445054201 0.34817929709406059 0 -0.47623128120999331 0.34451712613939911 0 -0.4657499135142274 0.33738355658495828 0 -0.48902942154366291 0.31979260451315478 0 -0.48461472212404272 0.33294099330716748 0 -0.47466661240398922 0.32005135207664631 0 -0.48902942154366291 0.31979260451315478 0 -0.47466661240398922 0.32005135207664631 0 -0.4858657731902824 0.30632715348756467 0 -0.47466661240398922 0.32005135207664631 0 -0.461768242976828 0.32732272648854899 0 -0.45914568748554091 0.31459052264203718 0 -0.461768242976828 0.32732272648854899 0 -0.45914568748554091 0.31459052264203718 0 -0.45078620181067441 0.32671812210671303 0 -0.47466661240398922 0.32005135207664631 0 -0.461768242976828 0.32732272648854899 0 -0.4657499135142274 0.33738355658495828 0 -0.461768242976828 0.32732272648854899 0 -0.45501938528704688 0.33714454484285422 0 -0.45078620181067441 0.32671812210671303 0 -0.461768242976828 0.32732272648854899 0 -0.4657499135142274 0.33738355658495828 0 -0.45501938528704688 0.33714454484285422 0 -0.45900481174474672 0.34748843540166352 0 -0.4657499135142274 0.33738355658495828 0 -0.45501938528704688 0.33714454484285422 0 -0.44315849926902789 0.35151082535734968 0 -0.45501938528704688 0.33714454484285422 0 -0.44479409112676571 0.33635106306862772 0 -0.45501938528704688 0.33714454484285422 0 -0.44479409112676571 0.33635106306862772 0 -0.45078620181067441 0.32671812210671303 0 -0.43494989388067928 0.33913848042708328 0 -0.44479409112676571 0.33635106306862772 0 -0.43854110986065431 0.32768635174567318 0 -0.44479409112676571 0.33635106306862772 0 -0.45078620181067441 0.32671812210671303 0 -0.43854110986065431 0.32768635174567318 0 -0.43494989388067928 0.33913848042708328 0 -0.44315849926902789 0.35151082535734968 0 -0.44479409112676571 0.33635106306862772 0 -0.45914568748554091 0.31459052264203718 0 -0.45078620181067441 0.32671812210671303 0 -0.44338226918653589 0.31640306770621812 0 -0.4317101855609729 0.32110649339278102 0 -0.43854110986065431 0.32768635174567318 0 -0.44338226918653589 0.31640306770621812 0 -0.45078620181067441 0.32671812210671303 0 -0.43854110986065431 0.32768635174567318 0 -0.44338226918653589 0.31640306770621812 0 -0.45914568748554091 0.31459052264203718 0 -0.44338226918653589 0.31640306770621812 0 -0.45116885493723241 0.3014622894602037 0 -0.45116885493723241 0.3014622894602037 0 -0.4292357662764793 0.30733900090651389 0 -0.44338226918653589 0.31640306770621812 0 -0.45116885493723241 0.3014622894602037 0 -0.4292357662764793 0.30733900090651389 0 -0.45116885493723241 0.3014622894602037 0 -0.43958503139600602 0.29056447189921519 0 -0.4292357662764793 0.30733900090651389 0 -0.45116885493723241 0.3014622894602037 0 -0.43958503139600602 0.29056447189921519 0 -0.45374196233245018 0.28217265186871487 0 -0.43958503139600602 0.29056447189921519 0 -0.45374196233245018 0.28217265186871487 0 -0.43810658346665071 0.27548945722806839 0 -0.45374196233245018 0.28217265186871487 0 -0.47310194359798541 0.2955855780138934 0 -0.47170500215800071 0.27374245471622621 0 -0.45116885493723241 0.3014622894602037 0 -0.45374196233245018 0.28217265186871487 0 -0.47310194359798541 0.2955855780138934 0 -0.45914568748554091 0.31459052264203718 0 -0.45116885493723241 0.3014622894602037 0 -0.47310194359798541 0.2955855780138934 0 -0.45116885493723241 0.3014622894602037 0 -0.47310194359798541 0.2955855780138934 0 -0.47310194359798541 0.2955855780138934 0 -0.48994326487112089 0.29107314535893758 0 -0.4858657731902824 0.30632715348756467 0 -0.47466661240398922 0.32005135207664631 0 -0.45914568748554091 0.31459052264203718 0 -0.47310194359798541 0.2955855780138934 0 -0.47466661240398922 0.32005135207664631 0 -0.47310194359798541 0.2955855780138934 0 -0.4858657731902824 0.30632715348756467 0 -0.47466661240398922 0.32005135207664631 0 -0.47310194359798541 0.2955855780138934 0 -0.47310194359798541 0.2955855780138934 0 -0.48994326487112089 0.29107314535893758 0 -0.48454649344657369 0.28114828839611927 0 -0.47310194359798541 0.2955855780138934 0 -0.48454649344657369 0.28114828839611927 0 -0.47170500215800071 0.27374245471622621 0 -0.47310194359798541 0.2955855780138934 0 -0.48994326487112089 0.29107314535893758 0 -0.47310194359798541 0.2955855780138934 0 -0.47170500215800071 0.27374245471622621 0 -0.48994326487112089 0.29107314535893758 0 -0.5 0.30634986758964688 0 -0.5 0.2794060790745449 0 -0.48994326487112089 0.29107314535893758 0 -0.5 0.2794060790745449 0 -0.48454649344657369 0.28114828839611927 0 -0.48902942154366291 0.31979260451315478 0 -0.5 0.30634986758964688 0 -0.4858657731902824 0.30632715348756467 0 -0.48994326487112089 0.29107314535893758 0 -0.5 0.30634986758964688 0 -0.4858657731902824 0.30632715348756467 0 -0.48487107148390468 0.23984817863281541 0 -0.5 0.25246229055944291 0 -0.48798225660576139 0.26593418481699399 0 -0.5 0.25246229055944291 0 -0.5 0.2794060790745449 0 -0.48798225660576139 0.26593418481699399 0 -0.5 0.2794060790745449 0 -0.48454649344657369 0.28114828839611927 0 -0.48798225660576139 0.26593418481699399 0 -0.48454649344657369 0.28114828839611927 0 -0.48798225660576139 0.26593418481699399 0 -0.47170500215800071 0.27374245471622621 0 -0.48798225660576139 0.26593418481699399 0 -0.47170500215800071 0.27374245471622621 0 -0.47030806071801612 0.25189933141855891 0 -0.47170500215800071 0.27374245471622621 0 -0.47030806071801612 0.25189933141855891 0 -0.48487107148390468 0.23984817863281541 0 -0.48798225660576139 0.26593418481699399 0 -0.47030806071801612 0.25189933141855891 0 -0.47170500215800071 0.27374245471622621 0 -0.47030806071801612 0.25189933141855891 0 -0.46111407638008373 0.25850899492438029 0 -0.46313750112468022 0.24981470823400551 0 -0.47030806071801612 0.25189933141855891 0 -0.46111407638008373 0.25850899492438029 0 -0.46111407638008373 0.25850899492438029 0 -0.4565324981801564 0.26824090022237679 0 -0.45094121507152102 0.25947673104022112 0 -0.45407962648622052 0.24944900702720779 0 -0.46111407638008373 0.25850899492438029 0 -0.45094121507152102 0.25947673104022112 0 -0.45407962648622052 0.24944900702720779 0 -0.46313750112468022 0.24981470823400551 0 -0.46111407638008373 0.25850899492438029 0 -0.45374196233245018 0.28217265186871487 0 -0.47170500215800071 0.27374245471622621 0 -0.4565324981801564 0.26824090022237679 0 -0.47170500215800071 0.27374245471622621 0 -0.46111407638008373 0.25850899492438029 0 -0.4565324981801564 0.26824090022237679 0 -0.45374196233245018 0.28217265186871487 0 -0.44703753700227877 0.26958113039047499 0 -0.43810658346665071 0.27548945722806839 0 -0.45374196233245018 0.28217265186871487 0 -0.4565324981801564 0.26824090022237679 0 -0.44703753700227877 0.26958113039047499 0 -0.4565324981801564 0.26824090022237679 0 -0.44703753700227877 0.26958113039047499 0 -0.45094121507152102 0.25947673104022112 0 -0.44703753700227877 0.26958113039047499 0 -0.43810658346665071 0.27548945722806839 0 -0.44191838305026993 0.26021532503106481 0 -0.43810658346665071 0.27548945722806839 0 -0.44191838305026993 0.26021532503106481 0 -0.43290498919586012 0.2638967569770862 0 -0.45094121507152102 0.25947673104022112 0 -0.44191838305026993 0.26021532503106481 0 -0.44435632404652542 0.25325983155990861 0 -0.45407962648622052 0.24944900702720779 0 -0.45094121507152102 0.25947673104022112 0 -0.44435632404652542 0.25325983155990861 0 -0.44703753700227877 0.26958113039047499 0 -0.45094121507152102 0.25947673104022112 0 -0.44191838305026993 0.26021532503106481 0 -0.43850059117617612 0.24428569161490341 0 -0.44435632404652542 0.25325983155990861 0 -0.4364557637141781 0.25545061549699771 0 -0.44191838305026993 0.26021532503106481 0 -0.44435632404652542 0.25325983155990861 0 -0.4364557637141781 0.25545061549699771 0 -0.43850059117617612 0.24428569161490341 0 -0.4364557637141781 0.25545061549699771 0 -0.42459853110205897 0.25559547230202512 0 -0.4364557637141781 0.25545061549699771 0 -0.43290498919586012 0.2638967569770862 0 -0.42459853110205897 0.25559547230202512 0 -0.44191838305026993 0.26021532503106481 0 -0.4364557637141781 0.25545061549699771 0 -0.43290498919586012 0.2638967569770862 0 -0.43290498919586012 0.2638967569770862 0 -0.42459853110205897 0.25559547230202512 0 -0.42413776322478158 0.27077668304957342 0 -0.4087025894030557 0.24731915361573439 0 -0.42459853110205897 0.25559547230202512 0 -0.41067945301003211 0.26375420459122467 0 -0.42459853110205897 0.25559547230202512 0 -0.41067945301003211 0.26375420459122467 0 -0.42413776322478158 0.27077668304957342 0 -0.41067945301003211 0.26375420459122467 0 -0.41286503260687057 0.27956524716646119 0 -0.42413776322478158 0.27077668304957342 0 -0.41286503260687057 0.27956524716646119 0 -0.42413776322478158 0.27077668304957342 0 -0.42567198996721728 0.28635896003257488 0 -0.43810658346665071 0.27548945722806839 0 -0.42413776322478158 0.27077668304957342 0 -0.42567198996721728 0.28635896003257488 0 -0.43810658346665071 0.27548945722806839 0 -0.43290498919586012 0.2638967569770862 0 -0.42413776322478158 0.27077668304957342 0 -0.43958503139600602 0.29056447189921519 0 -0.42567198996721728 0.28635896003257488 0 -0.4292357662764793 0.30733900090651389 0 -0.43958503139600602 0.29056447189921519 0 -0.43810658346665071 0.27548945722806839 0 -0.42567198996721728 0.28635896003257488 0 -0.40730267761572619 0.31321571235282408 0 -0.4292357662764793 0.30733900090651389 0 -0.40730267761572619 0.31321571235282408 0 -0.4292357662764793 0.30733900090651389 0 -0.40768184004778779 0.29376612277032821 0 -0.42567198996721728 0.28635896003257488 0 -0.4292357662764793 0.30733900090651389 0 -0.40768184004778779 0.29376612277032821 0 -0.41286503260687057 0.27956524716646119 0 -0.42567198996721728 0.28635896003257488 0 -0.40768184004778779 0.29376612277032821 0 -0.40768184004778779 0.29376612277032821 0 -0.39364585738537089 0.30076851299951779 0 -0.39271930918867293 0.27901177764759388 0 -0.41286503260687057 0.27956524716646119 0 -0.40768184004778779 0.29376612277032821 0 -0.39271930918867293 0.27901177764759388 0 -0.40730267761572619 0.31321571235282408 0 -0.40768184004778779 0.29376612277032821 0 -0.39364585738537089 0.30076851299951779 0 -0.38536958895497309 0.31909242379913449 0 -0.40730267761572619 0.31321571235282408 0 -0.39364585738537089 0.30076851299951779 0 -0.38536958895497309 0.31909242379913449 0 -0.39364585738537089 0.30076851299951779 0 -0.3772184939828645 0.29432641885338279 0 -0.39364585738537089 0.30076851299951779 0 -0.3772184939828645 0.29432641885338279 0 -0.39271930918867293 0.27901177764759388 0 -0.3772184939828645 0.29432641885338279 0 -0.39271930918867293 0.27901177764759388 0 -0.37389711327003311 0.27303789856321442 0 -0.3772184939828645 0.29432641885338279 0 -0.39271930918867293 0.27901177764759388 0 -0.38290356341143661 0.26430745472112588 0 -0.39271930918867293 0.27901177764759388 0 -0.37389711327003311 0.27303789856321442 0 -0.38290356341143661 0.26430745472112588 0 -0.39522008950518039 0.25953809094259628 0 -0.39271930918867293 0.27901177764759388 0 -0.38290356341143661 0.26430745472112588 0 -0.3737767174633615 0.25959689083565962 0 -0.37389711327003311 0.27303789856321442 0 -0.37890458762993517 0.25035261561656552 0 -0.38290356341143661 0.26430745472112588 0 -0.39522008950518039 0.25953809094259628 0 -0.37890458762993517 0.25035261561656552 0 -0.38290356341143661 0.26430745472112588 0 -0.3737767174633615 0.25959689083565962 0 -0.4087025894030557 0.24731915361573439 0 -0.41067945301003211 0.26375420459122467 0 -0.39522008950518039 0.25953809094259628 0 -0.4087025894030557 0.24731915361573439 0 -0.37890458762993517 0.25035261561656552 0 -0.39522008950518039 0.25953809094259628 0 -0.41067945301003211 0.26375420459122467 0 -0.41286503260687057 0.27956524716646119 0 -0.39271930918867293 0.27901177764759388 0 -0.41067945301003211 0.26375420459122467 0 -0.39522008950518039 0.25953809094259628 0 -0.39271930918867293 0.27901177764759388 0 -0.34718994403201497 0.26368714038534602 0 -0.36049900904904703 0.27413550603869002 0 -0.3519326552299733 0.28175344953957149 0 -0.34718994403201497 0.26368714038534602 0 -0.36456606084562948 0.26431444899885198 0 -0.36049900904904703 0.27413550603869002 0 -0.34718994403201497 0.26368714038534602 0 -0.3519326552299733 0.28175344953957149 0 -0.33999947897578409 0.2811931581593663 0 -0.36049900904904703 0.27413550603869002 0 -0.36454806260860478 0.28649060884730759 0 -0.3519326552299733 0.28175344953957149 0 -0.34718994403201497 0.26368714038534602 0 -0.36746752041369107 0.25111480917134987 0 -0.35768221540864881 0.24032066889640971 0 -0.34718994403201497 0.26368714038534602 0 -0.36746752041369107 0.25111480917134987 0 -0.34718994403201497 0.26368714038534602 0 -0.36456606084562948 0.26431444899885198 0 -0.36746752041369107 0.25111480917134987 0 -0.37890458762993517 0.25035261561656552 0 -0.36746752041369107 0.25111480917134987 0 -0.3737767174633615 0.25959689083565962 0 -0.36456606084562948 0.26431444899885198 0 -0.36746752041369107 0.25111480917134987 0 -0.3737767174633615 0.25959689083565962 0 -0.36456606084562948 0.26431444899885198 0 -0.3737767174633615 0.25959689083565962 0 -0.37389711327003311 0.27303789856321442 0 -0.36456606084562948 0.26431444899885198 0 -0.37389711327003311 0.27303789856321442 0 -0.36049900904904703 0.27413550603869002 0 -0.37389711327003311 0.27303789856321442 0 -0.36049900904904703 0.27413550603869002 0 -0.36454806260860478 0.28649060884730759 0 -0.3772184939828645 0.29432641885338279 0 -0.37389711327003311 0.27303789856321442 0 -0.36454806260860478 0.28649060884730759 0 -0.3772184939828645 0.29432641885338279 0 -0.36454806260860478 0.28649060884730759 0 -0.36143266317281397 0.29759048622767043 0 -0.36454806260860478 0.28649060884730759 0 -0.36143266317281397 0.29759048622767043 0 -0.35364832124434609 0.29231375131191262 0 -0.38536958895497309 0.31909242379913449 0 -0.3772184939828645 0.29432641885338279 0 -0.36171767877705507 0.30964106005917058 0 -0.3772184939828645 0.29432641885338279 0 -0.36143266317281397 0.29759048622767043 0 -0.36171767877705507 0.30964106005917058 0 -0.3772184939828645 0.29432641885338279 0 -0.36171767877705507 0.30964106005917058 0 -0.36171767877705507 0.30964106005917058 0 -0.34862800971323299 0.30441039485592369 0 -0.34223952297840587 0.31980371185188361 0 -0.36171767877705507 0.30964106005917058 0 -0.34862800971323299 0.30441039485592369 0 -0.36143266317281397 0.29759048622767043 0 -0.34862800971323299 0.30441039485592369 0 -0.35364832124434609 0.29231375131191262 0 -0.36143266317281397 0.29759048622767043 0 -0.36171767877705507 0.30964106005917058 0 -0.34862800971323299 0.30441039485592369 0 -0.34862800971323299 0.30441039485592369 0 -0.3480760370236865 0.29751927736541428 0 -0.35364832124434609 0.29231375131191262 0 -0.34862800971323299 0.30441039485592369 0 -0.35364832124434609 0.29231375131191262 0 -0.34862800971323299 0.30441039485592369 0 -0.34223952297840587 0.31980371185188361 0 -0.36454806260860478 0.28649060884730759 0 -0.3519326552299733 0.28175344953957149 0 -0.35364832124434609 0.29231375131191262 0 -0.3480760370236865 0.29751927736541428 0 -0.35364832124434609 0.29231375131191262 0 -0.3443184377967668 0.28946099661633751 0 -0.3519326552299733 0.28175344953957149 0 -0.35364832124434609 0.29231375131191262 0 -0.3443184377967668 0.28946099661633751 0 -0.3519326552299733 0.28175344953957149 0 -0.3443184377967668 0.28946099661633751 0 -0.33999947897578409 0.2811931581593663 0 -0.3443184377967668 0.28946099661633751 0 -0.32735541414617891 0.29317554008939362 0 -0.33999947897578409 0.2811931581593663 0 -0.3480760370236865 0.29751927736541428 0 -0.33362630223294742 0.29841567421601939 0 -0.32735541414617891 0.29317554008939362 0 -0.32735541414617891 0.29317554008939362 0 -0.32691236765033888 0.276259471599342 0 -0.33999947897578409 0.2811931581593663 0 -0.3480760370236865 0.29751927736541428 0 -0.3443184377967668 0.28946099661633751 0 -0.32735541414617891 0.29317554008939362 0 -0.3480760370236865 0.29751927736541428 0 -0.32735541414617891 0.29317554008939362 0 -0.34862800971323299 0.30441039485592369 0 -0.33794355788402092 0.30755074079239092 0 -0.34223952297840587 0.31980371185188361 0 -0.34862800971323299 0.30441039485592369 0 -0.3480760370236865 0.29751927736541428 0 -0.33362630223294742 0.29841567421601939 0 -0.34862800971323299 0.30441039485592369 0 -0.33794355788402092 0.30755074079239092 0 -0.33362630223294742 0.29841567421601939 0 -0.34862800971323299 0.30441039485592369 0 -0.33362630223294742 0.29841567421601939 0 -0.33362630223294742 0.29841567421601939 0 -0.32692289756408482 0.30102368883687841 0 -0.32735541414617891 0.29317554008939362 0 -0.33794355788402092 0.30755074079239092 0 -0.33362630223294742 0.29841567421601939 0 -0.33090961690994553 0.30529521586596581 0 -0.33362630223294742 0.29841567421601939 0 -0.33090961690994553 0.30529521586596581 0 -0.32692289756408482 0.30102368883687841 0 -0.33794355788402092 0.30755074079239092 0 -0.33090961690994553 0.30529521586596581 0 -0.3311593187953375 0.31244887855710712 0 -0.33090961690994553 0.30529521586596581 0 -0.3311593187953375 0.31244887855710712 0 -0.32489600807333707 0.30703709692743331 0 -0.3311593187953375 0.31244887855710712 0 -0.32489600807333707 0.30703709692743331 0 -0.32299898026031781 0.31324208103485901 0 -0.32489600807333707 0.30703709692743331 0 -0.31835915064752679 0.30770476226947602 0 -0.32299898026031781 0.31324208103485901 0 -0.32489600807333707 0.30703709692743331 0 -0.32094345605673757 0.30204863511337859 0 -0.31835915064752679 0.30770476226947602 0 -0.32692289756408482 0.30102368883687841 0 -0.32290760739637742 0.2982441291885537 0 -0.32735541414617891 0.29317554008939362 0 -0.32489600807333707 0.30703709692743331 0 -0.32094345605673757 0.30204863511337859 0 -0.32692289756408482 0.30102368883687841 0 -0.33090961690994553 0.30529521586596581 0 -0.32489600807333707 0.30703709692743331 0 -0.32692289756408482 0.30102368883687841 0 -0.32094345605673757 0.30204863511337859 0 -0.32692289756408482 0.30102368883687841 0 -0.32290760739637742 0.2982441291885537 0 -0.32094345605673757 0.30204863511337859 0 -0.32290760739637742 0.2982441291885537 0 -0.31640866181850807 0.29672865271456422 0 -0.32094345605673757 0.30204863511337859 0 -0.31571294065133998 0.30275788939892878 0 -0.31640866181850807 0.29672865271456422 0 -0.31281886700241918 0.29893052291487598 0 -0.31571294065133998 0.30275788939892878 0 -0.31640866181850807 0.29672865271456422 0 -0.31281886700241918 0.29893052291487598 0 -0.31571294065133998 0.30275788939892878 0 -0.31068443637985299 0.30453122591283271 0 -0.32094345605673757 0.30204863511337859 0 -0.31571294065133998 0.30275788939892878 0 -0.31835915064752679 0.30770476226947602 0 -0.31571294065133998 0.30275788939892878 0 -0.314230128820911 0.30764108664253548 0 -0.31068443637985299 0.30453122591283271 0 -0.31571294065133998 0.30275788939892878 0 -0.31835915064752679 0.30770476226947602 0 -0.314230128820911 0.30764108664253548 0 -0.31835915064752679 0.30770476226947602 0 -0.314230128820911 0.30764108664253548 0 -0.31569656436715549 0.31218802710508442 0 -0.314230128820911 0.30764108664253548 0 -0.31569656436715549 0.31218802710508442 0 -0.31106609011984732 0.31197389217113369 0 -0.31835915064752679 0.30770476226947602 0 -0.31569656436715549 0.31218802710508442 0 -0.32299898026031781 0.31324208103485901 0 -0.32735541414617891 0.29317554008939362 0 -0.30663479126867471 0.28883180281335702 0 -0.32691236765033888 0.276259471599342 0 -0.30663479126867471 0.28883180281335702 0 -0.32735541414617891 0.29317554008939362 0 -0.32691236765033888 0.276259471599342 0 -0.30663479126867471 0.28883180281335702 0 -0.32735541414617891 0.29317554008939362 0 -0.31640866181850807 0.29672865271456422 0 -0.30663479126867471 0.28883180281335702 0 -0.32290760739637742 0.2982441291885537 0 -0.32735541414617891 0.29317554008939362 0 -0.31640866181850807 0.29672865271456422 0 -0.32691236765033888 0.276259471599342 0 -0.30965708344842191 0.27518412479841359 0 -0.30663479126867471 0.28883180281335702 0 -0.32691236765033888 0.276259471599342 0 -0.31027421476870648 0.26144262122987089 0 -0.30965708344842191 0.27518412479841359 0 -0.34718994403201497 0.26368714038534602 0 -0.32691236765033888 0.276259471599342 0 -0.34718994403201497 0.26368714038534602 0 -0.32691236765033888 0.276259471599342 0 -0.33999947897578409 0.2811931581593663 0 -0.34718994403201497 0.26368714038534602 0 -0.32691236765033888 0.276259471599342 0 -0.32688321527713321 0.25131824145219323 0 -0.34237109131147281 0.23780188451099049 0 -0.34718994403201497 0.26368714038534602 0 -0.32688321527713321 0.25131824145219323 0 -0.30920185950743451 0.2401113512896435 0 -0.32688321527713321 0.25131824145219323 0 -0.31027421476870648 0.26144262122987089 0 -0.32691236765033888 0.276259471599342 0 -0.32688321527713321 0.25131824145219323 0 -0.31027421476870648 0.26144262122987089 0 -0.29943009016011352 0.2497420521595328 0 -0.30920185950743451 0.2401113512896435 0 -0.31027421476870648 0.26144262122987089 0 -0.30920185950743451 0.2401113512896435 0 -0.31027421476870648 0.26144262122987089 0 -0.29881186878211607 0.25857005934189498 0 -0.3003455931724221 0.26884157550479881 0 -0.29397072040473982 0.26230633446863821 0 -0.31027421476870648 0.26144262122987089 0 -0.29881186878211607 0.25857005934189498 0 -0.3003455931724221 0.26884157550479881 0 -0.29943009016011352 0.2497420521595328 0 -0.31027421476870648 0.26144262122987089 0 -0.29881186878211607 0.25857005934189498 0 -0.29943009016011352 0.2497420521595328 0 -0.29881186878211607 0.25857005934189498 0 -0.29479610988401589 0.25304712672527419 0 -0.31027421476870648 0.26144262122987089 0 -0.30965708344842191 0.27518412479841359 0 -0.3003455931724221 0.26884157550479881 0 -0.3003455931724221 0.26884157550479881 0 -0.30072561835078548 0.2800137707389283 0 -0.29329193078998372 0.27544292340270721 0 -0.30965708344842191 0.27518412479841359 0 -0.3003455931724221 0.26884157550479881 0 -0.30072561835078548 0.2800137707389283 0 -0.28909660663945808 0.26921907838932457 0 -0.28092658074448251 0.2665812954817417 0 -0.27960707296608761 0.28316588687200611 0 -0.30072561835078548 0.2800137707389283 0 -0.29329193078998372 0.27544292340270721 0 -0.27960707296608761 0.28316588687200611 0 -0.3003455931724221 0.26884157550479881 0 -0.28909660663945808 0.26921907838932457 0 -0.29397072040473982 0.26230633446863821 0 -0.3003455931724221 0.26884157550479881 0 -0.29329193078998372 0.27544292340270721 0 -0.28909660663945808 0.26921907838932457 0 -0.28909660663945808 0.26921907838932457 0 -0.28814610173965438 0.26219448656690991 0 -0.28092658074448251 0.2665812954817417 0 -0.29329193078998372 0.27544292340270721 0 -0.28909660663945808 0.26921907838932457 0 -0.27960707296608761 0.28316588687200611 0 -0.29148923229504348 0.24929222322603489 0 -0.29943009016011352 0.2497420521595328 0 -0.29479610988401589 0.25304712672527419 0 -0.29193948787493468 0.25690730868048473 0 -0.29068662609876728 0.25269926208257271 0 -0.29479610988401589 0.25304712672527419 0 -0.29193948787493468 0.25690730868048473 0 -0.29068662609876728 0.25269926208257271 0 -0.28479711303465721 0.25595841581436041 0 -0.29148923229504348 0.24929222322603489 0 -0.29068662609876728 0.25269926208257271 0 -0.29479610988401589 0.25304712672527419 0 -0.29148923229504348 0.24929222322603489 0 -0.29068662609876728 0.25269926208257271 0 -0.28657407794942868 0.25091609649300578 0 -0.29881186878211607 0.25857005934189498 0 -0.29193948787493468 0.25690730868048473 0 -0.29479610988401589 0.25304712672527419 0 -0.29881186878211607 0.25857005934189498 0 -0.29193948787493468 0.25690730868048473 0 -0.29397072040473982 0.26230633446863821 0 -0.28909660663945808 0.26921907838932457 0 -0.29397072040473982 0.26230633446863821 0 -0.28814610173965438 0.26219448656690991 0 -0.29193948787493468 0.25690730868048473 0 -0.29397072040473982 0.26230633446863821 0 -0.28814610173965438 0.26219448656690991 0 -0.29193948787493468 0.25690730868048473 0 -0.28814610173965438 0.26219448656690991 0 -0.28479711303465721 0.25595841581436041 0 -0.28814610173965438 0.26219448656690991 0 -0.28479711303465721 0.25595841581436041 0 -0.28092658074448251 0.2665812954817417 0 -0.29068662609876728 0.25269926208257271 0 -0.28479711303465721 0.25595841581436041 0 -0.28657407794942868 0.25091609649300578 0 -0.28479711303465721 0.25595841581436041 0 -0.28657407794942868 0.25091609649300578 0 -0.27967146927513509 0.25155831602854029 0 -0.27334892069424122 0.25668160198723111 0 -0.27061738291764442 0.27298094091969272 0 -0.26323680597663751 0.26167582054338362 0 -0.27334892069424122 0.25668160198723111 0 -0.28092658074448251 0.2665812954817417 0 -0.27061738291764442 0.27298094091969272 0 -0.27642936889687458 0.24563194384886791 0 -0.27967146927513509 0.25155831602854029 0 -0.27334892069424122 0.25668160198723111 0 -0.28479711303465721 0.25595841581436041 0 -0.27967146927513509 0.25155831602854029 0 -0.27334892069424122 0.25668160198723111 0 -0.26673435921377309 0.24912711786423289 0 -0.27642936889687458 0.24563194384886791 0 -0.27334892069424122 0.25668160198723111 0 -0.26673435921377309 0.24912711786423289 0 -0.27334892069424122 0.25668160198723111 0 -0.26323680597663751 0.26167582054338362 0 -0.28479711303465721 0.25595841581436041 0 -0.27334892069424122 0.25668160198723111 0 -0.28092658074448251 0.2665812954817417 0 -0.25257935466350379 0.27749997093063922 0 -0.27960707296608761 0.28316588687200611 0 -0.28092658074448251 0.2665812954817417 0 -0.27061738291764442 0.27298094091969272 0 -0.27960707296608761 0.28316588687200611 0 -0.27061738291764442 0.27298094091969272 0 -0.25257935466350379 0.27749997093063922 0 -0.27960707296608761 0.28316588687200611 0 -0.27061738291764442 0.27298094091969272 0 -0.25981331597303692 0.26915507563383551 0 -0.26323680597663751 0.26167582054338362 0 -0.27061738291764442 0.27298094091969272 0 -0.25981331597303692 0.26915507563383551 0 -0.25257935466350379 0.27749997093063922 0 -0.25981331597303692 0.26915507563383551 0 -0.25257935466350379 0.27749997093063922 0 -0.25281972033436212 0.26446357014162658 0 -0.25281972033436212 0.26446357014162658 0 -0.25586356126195242 0.25254648764433929 0 -0.26323680597663751 0.26167582054338362 0 -0.25281972033436212 0.26446357014162658 0 -0.25586356126195242 0.25254648764433929 0 -0.24353882222885451 0.25569364620056573 0 -0.26673435921377309 0.24912711786423289 0 -0.25586356126195242 0.25254648764433929 0 -0.26323680597663751 0.26167582054338362 0 -0.25981331597303692 0.26915507563383551 0 -0.25281972033436212 0.26446357014162658 0 -0.26323680597663751 0.26167582054338362 0 -0.25668054465708301 0.30337589444719648 0 -0.26218597083199557 0.29018513817704888 0 -0.24241170841135681 0.29729643834828612 0 -0.25668054465708301 0.30337589444719648 0 -0.26319726975372382 0.31576356710911402 0 -0.24134005376476139 0.31191202820942182 0 -0.25257935466350379 0.27749997093063922 0 -0.26218597083199557 0.29018513817704888 0 -0.24175063809895281 0.27664983422161188 0 -0.26218597083199557 0.29018513817704888 0 -0.24175063809895281 0.27664983422161188 0 -0.25257935466350379 0.27749997093063922 0 -0.26218597083199557 0.29018513817704888 0 -0.27960707296608761 0.28316588687200611 0 -0.26218597083199557 0.29018513817704888 0 -0.27960707296608761 0.28316588687200611 0 -0.28262130356504012 0.3037204421324835 0 -0.26218597083199557 0.29018513817704888 0 -0.28262130356504012 0.3037204421324835 0 -0.25668054465708301 0.30337589444719648 0 -0.28262130356504012 0.3037204421324835 0 -0.26319726975372382 0.31576356710911402 0 -0.25668054465708301 0.30337589444719648 0 -0.26218597083199557 0.29018513817704888 0 -0.28262130356504012 0.3037204421324835 0 -0.28262130356504012 0.3037204421324835 0 -0.26319726975372382 0.31576356710911402 0 -0.28262130356504012 0.3037204421324835 0 -0.30663479126867471 0.28883180281335702 0 -0.30051691859616558 0.30118528780929071 0 -0.28262130356504012 0.3037204421324835 0 -0.30478970296232838 0.31840363951260853 0 -0.28262130356504012 0.3037204421324835 0 -0.30051691859616558 0.30118528780929071 0 -0.30478970296232838 0.31840363951260853 0 -0.27960707296608761 0.28316588687200611 0 -0.28262130356504012 0.3037204421324835 0 -0.30663479126867471 0.28883180281335702 0 -0.30072561835078548 0.2800137707389283 0 -0.27960707296608761 0.28316588687200611 0 -0.30663479126867471 0.28883180281335702 0 -0.28262130356504012 0.3037204421324835 0 -0.30663479126867471 0.28883180281335702 0 -0.27960707296608761 0.28316588687200611 0 -0.30663479126867471 0.28883180281335702 0 -0.31281886700241918 0.29893052291487598 0 -0.31640866181850807 0.29672865271456422 0 -0.30802187658861918 0.29378526677871358 0 -0.30802187658861918 0.29378526677871358 0 -0.30663479126867471 0.28883180281335702 0 -0.30051691859616558 0.30118528780929071 0 -0.31640866181850807 0.29672865271456422 0 -0.30802187658861918 0.29378526677871358 0 -0.30663479126867471 0.28883180281335702 0 -0.30965708344842191 0.27518412479841359 0 -0.30072561835078548 0.2800137707389283 0 -0.30663479126867471 0.28883180281335702 0 -0.30802187658861918 0.29378526677871358 0 -0.30051691859616558 0.30118528780929071 0 -0.30478970296232838 0.31840363951260853 0 -0.30802187658861918 0.29378526677871358 0 -0.31068443637985299 0.30453122591283271 0 -0.30478970296232838 0.31840363951260853 0 -0.30802187658861918 0.29378526677871358 0 -0.30478970296232838 0.31840363951260853 0 -0.31281886700241918 0.29893052291487598 0 -0.30802187658861918 0.29378526677871358 0 -0.31068443637985299 0.30453122591283271 0 -0.31068443637985299 0.30453122591283271 0 -0.31106609011984732 0.31197389217113369 0 -0.30478970296232838 0.31840363951260853 0 -0.314230128820911 0.30764108664253548 0 -0.31068443637985299 0.30453122591283271 0 -0.31106609011984732 0.31197389217113369 0 -0.31106609011984732 0.31197389217113369 0 -0.30478970296232838 0.31840363951260853 0 -0.31359850631401709 0.31807085437442828 0 -0.30478970296232838 0.31840363951260853 0 -0.30653486340462549 0.32165535025568343 0 -0.32132564843889388 0.32935619169953961 0 -0.30653486340462549 0.32165535025568343 0 -0.30410633458619218 0.32360862517967942 0 -0.31145530532406979 0.33025933752326098 0 -0.30478970296232838 0.31840363951260853 0 -0.30653486340462549 0.32165535025568343 0 -0.30410633458619218 0.32360862517967942 0 -0.30653486340462549 0.32165535025568343 0 -0.30410633458619218 0.32360862517967942 0 -0.30478970296232838 0.31840363951260853 0 -0.30410633458619218 0.32360862517967942 0 -0.30478970296232838 0.31840363951260853 0 -0.30410633458619218 0.32360862517967942 0 -0.29263066729416159 0.32107189792095953 0 -0.30410633458619218 0.32360862517967942 0 -0.30042468941121447 0.35165047059737642 0 -0.31145530532406979 0.33025933752326098 0 -0.30042468941121447 0.35165047059737642 0 -0.31358411869941327 0.34489669461951372 0 -0.30410633458619218 0.32360862517967942 0 -0.31145530532406979 0.33025933752326098 0 -0.30042468941121447 0.35165047059737642 0 -0.30410633458619218 0.32360862517967942 0 -0.28487813136776402 0.33907394183352008 0 -0.30042468941121447 0.35165047059737642 0 -0.30410633458619218 0.32360862517967942 0 -0.28487813136776402 0.33907394183352008 0 -0.30410633458619218 0.32360862517967942 0 -0.28487813136776402 0.33907394183352008 0 -0.29263066729416159 0.32107189792095953 0 -0.28262130356504012 0.3037204421324835 0 -0.30478970296232838 0.31840363951260853 0 -0.29263066729416159 0.32107189792095953 0 -0.28262130356504012 0.3037204421324835 0 -0.29263066729416159 0.32107189792095953 0 -0.27864091738780777 0.32272171564370461 0 -0.28487813136776402 0.33907394183352008 0 -0.29263066729416159 0.32107189792095953 0 -0.27864091738780777 0.32272171564370461 0 -0.27864091738780777 0.32272171564370461 0 -0.26463173231376491 0.33354572747263589 0 -0.26319726975372382 0.31576356710911402 0 -0.28262130356504012 0.3037204421324835 0 -0.27864091738780777 0.32272171564370461 0 -0.26319726975372382 0.31576356710911402 0 -0.28487813136776402 0.33907394183352008 0 -0.27864091738780777 0.32272171564370461 0 -0.26463173231376491 0.33354572747263589 0 -0.28487813136776402 0.33907394183352008 0 -0.26463173231376491 0.33354572747263589 0 -0.2656499281493358 0.35453925848736101 0 -0.26463173231376491 0.33354572747263589 0 -0.2516509112815502 0.34136918967637098 0 -0.24377323594240821 0.32780669208574548 0 -0.26463173231376491 0.33354572747263589 0 -0.2516509112815502 0.34136918967637098 0 -0.2656499281493358 0.35453925848736101 0 -0.26463173231376491 0.33354572747263589 0 -0.26319726975372382 0.31576356710911402 0 -0.24377323594240821 0.32780669208574548 0 -0.26319726975372382 0.31576356710911402 0 -0.24377323594240821 0.32780669208574548 0 -0.2656499281493358 0.35453925848736101 0 -0.24642172493090769 0.37000457514120177 0 -0.26435012016035359 0.37041003291037039 0 -0.2656499281493358 0.35453925848736101 0 -0.24642172493090769 0.37000457514120177 0 -0.2656499281493358 0.35453925848736101 0 -0.24762008502569799 0.35442213632686742 0 -0.24642172493090769 0.37000457514120177 0 -0.26435012016035359 0.37041003291037039 0 -0.25846530012533597 0.38323992067714052 0 -0.24642172493090769 0.37000457514120177 0 -0.2516509112815502 0.34136918967637098 0 -0.2656499281493358 0.35453925848736101 0 -0.24762008502569799 0.35442213632686742 0 -0.28487813136776402 0.33907394183352008 0 -0.2656499281493358 0.35453925848736101 0 -0.28215030632798271 0.3632398414673455 0 -0.28487813136776402 0.33907394183352008 0 -0.2656499281493358 0.35453925848736101 0 -0.26435012016035359 0.37041003291037039 0 -0.2656499281493358 0.35453925848736101 0 -0.28215030632798271 0.3632398414673455 0 -0.26435012016035359 0.37041003291037039 0 -0.28215030632798271 0.3632398414673455 0 -0.27304144609874509 0.38192906274302407 0 -0.28215030632798271 0.3632398414673455 0 -0.29674304423623649 0.37969231601507342 0 -0.27304144609874509 0.38192906274302407 0 -0.28215030632798271 0.3632398414673455 0 -0.30042468941121447 0.35165047059737642 0 -0.29674304423623649 0.37969231601507342 0 -0.28487813136776402 0.33907394183352008 0 -0.28215030632798271 0.3632398414673455 0 -0.30042468941121447 0.35165047059737642 0 -0.30042468941121447 0.35165047059737642 0 -0.31266780404190059 0.36105930621838039 0 -0.31358411869941327 0.34489669461951372 0 -0.30042468941121447 0.35165047059737642 0 -0.31266780404190059 0.36105930621838039 0 -0.29674304423623649 0.37969231601507342 0 -0.31266780404190059 0.36105930621838039 0 -0.31840564121037329 0.37723241328431728 0 -0.29674304423623649 0.37969231601507342 0 -0.30042468941121447 0.35165047059737642 0 -0.29674304423623649 0.37969231601507342 0 -0.32712833872697528 0.35621472106607999 0 -0.31840564121037329 0.37723241328431728 0 -0.31266780404190059 0.36105930621838039 0 -0.32712833872697528 0.35621472106607999 0 -0.31840564121037329 0.37723241328431728 0 -0.33140434391092161 0.36776872717357773 0 -0.32712833872697528 0.35621472106607999 0 -0.31840564121037329 0.37723241328431728 0 -0.33140434391092161 0.36776872717357773 0 -0.34075643407870748 0.3638728520643672 0 -0.34566758811187281 0.38199974056505082 0 -0.33140434391092161 0.36776872717357773 0 -0.34075643407870748 0.3638728520643672 0 -0.32712833872697528 0.35621472106607999 0 -0.33140434391092161 0.36776872717357773 0 -0.34566758811187281 0.38199974056505082 0 -0.34075643407870748 0.3638728520643672 0 -0.32712833872697528 0.35621472106607999 0 -0.34413215378500212 0.34927739328178231 0 -0.32712833872697528 0.35621472106607999 0 -0.3282172633360439 0.34273911560735498 0 -0.33585103624357782 0.33519702884784303 0 -0.32712833872697528 0.35621472106607999 0 -0.33585103624357782 0.33519702884784303 0 -0.34413215378500212 0.34927739328178231 0 -0.32712833872697528 0.35621472106607999 0 -0.33585103624357782 0.33519702884784303 0 -0.3210185335073934 0.35013220882643731 0 -0.32712833872697528 0.35621472106607999 0 -0.3282172633360439 0.34273911560735498 0 -0.31266780404190059 0.36105930621838039 0 -0.3210185335073934 0.35013220882643731 0 -0.31358411869941327 0.34489669461951372 0 -0.3210185335073934 0.35013220882643731 0 -0.31358411869941327 0.34489669461951372 0 -0.3282172633360439 0.34273911560735498 0 -0.31266780404190059 0.36105930621838039 0 -0.3210185335073934 0.35013220882643731 0 -0.32712833872697528 0.35621472106607999 0 -0.31145530532406979 0.33025933752326098 0 -0.31358411869941327 0.34489669461951372 0 -0.32132564843889388 0.32935619169953961 0 -0.31358411869941327 0.34489669461951372 0 -0.32132564843889388 0.32935619169953961 0 -0.3282172633360439 0.34273911560735498 0 -0.30478970296232838 0.31840363951260853 0 -0.32132564843889388 0.32935619169953961 0 -0.31359850631401709 0.31807085437442828 0 -0.30478970296232838 0.31840363951260853 0 -0.32132564843889388 0.32935619169953961 0 -0.31569656436715549 0.31218802710508442 0 -0.31944667754547218 0.31872052720844207 0 -0.32299898026031781 0.31324208103485901 0 -0.31569656436715549 0.31218802710508442 0 -0.31106609011984732 0.31197389217113369 0 -0.31359850631401709 0.31807085437442828 0 -0.31569656436715549 0.31218802710508442 0 -0.31359850631401709 0.31807085437442828 0 -0.31944667754547218 0.31872052720844207 0 -0.30653486340462549 0.32165535025568343 0 -0.31145530532406979 0.33025933752326098 0 -0.32132564843889388 0.32935619169953961 0 -0.32132564843889388 0.32935619169953961 0 -0.31359850631401709 0.31807085437442828 0 -0.31944667754547218 0.31872052720844207 0 -0.32132564843889388 0.32935619169953961 0 -0.31944667754547218 0.31872052720844207 0 -0.32843616213307769 0.32135319414161118 0 -0.3311593187953375 0.31244887855710712 0 -0.32299898026031781 0.31324208103485901 0 -0.32843616213307769 0.32135319414161118 0 -0.31944667754547218 0.31872052720844207 0 -0.32299898026031781 0.31324208103485901 0 -0.32843616213307769 0.32135319414161118 0 -0.3311593187953375 0.31244887855710712 0 -0.32843616213307769 0.32135319414161118 0 -0.34223952297840587 0.31980371185188361 0 -0.32843616213307769 0.32135319414161118 0 -0.34223952297840587 0.31980371185188361 0 -0.33585103624357782 0.33519702884784303 0 -0.34223952297840587 0.31980371185188361 0 -0.33585103624357782 0.33519702884784303 0 -0.34530402461077192 0.32585757648718189 0 -0.34223952297840587 0.31980371185188361 0 -0.33585103624357782 0.33519702884784303 0 -0.33794355788402092 0.30755074079239092 0 -0.3311593187953375 0.31244887855710712 0 -0.34223952297840587 0.31980371185188361 0 -0.33585103624357782 0.33519702884784303 0 -0.34530402461077192 0.32585757648718189 0 -0.34413215378500212 0.34927739328178231 0 -0.3282172633360439 0.34273911560735498 0 -0.33585103624357782 0.33519702884784303 0 -0.32132564843889388 0.32935619169953961 0 -0.3282172633360439 0.34273911560735498 0 -0.33585103624357782 0.33519702884784303 0 -0.32132564843889388 0.32935619169953961 0 -0.32843616213307769 0.32135319414161118 0 -0.33585103624357782 0.33519702884784303 0 -0.33585103624357782 0.33519702884784303 0 -0.34530402461077192 0.32585757648718189 0 -0.34530402461077192 0.32585757648718189 0 -0.36523190360565799 0.3462076159056392 0 -0.34413215378500212 0.34927739328178231 0 -0.34530402461077192 0.32585757648718189 0 -0.36523190360565799 0.3462076159056392 0 -0.34530402461077192 0.32585757648718189 0 -0.36637100609937712 0.32418286915583128 0 -0.36523190360565799 0.3462076159056392 0 -0.36171767877705507 0.30964106005917058 0 -0.34530402461077192 0.32585757648718189 0 -0.36637100609937712 0.32418286915583128 0 -0.36171767877705507 0.30964106005917058 0 -0.34530402461077192 0.32585757648718189 0 -0.36171767877705507 0.30964106005917058 0 -0.34223952297840587 0.31980371185188361 0 -0.34530402461077192 0.32585757648718189 0 -0.38536958895497309 0.31909242379913449 0 -0.36171767877705507 0.30964106005917058 0 -0.38536958895497309 0.31909242379913449 0 -0.36171767877705507 0.30964106005917058 0 -0.36637100609937712 0.32418286915583128 0 -0.37572796940123798 0.32700548764778892 0 -0.36523190360565799 0.3462076159056392 0 -0.37572796940123798 0.32700548764778892 0 -0.36637100609937712 0.32418286915583128 0 -0.36523190360565799 0.3462076159056392 0 -0.38212257022435703 0.34267813894350813 0 -0.37572796940123798 0.32700548764778892 0 -0.36523190360565799 0.3462076159056392 0 -0.36523190360565799 0.3462076159056392 0 -0.35544974585876571 0.36410367823534512 0 -0.38488511549506632 0.36627716955716688 0 -0.36523190360565799 0.3462076159056392 0 -0.35544974585876571 0.36410367823534512 0 -0.38488511549506632 0.36627716955716688 0 -0.35544974585876571 0.36410367823534512 0 -0.36673548599109601 0.38017737622897257 0 -0.35544974585876571 0.36410367823534512 0 -0.34566758811187281 0.38199974056505082 0 -0.34075643407870748 0.3638728520643672 0 -0.35544974585876571 0.36410367823534512 0 -0.34566758811187281 0.38199974056505082 0 -0.34075643407870748 0.3638728520643672 0 -0.35544974585876571 0.36410367823534512 0 -0.34413215378500212 0.34927739328178231 0 -0.36523190360565799 0.3462076159056392 0 -0.35544974585876571 0.36410367823534512 0 -0.34413215378500212 0.34927739328178231 0 -0.34566758811187281 0.38199974056505082 0 -0.36455429342647683 0.40084376738434452 0 -0.33623710032026077 0.39925243692151718 0 -0.34566758811187281 0.38199974056505082 0 -0.36455429342647683 0.40084376738434452 0 -0.36455429342647683 0.40084376738434452 0 -0.34374530510800738 0.41776388605288223 0 -0.33623710032026077 0.39925243692151718 0 -0.35544974585876571 0.36410367823534512 0 -0.34566758811187281 0.38199974056505082 0 -0.36673548599109601 0.38017737622897257 0 -0.34566758811187281 0.38199974056505082 0 -0.36673548599109601 0.38017737622897257 0 -0.36455429342647683 0.40084376738434452 0 -0.3831206870632981 0.38766252540295532 0 -0.36673548599109601 0.38017737622897257 0 -0.36455429342647683 0.40084376738434452 0 -0.38344099874107768 0.41968779420364127 0 -0.36455429342647683 0.40084376738434452 0 -0.38344099874107768 0.41968779420364127 0 -0.36455429342647683 0.40084376738434452 0 -0.361888185590727 0.42240266714234159 0 -0.38344099874107768 0.41968779420364127 0 -0.361888185590727 0.42240266714234159 0 -0.3668312948086474 0.44355591656239413 0 -0.361888185590727 0.42240266714234159 0 -0.34488001558336689 0.4358468319092193 0 -0.3668312948086474 0.44355591656239413 0 -0.361888185590727 0.42240266714234159 0 -0.34488001558336689 0.4358468319092193 0 -0.34374530510800738 0.41776388605288223 0 -0.36455429342647683 0.40084376738434452 0 -0.361888185590727 0.42240266714234159 0 -0.34374530510800738 0.41776388605288223 0 -0.32680661252864918 0.41650513327798411 0 -0.33623710032026077 0.39925243692151718 0 -0.34374530510800738 0.41776388605288223 0 -0.32680661252864918 0.41650513327798411 0 -0.33623710032026077 0.39925243692151718 0 -0.34374530510800738 0.41776388605288223 0 -0.32810562319856412 0.43173247968188638 0 -0.32680661252864918 0.41650513327798411 0 -0.34488001558336689 0.4358468319092193 0 -0.34374530510800738 0.41776388605288223 0 -0.32810562319856412 0.43173247968188638 0 -0.32810562319856412 0.43173247968188638 0 -0.32680661252864918 0.41650513327798411 0 -0.30593439510487191 0.42355896658402409 0 -0.32810562319856412 0.43173247968188638 0 -0.30593439510487191 0.42355896658402409 0 -0.31512874901788229 0.43980466920665229 0 -0.32680661252864918 0.41650513327798411 0 -0.31534329201115952 0.39795583210411017 0 -0.30593439510487191 0.42355896658402409 0 -0.32680661252864918 0.41650513327798411 0 -0.31534329201115952 0.39795583210411017 0 -0.33623710032026077 0.39925243692151718 0 -0.31534329201115952 0.39795583210411017 0 -0.33623710032026077 0.39925243692151718 0 -0.32941159311291762 0.38484183000971461 0 -0.34566758811187281 0.38199974056505082 0 -0.33623710032026077 0.39925243692151718 0 -0.33140434391092161 0.36776872717357773 0 -0.34566758811187281 0.38199974056505082 0 -0.32941159311291762 0.38484183000971461 0 -0.34566758811187281 0.38199974056505082 0 -0.33623710032026077 0.39925243692151718 0 -0.32941159311291762 0.38484183000971461 0 -0.33140434391092161 0.36776872717357773 0 -0.32941159311291762 0.38484183000971461 0 -0.31840564121037329 0.37723241328431728 0 -0.31534329201115952 0.39795583210411017 0 -0.32941159311291762 0.38484183000971461 0 -0.31840564121037329 0.37723241328431728 0 -0.31534329201115952 0.39795583210411017 0 -0.31840564121037329 0.37723241328431728 0 -0.29674304423623649 0.37969231601507342 0 -0.31534329201115952 0.39795583210411017 0 -0.29674304423623649 0.37969231601507342 0 -0.29306139906125861 0.4077341614327703 0 -0.28472280265360422 0.39237677144549188 0 -0.2776229275867671 0.41756432528692372 0 -0.29306139906125861 0.4077341614327703 0 -0.28472280265360422 0.39237677144549188 0 -0.29674304423623649 0.37969231601507342 0 -0.29306139906125861 0.4077341614327703 0 -0.29674304423623649 0.37969231601507342 0 -0.29306139906125861 0.4077341614327703 0 -0.28472280265360422 0.39237677144549188 0 -0.29674304423623649 0.37969231601507342 0 -0.27304144609874509 0.38192906274302407 0 -0.28472280265360422 0.39237677144549188 0 -0.26298900584177642 0.39982167639886529 0 -0.2776229275867671 0.41756432528692372 0 -0.28472280265360422 0.39237677144549188 0 -0.27304144609874509 0.38192906274302407 0 -0.26298900584177642 0.39982167639886529 0 -0.26298900584177642 0.39982167639886529 0 -0.25846530012533597 0.38323992067714052 0 -0.2455242035948976 0.39403425619224119 0 -0.26298900584177642 0.39982167639886529 0 -0.24440005972636669 0.41216703809138788 0 -0.2455242035948976 0.39403425619224119 0 -0.27304144609874509 0.38192906274302407 0 -0.26298900584177642 0.39982167639886529 0 -0.25846530012533597 0.38323992067714052 0 -0.25846530012533597 0.38323992067714052 0 -0.2455242035948976 0.39403425619224119 0 -0.24642172493090769 0.37000457514120177 0 -0.26435012016035359 0.37041003291037039 0 -0.27304144609874509 0.38192906274302407 0 -0.25846530012533597 0.38323992067714052 0 -0.26174820758900708 0.4323204355392441 0 -0.26608739651648711 0.44377191133283611 0 -0.24864194769054601 0.43415437624979641 0 -0.26175919591892932 0.42088619650776082 0 -0.24440005972636669 0.41216703809138788 0 -0.24864194769054601 0.43415437624979641 0 -0.26174820758900708 0.4323204355392441 0 -0.26175919591892932 0.42088619650776082 0 -0.27050429023006622 0.4304692580665832 0 -0.26174820758900708 0.4323204355392441 0 -0.26175919591892932 0.42088619650776082 0 -0.24864194769054601 0.43415437624979641 0 -0.26298900584177642 0.39982167639886529 0 -0.26175919591892932 0.42088619650776082 0 -0.24440005972636669 0.41216703809138788 0 -0.26298900584177642 0.39982167639886529 0 -0.26175919591892932 0.42088619650776082 0 -0.2776229275867671 0.41756432528692372 0 -0.2776229275867671 0.41756432528692372 0 -0.27050429023006622 0.4304692580665832 0 -0.27833634693854281 0.43477904382448013 0 -0.26175919591892932 0.42088619650776082 0 -0.2776229275867671 0.41756432528692372 0 -0.27050429023006622 0.4304692580665832 0 -0.26174820758900708 0.4323204355392441 0 -0.27050429023006622 0.4304692580665832 0 -0.26608739651648711 0.44377191133283611 0 -0.27050429023006622 0.4304692580665832 0 -0.27833634693854281 0.43477904382448013 0 -0.26608739651648711 0.44377191133283611 0 -0.28937975388628068 0.43577600685046741 0 -0.29306139906125861 0.4077341614327703 0 -0.30593439510487191 0.42355896658402409 0 -0.2776229275867671 0.41756432528692372 0 -0.27833634693854281 0.43477904382448013 0 -0.28937975388628068 0.43577600685046741 0 -0.28937975388628068 0.43577600685046741 0 -0.29306139906125861 0.4077341614327703 0 -0.2776229275867671 0.41756432528692372 0 -0.28937975388628068 0.43577600685046741 0 -0.29306139906125861 0.4077341614327703 0 -0.31534329201115952 0.39795583210411017 0 -0.29306139906125861 0.4077341614327703 0 -0.30593439510487191 0.42355896658402409 0 -0.28937975388628068 0.43577600685046741 0 -0.30593439510487191 0.42355896658402409 0 -0.30143392273675212 0.44055121190741092 0 -0.30593439510487191 0.42355896658402409 0 -0.30143392273675212 0.44055121190741092 0 -0.31512874901788229 0.43980466920665229 0 -0.30996569658379219 0.45182674533825612 0 -0.30143392273675212 0.44055121190741092 0 -0.31512874901788229 0.43980466920665229 0 -0.30996569658379219 0.45182674533825612 0 -0.29727260375396142 0.44865297481023753 0 -0.30143392273675212 0.44055121190741092 0 -0.29727260375396142 0.44865297481023753 0 -0.30143392273675212 0.44055121190741092 0 -0.29273956242407068 0.44226989654740267 0 -0.30996569658379219 0.45182674533825612 0 -0.30273779262327899 0.46273292841432928 0 -0.31675322867637129 0.46518033760899907 0 -0.30996569658379219 0.45182674533825612 0 -0.29727260375396142 0.44865297481023753 0 -0.30273779262327899 0.46273292841432928 0 -0.30273779262327899 0.46273292841432928 0 -0.28469198616966862 0.46385050106185649 0 -0.28287196931928882 0.444099392621495 0 -0.30273779262327899 0.46273292841432928 0 -0.28469198616966862 0.46385050106185649 0 -0.28924857595910253 0.47673474341788358 0 -0.30273779262327899 0.46273292841432928 0 -0.28287196931928882 0.444099392621495 0 -0.29727260375396142 0.44865297481023753 0 -0.30273779262327899 0.46273292841432928 0 -0.28287196931928882 0.444099392621495 0 -0.29727260375396142 0.44865297481023753 0 -0.29273956242407068 0.44226989654740267 0 -0.28287196931928882 0.444099392621495 0 -0.28937975388628068 0.43577600685046741 0 -0.30143392273675212 0.44055121190741092 0 -0.29273956242407068 0.44226989654740267 0 -0.27833634693854281 0.43477904382448013 0 -0.28937975388628068 0.43577600685046741 0 -0.28287196931928882 0.444099392621495 0 -0.28937975388628068 0.43577600685046741 0 -0.29273956242407068 0.44226989654740267 0 -0.28287196931928882 0.444099392621495 0 -0.28287196931928882 0.444099392621495 0 -0.26608739651648711 0.44377191133283611 0 -0.27231339364895862 0.45941737013880818 0 -0.27833634693854281 0.43477904382448013 0 -0.28287196931928882 0.444099392621495 0 -0.26608739651648711 0.44377191133283611 0 -0.28469198616966862 0.46385050106185649 0 -0.28287196931928882 0.444099392621495 0 -0.27231339364895862 0.45941737013880818 0 -0.28469198616966862 0.46385050106185649 0 -0.27231339364895862 0.45941737013880818 0 -0.27532062029615773 0.48178834855928371 0 -0.27231339364895862 0.45941737013880818 0 -0.2525949959431909 0.46357669711856991 0 -0.27532062029615773 0.48178834855928371 0 -0.26608739651648711 0.44377191133283611 0 -0.27231339364895862 0.45941737013880818 0 -0.2525949959431909 0.46357669711856991 0 -0.26608739651648711 0.44377191133283611 0 -0.2525949959431909 0.46357669711856991 0 -0.24864194769054601 0.43415437624979641 0 -0.25543417718413158 0.48487826342428841 0 -0.27046772952741971 0.5 0 -0.24288921440571579 0.5 0 -0.2525949959431909 0.46357669711856991 0 -0.27532062029615773 0.48178834855928371 0 -0.2525949959431909 0.46357669711856991 0 -0.25543417718413158 0.48487826342428841 0 -0.27532062029615773 0.48178834855928371 0 -0.25543417718413158 0.48487826342428841 0 -0.27532062029615773 0.48178834855928371 0 -0.27046772952741971 0.5 0 -0.27532062029615773 0.48178834855928371 0 -0.28924857595910253 0.47673474341788358 0 -0.29804624464912349 0.49999999999999839 0 -0.28924857595910253 0.47673474341788358 0 -0.30186578344162629 0.47717778485268131 0 -0.29804624464912349 0.49999999999999839 0 -0.27532062029615773 0.48178834855928371 0 -0.27046772952741971 0.5 0 -0.29804624464912349 0.49999999999999839 0 -0.27532062029615773 0.48178834855928371 0 -0.29804624464912349 0.49999999999999839 0 -0.28469198616966862 0.46385050106185649 0 -0.27532062029615773 0.48178834855928371 0 -0.28924857595910253 0.47673474341788358 0 -0.30273779262327899 0.46273292841432928 0 -0.30186578344162629 0.47717778485268131 0 -0.32260361592726938 0.48136646420716372 0 -0.30186578344162629 0.47717778485268131 0 -0.321765530945954 0.48858889242634213 0 -0.30273779262327899 0.46273292841432928 0 -0.28924857595910253 0.47673474341788358 0 -0.30186578344162629 0.47717778485268131 0 -0.30186578344162629 0.47717778485268131 0 -0.29804624464912349 0.49999999999999839 0 -0.30895100309941342 0.49230960965027842 0 -0.29804624464912349 0.49999999999999839 0 -0.30895100309941342 0.49230960965027842 0 -0.31985576154970302 0.5 0 -0.30186578344162629 0.47717778485268131 0 -0.30895100309941342 0.49230960965027842 0 -0.321765530945954 0.48858889242634213 0 -0.30895100309941342 0.49230960965027842 0 -0.31985576154970302 0.5 0 -0.321765530945954 0.48858889242634213 0 -0.31985576154970302 0.5 0 -0.321765530945954 0.48858889242634213 0 -0.34246943923125911 0.49999999999999878 0 -0.33341243350838778 0.49150480512533479 0 -0.32260361592726938 0.48136646420716372 0 -0.321765530945954 0.48858889242634213 0 -0.33341243350838778 0.49150480512533479 0 -0.32260361592726938 0.48136646420716372 0 -0.321765530945954 0.48858889242634213 0 -0.33341243350838778 0.49150480512533479 0 -0.34246943923125911 0.49999999999999878 0 -0.321765530945954 0.48858889242634213 0 -0.34246943923125911 0.49999999999999878 0 -0.33341243350838778 0.49150480512533479 0 -0.34246943923125911 0.49999999999999878 0 -0.35354552174784842 0.48603130546884249 0 -0.33341243350838778 0.49150480512533479 0 -0.34246943923125911 0.49999999999999878 0 -0.33341243350838778 0.49150480512533479 0 -0.33242275282910938 0.47110222380934991 0 -0.35022159087621751 0.46742403892114731 0 -0.33341243350838778 0.49150480512533479 0 -0.33242275282910938 0.47110222380934991 0 -0.32260361592726938 0.48136646420716372 0 -0.33341243350838778 0.49150480512533479 0 -0.35022159087621751 0.46742403892114731 0 -0.30273779262327899 0.46273292841432928 0 -0.32260361592726938 0.48136646420716372 0 -0.33242275282910938 0.47110222380934991 0 -0.3238526809072233 0.47019297392663723 0 -0.32260361592726938 0.48136646420716372 0 -0.3238526809072233 0.47019297392663723 0 -0.32260361592726938 0.48136646420716372 0 -0.31675322867637129 0.46518033760899907 0 -0.30273779262327899 0.46273292841432928 0 -0.32260361592726938 0.48136646420716372 0 -0.31675322867637129 0.46518033760899907 0 -0.30186578344162629 0.47717778485268131 0 -0.321765530945954 0.48858889242634213 0 -0.32260361592726938 0.48136646420716372 0 -0.30996569658379219 0.45182674533825612 0 -0.31675322867637129 0.46518033760899907 0 -0.32460635734029281 0.45978257615860912 0 -0.3238526809072233 0.47019297392663723 0 -0.31675322867637129 0.46518033760899907 0 -0.32460635734029281 0.45978257615860912 0 -0.33242275282910938 0.47110222380934991 0 -0.3238526809072233 0.47019297392663723 0 -0.32460635734029281 0.45978257615860912 0 -0.30996569658379219 0.45182674533825612 0 -0.31512874901788229 0.43980466920665229 0 -0.32768476437153221 0.44588732282539317 0 -0.30996569658379219 0.45182674533825612 0 -0.32460635734029281 0.45978257615860912 0 -0.32768476437153221 0.44588732282539317 0 -0.32810562319856412 0.43173247968188638 0 -0.31512874901788229 0.43980466920665229 0 -0.32768476437153221 0.44588732282539317 0 -0.34488001558336689 0.4358468319092193 0 -0.32768476437153221 0.44588732282539317 0 -0.34110779596819429 0.45393315169768539 0 -0.34488001558336689 0.4358468319092193 0 -0.32810562319856412 0.43173247968188638 0 -0.32768476437153221 0.44588732282539317 0 -0.33242275282910938 0.47110222380934991 0 -0.32460635734029281 0.45978257615860912 0 -0.34110779596819429 0.45393315169768539 0 -0.33242275282910938 0.47110222380934991 0 -0.34110779596819429 0.45393315169768539 0 -0.35022159087621751 0.46742403892114731 0 -0.32460635734029281 0.45978257615860912 0 -0.32768476437153221 0.44588732282539317 0 -0.34110779596819429 0.45393315169768539 0 -0.35022159087621751 0.46742403892114731 0 -0.3668312948086474 0.44355591656239413 0 -0.34110779596819429 0.45393315169768539 0 -0.35022159087621751 0.46742403892114731 0 -0.3668312948086474 0.44355591656239413 0 -0.34488001558336689 0.4358468319092193 0 -0.34110779596819429 0.45393315169768539 0 -0.3668312948086474 0.44355591656239413 0 -0.37970986147604191 0.47475688960593432 0 -0.35022159087621751 0.46742403892114731 0 -0.3668312948086474 0.44355591656239413 0 -0.37970986147604191 0.47475688960593432 0 -0.35022159087621751 0.46742403892114731 0 -0.35354552174784842 0.48603130546884249 0 -0.37970986147604191 0.47475688960593432 0 -0.37055951731891279 0.5 0 -0.35354552174784842 0.48603130546884249 0 -0.34246943923125911 0.49999999999999878 0 -0.37055951731891279 0.5 0 -0.35354552174784842 0.48603130546884249 0 -0.33341243350838778 0.49150480512533479 0 -0.35022159087621751 0.46742403892114731 0 -0.35354552174784842 0.48603130546884249 0 -0.14679809386281251 0.48203758878369729 0 -0.14037036694861099 0.46452656445244572 0 -0.16060386958922629 0.46264758475431089 0 -0.14679809386281251 0.48203758878369729 0 -0.13257515391890029 0.5 0 -0.1601536690406041 0.5 0 -0.14679809386281251 0.48203758878369729 0 -0.13257515391890029 0.5 0 -0.1263230820352379 0.47739936264286009 0 -0.14679809386281251 0.48203758878369729 0 -0.1263230820352379 0.47739936264286009 0 -0.14037036694861099 0.46452656445244572 0 -0.1263230820352379 0.47739936264286009 0 -0.14037036694861099 0.46452656445244572 0 -0.12579200730107051 0.45303246416568882 0 -0.14037036694861099 0.46452656445244572 0 -0.12579200730107051 0.45303246416568882 0 -0.146177017159761 0.44907436132567469 0 -0.1333877762442611 0.43750216830862121 0 -0.12579200730107051 0.45303246416568882 0 -0.146177017159761 0.44907436132567469 0 -0.1333877762442611 0.43750216830862121 0 -0.12579200730107051 0.45303246416568882 0 -0.1181616549298001 0.43433742834474792 0 -0.146177017159761 0.44907436132567469 0 -0.16060386958922629 0.46264758475431089 0 -0.16116621177105209 0.44063855810972119 0 -0.1333877762442611 0.43750216830862121 0 -0.146177017159761 0.44907436132567469 0 -0.14803057896027871 0.42980252857783441 0 -0.146177017159761 0.44907436132567469 0 -0.16116621177105209 0.44063855810972119 0 -0.14803057896027871 0.42980252857783441 0 -0.14037036694861099 0.46452656445244572 0 -0.146177017159761 0.44907436132567469 0 -0.16060386958922629 0.46264758475431089 0 -0.16060386958922629 0.46264758475431089 0 -0.16116621177105209 0.44063855810972119 0 -0.1787295224848936 0.44658572245317418 0 -0.1787295224848936 0.44658572245317418 0 -0.18631921617817709 0.47384690961836018 0 -0.16060386958922629 0.46264758475431089 0 -0.1787295224848936 0.44658572245317418 0 -0.18631921617817709 0.47384690961836018 0 -0.16060386958922629 0.46264758475431089 0 -0.18631921617817709 0.47384690961836018 0 -0.16839059548722779 0.48207529960280959 0 -0.14679809386281251 0.48203758878369729 0 -0.16060386958922629 0.46264758475431089 0 -0.16839059548722779 0.48207529960280959 0 -0.14679809386281251 0.48203758878369729 0 -0.16839059548722779 0.48207529960280959 0 -0.1601536690406041 0.5 0 -0.16839059548722779 0.48207529960280959 0 -0.1601536690406041 0.5 0 -0.187732184162308 0.5 0 -0.18631921617817709 0.47384690961836018 0 -0.16839059548722779 0.48207529960280959 0 -0.187732184162308 0.5 0 -0.18631921617817709 0.47384690961836018 0 -0.187732184162308 0.5 0 -0.20076225761832209 0.48634166420211672 0 -0.187732184162308 0.5 0 -0.20076225761832209 0.48634166420211672 0 -0.21531069928401189 0.5 0 -0.18631921617817709 0.47384690961836018 0 -0.20076225761832209 0.48634166420211672 0 -0.21368693084879151 0.47151974719010648 0 -0.20076225761832209 0.48634166420211672 0 -0.21368693084879151 0.47151974719010648 0 -0.21531069928401189 0.5 0 -0.21531069928401189 0.5 0 -0.23555791240797869 0.47849068621213142 0 -0.24288921440571579 0.5 0 -0.21368693084879151 0.47151974719010648 0 -0.21531069928401189 0.5 0 -0.23555791240797869 0.47849068621213142 0 -0.2525949959431909 0.46357669711856991 0 -0.25543417718413158 0.48487826342428841 0 -0.23555791240797869 0.47849068621213142 0 -0.25543417718413158 0.48487826342428841 0 -0.23555791240797869 0.47849068621213142 0 -0.24288921440571579 0.5 0 -0.2525949959431909 0.46357669711856991 0 -0.23555791240797869 0.47849068621213142 0 -0.22986937159022419 0.44536504567785618 0 -0.21368693084879151 0.47151974719010648 0 -0.23555791240797869 0.47849068621213142 0 -0.22986937159022419 0.44536504567785618 0 -0.2525949959431909 0.46357669711856991 0 -0.22986937159022419 0.44536504567785618 0 -0.24864194769054601 0.43415437624979641 0 -0.2525949959431909 0.46357669711856991 0 -0.22986937159022419 0.44536504567785618 0 -0.22986937159022419 0.44536504567785618 0 -0.20199084512817189 0.45146888454934681 0 -0.19856752050880649 0.42478363537206038 0 -0.21368693084879151 0.47151974719010648 0 -0.22986937159022419 0.44536504567785618 0 -0.20199084512817189 0.45146888454934681 0 -0.1787295224848936 0.44658572245317418 0 -0.18631921617817709 0.47384690961836018 0 -0.20199084512817189 0.45146888454934681 0 -0.18631921617817709 0.47384690961836018 0 -0.21368693084879151 0.47151974719010648 0 -0.20199084512817189 0.45146888454934681 0 -0.1787295224848936 0.44658572245317418 0 -0.20199084512817189 0.45146888454934681 0 -0.19856752050880649 0.42478363537206038 0 -0.22986937159022419 0.44536504567785618 0 -0.19856752050880649 0.42478363537206038 0 -0.22450012948637429 0.41820540239531911 0 -0.19856752050880649 0.42478363537206038 0 -0.1882550508736931 0.40948861350634019 0 -0.20369231328772261 0.39760543153038769 0 -0.19856752050880649 0.42478363537206038 0 -0.22450012948637429 0.41820540239531911 0 -0.20369231328772261 0.39760543153038769 0 -0.22986937159022419 0.44536504567785618 0 -0.22450012948637429 0.41820540239531911 0 -0.24864194769054601 0.43415437624979641 0 -0.22450012948637429 0.41820540239531911 0 -0.24440005972636669 0.41216703809138788 0 -0.22591252504203679 0.3949142458973654 0 -0.22450012948637429 0.41820540239531911 0 -0.24440005972636669 0.41216703809138788 0 -0.24864194769054601 0.43415437624979641 0 -0.2455242035948976 0.39403425619224119 0 -0.2308690747112421 0.37255935513230448 0 -0.2455242035948976 0.39403425619224119 0 -0.2308690747112421 0.37255935513230448 0 -0.24642172493090769 0.37000457514120177 0 -0.24440005972636669 0.41216703809138788 0 -0.2455242035948976 0.39403425619224119 0 -0.22591252504203679 0.3949142458973654 0 -0.22591252504203679 0.3949142458973654 0 -0.2131435578472248 0.37758959116696172 0 -0.2308690747112421 0.37255935513230448 0 -0.2455242035948976 0.39403425619224119 0 -0.22591252504203679 0.3949142458973654 0 -0.2308690747112421 0.37255935513230448 0 -0.2131435578472248 0.37758959116696172 0 -0.20369231328772261 0.39760543153038769 0 -0.1947844321931583 0.37058783826991998 0 -0.22591252504203679 0.3949142458973654 0 -0.2131435578472248 0.37758959116696172 0 -0.20369231328772261 0.39760543153038769 0 -0.22450012948637429 0.41820540239531911 0 -0.22591252504203679 0.3949142458973654 0 -0.20369231328772261 0.39760543153038769 0 -0.1882550508736931 0.40948861350634019 0 -0.20369231328772261 0.39760543153038769 0 -0.18305016194077331 0.39179132967395569 0 -0.20369231328772261 0.39760543153038769 0 -0.18305016194077331 0.39179132967395569 0 -0.1947844321931583 0.37058783826991998 0 -0.1810809742621744 0.37585466714060062 0 -0.16859697395581311 0.37869818650800668 0 -0.18305016194077331 0.39179132967395569 0 -0.1810809742621744 0.37585466714060062 0 -0.18305016194077331 0.39179132967395569 0 -0.1947844321931583 0.37058783826991998 0 -0.16859697395581311 0.37869818650800668 0 -0.1569964504180503 0.38276106030289442 0 -0.15828472942556601 0.3656558946208131 0 -0.16859697395581311 0.37869818650800668 0 -0.16355013509832669 0.39206334812280258 0 -0.18305016194077331 0.39179132967395569 0 -0.16859697395581311 0.37869818650800668 0 -0.1569964504180503 0.38276106030289442 0 -0.16355013509832669 0.39206334812280258 0 -0.16355013509832669 0.39206334812280258 0 -0.17113982879161019 0.41932453528798841 0 -0.16355013509832669 0.39206334812280258 0 -0.17113982879161019 0.41932453528798841 0 -0.14952053714563679 0.39891015655452727 0 -0.1569964504180503 0.38276106030289442 0 -0.16355013509832669 0.39206334812280258 0 -0.14952053714563679 0.39891015655452727 0 -0.16355013509832669 0.39206334812280258 0 -0.18305016194077331 0.39179132967395569 0 -0.17113982879161019 0.41932453528798841 0 -0.1882550508736931 0.40948861350634019 0 -0.18305016194077331 0.39179132967395569 0 -0.17113982879161019 0.41932453528798841 0 -0.19856752050880649 0.42478363537206038 0 -0.1882550508736931 0.40948861350634019 0 -0.17113982879161019 0.41932453528798841 0 -0.1787295224848936 0.44658572245317418 0 -0.19856752050880649 0.42478363537206038 0 -0.17113982879161019 0.41932453528798841 0 -0.1787295224848936 0.44658572245317418 0 -0.17113982879161019 0.41932453528798841 0 -0.16116621177105209 0.44063855810972119 0 -0.17113982879161019 0.41932453528798841 0 -0.14803057896027871 0.42980252857783441 0 -0.16116621177105209 0.44063855810972119 0 -0.1787295224848936 0.44658572245317418 0 -0.17113982879161019 0.41932453528798841 0 -0.17113982879161019 0.41932453528798841 0 -0.14638244855281951 0.41492994313207238 0 -0.14952053714563679 0.39891015655452727 0 -0.17113982879161019 0.41932453528798841 0 -0.14638244855281951 0.41492994313207238 0 -0.14803057896027871 0.42980252857783441 0 -0.14638244855281951 0.41492994313207238 0 -0.13133782601494551 0.40590280900909848 0 -0.14952053714563679 0.39891015655452727 0 -0.14638244855281951 0.41492994313207238 0 -0.14803057896027871 0.42980252857783441 0 -0.12877762287039521 0.42126405912916032 0 -0.1333877762442611 0.43750216830862121 0 -0.12877762287039521 0.42126405912916032 0 -0.1181616549298001 0.43433742834474792 0 -0.1333877762442611 0.43750216830862121 0 -0.14803057896027871 0.42980252857783441 0 -0.12877762287039521 0.42126405912916032 0 -0.12877762287039521 0.42126405912916032 0 -0.13133782601494551 0.40590280900909848 0 -0.11537355113267091 0.40621267877170603 0 -0.14638244855281951 0.41492994313207238 0 -0.12877762287039521 0.42126405912916032 0 -0.13133782601494551 0.40590280900909848 0 -0.13133782601494551 0.40590280900909848 0 -0.13450802477891219 0.3913248975831814 0 -0.14952053714563679 0.39891015655452727 0 -0.13133782601494551 0.40590280900909848 0 -0.13450802477891219 0.3913248975831814 0 -0.1245237874651631 0.39644185346730137 0 -0.13450802477891219 0.3913248975831814 0 -0.12533687557160031 0.38327028691968229 0 -0.1245237874651631 0.39644185346730137 0 -0.13450802477891219 0.3913248975831814 0 -0.12533687557160031 0.38327028691968229 0 -0.13653821673684599 0.37918866042555671 0 -0.12533687557160031 0.38327028691968229 0 -0.13653821673684599 0.37918866042555671 0 -0.12720986748145821 0.36889988388829348 0 -0.13450802477891219 0.3913248975831814 0 -0.13653821673684599 0.37918866042555671 0 -0.14501652804210111 0.38589425251316922 0 -0.1569964504180503 0.38276106030289442 0 -0.14501652804210111 0.38589425251316922 0 -0.14952053714563679 0.39891015655452727 0 -0.1569964504180503 0.38276106030289442 0 -0.1475194111310601 0.37728648769968609 0 -0.15828472942556601 0.3656558946208131 0 -0.13653821673684599 0.37918866042555671 0 -0.14501652804210111 0.38589425251316922 0 -0.1475194111310601 0.37728648769968609 0 -0.1569964504180503 0.38276106030289442 0 -0.14501652804210111 0.38589425251316922 0 -0.1475194111310601 0.37728648769968609 0 -0.13450802477891219 0.3913248975831814 0 -0.14501652804210111 0.38589425251316922 0 -0.14952053714563679 0.39891015655452727 0 -0.1459742233862649 0.3536355027212586 0 -0.13984712351000461 0.34039967602600979 0 -0.1588614360252236 0.34201797493727321 0 -0.1459742233862649 0.3536355027212586 0 -0.1588614360252236 0.34201797493727321 0 -0.15828472942556601 0.3656558946208131 0 -0.1459742233862649 0.3536355027212586 0 -0.14125514881141249 0.36613823679405472 0 -0.15828472942556601 0.3656558946208131 0 -0.1475194111310601 0.37728648769968609 0 -0.14125514881141249 0.36613823679405472 0 -0.15828472942556601 0.3656558946208131 0 -0.13653821673684599 0.37918866042555671 0 -0.1475194111310601 0.37728648769968609 0 -0.14125514881141249 0.36613823679405472 0 -0.14125514881141249 0.36613823679405472 0 -0.12720986748145821 0.36889988388829348 0 -0.13337861670681411 0.35369863215608238 0 -0.13653821673684599 0.37918866042555671 0 -0.14125514881141249 0.36613823679405472 0 -0.12720986748145821 0.36889988388829348 0 -0.12720986748145821 0.36889988388829348 0 -0.13337861670681411 0.35369863215608238 0 -0.1199889907943389 0.35585059104355998 0 -0.1459742233862649 0.3536355027212586 0 -0.14125514881141249 0.36613823679405472 0 -0.13337861670681411 0.35369863215608238 0 -0.1459742233862649 0.3536355027212586 0 -0.13337861670681411 0.35369863215608238 0 -0.13984712351000461 0.34039967602600979 0 -0.13337861670681411 0.35369863215608238 0 -0.12653007299808491 0.34241022530505377 0 -0.13984712351000461 0.34039967602600979 0 -0.13337861670681411 0.35369863215608238 0 -0.12653007299808491 0.34241022530505377 0 -0.1199889907943389 0.35585059104355998 0 -0.12653007299808491 0.34241022530505377 0 -0.1328518871389559 0.32814280017159841 0 -0.11873796741778669 0.33144672616027387 0 -0.12653007299808491 0.34241022530505377 0 -0.1328518871389559 0.32814280017159841 0 -0.13984712351000461 0.34039967602600979 0 -0.1328518871389559 0.32814280017159841 0 -0.1405852110445609 0.31346816415910739 0 -0.1232576263346882 0.31297321709810427 0 -0.1328518871389559 0.32814280017159841 0 -0.1405852110445609 0.31346816415910739 0 -0.14978262724932401 0.32655635073667638 0 -0.1405852110445609 0.31346816415910739 0 -0.14978262724932401 0.32655635073667638 0 -0.1533067555320041 0.31352946225224732 0 -0.14978262724932401 0.32655635073667638 0 -0.1533067555320041 0.31352946225224732 0 -0.16378382797846799 0.32001000510956962 0 -0.13984712351000461 0.34039967602600979 0 -0.14978262724932401 0.32655635073667638 0 -0.1588614360252236 0.34201797493727321 0 -0.1328518871389559 0.32814280017159841 0 -0.13984712351000461 0.34039967602600979 0 -0.14978262724932401 0.32655635073667638 0 -0.1588614360252236 0.34201797493727321 0 -0.17445178466239389 0.33249839098890033 0 -0.1715243793091035 0.35559828874845362 0 -0.14978262724932401 0.32655635073667638 0 -0.1588614360252236 0.34201797493727321 0 -0.16204204234532341 0.33048468835201739 0 -0.1588614360252236 0.34201797493727321 0 -0.16204204234532341 0.33048468835201739 0 -0.17445178466239389 0.33249839098890033 0 -0.16378382797846799 0.32001000510956962 0 -0.17445178466239389 0.33249839098890033 0 -0.17737919001568431 0.30939849322934698 0 -0.1533067555320041 0.31352946225224732 0 -0.16378382797846799 0.32001000510956962 0 -0.16319192233553881 0.30794661483078128 0 -0.14978262724932401 0.32655635073667638 0 -0.16204204234532341 0.33048468835201739 0 -0.16378382797846799 0.32001000510956962 0 -0.16204204234532341 0.33048468835201739 0 -0.16378382797846799 0.32001000510956962 0 -0.17445178466239389 0.33249839098890033 0 -0.18833541373241711 0.32743871086207882 0 -0.1914623095494857 0.30863450873520309 0 -0.17737919001568431 0.30939849322934698 0 -0.17445178466239389 0.33249839098890033 0 -0.18833541373241711 0.32743871086207882 0 -0.17737919001568431 0.30939849322934698 0 -0.17445178466239389 0.33249839098890033 0 -0.17737919001568431 0.30939849322934698 0 -0.17445178466239389 0.33249839098890033 0 -0.1859222613927253 0.33885739036162849 0 -0.1715243793091035 0.35559828874845362 0 -0.17445178466239389 0.33249839098890033 0 -0.1859222613927253 0.33885739036162849 0 -0.18833541373241711 0.32743871086207882 0 -0.1715243793091035 0.35559828874845362 0 -0.1947844321931583 0.37058783826991998 0 -0.19374091231578081 0.34914200819627822 0 -0.1859222613927253 0.33885739036162849 0 -0.1715243793091035 0.35559828874845362 0 -0.19374091231578081 0.34914200819627822 0 -0.17445178466239389 0.33249839098890033 0 -0.1715243793091035 0.35559828874845362 0 -0.1588614360252236 0.34201797493727321 0 -0.1715243793091035 0.35559828874845362 0 -0.15828472942556601 0.3656558946208131 0 -0.16859697395581311 0.37869818650800668 0 -0.1715243793091035 0.35559828874845362 0 -0.16859697395581311 0.37869818650800668 0 -0.1715243793091035 0.35559828874845362 0 -0.15828472942556601 0.3656558946208131 0 -0.1810809742621744 0.37585466714060062 0 -0.1715243793091035 0.35559828874845362 0 -0.1947844321931583 0.37058783826991998 0 -0.1810809742621744 0.37585466714060062 0 -0.16859697395581311 0.37869818650800668 0 -0.1715243793091035 0.35559828874845362 0 -0.1947844321931583 0.37058783826991998 0 -0.19374091231578081 0.34914200819627822 0 -0.2162139458275866 0.35108445407236799 0 -0.2131435578472248 0.37758959116696172 0 -0.1947844321931583 0.37058783826991998 0 -0.2162139458275866 0.35108445407236799 0 -0.2162139458275866 0.35108445407236799 0 -0.2308690747112421 0.37255935513230448 0 -0.2131435578472248 0.37758959116696172 0 -0.2162139458275866 0.35108445407236799 0 -0.2308690747112421 0.37255935513230448 0 -0.2162139458275866 0.35108445407236799 0 -0.2308690747112421 0.37255935513230448 0 -0.23628107763543141 0.35943544856568638 0 -0.2162139458275866 0.35108445407236799 0 -0.2380967831312652 0.34676220976371669 0 -0.22974432275829129 0.33722643629442223 0 -0.2162139458275866 0.35108445407236799 0 -0.2380967831312652 0.34676220976371669 0 -0.23628107763543141 0.35943544856568638 0 -0.2380967831312652 0.34676220976371669 0 -0.24762008502569799 0.35442213632686742 0 -0.23628107763543141 0.35943544856568638 0 -0.2516509112815502 0.34136918967637098 0 -0.2380967831312652 0.34676220976371669 0 -0.24762008502569799 0.35442213632686742 0 -0.24762008502569799 0.35442213632686742 0 -0.24642172493090769 0.37000457514120177 0 -0.23628107763543141 0.35943544856568638 0 -0.2308690747112421 0.37255935513230448 0 -0.24642172493090769 0.37000457514120177 0 -0.23628107763543141 0.35943544856568638 0 -0.26319726975372382 0.31576356710911402 0 -0.24377323594240821 0.32780669208574548 0 -0.24134005376476139 0.31191202820942182 0 -0.24377323594240821 0.32780669208574548 0 -0.2208933261319049 0.32325238925585881 0 -0.24134005376476139 0.31191202820942182 0 -0.2380967831312652 0.34676220976371669 0 -0.24377323594240821 0.32780669208574548 0 -0.22974432275829129 0.33722643629442223 0 -0.2516509112815502 0.34136918967637098 0 -0.2380967831312652 0.34676220976371669 0 -0.24377323594240821 0.32780669208574548 0 -0.2162139458275866 0.35108445407236799 0 -0.22974432275829129 0.33722643629442223 0 -0.2208933261319049 0.32325238925585881 0 -0.24377323594240821 0.32780669208574548 0 -0.22974432275829129 0.33722643629442223 0 -0.2208933261319049 0.32325238925585881 0 -0.2208933261319049 0.32325238925585881 0 -0.22618861038972271 0.30429508356569063 0 -0.24134005376476139 0.31191202820942182 0 -0.2208933261319049 0.32325238925585881 0 -0.2122399038699237 0.31553434004126429 0 -0.22618861038972271 0.30429508356569063 0 -0.2208933261319049 0.32325238925585881 0 -0.2122399038699237 0.31553434004126429 0 -0.2015588169439311 0.32960955301243139 0 -0.2122399038699237 0.31553434004126429 0 -0.2015588169439311 0.32960955301243139 0 -0.20130633286353261 0.31537904131948757 0 -0.2162139458275866 0.35108445407236799 0 -0.2015588169439311 0.32960955301243139 0 -0.2162139458275866 0.35108445407236799 0 -0.2208933261319049 0.32325238925585881 0 -0.2015588169439311 0.32960955301243139 0 -0.19374091231578081 0.34914200819627822 0 -0.2162139458275866 0.35108445407236799 0 -0.2015588169439311 0.32960955301243139 0 -0.1859222613927253 0.33885739036162849 0 -0.19374091231578081 0.34914200819627822 0 -0.2015588169439311 0.32960955301243139 0 -0.1859222613927253 0.33885739036162849 0 -0.2015588169439311 0.32960955301243139 0 -0.18833541373241711 0.32743871086207882 0 -0.18833541373241711 0.32743871086207882 0 -0.1914623095494857 0.30863450873520309 0 -0.20130633286353261 0.31537904131948757 0 -0.18833541373241711 0.32743871086207882 0 -0.1914623095494857 0.30863450873520309 0 -0.2015588169439311 0.32960955301243139 0 -0.20130633286353261 0.31537904131948757 0 -0.18833541373241711 0.32743871086207882 0 -0.1914623095494857 0.30863450873520309 0 -0.2006887481154154 0.30283229588196542 0 -0.19458920536652879 0.2898303066083231 0 -0.1914623095494857 0.30863450873520309 0 -0.19458920536652879 0.2898303066083231 0 -0.18593432507516761 0.2985404760106683 0 -0.1914623095494857 0.30863450873520309 0 -0.19458920536652879 0.2898303066083231 0 -0.20130633286353261 0.31537904131948757 0 -0.1914623095494857 0.30863450873520309 0 -0.2006887481154154 0.30283229588196542 0 -0.19458920536652879 0.2898303066083231 0 -0.20556032275500749 0.2948523874317201 0 -0.19684998228517689 0.2762346805853918 0 -0.20556032275500749 0.2948523874317201 0 -0.19684998228517689 0.2762346805853918 0 -0.19458920536652879 0.2898303066083231 0 -0.20556032275500749 0.2948523874317201 0 -0.2006887481154154 0.30283229588196542 0 -0.19458920536652879 0.2898303066083231 0 -0.20556032275500749 0.2948523874317201 0 -0.19458920536652879 0.2898303066083231 0 -0.19684998228517689 0.2762346805853918 0 -0.20556032275500749 0.2948523874317201 0 -0.21217829796348259 0.28040972061113301 0 -0.19684998228517689 0.2762346805853918 0 -0.20556032275500749 0.2948523874317201 0 -0.2183251370943779 0.29163146828295411 0 -0.21217829796348259 0.28040972061113301 0 -0.20556032275500749 0.2948523874317201 0 -0.21052557004252351 0.30546523531509062 0 -0.22618861038972271 0.30429508356569063 0 -0.2122399038699237 0.31553434004126429 0 -0.21052557004252351 0.30546523531509062 0 -0.22618861038972271 0.30429508356569063 0 -0.20556032275500749 0.2948523874317201 0 -0.2183251370943779 0.29163146828295411 0 -0.22618861038972271 0.30429508356569063 0 -0.20556032275500749 0.2948523874317201 0 -0.22618861038972271 0.30429508356569063 0 -0.2122399038699237 0.31553434004126429 0 -0.20130633286353261 0.31537904131948757 0 -0.21052557004252351 0.30546523531509062 0 -0.20130633286353261 0.31537904131948757 0 -0.2006887481154154 0.30283229588196542 0 -0.21052557004252351 0.30546523531509062 0 -0.20556032275500749 0.2948523874317201 0 -0.21052557004252351 0.30546523531509062 0 -0.2006887481154154 0.30283229588196542 0 -0.20556032275500749 0.2948523874317201 0 -0.21052557004252351 0.30546523531509062 0 -0.2183251370943779 0.29163146828295411 0 -0.22937331726929719 0.28696868152327643 0 -0.21217829796348259 0.28040972061113301 0 -0.22618861038972271 0.30429508356569063 0 -0.22937331726929719 0.28696868152327643 0 -0.24241170841135681 0.29729643834828612 0 -0.2183251370943779 0.29163146828295411 0 -0.22618861038972271 0.30429508356569063 0 -0.22937331726929719 0.28696868152327643 0 -0.26218597083199557 0.29018513817704888 0 -0.24393040865290061 0.28777502306755581 0 -0.24241170841135681 0.29729643834828612 0 -0.26218597083199557 0.29018513817704888 0 -0.24393040865290061 0.28777502306755581 0 -0.24175063809895281 0.27664983422161188 0 -0.22937331726929719 0.28696868152327643 0 -0.24393040865290061 0.28777502306755581 0 -0.24241170841135681 0.29729643834828612 0 -0.22937331726929719 0.28696868152327643 0 -0.24393040865290061 0.28777502306755581 0 -0.24175063809895281 0.27664983422161188 0 -0.25668054465708301 0.30337589444719648 0 -0.24241170841135681 0.29729643834828612 0 -0.24134005376476139 0.31191202820942182 0 -0.22618861038972271 0.30429508356569063 0 -0.24241170841135681 0.29729643834828612 0 -0.24134005376476139 0.31191202820942182 0 -0.24353882222885451 0.25569364620056573 0 -0.24149438810508619 0.26617857873859441 0 -0.23298240693779049 0.26140165143086758 0 -0.24353882222885451 0.25569364620056573 0 -0.23298240693779049 0.26140165143086758 0 -0.2319164096706777 0.25192477476912239 0 -0.24353882222885451 0.25569364620056573 0 -0.2319164096706777 0.25192477476912239 0 -0.23806129760687211 0.24589395612401979 0 -0.25586356126195242 0.25254648764433929 0 -0.24353882222885451 0.25569364620056573 0 -0.24744121717665701 0.24359974376900731 0 -0.25281972033436212 0.26446357014162658 0 -0.24353882222885451 0.25569364620056573 0 -0.24149438810508619 0.26617857873859441 0 -0.25257935466350379 0.27749997093063922 0 -0.24175063809895281 0.27664983422161188 0 -0.22555163636092021 0.27183405498927238 0 -0.25257935466350379 0.27749997093063922 0 -0.25281972033436212 0.26446357014162658 0 -0.24149438810508619 0.26617857873859441 0 -0.25257935466350379 0.27749997093063922 0 -0.24149438810508619 0.26617857873859441 0 -0.22555163636092021 0.27183405498927238 0 -0.25257935466350379 0.27749997093063922 0 -0.22555163636092021 0.27183405498927238 0 -0.22937331726929719 0.28696868152327643 0 -0.24175063809895281 0.27664983422161188 0 -0.22555163636092021 0.27183405498927238 0 -0.22937331726929719 0.28696868152327643 0 -0.22555163636092021 0.27183405498927238 0 -0.21217829796348259 0.28040972061113301 0 -0.24149438810508619 0.26617857873859441 0 -0.22555163636092021 0.27183405498927238 0 -0.23298240693779049 0.26140165143086758 0 -0.22555163636092021 0.27183405498927238 0 -0.22413343963303001 0.25842490022858439 0 -0.20997016578269259 0.25747486871218839 0 -0.22555163636092021 0.27183405498927238 0 -0.22413343963303001 0.25842490022858439 0 -0.23298240693779049 0.26140165143086758 0 -0.22413343963303001 0.25842490022858439 0 -0.23298240693779049 0.26140165143086758 0 -0.2319164096706777 0.25192477476912239 0 -0.22413343963303001 0.25842490022858439 0 -0.2319164096706777 0.25192477476912239 0 -0.2202465794130691 0.24948915124147089 0 -0.20997016578269259 0.25747486871218839 0 -0.19852391805833669 0.26616813904790471 0 -0.20195325842869671 0.24554512719886959 0 -0.22413343963303001 0.25842490022858439 0 -0.20997016578269259 0.25747486871218839 0 -0.2202465794130691 0.24948915124147089 0 -0.22555163636092021 0.27183405498927238 0 -0.20997016578269259 0.25747486871218839 0 -0.19852391805833669 0.26616813904790471 0 -0.20997016578269259 0.25747486871218839 0 -0.2202465794130691 0.24948915124147089 0 -0.21118024833874621 0.24766558581212031 0 -0.20997016578269259 0.25747486871218839 0 -0.20195325842869671 0.24554512719886959 0 -0.21118024833874621 0.24766558581212031 0 -0.22555163636092021 0.27183405498927238 0 -0.21217829796348259 0.28040972061113301 0 -0.19852391805833669 0.26616813904790471 0 -0.22555163636092021 0.27183405498927238 0 -0.19852391805833669 0.26616813904790471 0 -0.21217829796348259 0.28040972061113301 0 -0.19684998228517689 0.2762346805853918 0 -0.19852391805833669 0.26616813904790471 0 -0.19684998228517689 0.2762346805853918 0 -0.19852391805833669 0.26616813904790471 0 -0.1914461561039445 0.26468440283912281 0 -0.19684998228517689 0.2762346805853918 0 -0.19852391805833669 0.26616813904790471 0 -0.19684998228517689 0.2762346805853918 0 -0.1914461561039445 0.26468440283912281 0 -0.19684998228517689 0.2762346805853918 0 -0.1914461561039445 0.26468440283912281 0 -0.18292262961190789 0.27422205158375579 0 -0.19458920536652879 0.2898303066083231 0 -0.19684998228517689 0.2762346805853918 0 -0.18292262961190789 0.27422205158375579 0 -0.1914461561039445 0.26468440283912281 0 -0.20195325842869671 0.24554512719886959 0 -0.18182304793252041 0.24411572271617801 0 -0.19852391805833669 0.26616813904790471 0 -0.20195325842869671 0.24554512719886959 0 -0.19852391805833669 0.26616813904790471 0 -0.1914461561039445 0.26468440283912281 0 -0.20195325842869671 0.24554512719886959 0 -0.19852391805833669 0.26616813904790471 0 -0.1914461561039445 0.26468440283912281 0 -0.1914461561039445 0.26468440283912281 0 -0.1653765498824955 0.25921933931352698 0 -0.18182304793252041 0.24411572271617801 0 -0.1914461561039445 0.26468440283912281 0 -0.18182304793252041 0.24411572271617801 0 -0.1914461561039445 0.26468440283912281 0 -0.1653765498824955 0.25921933931352698 0 -0.1653765498824955 0.25921933931352698 0 -0.16771100776294259 0.2775266846551212 0 -0.1408328101593592 0.26522306270191298 0 -0.19458920536652879 0.2898303066083231 0 -0.16771100776294259 0.2775266846551212 0 -0.18292262961190789 0.27422205158375579 0 -0.1914461561039445 0.26468440283912281 0 -0.1653765498824955 0.25921933931352698 0 -0.18292262961190789 0.27422205158375579 0 -0.1653765498824955 0.25921933931352698 0 -0.16771100776294259 0.2775266846551212 0 -0.18292262961190789 0.27422205158375579 0 -0.19458920536652879 0.2898303066083231 0 -0.16771100776294259 0.2775266846551212 0 -0.19458920536652879 0.2898303066083231 0 -0.16771100776294259 0.2775266846551212 0 -0.18030659536897459 0.28629859546979369 0 -0.19458920536652879 0.2898303066083231 0 -0.18030659536897459 0.28629859546979369 0 -0.18593432507516761 0.2985404760106683 0 -0.18030659536897459 0.28629859546979369 0 -0.18593432507516761 0.2985404760106683 0 -0.17737919001568431 0.30939849322934698 0 -0.18030659536897459 0.28629859546979369 0 -0.17737919001568431 0.30939849322934698 0 -0.18030659536897459 0.28629859546979369 0 -0.17737919001568431 0.30939849322934698 0 -0.16629016324912241 0.2962577612321321 0 -0.1914623095494857 0.30863450873520309 0 -0.18593432507516761 0.2985404760106683 0 -0.17737919001568431 0.30939849322934698 0 -0.16378382797846799 0.32001000510956962 0 -0.17737919001568431 0.30939849322934698 0 -0.16319192233553881 0.30794661483078128 0 -0.17737919001568431 0.30939849322934698 0 -0.16319192233553881 0.30794661483078128 0 -0.16629016324912241 0.2962577612321321 0 -0.16319192233553881 0.30794661483078128 0 -0.16629016324912241 0.2962577612321321 0 -0.15087206319983709 0.30143227970188508 0 -0.16771100776294259 0.2775266846551212 0 -0.18030659536897459 0.28629859546979369 0 -0.16629016324912241 0.2962577612321321 0 -0.16771100776294259 0.2775266846551212 0 -0.16629016324912241 0.2962577612321321 0 -0.14872226724115739 0.28671925517815011 0 -0.16629016324912241 0.2962577612321321 0 -0.14872226724115739 0.28671925517815011 0 -0.15087206319983709 0.30143227970188508 0 -0.14872226724115739 0.28671925517815011 0 -0.15087206319983709 0.30143227970188508 0 -0.13597375517832491 0.29836585688449813 0 -0.1533067555320041 0.31352946225224732 0 -0.16319192233553881 0.30794661483078128 0 -0.15087206319983709 0.30143227970188508 0 -0.1405852110445609 0.31346816415910739 0 -0.15087206319983709 0.30143227970188508 0 -0.13597375517832491 0.29836585688449813 0 -0.1405852110445609 0.31346816415910739 0 -0.1533067555320041 0.31352946225224732 0 -0.15087206319983709 0.30143227970188508 0 -0.1405852110445609 0.31346816415910739 0 -0.13597375517832491 0.29836585688449813 0 -0.1232576263346882 0.31297321709810427 0 -0.13597375517832491 0.29836585688449813 0 -0.1201566217417159 0.29295529164830603 0 -0.1232576263346882 0.31297321709810427 0 -0.13597375517832491 0.29836585688449813 0 -0.13224874150799029 0.28264693352143561 0 -0.1201566217417159 0.29295529164830603 0 -0.14872226724115739 0.28671925517815011 0 -0.13597375517832491 0.29836585688449813 0 -0.13224874150799029 0.28264693352143561 0 -0.13224874150799029 0.28264693352143561 0 -0.1408328101593592 0.26522306270191298 0 -0.1170556171487437 0.27293736619850772 0 -0.14872226724115739 0.28671925517815011 0 -0.13224874150799029 0.28264693352143561 0 -0.1408328101593592 0.26522306270191298 0 -0.13930694366104451 0.25375427578794052 0 -0.1408328101593592 0.26522306270191298 0 -0.1139546125557739 0.25291944074870898 0 -0.13930694366104451 0.25375427578794052 0 -0.1132373374395927 0.2482892122623577 0 -0.1408328101593592 0.26522306270191298 0 -0.1139546125557739 0.25291944074870898 0 -0.1653765498824955 0.25921933931352698 0 -0.13930694366104451 0.25375427578794052 0 -0.15833413270530139 0.2385391050354419 0 -0.1653765498824955 0.25921933931352698 0 -0.13930694366104451 0.25375427578794052 0 -0.1408328101593592 0.26522306270191298 0 -0.1653765498824955 0.25921933931352698 0 -0.13930694366104451 0.25375427578794052 0 -0.16771100776294259 0.2775266846551212 0 -0.14872226724115739 0.28671925517815011 0 -0.1408328101593592 0.26522306270191298 0 -0.16771100776294259 0.2775266846551212 0 -0.1408328101593592 0.26522306270191298 0 -0.10374810429169171 0.2789578332157342 0 -0.1016912460074153 0.26433928262594109 0 -0.1097566026263791 0.25602722766853242 0 -0.10374810429169171 0.2789578332157342 0 -0.1097566026263791 0.25602722766853242 0 -0.10374810429169171 0.2789578332157342 0 -0.094797121056927641 0.27654500441837759 0 -0.098836676466413281 0.2704866030501113 0 -0.094797121056927641 0.27654500441837759 0 -0.098836676466413281 0.2704866030501113 0 -0.092834619037872032 0.26462023335482349 0 -0.098836676466413281 0.2704866030501113 0 -0.1016912460074153 0.26433928262594109 0 -0.092834619037872032 0.26462023335482349 0 -0.10374810429169171 0.2789578332157342 0 -0.098836676466413281 0.2704866030501113 0 -0.1016912460074153 0.26433928262594109 0 -0.1097566026263791 0.25602722766853242 0 -0.1139546125557739 0.25291944074870898 0 -0.095899470041642246 0.24465461395185101 0 -0.098728996671227573 0.25663639866936561 0 -0.1016912460074153 0.26433928262594109 0 -0.092834619037872032 0.26462023335482349 0 -0.098728996671227573 0.25663639866936561 0 -0.091944161823561771 0.25465332983941341 0 -0.092834619037872032 0.26462023335482349 0 -0.098728996671227573 0.25663639866936561 0 -0.091944161823561771 0.25465332983941341 0 -0.095899470041642246 0.24465461395185101 0 -0.098728996671227573 0.25663639866936561 0 -0.1097566026263791 0.25602722766853242 0 -0.095899470041642246 0.24465461395185101 0 -0.098728996671227573 0.25663639866936561 0 -0.1016912460074153 0.26433928262594109 0 -0.1097566026263791 0.25602722766853242 0 -0.1097566026263791 0.25602722766853242 0 -0.1139546125557739 0.25291944074870898 0 -0.1170556171487437 0.27293736619850772 0 -0.13930694366104451 0.25375427578794052 0 -0.1139546125557739 0.25291944074870898 0 -0.1132373374395927 0.2482892122623577 0 -0.1408328101593592 0.26522306270191298 0 -0.1139546125557739 0.25291944074870898 0 -0.1170556171487437 0.27293736619850772 0 -0.1139546125557739 0.25291944074870898 0 -0.1170556171487437 0.27293736619850772 0 -0.1139546125557739 0.25291944074870898 0 -0.1132373374395927 0.2482892122623577 0 -0.10374810429169171 0.2789578332157342 0 -0.1170556171487437 0.27293736619850772 0 -0.1096633756054072 0.29060307594058088 0 -0.10374810429169171 0.2789578332157342 0 -0.1097566026263791 0.25602722766853242 0 -0.1170556171487437 0.27293736619850772 0 -0.1096633756054072 0.29060307594058088 0 -0.1201566217417159 0.29295529164830603 0 -0.1096169288878803 0.30627644987742081 0 -0.1170556171487437 0.27293736619850772 0 -0.1201566217417159 0.29295529164830603 0 -0.1170556171487437 0.27293736619850772 0 -0.1096633756054072 0.29060307594058088 0 -0.1201566217417159 0.29295529164830603 0 -0.13224874150799029 0.28264693352143561 0 -0.1170556171487437 0.27293736619850772 0 -0.1201566217417159 0.29295529164830603 0 -0.1201566217417159 0.29295529164830603 0 -0.1232576263346882 0.31297321709810427 0 -0.1201566217417159 0.29295529164830603 0 -0.1096169288878803 0.30627644987742081 0 -0.1232576263346882 0.31297321709810427 0 -0.1096633756054072 0.29060307594058088 0 -0.1096169288878803 0.30627644987742081 0 -0.097739605957004261 0.30188843876293592 0 -0.1096169288878803 0.30627644987742081 0 -0.097739605957004261 0.30188843876293592 0 -0.1008880225659705 0.31496592233981968 0 -0.10374810429169171 0.2789578332157342 0 -0.097739605957004261 0.30188843876293592 0 -0.10374810429169171 0.2789578332157342 0 -0.097739605957004261 0.30188843876293592 0 -0.093482566379728835 0.28923327791837489 0 -0.10374810429169171 0.2789578332157342 0 -0.1096633756054072 0.29060307594058088 0 -0.097739605957004261 0.30188843876293592 0 -0.10374810429169171 0.2789578332157342 0 -0.094797121056927641 0.27654500441837759 0 -0.093482566379728835 0.28923327791837489 0 -0.088368969303332517 0.28322487782340011 0 -0.084173067197849089 0.29862357478759721 0 -0.076615026773381778 0.27242810526505662 0 -0.079996534763224922 0.28778705358475443 0 -0.084173067197849089 0.29862357478759721 0 -0.076615026773381778 0.27242810526505662 0 -0.084173067197849089 0.29862357478759721 0 -0.076615026773381778 0.27242810526505662 0 -0.094797121056927641 0.27654500441837759 0 -0.088368969303332517 0.28322487782340011 0 -0.093482566379728835 0.28923327791837489 0 -0.097739605957004261 0.30188843876293592 0 -0.093482566379728835 0.28923327791837489 0 -0.084173067197849089 0.29862357478759721 0 -0.088368969303332517 0.28322487782340011 0 -0.093482566379728835 0.28923327791837489 0 -0.084173067197849089 0.29862357478759721 0 -0.097739605957004261 0.30188843876293592 0 -0.084173067197849089 0.29862357478759721 0 -0.091731107622316621 0.32481904431013781 0 -0.084173067197849089 0.29862357478759721 0 -0.091731107622316621 0.32481904431013781 0 -0.079996534763224922 0.28778705358475443 0 -0.085503905024892149 0.30767661938318169 0 -0.084173067197849089 0.29862357478759721 0 -0.085503905024892149 0.30767661938318169 0 -0.091731107622316621 0.32481904431013781 0 -0.079996534763224922 0.28778705358475443 0 -0.084173067197849089 0.29862357478759721 0 -0.085503905024892149 0.30767661938318169 0 -0.079996534763224922 0.28778705358475443 0 -0.085503905024892149 0.30767661938318169 0 -0.074475406756069687 0.30014082219329891 0 -0.085503905024892149 0.30767661938318169 0 -0.074475406756069687 0.30014082219329891 0 -0.074462361939892197 0.31255100903197508 0 -0.063187521980971093 0.30138407853576787 0 -0.062057332074788252 0.32168253789907342 0 -0.074462361939892197 0.31255100903197508 0 -0.074475406756069687 0.30014082219329891 0 -0.063187521980971093 0.30138407853576787 0 -0.074462361939892197 0.31255100903197508 0 -0.074475406756069687 0.30014082219329891 0 -0.063187521980971093 0.30138407853576787 0 -0.068665133690897509 0.29058306502305048 0 -0.063187521980971093 0.30138407853576787 0 -0.068665133690897509 0.29058306502305048 0 -0.056936679253298372 0.28346499769766131 0 -0.079996534763224922 0.28778705358475443 0 -0.068665133690897509 0.29058306502305048 0 -0.068729525700923486 0.28013837310376999 0 -0.079996534763224922 0.28778705358475443 0 -0.074475406756069687 0.30014082219329891 0 -0.068665133690897509 0.29058306502305048 0 -0.068665133690897509 0.29058306502305048 0 -0.068729525700923486 0.28013837310376999 0 -0.056936679253298372 0.28346499769766131 0 -0.079996534763224922 0.28778705358475443 0 -0.074489164501557681 0.26789748778632699 0 -0.068729525700923486 0.28013837310376999 0 -0.063509654398401685 0.27009292173805738 0 -0.056936679253298372 0.28346499769766131 0 -0.079996534763224922 0.28778705358475443 0 -0.076615026773381778 0.27242810526505662 0 -0.074489164501557681 0.26789748778632699 0 -0.079996534763224922 0.28778705358475443 0 -0.068729525700923486 0.28013837310376999 0 -0.074489164501557681 0.26789748778632699 0 -0.068729525700923486 0.28013837310376999 0 -0.063509654398401685 0.27009292173805738 0 -0.074489164501557681 0.26789748778632699 0 -0.088368969303332517 0.28322487782340011 0 -0.076615026773381778 0.27242810526505662 0 -0.087243999049809895 0.27243119463976229 0 -0.076615026773381778 0.27242810526505662 0 -0.087243999049809895 0.27243119463976229 0 -0.083604259077535492 0.2653377523371539 0 -0.087243999049809895 0.27243119463976229 0 -0.092834619037872032 0.26462023335482349 0 -0.083604259077535492 0.2653377523371539 0 -0.094797121056927641 0.27654500441837759 0 -0.087243999049809895 0.27243119463976229 0 -0.092834619037872032 0.26462023335482349 0 -0.094797121056927641 0.27654500441837759 0 -0.088368969303332517 0.28322487782340011 0 -0.087243999049809895 0.27243119463976229 0 -0.087846419425038916 0.25002539475982699 0 -0.091944161823561771 0.25465332983941341 0 -0.084411303942028615 0.25733000846119869 0 -0.092834619037872032 0.26462023335482349 0 -0.083604259077535492 0.2653377523371539 0 -0.084411303942028615 0.25733000846119869 0 -0.091944161823561771 0.25465332983941341 0 -0.092834619037872032 0.26462023335482349 0 -0.084411303942028615 0.25733000846119869 0 -0.078330237166176209 0.25811796813635862 0 -0.083604259077535492 0.2653377523371539 0 -0.084411303942028615 0.25733000846119869 0 -0.076615026773381778 0.27242810526505662 0 -0.078330237166176209 0.25811796813635862 0 -0.083604259077535492 0.2653377523371539 0 -0.087846419425038916 0.25002539475982699 0 -0.084411303942028615 0.25733000846119869 0 -0.080161358985251369 0.24910441659422339 0 -0.078330237166176209 0.25811796813635862 0 -0.084411303942028615 0.25733000846119869 0 -0.080161358985251369 0.24910441659422339 0 -0.076615026773381778 0.27242810526505662 0 -0.074489164501557681 0.26789748778632699 0 -0.069056986348909832 0.24623263574251739 0 -0.076615026773381778 0.27242810526505662 0 -0.078330237166176209 0.25811796813635862 0 -0.069056986348909832 0.24623263574251739 0 -0.074489164501557681 0.26789748778632699 0 -0.065186548193085753 0.25871654727929821 0 -0.069056986348909832 0.24623263574251739 0 -0.076615026773381778 0.27242810526505662 0 -0.069056986348909832 0.24623263574251739 0 -0.078330237166176209 0.25811796813635862 0 -0.069056986348909832 0.24623263574251739 0 -0.080161358985251369 0.24910441659422339 0 -0.063509654398401685 0.27009292173805738 0 -0.074489164501557681 0.26789748778632699 0 -0.065186548193085753 0.25871654727929821 0 -0.065186548193085753 0.25871654727929821 0 -0.052206354343143122 0.26024720282323049 0 -0.069056986348909832 0.24623263574251739 0 -0.052206354343143122 0.26024720282323049 0 -0.069056986348909832 0.24623263574251739 0 -0.053727016073584467 0.24549115984460171 0 -0.052206354343143122 0.26024720282323049 0 -0.069056986348909832 0.24623263574251739 0 -0.063509654398401685 0.27009292173805738 0 -0.065186548193085753 0.25871654727929821 0 -0.052206354343143122 0.26024720282323049 0 -0.052206354343143122 0.26024720282323049 0 -0.040614352755267667 0.25721351647262058 0 -0.053727016073584467 0.24549115984460171 0 -0.063509654398401685 0.27009292173805738 0 -0.052206354343143122 0.26024720282323049 0 -0.056936679253298372 0.28346499769766131 0 -0.052206354343143122 0.26024720282323049 0 -0.035355722337377597 0.27426176990394519 0 -0.056936679253298372 0.28346499769766131 0 -0.052206354343143122 0.26024720282323049 0 -0.035355722337377597 0.27426176990394519 0 -0.028005074644629559 0.26534652576599849 0 -0.037505058957649627 0.2424167145473391 0 -0.035355722337377597 0.27426176990394519 0 -0.040614352755267667 0.25721351647262058 0 -0.028005074644629559 0.26534652576599849 0 -0.052206354343143122 0.26024720282323049 0 -0.035355722337377597 0.27426176990394519 0 -0.040614352755267667 0.25721351647262058 0 -0.040614352755267667 0.25721351647262058 0 -0.028005074644629559 0.26534652576599849 0 -0.037505058957649627 0.2424167145473391 0 -0.01631993764872924 0.25821318273977228 0 -0.028005074644629559 0.26534652576599849 0 -0.02258671171905104 0.24968245727908639 0 -0.028005074644629559 0.26534652576599849 0 -0.037505058957649627 0.2424167145473391 0 -0.02258671171905104 0.24968245727908639 0 -0.01631993764872924 0.25821318273977228 0 -0.028005074644629559 0.26534652576599849 0 -0.0089883946882110457 0.26901310806805018 0 -0.028005074644629559 0.26534652576599849 0 -0.018505090331610921 0.28827633698465849 0 -0.035355722337377597 0.27426176990394519 0 -0.028005074644629559 0.26534652576599849 0 -0.018505090331610921 0.28827633698465849 0 -0.028005074644629559 0.26534652576599849 0 -0.0089883946882110457 0.26901310806805018 0 -0.018505090331610921 0.28827633698465849 0 -0.0089883946882110457 0.26901310806805018 0 -0.001418554502264915 0.28717865170253037 0 0.0083028186825339686 0.27684628714416698 0 -0.01631993764872924 0.25821318273977228 0 -0.0056995695430253424 0.24881063984595411 0 -0.02258671171905104 0.24968245727908639 0 -0.0089883946882110457 0.26901310806805018 0 -0.0056995695430253424 0.24881063984595411 0 0.01026063558519786 0.25922996976751439 0 -0.01631993764872924 0.25821318273977228 0 -0.0089883946882110457 0.26901310806805018 0 -0.0056995695430253424 0.24881063984595411 0 -0.010885775454445761 0.30666683595731842 0 -0.018505090331610921 0.28827633698465849 0 -0.010885775454445761 0.30666683595731842 0 -0.018505090331610921 0.28827633698465849 0 0.00040933639570822628 0.30400734945188329 0 -0.010885775454445761 0.30666683595731842 0 0.0040085258537659778 0.31432247436608168 0 0.00040933639570822628 0.30400734945188329 0 -0.001418554502264915 0.28717865170253037 0 -0.018505090331610921 0.28827633698465849 0 0.00040933639570822628 0.30400734945188329 0 -0.0089883946882110457 0.26901310806805018 0 -0.001418554502264915 0.28717865170253037 0 -0.018505090331610921 0.28827633698465849 0 -0.018505090331610921 0.28827633698465849 0 0.00040933639570822628 0.30400734945188329 0 -0.035355722337377597 0.27426176990394519 0 -0.018505090331610921 0.28827633698465849 0 -0.035355722337377597 0.27426176990394519 0 -0.018505090331610921 0.28827633698465849 0 -0.039515191428954828 0.30020307063681528 0 -0.018505090331610921 0.28827633698465849 0 -0.024799216732842431 0.30165765617147822 0 -0.039515191428954828 0.30020307063681528 0 -0.010885775454445761 0.30666683595731842 0 -0.018505090331610921 0.28827633698465849 0 -0.024799216732842431 0.30165765617147822 0 -0.010885775454445761 0.30666683595731842 0 -0.024799216732842431 0.30165765617147822 0 -0.032661896326035458 0.32336993641452649 0 -0.024799216732842431 0.30165765617147822 0 -0.039515191428954828 0.30020307063681528 0 -0.032661896326035458 0.32336993641452649 0 -0.035355722337377597 0.27426176990394519 0 -0.039515191428954828 0.30020307063681528 0 -0.056936679253298372 0.28346499769766131 0 -0.063187521980971093 0.30138407853576787 0 -0.039515191428954828 0.30020307063681528 0 -0.056936679253298372 0.28346499769766131 0 -0.063187521980971093 0.30138407853576787 0 -0.039515191428954828 0.30020307063681528 0 -0.062057332074788252 0.32168253789907342 0 -0.062057332074788252 0.32168253789907342 0 -0.032661896326035458 0.32336993641452649 0 -0.050965603039722529 0.34273084808830401 0 -0.065404299096684548 0.34898183251417209 0 -0.069156896288682573 0.3360644718214264 0 -0.062057332074788252 0.32168253789907342 0 -0.050965603039722529 0.34273084808830401 0 -0.032661896326035458 0.32336993641452649 0 -0.062057332074788252 0.32168253789907342 0 -0.050965603039722529 0.34273084808830401 0 -0.069156896288682573 0.3360644718214264 0 -0.050965603039722529 0.34273084808830401 0 -0.032661896326035458 0.32336993641452649 0 -0.032964379246318558 0.34728185706622589 0 -0.039515191428954828 0.30020307063681528 0 -0.062057332074788252 0.32168253789907342 0 -0.032661896326035458 0.32336993641452649 0 -0.032661896326035458 0.32336993641452649 0 -0.003266460577282769 0.32505733492997929 0 -0.032661896326035458 0.32336993641452649 0 -0.003266460577282769 0.32505733492997929 0 -0.01420972401362478 0.34408347122854072 0 -0.032661896326035458 0.32336993641452649 0 -0.01420972401362478 0.34408347122854072 0 -0.032964379246318558 0.34728185706622589 0 -0.003266460577282769 0.32505733492997929 0 -0.01420972401362478 0.34408347122854072 0 0.006982754410723358 0.34979554049652001 0 -0.010885775454445761 0.30666683595731842 0 -0.003266460577282769 0.32505733492997929 0 0.0040085258537659778 0.31432247436608168 0 -0.010885775454445761 0.30666683595731842 0 -0.003266460577282769 0.32505733492997929 0 -0.010885775454445761 0.30666683595731842 0 -0.032661896326035458 0.32336993641452649 0 -0.003266460577282769 0.32505733492997929 0 -0.003230469334243001 0.36843033323843127 0 -0.02429250105558383 0.36563633744835361 0 -0.010583799764655641 0.38308260013621809 0 -0.003230469334243001 0.36843033323843127 0 -0.01420972401362478 0.34408347122854072 0 -0.02429250105558383 0.36563633744835361 0 -0.003230469334243001 0.36843033323843127 0 -0.01420972401362478 0.34408347122854072 0 0.006982754410723358 0.34979554049652001 0 -0.01420972401362478 0.34408347122854072 0 -0.02429250105558383 0.36563633744835361 0 -0.032964379246318558 0.34728185706622589 0 -0.02429250105558383 0.36563633744835361 0 -0.039989016583730469 0.37434328507282277 0 -0.02830044206548931 0.38430896759004302 0 -0.041842017219414877 0.35961041140408623 0 -0.039989016583730469 0.37434328507282277 0 -0.056917844201104739 0.36336398175759532 0 -0.02429250105558383 0.36563633744835361 0 -0.041842017219414877 0.35961041140408623 0 -0.039989016583730469 0.37434328507282277 0 -0.050965603039722529 0.34273084808830401 0 -0.041842017219414877 0.35961041140408623 0 -0.032964379246318558 0.34728185706622589 0 -0.02429250105558383 0.36563633744835361 0 -0.041842017219414877 0.35961041140408623 0 -0.032964379246318558 0.34728185706622589 0 -0.050965603039722529 0.34273084808830401 0 -0.056917844201104739 0.36336398175759532 0 -0.065404299096684548 0.34898183251417209 0 -0.050965603039722529 0.34273084808830401 0 -0.041842017219414877 0.35961041140408623 0 -0.056917844201104739 0.36336398175759532 0 -0.039989016583730469 0.37434328507282277 0 -0.056917844201104739 0.36336398175759532 0 -0.056922329742129602 0.37899575032362409 0 -0.056917844201104739 0.36336398175759532 0 -0.067385567010988065 0.3712379723199743 0 -0.056922329742129602 0.37899575032362409 0 -0.067385567010988065 0.3712379723199743 0 -0.075155356740434817 0.3597147318505215 0 -0.083891681199012261 0.37142820311611252 0 -0.056917844201104739 0.36336398175759532 0 -0.067385567010988065 0.3712379723199743 0 -0.075155356740434817 0.3597147318505215 0 -0.067385567010988065 0.3712379723199743 0 -0.083891681199012261 0.37142820311611252 0 -0.075081013647644496 0.38146940199053991 0 -0.075155356740434817 0.3597147318505215 0 -0.083891681199012261 0.37142820311611252 0 -0.088553092417108348 0.36133271144209689 0 -0.083891681199012261 0.37142820311611252 0 -0.088553092417108348 0.36133271144209689 0 -0.098884584060269232 0.3698099262379404 0 -0.083891681199012261 0.37142820311611252 0 -0.098884584060269232 0.3698099262379404 0 -0.093438496671686189 0.38062732629358681 0 -0.075155356740434817 0.3597147318505215 0 -0.086676138162574787 0.35107453173824821 0 -0.077784466745306605 0.34373567799591193 0 -0.086676138162574787 0.35107453173824821 0 -0.097818566326166589 0.3552372235823229 0 -0.095849856669270095 0.3450404566051789 0 -0.086676138162574787 0.35107453173824821 0 -0.086979902884855159 0.34087157230644871 0 -0.095849856669270095 0.3450404566051789 0 -0.088553092417108348 0.36133271144209689 0 -0.086676138162574787 0.35107453173824821 0 -0.097818566326166589 0.3552372235823229 0 -0.075155356740434817 0.3597147318505215 0 -0.088553092417108348 0.36133271144209689 0 -0.086676138162574787 0.35107453173824821 0 -0.086676138162574787 0.35107453173824821 0 -0.077784466745306605 0.34373567799591193 0 -0.086979902884855159 0.34087157230644871 0 -0.075155356740434817 0.3597147318505215 0 -0.065404299096684548 0.34898183251417209 0 -0.077784466745306605 0.34373567799591193 0 -0.056917844201104739 0.36336398175759532 0 -0.075155356740434817 0.3597147318505215 0 -0.065404299096684548 0.34898183251417209 0 -0.069156896288682573 0.3360644718214264 0 -0.076388870651820526 0.32534005020356732 0 -0.082340806123773008 0.33391588422752999 0 -0.069156896288682573 0.3360644718214264 0 -0.077784466745306605 0.34373567799591193 0 -0.082340806123773008 0.33391588422752999 0 -0.065404299096684548 0.34898183251417209 0 -0.069156896288682573 0.3360644718214264 0 -0.077784466745306605 0.34373567799591193 0 -0.062057332074788252 0.32168253789907342 0 -0.069156896288682573 0.3360644718214264 0 -0.076388870651820526 0.32534005020356732 0 -0.062057332074788252 0.32168253789907342 0 -0.076388870651820526 0.32534005020356732 0 -0.074462361939892197 0.31255100903197508 0 -0.076388870651820526 0.32534005020356732 0 -0.074462361939892197 0.31255100903197508 0 -0.082059821792236518 0.32005840273505048 0 -0.085503905024892149 0.30767661938318169 0 -0.091011275286559112 0.32756618518160902 0 -0.091731107622316621 0.32481904431013781 0 -0.085503905024892149 0.30767661938318169 0 -0.082059821792236518 0.32005840273505048 0 -0.091011275286559112 0.32756618518160902 0 -0.085503905024892149 0.30767661938318169 0 -0.091011275286559112 0.32756618518160902 0 -0.085503905024892149 0.30767661938318169 0 -0.074462361939892197 0.31255100903197508 0 -0.082059821792236518 0.32005840273505048 0 -0.076388870651820526 0.32534005020356732 0 -0.082059821792236518 0.32005840273505048 0 -0.084809804115548115 0.32749436666262621 0 -0.082059821792236518 0.32005840273505048 0 -0.084809804115548115 0.32749436666262621 0 -0.091011275286559112 0.32756618518160902 0 -0.091011275286559112 0.32756618518160902 0 -0.091731107622316621 0.32481904431013781 0 -0.091011275286559112 0.32756618518160902 0 -0.09022401965089287 0.33057063778202872 0 -0.095849856669270095 0.3450404566051789 0 -0.091011275286559112 0.32756618518160902 0 -0.095849856669270095 0.3450404566051789 0 -0.077784466745306605 0.34373567799591193 0 -0.082340806123773008 0.33391588422752999 0 -0.086979902884855159 0.34087157230644871 0 -0.076388870651820526 0.32534005020356732 0 -0.084809804115548115 0.32749436666262621 0 -0.082340806123773008 0.33391588422752999 0 -0.084809804115548115 0.32749436666262621 0 -0.082340806123773008 0.33391588422752999 0 -0.09022401965089287 0.33057063778202872 0 -0.091731107622316621 0.32481904431013781 0 -0.094625781961113639 0.33485171801404812 0 -0.082340806123773008 0.33391588422752999 0 -0.09022401965089287 0.33057063778202872 0 -0.086979902884855159 0.34087157230644871 0 -0.091011275286559112 0.32756618518160902 0 -0.091731107622316621 0.32481904431013781 0 -0.094625781961113639 0.33485171801404812 0 -0.084809804115548115 0.32749436666262621 0 -0.091011275286559112 0.32756618518160902 0 -0.09022401965089287 0.33057063778202872 0 -0.091011275286559112 0.32756618518160902 0 -0.09022401965089287 0.33057063778202872 0 -0.09022401965089287 0.33057063778202872 0 -0.086979902884855159 0.34087157230644871 0 -0.095849856669270095 0.3450404566051789 0 -0.094625781961113639 0.33485171801404812 0 -0.10569777350102739 0.33708295465386878 0 -0.095849856669270095 0.3450404566051789 0 -0.091011275286559112 0.32756618518160902 0 -0.094625781961113639 0.33485171801404812 0 -0.095849856669270095 0.3450404566051789 0 -0.094625781961113639 0.33485171801404812 0 -0.10569777350102739 0.33708295465386878 0 -0.10073361495971341 0.32765552782927471 0 -0.091731107622316621 0.32481904431013781 0 -0.094625781961113639 0.33485171801404812 0 -0.10073361495971341 0.32765552782927471 0 -0.10569777350102739 0.33708295465386878 0 -0.10073361495971341 0.32765552782927471 0 -0.1088691834807759 0.32286828977011661 0 -0.097739605957004261 0.30188843876293592 0 -0.091731107622316621 0.32481904431013781 0 -0.1096169288878803 0.30627644987742081 0 -0.1008880225659705 0.31496592233981968 0 -0.1088691834807759 0.32286828977011661 0 -0.097739605957004261 0.30188843876293592 0 -0.091731107622316621 0.32481904431013781 0 -0.1008880225659705 0.31496592233981968 0 -0.091731107622316621 0.32481904431013781 0 -0.10073361495971341 0.32765552782927471 0 -0.10055548215719411 0.32257719606233709 0 -0.091731107622316621 0.32481904431013781 0 -0.1008880225659705 0.31496592233981968 0 -0.10055548215719411 0.32257719606233709 0 -0.10073361495971341 0.32765552782927471 0 -0.10055548215719411 0.32257719606233709 0 -0.1088691834807759 0.32286828977011661 0 -0.1008880225659705 0.31496592233981968 0 -0.10055548215719411 0.32257719606233709 0 -0.1088691834807759 0.32286828977011661 0 -0.1088691834807759 0.32286828977011661 0 -0.1232576263346882 0.31297321709810427 0 -0.11873796741778669 0.33144672616027387 0 -0.1096169288878803 0.30627644987742081 0 -0.1088691834807759 0.32286828977011661 0 -0.1232576263346882 0.31297321709810427 0 -0.1328518871389559 0.32814280017159841 0 -0.1232576263346882 0.31297321709810427 0 -0.11873796741778669 0.33144672616027387 0 -0.10569777350102739 0.33708295465386878 0 -0.11873796741778669 0.33144672616027387 0 -0.1154749213458854 0.34397274745442291 0 -0.10569777350102739 0.33708295465386878 0 -0.1088691834807759 0.32286828977011661 0 -0.11873796741778669 0.33144672616027387 0 -0.12653007299808491 0.34241022530505377 0 -0.11873796741778669 0.33144672616027387 0 -0.1154749213458854 0.34397274745442291 0 -0.12653007299808491 0.34241022530505377 0 -0.1154749213458854 0.34397274745442291 0 -0.1199889907943389 0.35585059104355998 0 -0.1154749213458854 0.34397274745442291 0 -0.1199889907943389 0.35585059104355998 0 -0.1069271226035841 0.35061299509239968 0 -0.1199889907943389 0.35585059104355998 0 -0.1086466078502748 0.36270971991131851 0 -0.1069271226035841 0.35061299509239968 0 -0.12720986748145821 0.36889988388829348 0 -0.1199889907943389 0.35585059104355998 0 -0.11747977853110279 0.36577696700602907 0 -0.12720986748145821 0.36889988388829348 0 -0.11747977853110279 0.36577696700602907 0 -0.1142628490971402 0.37523323407939041 0 -0.11747977853110279 0.36577696700602907 0 -0.1086466078502748 0.36270971991131851 0 -0.1142628490971402 0.37523323407939041 0 -0.1199889907943389 0.35585059104355998 0 -0.11747977853110279 0.36577696700602907 0 -0.1086466078502748 0.36270971991131851 0 -0.1086466078502748 0.36270971991131851 0 -0.098884584060269232 0.3698099262379404 0 -0.097818566326166589 0.3552372235823229 0 -0.1086466078502748 0.36270971991131851 0 -0.098884584060269232 0.3698099262379404 0 -0.1142628490971402 0.37523323407939041 0 -0.088553092417108348 0.36133271144209689 0 -0.098884584060269232 0.3698099262379404 0 -0.097818566326166589 0.3552372235823229 0 -0.097818566326166589 0.3552372235823229 0 -0.095849856669270095 0.3450404566051789 0 -0.1069271226035841 0.35061299509239968 0 -0.10569777350102739 0.33708295465386878 0 -0.095849856669270095 0.3450404566051789 0 -0.1069271226035841 0.35061299509239968 0 -0.10569777350102739 0.33708295465386878 0 -0.1154749213458854 0.34397274745442291 0 -0.1069271226035841 0.35061299509239968 0 -0.1086466078502748 0.36270971991131851 0 -0.097818566326166589 0.3552372235823229 0 -0.1069271226035841 0.35061299509239968 0 -0.099619837507371731 0.39576076561699303 0 -0.095789079558307733 0.41514356627422561 0 -0.08789176360947791 0.4030622881029533 0 -0.099619837507371731 0.39576076561699303 0 -0.11537355113267091 0.40621267877170603 0 -0.095789079558307733 0.41514356627422561 0 -0.099619837507371731 0.39576076561699303 0 -0.1051294976340009 0.38278963014602269 0 -0.093438496671686189 0.38062732629358681 0 -0.098884584060269232 0.3698099262379404 0 -0.1051294976340009 0.38278963014602269 0 -0.093438496671686189 0.38062732629358681 0 -0.098884584060269232 0.3698099262379404 0 -0.1051294976340009 0.38278963014602269 0 -0.1142628490971402 0.37523323407939041 0 -0.099619837507371731 0.39576076561699303 0 -0.1051294976340009 0.38278963014602269 0 -0.1148952993504979 0.3898666715118323 0 -0.1051294976340009 0.38278963014602269 0 -0.1148952993504979 0.3898666715118323 0 -0.1142628490971402 0.37523323407939041 0 -0.12533687557160031 0.38327028691968229 0 -0.12720986748145821 0.36889988388829348 0 -0.1142628490971402 0.37523323407939041 0 -0.12533687557160031 0.38327028691968229 0 -0.1148952993504979 0.3898666715118323 0 -0.1142628490971402 0.37523323407939041 0 -0.12533687557160031 0.38327028691968229 0 -0.1148952993504979 0.3898666715118323 0 -0.1245237874651631 0.39644185346730137 0 -0.1148952993504979 0.3898666715118323 0 -0.1245237874651631 0.39644185346730137 0 -0.11537355113267091 0.40621267877170603 0 -0.099619837507371731 0.39576076561699303 0 -0.1148952993504979 0.3898666715118323 0 -0.11537355113267091 0.40621267877170603 0 -0.13133782601494551 0.40590280900909848 0 -0.1245237874651631 0.39644185346730137 0 -0.11537355113267091 0.40621267877170603 0 -0.12877762287039521 0.42126405912916032 0 -0.11537355113267091 0.40621267877170603 0 -0.1108498178832915 0.42142965410425848 0 -0.12877762287039521 0.42126405912916032 0 -0.1108498178832915 0.42142965410425848 0 -0.1181616549298001 0.43433742834474792 0 -0.1108498178832915 0.42142965410425848 0 -0.1181616549298001 0.43433742834474792 0 -0.098715704330298193 0.43372304762681457 0 -0.1108498178832915 0.42142965410425848 0 -0.098715704330298193 0.43372304762681457 0 -0.095789079558307733 0.41514356627422561 0 -0.11537355113267091 0.40621267877170603 0 -0.1108498178832915 0.42142965410425848 0 -0.095789079558307733 0.41514356627422561 0 -0.095789079558307733 0.41514356627422561 0 -0.081855987431363214 0.41310317327939627 0 -0.079155930525234314 0.42859204883374857 0 -0.095789079558307733 0.41514356627422561 0 -0.081855987431363214 0.41310317327939627 0 -0.08789176360947791 0.4030622881029533 0 -0.098715704330298193 0.43372304762681457 0 -0.095789079558307733 0.41514356627422561 0 -0.079155930525234314 0.42859204883374857 0 -0.079155930525234314 0.42859204883374857 0 -0.056548159655326807 0.42107315999461542 0 -0.061122717029777229 0.44289605845780472 0 -0.081855987431363214 0.41310317327939627 0 -0.079155930525234314 0.42859204883374857 0 -0.068738376403882057 0.41097751692832502 0 -0.079155930525234314 0.42859204883374857 0 -0.068738376403882057 0.41097751692832502 0 -0.056548159655326807 0.42107315999461542 0 -0.081855987431363214 0.41310317327939627 0 -0.068738376403882057 0.41097751692832502 0 -0.075736514236940583 0.39942755318577522 0 -0.075736514236940583 0.39942755318577522 0 -0.075081013647644496 0.38146940199053991 0 -0.060201366477072582 0.39757400091682371 0 -0.068738376403882057 0.41097751692832502 0 -0.075736514236940583 0.39942755318577522 0 -0.060201366477072582 0.39757400091682371 0 -0.081855987431363214 0.41310317327939627 0 -0.075736514236940583 0.39942755318577522 0 -0.08789176360947791 0.4030622881029533 0 -0.075736514236940583 0.39942755318577522 0 -0.086457399313406222 0.39187638215837639 0 -0.075081013647644496 0.38146940199053991 0 -0.075736514236940583 0.39942755318577522 0 -0.086457399313406222 0.39187638215837639 0 -0.08789176360947791 0.4030622881029533 0 -0.099619837507371731 0.39576076561699303 0 -0.086457399313406222 0.39187638215837639 0 -0.08789176360947791 0.4030622881029533 0 -0.086457399313406222 0.39187638215837639 0 -0.093438496671686189 0.38062732629358681 0 -0.075081013647644496 0.38146940199053991 0 -0.083891681199012261 0.37142820311611252 0 -0.093438496671686189 0.38062732629358681 0 -0.075081013647644496 0.38146940199053991 0 -0.099619837507371731 0.39576076561699303 0 -0.086457399313406222 0.39187638215837639 0 -0.093438496671686189 0.38062732629358681 0 -0.067385567010988065 0.3712379723199743 0 -0.075081013647644496 0.38146940199053991 0 -0.056922329742129602 0.37899575032362409 0 -0.075081013647644496 0.38146940199053991 0 -0.056922329742129602 0.37899575032362409 0 -0.060201366477072582 0.39757400091682371 0 -0.056922329742129602 0.37899575032362409 0 -0.060201366477072582 0.39757400091682371 0 -0.043102171693076813 0.38949175943231179 0 -0.060201366477072582 0.39757400091682371 0 -0.043102171693076813 0.38949175943231179 0 -0.045469764993687482 0.40653246674689958 0 -0.043102171693076813 0.38949175943231179 0 -0.02830044206548931 0.38430896759004302 0 -0.026388780756889111 0.39951155123153459 0 -0.043102171693076813 0.38949175943231179 0 -0.026388780756889111 0.39951155123153459 0 -0.045469764993687482 0.40653246674689958 0 -0.039989016583730469 0.37434328507282277 0 -0.056922329742129602 0.37899575032362409 0 -0.043102171693076813 0.38949175943231179 0 -0.039989016583730469 0.37434328507282277 0 -0.043102171693076813 0.38949175943231179 0 -0.02830044206548931 0.38430896759004302 0 -0.02429250105558383 0.36563633744835361 0 -0.02830044206548931 0.38430896759004302 0 -0.010583799764655641 0.38308260013621809 0 -0.02830044206548931 0.38430896759004302 0 -0.026388780756889111 0.39951155123153459 0 -0.010583799764655641 0.38308260013621809 0 -0.026388780756889111 0.39951155123153459 0 -0.00042721496257028051 0.39595132885435019 0 -0.010583799764655641 0.38308260013621809 0 -0.026388780756889111 0.39951155123153459 0 -0.00042721496257028051 0.39595132885435019 0 -0.019115731465172939 0.41654954659603177 0 -0.0081425709555884122 0.4354078604818632 0 -0.0012406144994851411 0.41540870768952831 0 -0.019115731465172939 0.41654954659603177 0 -0.0081425709555884122 0.4354078604818632 0 -0.0012406144994851411 0.41540870768952831 0 0.0080554846440630493 0.42635277819034512 0 -0.00042721496257028051 0.39595132885435019 0 -0.0012406144994851411 0.41540870768952831 0 -0.019115731465172939 0.41654954659603177 0 -0.026388780756889111 0.39951155123153459 0 -0.019115731465172939 0.41654954659603177 0 -0.037163453045462078 0.42246229980150418 0 -0.019115731465172939 0.41654954659603177 0 -0.037163453045462078 0.42246229980150418 0 -0.02661039075134292 0.44040617805346671 0 -0.0081425709555884122 0.4354078604818632 0 -0.019115731465172939 0.41654954659603177 0 -0.02661039075134292 0.44040617805346671 0 -0.037163453045462078 0.42246229980150418 0 -0.056548159655326807 0.42107315999461542 0 -0.044558679032520497 0.43861027214730708 0 -0.037163453045462078 0.42246229980150418 0 -0.044558679032520497 0.43861027214730708 0 -0.02661039075134292 0.44040617805346671 0 -0.026388780756889111 0.39951155123153459 0 -0.037163453045462078 0.42246229980150418 0 -0.045469764993687482 0.40653246674689958 0 -0.037163453045462078 0.42246229980150418 0 -0.045469764993687482 0.40653246674689958 0 -0.056548159655326807 0.42107315999461542 0 -0.068738376403882057 0.41097751692832502 0 -0.060201366477072582 0.39757400091682371 0 -0.056548159655326807 0.42107315999461542 0 -0.060201366477072582 0.39757400091682371 0 -0.045469764993687482 0.40653246674689958 0 -0.056548159655326807 0.42107315999461542 0 -0.056548159655326807 0.42107315999461542 0 -0.061122717029777229 0.44289605845780472 0 -0.044558679032520497 0.43861027214730708 0 -0.061122717029777229 0.44289605845780472 0 -0.043672501246984033 0.45964614222818723 0 -0.044558679032520497 0.43861027214730708 0 -0.061405949290646043 0.46065597755655302 0 -0.043672501246984033 0.45964614222818723 0 -0.046756054900386403 0.47982307111409439 0 -0.061122717029777229 0.44289605845780472 0 -0.061405949290646043 0.46065597755655302 0 -0.043672501246984033 0.45964614222818723 0 -0.043672501246984033 0.45964614222818723 0 -0.044558679032520497 0.43861027214730708 0 -0.02661039075134292 0.44040617805346671 0 -0.043672501246984033 0.45964614222818723 0 -0.02661039075134292 0.44040617805346671 0 -0.01913126629509181 0.45660365491560101 0 -0.0081425709555884122 0.4354078604818632 0 -0.02661039075134292 0.44040617805346671 0 -0.01913126629509181 0.45660365491560101 0 -0.01913126629509181 0.45660365491560101 0 -0.0023826318983338418 0.47186636235082491 0 -0.025607710191285219 0.47354769063167212 0 -0.043672501246984033 0.45964614222818723 0 -0.01913126629509181 0.45660365491560101 0 -0.025607710191285219 0.47354769063167212 0 -0.01913126629509181 0.45660365491560101 0 -0.002657138242852936 0.45352434717382473 0 -0.0023826318983338418 0.47186636235082491 0 -0.0081425709555884122 0.4354078604818632 0 -0.01913126629509181 0.45660365491560101 0 -0.002657138242852936 0.45352434717382473 0 -0.0081425709555884122 0.4354078604818632 0 -0.002657138242852936 0.45352434717382473 0 0.0053989850622760578 0.44158620941391241 0 -0.01162249932240529 0.48698489093115532 0 -0.0023826318983338418 0.47186636235082491 0 0.0056913377454463343 0.5 0 -0.01162249932240529 0.48698489093115532 0 -0.022074135404171469 0.5 0 0.0056913377454463343 0.5 0 -0.01162249932240529 0.48698489093115532 0 -0.0023826318983338418 0.47186636235082491 0 -0.025607710191285219 0.47354769063167212 0 -0.01162249932240529 0.48698489093115532 0 -0.025607710191285219 0.47354769063167212 0 -0.031318584182028673 0.48612365312364808 0 -0.01162249932240529 0.48698489093115532 0 -0.022074135404171469 0.5 0 -0.031318584182028673 0.48612365312364808 0 -0.022074135404171469 0.5 0 -0.031318584182028673 0.48612365312364808 0 -0.049839608553789001 0.50000000000000155 0 -0.031318584182028673 0.48612365312364808 0 -0.046756054900386403 0.47982307111409439 0 -0.049839608553789001 0.50000000000000155 0 -0.043672501246984033 0.45964614222818723 0 -0.046756054900386403 0.47982307111409439 0 -0.043672501246984033 0.45964614222818723 0 -0.025607710191285219 0.47354769063167212 0 -0.046756054900386403 0.47982307111409439 0 -0.025607710191285219 0.47354769063167212 0 -0.031318584182028673 0.48612365312364808 0 -0.046756054900386403 0.47982307111409439 0 -0.046756054900386403 0.47982307111409439 0 -0.061362305993123777 0.48791494789097473 0 -0.071915944377593868 0.47497501908104123 0 -0.061405949290646043 0.46065597755655302 0 -0.046756054900386403 0.47982307111409439 0 -0.071915944377593868 0.47497501908104123 0 -0.046756054900386403 0.47982307111409439 0 -0.049839608553789001 0.50000000000000155 0 -0.061362305993123777 0.48791494789097473 0 -0.046756054900386403 0.47982307111409439 0 -0.049839608553789001 0.50000000000000155 0 -0.061362305993123777 0.48791494789097473 0 -0.077418123675492834 0.5 0 -0.071915944377593868 0.47497501908104123 0 -0.049839608553789001 0.50000000000000155 0 -0.061362305993123777 0.48791494789097473 0 -0.077418123675492834 0.5 0 -0.077418123675492834 0.5 0 -0.08910443335190843 0.48396125870102802 0 -0.1049966387971966 0.5 0 -0.077418123675492834 0.5 0 -0.08910443335190843 0.48396125870102802 0 -0.071915944377593868 0.47497501908104123 0 -0.08910443335190843 0.48396125870102802 0 -0.071915944377593868 0.47497501908104123 0 -0.090311375112759606 0.46690110104811899 0 -0.061405949290646043 0.46065597755655302 0 -0.071915944377593868 0.47497501908104123 0 -0.082470349335367649 0.45162703880419902 0 -0.061122717029777229 0.44289605845780472 0 -0.061405949290646043 0.46065597755655302 0 -0.082470349335367649 0.45162703880419902 0 -0.079155930525234314 0.42859204883374857 0 -0.061122717029777229 0.44289605845780472 0 -0.082470349335367649 0.45162703880419902 0 -0.098715704330298193 0.43372304762681457 0 -0.079155930525234314 0.42859204883374857 0 -0.082470349335367649 0.45162703880419902 0 -0.082470349335367649 0.45162703880419902 0 -0.090311375112759606 0.46690110104811899 0 -0.1028850494853268 0.45205594415151362 0 -0.071915944377593868 0.47497501908104123 0 -0.082470349335367649 0.45162703880419902 0 -0.090311375112759606 0.46690110104811899 0 -0.090311375112759606 0.46690110104811899 0 -0.1028850494853268 0.45205594415151362 0 -0.1051810990136013 0.4718862445028133 0 -0.098715704330298193 0.43372304762681457 0 -0.082470349335367649 0.45162703880419902 0 -0.1028850494853268 0.45205594415151362 0 -0.1181616549298001 0.43433742834474792 0 -0.098715704330298193 0.43372304762681457 0 -0.1028850494853268 0.45205594415151362 0 -0.12579200730107051 0.45303246416568882 0 -0.1181616549298001 0.43433742834474792 0 -0.1028850494853268 0.45205594415151362 0 -0.12579200730107051 0.45303246416568882 0 -0.1028850494853268 0.45205594415151362 0 -0.1051810990136013 0.4718862445028133 0 -0.1263230820352379 0.47739936264286009 0 -0.12579200730107051 0.45303246416568882 0 -0.1051810990136013 0.4718862445028133 0 -0.1263230820352379 0.47739936264286009 0 -0.1049966387971966 0.5 0 -0.1051810990136013 0.4718862445028133 0 -0.13257515391890029 0.5 0 -0.1263230820352379 0.47739936264286009 0 -0.1049966387971966 0.5 0 -0.08910443335190843 0.48396125870102802 0 -0.1049966387971966 0.5 0 -0.1051810990136013 0.4718862445028133 0 -0.08910443335190843 0.48396125870102802 0 -0.090311375112759606 0.46690110104811899 0 -0.1051810990136013 0.4718862445028133 0 -0.1614328782305357 0.083965592493335475 0 -0.17493008675914201 0.1018265713763841 0 -0.15381451571524341 0.091960168814852861 0 -0.15898020884973871 0.070035430720262401 0 -0.1743005351471609 0.071462415796947662 0 -0.16880235956105349 0.053775837804812543 0 -0.1614328782305357 0.083965592493335475 0 -0.15898020884973871 0.070035430720262401 0 -0.1743005351471609 0.071462415796947662 0 -0.1743005351471609 0.071462415796947662 0 -0.16880235956105349 0.053775837804812543 0 -0.19126911527613219 0.064328432760374227 0 -0.1743005351471609 0.071462415796947662 0 -0.19016681178972669 0.085837418733349283 0 -0.19126911527613219 0.064328432760374227 0 -0.1614328782305357 0.083965592493335475 0 -0.19016681178972669 0.085837418733349283 0 -0.1614328782305357 0.083965592493335475 0 -0.1743005351471609 0.071462415796947662 0 -0.19016681178972669 0.085837418733349283 0 -0.1614328782305357 0.083965592493335475 0 -0.17493008675914201 0.1018265713763841 0 -0.19016681178972669 0.085837418733349283 0 -0.17493008675914201 0.1018265713763841 0 -0.19604565780304059 0.1116929739379154 0 -0.19141917017330881 0.098963714489810062 0 -0.17493008675914201 0.1018265713763841 0 -0.19604565780304059 0.1116929739379154 0 -0.17493008675914201 0.1018265713763841 0 -0.19016681178972669 0.085837418733349283 0 -0.19141917017330881 0.098963714489810062 0 -0.17493008675914201 0.1018265713763841 0 -0.18094950569511359 0.11955400565695309 0 -0.19604565780304059 0.1116929739379154 0 -0.17493008675914201 0.1018265713763841 0 -0.18094950569511359 0.11955400565695309 0 -0.165646948774546 0.11843447073116969 0 -0.18094950569511359 0.11955400565695309 0 -0.165646948774546 0.11843447073116969 0 -0.17453194704302319 0.12878000077158869 0 -0.165646948774546 0.11843447073116969 0 -0.1580528154120262 0.1054093660809003 0 -0.1474989941098398 0.1130201558428182 0 -0.17493008675914201 0.1018265713763841 0 -0.15381451571524341 0.091960168814852861 0 -0.17493008675914201 0.1018265713763841 0 -0.1580528154120262 0.1054093660809003 0 -0.15381451571524341 0.091960168814852861 0 -0.17493008675914201 0.1018265713763841 0 -0.165646948774546 0.11843447073116969 0 -0.1580528154120262 0.1054093660809003 0 -0.1580528154120262 0.1054093660809003 0 -0.14837353170135961 0.10180546363927639 0 -0.15381451571524341 0.091960168814852861 0 -0.1580528154120262 0.1054093660809003 0 -0.14837353170135961 0.10180546363927639 0 -0.1474989941098398 0.1130201558428182 0 -0.14837353170135961 0.10180546363927639 0 -0.13872644314989879 0.097080320877117099 0 -0.13699777763942109 0.1077754796226524 0 -0.14837353170135961 0.10180546363927639 0 -0.1474989941098398 0.1130201558428182 0 -0.13699777763942109 0.1077754796226524 0 -0.14837353170135961 0.10180546363927639 0 -0.13872644314989879 0.097080320877117099 0 -0.15381451571524341 0.091960168814852861 0 -0.1474989941098398 0.1130201558428182 0 -0.13555127085324509 0.1197277393278956 0 -0.14428185282777281 0.1347700723653617 0 -0.1474989941098398 0.1130201558428182 0 -0.15554477117086929 0.12564914735237839 0 -0.14428185282777281 0.1347700723653617 0 -0.165646948774546 0.11843447073116969 0 -0.1474989941098398 0.1130201558428182 0 -0.15554477117086929 0.12564914735237839 0 -0.13555127085324509 0.1197277393278956 0 -0.12381241668422691 0.13316825426056031 0 -0.1246884739219324 0.1134091289710715 0 -0.1474989941098398 0.1130201558428182 0 -0.13555127085324509 0.1197277393278956 0 -0.13699777763942109 0.1077754796226524 0 -0.13555127085324509 0.1197277393278956 0 -0.13699777763942109 0.1077754796226524 0 -0.1246884739219324 0.1134091289710715 0 -0.13872644314989879 0.097080320877117099 0 -0.13699777763942109 0.1077754796226524 0 -0.12799403536335169 0.1024931251680764 0 -0.13699777763942109 0.1077754796226524 0 -0.12799403536335169 0.1024931251680764 0 -0.1246884739219324 0.1134091289710715 0 -0.13872644314989879 0.097080320877117099 0 -0.12799403536335169 0.1024931251680764 0 -0.12916308144813141 0.093395965774513146 0 -0.12799403536335169 0.1024931251680764 0 -0.12916308144813141 0.093395965774513146 0 -0.1219223393634596 0.096612265698231253 0 -0.1293260228529248 0.087188643500289376 0 -0.12916308144813141 0.093395965774513146 0 -0.12211852262909891 0.088601711304333058 0 -0.1293260228529248 0.087188643500289376 0 -0.12916308144813141 0.093395965774513146 0 -0.13668707387277881 0.090196843396543214 0 -0.1293260228529248 0.087188643500289376 0 -0.12596249164327 0.081654930772735779 0 -0.12211852262909891 0.088601711304333058 0 -0.1293260228529248 0.087188643500289376 0 -0.12596249164327 0.081654930772735779 0 -0.13269894467134469 0.082093766253321626 0 -0.12596249164327 0.081654930772735779 0 -0.13269894467134469 0.082093766253321626 0 -0.1293260228529248 0.087188643500289376 0 -0.13269894467134469 0.082093766253321626 0 -0.13668707387277881 0.090196843396543214 0 -0.13872644314989879 0.097080320877117099 0 -0.12916308144813141 0.093395965774513146 0 -0.13668707387277881 0.090196843396543214 0 -0.1614328782305357 0.083965592493335475 0 -0.13269894467134469 0.082093766253321626 0 -0.14678659575501241 0.074129349231011263 0 -0.13269894467134469 0.082093766253321626 0 -0.15381451571524341 0.091960168814852861 0 -0.13269894467134469 0.082093766253321626 0 -0.13668707387277881 0.090196843396543214 0 -0.15381451571524341 0.091960168814852861 0 -0.1614328782305357 0.083965592493335475 0 -0.13269894467134469 0.082093766253321626 0 -0.15381451571524341 0.091960168814852861 0 -0.1614328782305357 0.083965592493335475 0 -0.13269894467134469 0.082093766253321626 0 -0.13872644314989879 0.097080320877117099 0 -0.13668707387277881 0.090196843396543214 0 -0.15381451571524341 0.091960168814852861 0 -0.15898020884973871 0.070035430720262401 0 -0.14678659575501241 0.074129349231011263 0 -0.1414169425727885 0.06357355906025422 0 -0.1614328782305357 0.083965592493335475 0 -0.15898020884973871 0.070035430720262401 0 -0.14678659575501241 0.074129349231011263 0 -0.14678659575501241 0.074129349231011263 0 -0.1414169425727885 0.06357355906025422 0 -0.1380946373697495 0.073321664428178612 0 -0.1414169425727885 0.06357355906025422 0 -0.1140315255845229 0.073371280315694495 0 -0.1414169425727885 0.06357355906025422 0 -0.1140315255845229 0.073371280315694495 0 -0.123313990261863 0.056145434382516159 0 -0.1414169425727885 0.06357355906025422 0 -0.1380946373697495 0.073321664428178612 0 -0.1140315255845229 0.073371280315694495 0 -0.13269894467134469 0.082093766253321626 0 -0.1380946373697495 0.073321664428178612 0 -0.1140315255845229 0.073371280315694495 0 -0.13269894467134469 0.082093766253321626 0 -0.14678659575501241 0.074129349231011263 0 -0.1380946373697495 0.073321664428178612 0 -0.13059315886047951 0.043011130708000757 0 -0.14354500358849681 0.04812479812360819 0 -0.123313990261863 0.056145434382516159 0 -0.1414169425727885 0.06357355906025422 0 -0.14354500358849681 0.04812479812360819 0 -0.123313990261863 0.056145434382516159 0 -0.13059315886047951 0.043011130708000757 0 -0.13126336880004569 0.02887313403689408 0 -0.118151616595517 0.037271012093908748 0 -0.13059315886047951 0.043011130708000757 0 -0.1412434296289867 0.036512170666794262 0 -0.13126336880004569 0.02887313403689408 0 -0.13059315886047951 0.043011130708000757 0 -0.1412434296289867 0.036512170666794262 0 -0.14354500358849681 0.04812479812360819 0 -0.15590014064581009 0.035730656119271273 0 -0.14354500358849681 0.04812479812360819 0 -0.16880235956105349 0.053775837804812543 0 -0.1412434296289867 0.036512170666794262 0 -0.15590014064581009 0.035730656119271273 0 -0.14354500358849681 0.04812479812360819 0 -0.1412434296289867 0.036512170666794262 0 -0.15590014064581009 0.035730656119271273 0 -0.1459613777652693 0.026249417687352731 0 -0.1414169425727885 0.06357355906025422 0 -0.16880235956105349 0.053775837804812543 0 -0.1414169425727885 0.06357355906025422 0 -0.14354500358849681 0.04812479812360819 0 -0.16880235956105349 0.053775837804812543 0 -0.1238376520846925 -0.003178898693025302 0 -0.1442356625056827 0.013760973414615209 0 -0.1252665686555624 0.011687616998799151 0 -0.13668174443164 0.02014278553441529 0 -0.1442356625056827 0.013760973414615209 0 -0.1238376520846925 -0.003178898693025302 0 -0.1252665686555624 0.011687616998799151 0 -0.1442356625056827 0.013760973414615209 0 -0.1238376520846925 -0.003178898693025302 0 -0.14021991755128291 -0.0037810170104977821 0 -0.1442356625056827 0.013760973414615209 0 -0.1252665686555624 0.011687616998799151 0 -0.13668174443164 0.02014278553441529 0 -0.13126336880004569 0.02887313403689408 0 -0.13668174443164 0.02014278553441529 0 -0.13126336880004569 0.02887313403689408 0 -0.1459613777652693 0.026249417687352731 0 -0.1412434296289867 0.036512170666794262 0 -0.13126336880004569 0.02887313403689408 0 -0.1459613777652693 0.026249417687352731 0 -0.15590014064581009 0.035730656119271273 0 -0.1459613777652693 0.026249417687352731 0 -0.15341540514897159 0.016081979009226571 0 -0.1459613777652693 0.026249417687352731 0 -0.15341540514897159 0.016081979009226571 0 -0.1442356625056827 0.013760973414615209 0 -0.13668174443164 0.02014278553441529 0 -0.1459613777652693 0.026249417687352731 0 -0.1442356625056827 0.013760973414615209 0 -0.14021991755128291 -0.0037810170104977821 0 -0.1442356625056827 0.013760973414615209 0 -0.15191854340496841 0.0056857037463043901 0 -0.15341540514897159 0.016081979009226571 0 -0.1442356625056827 0.013760973414615209 0 -0.15191854340496841 0.0056857037463043901 0 -0.15648956439896139 -0.0050560779717764076 0 -0.15191854340496841 0.0056857037463043901 0 -0.16661461818764309 0.0064834708418648503 0 -0.15341540514897159 0.016081979009226571 0 -0.15191854340496841 0.0056857037463043901 0 -0.16661461818764309 0.0064834708418648503 0 -0.15341540514897159 0.016081979009226571 0 -0.16661461818764309 0.0064834708418648503 0 -0.17252453283333671 0.03031502258584726 0 -0.15341540514897159 0.016081979009226571 0 -0.17252453283333671 0.03031502258584726 0 -0.15590014064581009 0.035730656119271273 0 -0.15341540514897159 0.016081979009226571 0 -0.17252453283333671 0.03031502258584726 0 -0.17252453283333671 0.03031502258584726 0 -0.19163366051770181 0.044548066162467932 0 -0.1904619074194345 0.017727593772665862 0 -0.16661461818764309 0.0064834708418648503 0 -0.17252453283333671 0.03031502258584726 0 -0.1904619074194345 0.017727593772665862 0 -0.18255870539025951 -0.00030130366836361722 0 -0.16661461818764309 0.0064834708418648503 0 -0.1904619074194345 0.017727593772665862 0 -0.15898020884973871 0.070035430720262401 0 -0.1414169425727885 0.06357355906025422 0 -0.16880235956105349 0.053775837804812543 0 -0.15590014064581009 0.035730656119271273 0 -0.17252453283333671 0.03031502258584726 0 -0.16880235956105349 0.053775837804812543 0 -0.17252453283333671 0.03031502258584726 0 -0.16880235956105349 0.053775837804812543 0 -0.19163366051770181 0.044548066162467932 0 -0.17252453283333671 0.03031502258584726 0 -0.19163366051770181 0.044548066162467932 0 -0.16880235956105349 0.053775837804812543 0 -0.19163366051770181 0.044548066162467932 0 -0.19126911527613219 0.064328432760374227 0 -0.19163366051770181 0.044548066162467932 0 -0.21074278820206691 0.058781109739088587 0 -0.19126911527613219 0.064328432760374227 0 -0.19163366051770181 0.044548066162467932 0 -0.21074278820206691 0.058781109739088587 0 -0.19163366051770181 0.044548066162467932 0 -0.21719453115116891 0.043581671778351441 0 -0.21185821881028821 0.028701465373771311 0 -0.21719453115116891 0.043581671778351441 0 -0.21185821881028821 0.028701465373771311 0 -0.22548079713816671 0.037389163685436683 0 -0.21719453115116891 0.043581671778351441 0 -0.21074278820206691 0.058781109739088587 0 -0.22665061596217889 0.048258597157508597 0 -0.19163366051770181 0.044548066162467932 0 -0.21719453115116891 0.043581671778351441 0 -0.21074278820206691 0.058781109739088587 0 -0.20136602200140599 -0.0030079861901145229 0 -0.1904619074194345 0.017727593772665862 0 -0.2091818055715112 0.01229777797110183 0 -0.18255870539025951 -0.00030130366836361722 0 -0.20136602200140599 -0.0030079861901145229 0 -0.1904619074194345 0.017727593772665862 0 -0.19163366051770181 0.044548066162467932 0 -0.1904619074194345 0.017727593772665862 0 -0.21185821881028821 0.028701465373771311 0 -0.1904619074194345 0.017727593772665862 0 -0.21185821881028821 0.028701465373771311 0 -0.2091818055715112 0.01229777797110183 0 -0.21185821881028821 0.028701465373771311 0 -0.2091818055715112 0.01229777797110183 0 -0.222597033205892 0.01535248478154338 0 -0.20136602200140599 -0.0030079861901145229 0 -0.2091818055715112 0.01229777797110183 0 -0.2196258464205352 0.0027153321176431179 0 -0.2091818055715112 0.01229777797110183 0 -0.2196258464205352 0.0027153321176431179 0 -0.222597033205892 0.01535248478154338 0 -0.23345545866485429 -0.001590969249915503 0 -0.2196258464205352 0.0027153321176431179 0 -0.23047164758584701 0.0085782977512884051 0 -0.2196258464205352 0.0027153321176431179 0 -0.222597033205892 0.01535248478154338 0 -0.23047164758584701 0.0085782977512884051 0 -0.222597033205892 0.01535248478154338 0 -0.23047164758584701 0.0085782977512884051 0 -0.23533347493899079 0.017864183478357911 0 -0.22600665924836369 0.027599711361698011 0 -0.23533347493899079 0.017864183478357911 0 -0.2347637721484806 0.038691259489380812 0 -0.222597033205892 0.01535248478154338 0 -0.22600665924836369 0.027599711361698011 0 -0.23533347493899079 0.017864183478357911 0 -0.21185821881028821 0.028701465373771311 0 -0.22600665924836369 0.027599711361698011 0 -0.22548079713816671 0.037389163685436683 0 -0.21185821881028821 0.028701465373771311 0 -0.222597033205892 0.01535248478154338 0 -0.22600665924836369 0.027599711361698011 0 -0.24766078304850581 0.017662533827461479 0 -0.24092742620323879 0.038590434663932791 0 -0.23533347493899079 0.017864183478357911 0 -0.2347637721484806 0.038691259489380812 0 -0.24766078304850581 0.017662533827461479 0 -0.23533347493899079 0.017864183478357911 0 -0.24092742620323879 0.038590434663932791 0 -0.24996056485392651 0.029949614958286779 0 -0.24766078304850581 0.017662533827461479 0 -0.24092742620323879 0.038590434663932791 0 -0.25439413989377241 -0.0032653670090099212 0 -0.24766078304850581 0.017662533827461479 0 -0.2413464246989627 0.0085504576288131275 0 -0.23047164758584701 0.0085782977512884051 0 -0.23533347493899079 0.017864183478357911 0 -0.2413464246989627 0.0085504576288131275 0 -0.24766078304850581 0.017662533827461479 0 -0.23533347493899079 0.017864183478357911 0 -0.2413464246989627 0.0085504576288131275 0 -0.24603610792721031 -0.001494836057043694 0 -0.25439413989377241 -0.0032653670090099212 0 -0.2413464246989627 0.0085504576288131275 0 -0.23345545866485429 -0.001590969249915503 0 -0.24603610792721031 -0.001494836057043694 0 -0.2413464246989627 0.0085504576288131275 0 -0.23345545866485429 -0.001590969249915503 0 -0.23047164758584701 0.0085782977512884051 0 -0.2413464246989627 0.0085504576288131275 0 -0.22665061596217889 0.048258597157508597 0 -0.2341940693579711 0.05951833550040378 0 -0.2347637721484806 0.038691259489380812 0 -0.21074278820206691 0.058781109739088587 0 -0.22665061596217889 0.048258597157508597 0 -0.2341940693579711 0.05951833550040378 0 -0.21719453115116891 0.043581671778351441 0 -0.22665061596217889 0.048258597157508597 0 -0.22548079713816671 0.037389163685436683 0 -0.22600665924836369 0.027599711361698011 0 -0.22548079713816671 0.037389163685436683 0 -0.2347637721484806 0.038691259489380812 0 -0.22665061596217889 0.048258597157508597 0 -0.22548079713816671 0.037389163685436683 0 -0.2347637721484806 0.038691259489380812 0 -0.23533347493899079 0.017864183478357911 0 -0.2347637721484806 0.038691259489380812 0 -0.24092742620323879 0.038590434663932791 0 -0.2341940693579711 0.05951833550040378 0 -0.2347637721484806 0.038691259489380812 0 -0.24092742620323879 0.038590434663932791 0 -0.24996056485392651 0.029949614958286779 0 -0.24092742620323879 0.038590434663932791 0 -0.2480435708098894 0.038562984200042033 0 -0.24092742620323879 0.038590434663932791 0 -0.24735551461620839 0.044536386278428472 0 -0.24386205643828759 0.05408505917860329 0 -0.24092742620323879 0.038590434663932791 0 -0.2480435708098894 0.038562984200042033 0 -0.24735551461620839 0.044536386278428472 0 -0.25393077756618421 0.041175500899520059 0 -0.2480435708098894 0.038562984200042033 0 -0.24735551461620839 0.044536386278428472 0 -0.25332614084858979 0.052582736700977219 0 -0.24735551461620839 0.044536386278428472 0 -0.24386205643828759 0.05408505917860329 0 -0.2341940693579711 0.05951833550040378 0 -0.24092742620323879 0.038590434663932791 0 -0.2341940693579711 0.05951833550040378 0 -0.24092742620323879 0.038590434663932791 0 -0.24386205643828759 0.05408505917860329 0 -0.2341940693579711 0.05951833550040378 0 -0.2347637721484806 0.038691259489380812 0 -0.2341940693579711 0.05951833550040378 0 -0.24386205643828759 0.05408505917860329 0 -0.24214769953090809 0.066231043463179387 0 -0.2519811322907059 0.063581899575077552 0 -0.25332614084858979 0.052582736700977219 0 -0.24386205643828759 0.05408505917860329 0 -0.2519811322907059 0.063581899575077552 0 -0.24386205643828759 0.05408505917860329 0 -0.24214769953090809 0.066231043463179387 0 -0.2341940693579711 0.05951833550040378 0 -0.24214769953090809 0.066231043463179387 0 -0.23374557588639139 0.075914266464114366 0 -0.2519811322907059 0.063581899575077552 0 -0.24512548103058551 0.074285041536547206 0 -0.24214769953090809 0.066231043463179387 0 -0.25618657940925621 0.076991895164204183 0 -0.24512548103058551 0.074285041536547206 0 -0.24744940670915899 0.082982612093996336 0 -0.24512548103058551 0.074285041536547206 0 -0.24214769953090809 0.066231043463179387 0 -0.23374557588639139 0.075914266464114366 0 -0.24512548103058551 0.074285041536547206 0 -0.23924249235709241 0.080008532458711895 0 -0.23374557588639139 0.075914266464114366 0 -0.23924249235709241 0.080008532458711895 0 -0.23374557588639139 0.075914266464114366 0 -0.23924249235709241 0.080008532458711895 0 -0.23327007775465361 0.093297428171842084 0 -0.23374557588639139 0.075914266464114366 0 -0.25345726023504728 0.092538554859935451 0 -0.24323262640566509 0.089995104659520098 0 -0.24744940670915899 0.082982612093996336 0 -0.24512548103058551 0.074285041536547206 0 -0.24744940670915899 0.082982612093996336 0 -0.23924249235709241 0.080008532458711895 0 -0.24323262640566509 0.089995104659520098 0 -0.24744940670915899 0.082982612093996336 0 -0.23924249235709241 0.080008532458711895 0 -0.24323262640566509 0.089995104659520098 0 -0.23924249235709241 0.080008532458711895 0 -0.23327007775465361 0.093297428171842084 0 -0.22471960986565659 0.088965838921184537 0 -0.23374557588639139 0.075914266464114366 0 -0.2298519158864317 0.073014153315709623 0 -0.22471960986565659 0.088965838921184537 0 -0.2298519158864317 0.073014153315709623 0 -0.22471960986565659 0.088965838921184537 0 -0.2298519158864317 0.073014153315709623 0 -0.21983283565227971 0.077638920011625784 0 -0.23327007775465361 0.093297428171842084 0 -0.22471960986565659 0.088965838921184537 0 -0.23374557588639139 0.075914266464114366 0 -0.23327007775465361 0.093297428171842084 0 -0.23374557588639139 0.075914266464114366 0 -0.23327007775465361 0.093297428171842084 0 -0.22471960986565659 0.088965838921184537 0 -0.22603753850502789 0.098635013665264698 0 -0.22471960986565659 0.088965838921184537 0 -0.21890074534891751 0.087709244973363076 0 -0.21983283565227971 0.077638920011625784 0 -0.22471960986565659 0.088965838921184537 0 -0.21890074534891751 0.087709244973363076 0 -0.2202181696606674 0.0957095960360385 0 -0.21074278820206691 0.058781109739088587 0 -0.2298519158864317 0.073014153315709623 0 -0.21983283565227971 0.077638920011625784 0 -0.21074278820206691 0.058781109739088587 0 -0.2341940693579711 0.05951833550040378 0 -0.2298519158864317 0.073014153315709623 0 -0.2341940693579711 0.05951833550040378 0 -0.23374557588639139 0.075914266464114366 0 -0.2298519158864317 0.073014153315709623 0 -0.2341940693579711 0.05951833550040378 0 -0.23374557588639139 0.075914266464114366 0 -0.21074278820206691 0.058781109739088587 0 -0.2298519158864317 0.073014153315709623 0 -0.2341940693579711 0.05951833550040378 0 -0.2298519158864317 0.073014153315709623 0 -0.23374557588639139 0.075914266464114366 0 -0.2298519158864317 0.073014153315709623 0 -0.21074278820206691 0.058781109739088587 0 -0.21983283565227971 0.077638920011625784 0 -0.20706503675424531 0.075198197443377912 0 -0.21890074534891751 0.087709244973363076 0 -0.2045341243413259 0.096497893911591498 0 -0.2202181696606674 0.0957095960360385 0 -0.21890074534891751 0.087709244973363076 0 -0.19016681178972669 0.085837418733349283 0 -0.21890074534891751 0.087709244973363076 0 -0.21983283565227971 0.077638920011625784 0 -0.20706503675424531 0.075198197443377912 0 -0.21890074534891751 0.087709244973363076 0 -0.20706503675424531 0.075198197443377912 0 -0.19016681178972669 0.085837418733349283 0 -0.21890074534891751 0.087709244973363076 0 -0.19016681178972669 0.085837418733349283 0 -0.2045341243413259 0.096497893911591498 0 -0.20706503675424531 0.075198197443377912 0 -0.19016681178972669 0.085837418733349283 0 -0.19126911527613219 0.064328432760374227 0 -0.21074278820206691 0.058781109739088587 0 -0.20706503675424531 0.075198197443377912 0 -0.19126911527613219 0.064328432760374227 0 -0.19604565780304059 0.1116929739379154 0 -0.1963065237715613 0.1245751904510458 0 -0.20586396040563559 0.122898882915307 0 -0.18094950569511359 0.11955400565695309 0 -0.19604565780304059 0.1116929739379154 0 -0.1963065237715613 0.1245751904510458 0 -0.19016681178972669 0.085837418733349283 0 -0.19141917017330881 0.098963714489810062 0 -0.2045341243413259 0.096497893911591498 0 -0.19604565780304059 0.1116929739379154 0 -0.19141917017330881 0.098963714489810062 0 -0.2045341243413259 0.096497893911591498 0 -0.2045341243413259 0.096497893911591498 0 -0.2202181696606674 0.0957095960360385 0 -0.21918525562124549 0.1045216153176886 0 -0.2045341243413259 0.096497893911591498 0 -0.20969807256125031 0.113736402306839 0 -0.21918525562124549 0.1045216153176886 0 -0.19604565780304059 0.1116929739379154 0 -0.2045341243413259 0.096497893911591498 0 -0.20969807256125031 0.113736402306839 0 -0.20969807256125031 0.113736402306839 0 -0.2228279736379907 0.120659988380299 0 -0.21918525562124549 0.1045216153176886 0 -0.19604565780304059 0.1116929739379154 0 -0.20969807256125031 0.113736402306839 0 -0.20586396040563559 0.122898882915307 0 -0.20969807256125031 0.113736402306839 0 -0.20586396040563559 0.122898882915307 0 -0.21378777805813351 0.1272097020712061 0 -0.20969807256125031 0.113736402306839 0 -0.2228279736379907 0.120659988380299 0 -0.21378777805813351 0.1272097020712061 0 -0.2228279736379907 0.120659988380299 0 -0.23279457962291669 0.1106805898795698 0 -0.23832659087067851 0.13148136434106331 0 -0.2228279736379907 0.120659988380299 0 -0.23279457962291669 0.1106805898795698 0 -0.21918525562124549 0.1045216153176886 0 -0.23327007775465361 0.093297428171842084 0 -0.23279457962291669 0.1106805898795698 0 -0.22603753850502789 0.098635013665264698 0 -0.23327007775465361 0.093297428171842084 0 -0.23279457962291669 0.1106805898795698 0 -0.2202181696606674 0.0957095960360385 0 -0.22603753850502789 0.098635013665264698 0 -0.21918525562124549 0.1045216153176886 0 -0.22471960986565659 0.088965838921184537 0 -0.2202181696606674 0.0957095960360385 0 -0.22603753850502789 0.098635013665264698 0 -0.23279457962291669 0.1106805898795698 0 -0.22603753850502789 0.098635013665264698 0 -0.21918525562124549 0.1045216153176886 0 -0.23327007775465361 0.093297428171842084 0 -0.23279457962291669 0.1106805898795698 0 -0.24399133905966969 0.1017712822813191 0 -0.24323262640566509 0.089995104659520098 0 -0.23327007775465361 0.093297428171842084 0 -0.24399133905966969 0.1017712822813191 0 -0.25345726023504728 0.092538554859935451 0 -0.24323262640566509 0.089995104659520098 0 -0.24399133905966969 0.1017712822813191 0 -0.2504401116513022 0.1175669994668319 0 -0.23279457962291669 0.1106805898795698 0 -0.24399133905966969 0.1017712822813191 0 -0.2504401116513022 0.1175669994668319 0 -0.23279457962291669 0.1106805898795698 0 -0.23832659087067851 0.13148136434106331 0 -0.25824117398475482 0.13157462597297609 0 -0.2504401116513022 0.1175669994668319 0 -0.23832659087067851 0.13148136434106331 0 -0.25824117398475482 0.13157462597297609 0 -0.23832659087067851 0.13148136434106331 0 -0.24989252905805309 0.14572425192388661 0 -0.2228279736379907 0.120659988380299 0 -0.23832659087067851 0.13148136434106331 0 -0.22454776914217139 0.13975111298696061 0 -0.2228279736379907 0.120659988380299 0 -0.22454776914217139 0.13975111298696061 0 -0.21378777805813351 0.1272097020712061 0 -0.22454776914217139 0.13975111298696061 0 -0.23875894843204301 0.15785055510680501 0 -0.2213042745853995 0.15643405551625761 0 -0.22454776914217139 0.13975111298696061 0 -0.2213042745853995 0.15643405551625761 0 -0.21191445822013141 0.14255817911696331 0 -0.23832659087067851 0.13148136434106331 0 -0.22454776914217139 0.13975111298696061 0 -0.23875894843204301 0.15785055510680501 0 -0.23832659087067851 0.13148136434106331 0 -0.24989252905805309 0.14572425192388661 0 -0.23875894843204301 0.15785055510680501 0 -0.26040121110203679 0.17067312608516891 0 -0.24989252905805309 0.14572425192388661 0 -0.23875894843204301 0.15785055510680501 0 -0.26040121110203679 0.17067312608516891 0 -0.23875894843204301 0.15785055510680501 0 -0.2342453071008237 0.17883793120322661 0 -0.25157622486723979 0.18960923580231259 0 -0.26040121110203679 0.17067312608516891 0 -0.2342453071008237 0.17883793120322661 0 -0.2342453071008237 0.17883793120322661 0 -0.21055830066841849 0.17398048160499791 0 -0.21697054639500249 0.1961897462828914 0 -0.2342453071008237 0.17883793120322661 0 -0.2213042745853995 0.15643405551625761 0 -0.21055830066841849 0.17398048160499791 0 -0.23875894843204301 0.15785055510680501 0 -0.2342453071008237 0.17883793120322661 0 -0.2213042745853995 0.15643405551625761 0 -0.2213042745853995 0.15643405551625761 0 -0.21055830066841849 0.17398048160499791 0 -0.20158415958868461 0.15538089985180811 0 -0.21055830066841849 0.17398048160499791 0 -0.21697054639500249 0.1961897462828914 0 -0.1970021175558595 0.18878115427070249 0 -0.21055830066841849 0.17398048160499791 0 -0.19224339878474059 0.16825910250510151 0 -0.1970021175558595 0.18878115427070249 0 -0.19224339878474059 0.16825910250510151 0 -0.1970021175558595 0.18878115427070249 0 -0.18601943967026299 0.18470641307242811 0 -0.19224339878474059 0.16825910250510151 0 -0.1970021175558595 0.18878115427070249 0 -0.1970021175558595 0.18878115427070249 0 -0.18601943967026299 0.18470641307242811 0 -0.19224339878474059 0.16825910250510151 0 -0.1874846800136192 0.14773705073950119 0 -0.19224339878474059 0.16825910250510151 0 -0.20158415958868461 0.15538089985180811 0 -0.1874846800136192 0.14773705073950119 0 -0.21055830066841849 0.17398048160499791 0 -0.19224339878474059 0.16825910250510151 0 -0.20158415958868461 0.15538089985180811 0 -0.20158415958868461 0.15538089985180811 0 -0.19569918018128479 0.1409051014336877 0 -0.21191445822013141 0.14255817911696331 0 -0.19569918018128479 0.1409051014336877 0 -0.1874846800136192 0.14773705073950119 0 -0.19569918018128479 0.1409051014336877 0 -0.1882848124020372 0.13821348608798029 0 -0.1874846800136192 0.14773705073950119 0 -0.20158415958868461 0.15538089985180811 0 -0.19569918018128479 0.1409051014336877 0 -0.1874846800136192 0.14773705073950119 0 -0.19569918018128479 0.1409051014336877 0 -0.1882848124020372 0.13821348608798029 0 -0.191820935418584 0.1327497104462681 0 -0.1882848124020372 0.13821348608798029 0 -0.191820935418584 0.1327497104462681 0 -0.18522072511486429 0.1379737085749663 0 -0.18094950569511359 0.11955400565695309 0 -0.1963065237715613 0.1245751904510458 0 -0.191820935418584 0.1327497104462681 0 -0.1963065237715613 0.1245751904510458 0 -0.191820935418584 0.1327497104462681 0 -0.2025654726758884 0.13181612773907961 0 -0.1963065237715613 0.1245751904510458 0 -0.20586396040563559 0.122898882915307 0 -0.2025654726758884 0.13181612773907961 0 -0.19569918018128479 0.1409051014336877 0 -0.191820935418584 0.1327497104462681 0 -0.2025654726758884 0.13181612773907961 0 -0.2025654726758884 0.13181612773907961 0 -0.21378777805813351 0.1272097020712061 0 -0.21191445822013141 0.14255817911696331 0 -0.19569918018128479 0.1409051014336877 0 -0.2025654726758884 0.13181612773907961 0 -0.21191445822013141 0.14255817911696331 0 -0.20586396040563559 0.122898882915307 0 -0.2025654726758884 0.13181612773907961 0 -0.21378777805813351 0.1272097020712061 0 -0.22454776914217139 0.13975111298696061 0 -0.21378777805813351 0.1272097020712061 0 -0.21191445822013141 0.14255817911696331 0 -0.2213042745853995 0.15643405551625761 0 -0.20158415958868461 0.15538089985180811 0 -0.21191445822013141 0.14255817911696331 0 -0.2202465794130691 0.24948915124147089 0 -0.22711593660225909 0.24185474750597341 0 -0.2162329246649371 0.24224406864392251 0 -0.2319164096706777 0.25192477476912239 0 -0.2202465794130691 0.24948915124147089 0 -0.22711593660225909 0.24185474750597341 0 -0.22711593660225909 0.24185474750597341 0 -0.22563838056404431 0.23237991396711591 0 -0.2187096142034031 0.23563507381260451 0 -0.22711593660225909 0.24185474750597341 0 -0.2187096142034031 0.23563507381260451 0 -0.2162329246649371 0.24224406864392251 0 -0.22711593660225909 0.24185474750597341 0 -0.23806129760687211 0.24589395612401979 0 -0.23664074220251671 0.2378668954473119 0 -0.22711593660225909 0.24185474750597341 0 -0.23664074220251671 0.2378668954473119 0 -0.22563838056404431 0.23237991396711591 0 -0.2319164096706777 0.25192477476912239 0 -0.22711593660225909 0.24185474750597341 0 -0.23806129760687211 0.24589395612401979 0 -0.23806129760687211 0.24589395612401979 0 -0.24744121717665701 0.24359974376900731 0 -0.23664074220251671 0.2378668954473119 0 -0.24353882222885451 0.25569364620056573 0 -0.23806129760687211 0.24589395612401979 0 -0.24744121717665701 0.24359974376900731 0 -0.25183482859182199 0.2331833224768842 0 -0.24744121717665701 0.24359974376900731 0 -0.24229357011996211 0.23118447892927579 0 -0.24744121717665701 0.24359974376900731 0 -0.23664074220251671 0.2378668954473119 0 -0.24229357011996211 0.23118447892927579 0 -0.24229357011996211 0.23118447892927579 0 -0.23544623906898471 0.2206465565969184 0 -0.23347767849372389 0.2291196339484052 0 -0.23664074220251671 0.2378668954473119 0 -0.24229357011996211 0.23118447892927579 0 -0.23347767849372389 0.2291196339484052 0 -0.25183482859182199 0.2331833224768842 0 -0.24229357011996211 0.23118447892927579 0 -0.24750538697543659 0.22102034697483891 0 -0.24229357011996211 0.23118447892927579 0 -0.24750538697543659 0.22102034697483891 0 -0.23544623906898471 0.2206465565969184 0 -0.23544623906898471 0.2206465565969184 0 -0.2257981611238071 0.22385218749338121 0 -0.22557219630039521 0.21274530414206849 0 -0.23544623906898471 0.2206465565969184 0 -0.23347767849372389 0.2291196339484052 0 -0.2257981611238071 0.22385218749338121 0 -0.23664074220251671 0.2378668954473119 0 -0.23347767849372389 0.2291196339484052 0 -0.22563838056404431 0.23237991396711591 0 -0.23347767849372389 0.2291196339484052 0 -0.22563838056404431 0.23237991396711591 0 -0.2257981611238071 0.22385218749338121 0 -0.22563838056404431 0.23237991396711591 0 -0.2257981611238071 0.22385218749338121 0 -0.2185710444177609 0.2282982822155174 0 -0.22563838056404431 0.23237991396711591 0 -0.2185710444177609 0.2282982822155174 0 -0.2187096142034031 0.23563507381260451 0 -0.2257981611238071 0.22385218749338121 0 -0.22557219630039521 0.21274530414206849 0 -0.21725685024072461 0.2198266423364397 0 -0.2257981611238071 0.22385218749338121 0 -0.21725685024072461 0.2198266423364397 0 -0.2185710444177609 0.2282982822155174 0 -0.23544623906898471 0.2206465565969184 0 -0.22557219630039521 0.21274530414206849 0 -0.23693897523414609 0.20359833829507901 0 -0.22557219630039521 0.21274530414206849 0 -0.23693897523414609 0.20359833829507901 0 -0.21697054639500249 0.1961897462828914 0 -0.25690740407328971 0.21100693030726669 0 -0.24750538697543659 0.22102034697483891 0 -0.23693897523414609 0.20359833829507901 0 -0.25690740407328971 0.21100693030726669 0 -0.23693897523414609 0.20359833829507901 0 -0.24750538697543659 0.22102034697483891 0 -0.23544623906898471 0.2206465565969184 0 -0.23693897523414609 0.20359833829507901 0 -0.25157622486723979 0.18960923580231259 0 -0.25690740407328971 0.21100693030726669 0 -0.23693897523414609 0.20359833829507901 0 -0.25157622486723979 0.18960923580231259 0 -0.2342453071008237 0.17883793120322661 0 -0.23693897523414609 0.20359833829507901 0 -0.2342453071008237 0.17883793120322661 0 -0.23693897523414609 0.20359833829507901 0 -0.21697054639500249 0.1961897462828914 0 -0.23693897523414609 0.20359833829507901 0 -0.21697054639500249 0.1961897462828914 0 -0.21697054639500249 0.1961897462828914 0 -0.1970021175558595 0.18878115427070249 0 -0.21697054639500249 0.1961897462828914 0 -0.1970021175558595 0.18878115427070249 0 -0.21340948950087699 0.20930041655058149 0 -0.1970021175558595 0.18878115427070249 0 -0.2032996375496626 0.2159393112292648 0 -0.1970021175558595 0.18878115427070249 0 -0.1946595386099633 0.20032286215084619 0 -0.2032996375496626 0.2159393112292648 0 -0.1946595386099633 0.20032286215084619 0 -0.19045153351315119 0.21241261258573901 0 -0.18184877584203399 0.19576039726311811 0 -0.1946595386099633 0.20032286215084619 0 -0.18601943967026299 0.18470641307242811 0 -0.1946595386099633 0.20032286215084619 0 -0.18184877584203399 0.19576039726311811 0 -0.18601943967026299 0.18470641307242811 0 -0.1970021175558595 0.18878115427070249 0 -0.1946595386099633 0.20032286215084619 0 -0.18601943967026299 0.18470641307242811 0 -0.1946595386099633 0.20032286215084619 0 -0.2032996375496626 0.2159393112292648 0 -0.1946595386099633 0.20032286215084619 0 -0.19045153351315119 0.21241261258573901 0 -0.2032996375496626 0.2159393112292648 0 -0.19045153351315119 0.21241261258573901 0 -0.2032996375496626 0.2159393112292648 0 -0.19692743602872609 0.22244846712414329 0 -0.1970021175558595 0.18878115427070249 0 -0.2032996375496626 0.2159393112292648 0 -0.21340948950087699 0.20930041655058149 0 -0.22557219630039521 0.21274530414206849 0 -0.21697054639500249 0.1961897462828914 0 -0.21340948950087699 0.20930041655058149 0 -0.2032996375496626 0.2159393112292648 0 -0.21036615532528261 0.21601341582072539 0 -0.21340948950087699 0.20930041655058149 0 -0.2032996375496626 0.2159393112292648 0 -0.21036615532528261 0.21601341582072539 0 -0.2060497627485996 0.2209099939064201 0 -0.2032996375496626 0.2159393112292648 0 -0.2060497627485996 0.2209099939064201 0 -0.21036615532528261 0.21601341582072539 0 -0.21340948950087699 0.20930041655058149 0 -0.21725685024072461 0.2198266423364397 0 -0.22557219630039521 0.21274530414206849 0 -0.21340948950087699 0.20930041655058149 0 -0.21725685024072461 0.2198266423364397 0 -0.21036615532528261 0.21601341582072539 0 -0.21725685024072461 0.2198266423364397 0 -0.2107378463417221 0.22035448513366579 0 -0.21296503769328229 0.2242866157541589 0 -0.21725685024072461 0.2198266423364397 0 -0.2185710444177609 0.2282982822155174 0 -0.21296503769328229 0.2242866157541589 0 -0.21725685024072461 0.2198266423364397 0 -0.2107378463417221 0.22035448513366579 0 -0.2185710444177609 0.2282982822155174 0 -0.2122096847176051 0.2320436751787513 0 -0.2187096142034031 0.23563507381260451 0 -0.21296503769328229 0.2242866157541589 0 -0.2185710444177609 0.2282982822155174 0 -0.2122096847176051 0.2320436751787513 0 -0.2053825987990579 0.22492211534983489 0 -0.20780637408448249 0.23537468552009061 0 -0.2122096847176051 0.2320436751787513 0 -0.2053825987990579 0.22492211534983489 0 -0.20780637408448249 0.23537468552009061 0 -0.2032996375496626 0.2159393112292648 0 -0.2053825987990579 0.22492211534983489 0 -0.2032996375496626 0.2159393112292648 0 -0.2053825987990579 0.22492211534983489 0 -0.2060497627485996 0.2209099939064201 0 -0.2053825987990579 0.22492211534983489 0 -0.2060497627485996 0.2209099939064201 0 -0.2122096847176051 0.2320436751787513 0 -0.2060497627485996 0.2209099939064201 0 -0.21296503769328229 0.2242866157541589 0 -0.2122096847176051 0.2320436751787513 0 -0.2060497627485996 0.2209099939064201 0 -0.2122096847176051 0.2320436751787513 0 -0.2053825987990579 0.22492211534983489 0 -0.2060497627485996 0.2209099939064201 0 -0.21036615532528261 0.21601341582072539 0 -0.2107378463417221 0.22035448513366579 0 -0.2060497627485996 0.2209099939064201 0 -0.21296503769328229 0.2242866157541589 0 -0.2107378463417221 0.22035448513366579 0 -0.2060497627485996 0.2209099939064201 0 -0.2032996375496626 0.2159393112292648 0 -0.2053825987990579 0.22492211534983489 0 -0.19692743602872609 0.22244846712414329 0 -0.19045153351315119 0.21241261258573901 0 -0.19692743602872609 0.22244846712414329 0 -0.18834110226142409 0.2256462143143815 0 -0.19692743602872609 0.22244846712414329 0 -0.18834110226142409 0.2256462143143815 0 -0.19657851928040271 0.2340547441148336 0 -0.2053825987990579 0.22492211534983489 0 -0.19692743602872609 0.22244846712414329 0 -0.19657851928040271 0.2340547441148336 0 -0.2053825987990579 0.22492211534983489 0 -0.19657851928040271 0.2340547441148336 0 -0.20195325842869671 0.24554512719886959 0 -0.19657851928040271 0.2340547441148336 0 -0.20195325842869671 0.24554512719886959 0 -0.18182304793252041 0.24411572271617801 0 -0.18834110226142409 0.2256462143143815 0 -0.19657851928040271 0.2340547441148336 0 -0.18182304793252041 0.24411572271617801 0 -0.20195325842869671 0.24554512719886959 0 -0.2099325039541349 0.24156384450786991 0 -0.21118024833874621 0.24766558581212031 0 -0.2053825987990579 0.22492211534983489 0 -0.20195325842869671 0.24554512719886959 0 -0.2053825987990579 0.22492211534983489 0 -0.20195325842869671 0.24554512719886959 0 -0.20780637408448249 0.23537468552009061 0 -0.20195325842869671 0.24554512719886959 0 -0.20780637408448249 0.23537468552009061 0 -0.2099325039541349 0.24156384450786991 0 -0.20780637408448249 0.23537468552009061 0 -0.2099325039541349 0.24156384450786991 0 -0.21297822032491251 0.2373722695326477 0 -0.2099325039541349 0.24156384450786991 0 -0.21297822032491251 0.2373722695326477 0 -0.2162329246649371 0.24224406864392251 0 -0.2122096847176051 0.2320436751787513 0 -0.20780637408448249 0.23537468552009061 0 -0.21297822032491251 0.2373722695326477 0 -0.2122096847176051 0.2320436751787513 0 -0.21297822032491251 0.2373722695326477 0 -0.2187096142034031 0.23563507381260451 0 -0.21297822032491251 0.2373722695326477 0 -0.2187096142034031 0.23563507381260451 0 -0.2162329246649371 0.24224406864392251 0 -0.2202465794130691 0.24948915124147089 0 -0.2162329246649371 0.24224406864392251 0 -0.21118024833874621 0.24766558581212031 0 -0.2099325039541349 0.24156384450786991 0 -0.2162329246649371 0.24224406864392251 0 -0.21118024833874621 0.24766558581212031 0 -0.1653765498824955 0.25921933931352698 0 -0.15833413270530139 0.2385391050354419 0 -0.18182304793252041 0.24411572271617801 0 -0.15833413270530139 0.2385391050354419 0 -0.18182304793252041 0.24411572271617801 0 -0.1721999397611107 0.2235470425932265 0 -0.18182304793252041 0.24411572271617801 0 -0.1721999397611107 0.2235470425932265 0 -0.19045153351315119 0.21241261258573901 0 -0.18834110226142409 0.2256462143143815 0 -0.1721999397611107 0.2235470425932265 0 -0.18834110226142409 0.2256462143143815 0 -0.18182304793252041 0.24411572271617801 0 -0.1721999397611107 0.2235470425932265 0 -0.15833413270530139 0.2385391050354419 0 -0.1721999397611107 0.2235470425932265 0 -0.15683775821652579 0.22186482518120329 0 -0.15683775821652579 0.22186482518120329 0 -0.17107553183354829 0.2084666120717687 0 -0.15113647518235721 0.20639620343732051 0 -0.1721999397611107 0.2235470425932265 0 -0.15683775821652579 0.22186482518120329 0 -0.17107553183354829 0.2084666120717687 0 -0.19045153351315119 0.21241261258573901 0 -0.1721999397611107 0.2235470425932265 0 -0.17107553183354829 0.2084666120717687 0 -0.19045153351315119 0.21241261258573901 0 -0.17107553183354829 0.2084666120717687 0 -0.18184877584203399 0.19576039726311811 0 -0.17107553183354829 0.2084666120717687 0 -0.18184877584203399 0.19576039726311811 0 -0.1682547504311209 0.19360973251447941 0 -0.18184877584203399 0.19576039726311811 0 -0.18601943967026299 0.18470641307242811 0 -0.17559680926750121 0.18647987674638289 0 -0.18184877584203399 0.19576039726311811 0 -0.1682547504311209 0.19360973251447941 0 -0.17559680926750121 0.18647987674638289 0 -0.1682547504311209 0.19360973251447941 0 -0.1532662676507828 0.19077325441796941 0 -0.15113647518235721 0.20639620343732051 0 -0.17107553183354829 0.2084666120717687 0 -0.1682547504311209 0.19360973251447941 0 -0.15113647518235721 0.20639620343732051 0 -0.13905206469341119 0.18801815925028259 0 -0.1356789262465378 0.2101977079313708 0 -0.15113647518235721 0.20639620343732051 0 -0.1532662676507828 0.19077325441796941 0 -0.13905206469341119 0.18801815925028259 0 -0.15113647518235721 0.20639620343732051 0 -0.13905206469341119 0.18801815925028259 0 -0.12348234909058051 0.20096739603077021 0 -0.1187019022991877 0.19002215984854731 0 -0.13905206469341119 0.18801815925028259 0 -0.1356789262465378 0.2101977079313708 0 -0.12348234909058051 0.20096739603077021 0 -0.13905206469341119 0.18801815925028259 0 -0.12348234909058051 0.20096739603077021 0 -0.1356789262465378 0.2101977079313708 0 -0.123817973102626 0.2202036132319922 0 -0.12348234909058051 0.20096739603077021 0 -0.1356789262465378 0.2101977079313708 0 -0.15113647518235721 0.20639620343732051 0 -0.1409699130620338 0.22714289491561171 0 -0.15683775821652579 0.22186482518120329 0 -0.15113647518235721 0.20639620343732051 0 -0.1409699130620338 0.22714289491561171 0 -0.15833413270530139 0.2385391050354419 0 -0.15683775821652579 0.22186482518120329 0 -0.1409699130620338 0.22714289491561171 0 -0.1409699130620338 0.22714289491561171 0 -0.12648633267218329 0.2374374328555271 0 -0.123817973102626 0.2202036132319922 0 -0.1356789262465378 0.2101977079313708 0 -0.1409699130620338 0.22714289491561171 0 -0.123817973102626 0.2202036132319922 0 -0.13930694366104451 0.25375427578794052 0 -0.12648633267218329 0.2374374328555271 0 -0.1132373374395927 0.2482892122623577 0 -0.13930694366104451 0.25375427578794052 0 -0.1409699130620338 0.22714289491561171 0 -0.12648633267218329 0.2374374328555271 0 -0.13930694366104451 0.25375427578794052 0 -0.15833413270530139 0.2385391050354419 0 -0.1409699130620338 0.22714289491561171 0 -0.16192678787326381 0.1411604221552181 0 -0.17247304501528171 0.16022213531101329 0 -0.1558852727511397 0.15695132162027881 0 -0.1713361554927704 0.14334077684452559 0 -0.16192678787326381 0.1411604221552181 0 -0.17247304501528171 0.16022213531101329 0 -0.16192678787326381 0.1411604221552181 0 -0.17247304501528171 0.16022213531101329 0 -0.165646948774546 0.11843447073116969 0 -0.1647512889713186 0.13637189047016421 0 -0.15554477117086929 0.12564914735237839 0 -0.165646948774546 0.11843447073116969 0 -0.1647512889713186 0.13637189047016421 0 -0.17453194704302319 0.12878000077158869 0 -0.16192678787326381 0.1411604221552181 0 -0.1647512889713186 0.13637189047016421 0 -0.14428185282777281 0.1347700723653617 0 -0.1713361554927704 0.14334077684452559 0 -0.16192678787326381 0.1411604221552181 0 -0.1647512889713186 0.13637189047016421 0 -0.18094950569511359 0.11955400565695309 0 -0.191820935418584 0.1327497104462681 0 -0.18522072511486429 0.1379737085749663 0 -0.1713361554927704 0.14334077684452559 0 -0.1647512889713186 0.13637189047016421 0 -0.18522072511486429 0.1379737085749663 0 -0.1647512889713186 0.13637189047016421 0 -0.18522072511486429 0.1379737085749663 0 -0.18094950569511359 0.11955400565695309 0 -0.17453194704302319 0.12878000077158869 0 -0.18522072511486429 0.1379737085749663 0 -0.1647512889713186 0.13637189047016421 0 -0.17453194704302319 0.12878000077158869 0 -0.18522072511486429 0.1379737085749663 0 -0.18094950569511359 0.11955400565695309 0 -0.18522072511486429 0.1379737085749663 0 -0.1882848124020372 0.13821348608798029 0 -0.18522072511486429 0.1379737085749663 0 -0.18038686571984519 0.1443811278673085 0 -0.1874846800136192 0.14773705073950119 0 -0.17750590225812751 0.14847297531024131 0 -0.1713361554927704 0.14334077684452559 0 -0.17750590225812751 0.14847297531024131 0 -0.17247304501528171 0.16022213531101329 0 -0.18522072511486429 0.1379737085749663 0 -0.1874846800136192 0.14773705073950119 0 -0.18522072511486429 0.1379737085749663 0 -0.18038686571984519 0.1443811278673085 0 -0.1874846800136192 0.14773705073950119 0 -0.1882848124020372 0.13821348608798029 0 -0.18522072511486429 0.1379737085749663 0 -0.1874846800136192 0.14773705073950119 0 -0.1713361554927704 0.14334077684452559 0 -0.18038686571984519 0.1443811278673085 0 -0.17750590225812751 0.14847297531024131 0 -0.1713361554927704 0.14334077684452559 0 -0.18522072511486429 0.1379737085749663 0 -0.18038686571984519 0.1443811278673085 0 -0.1874846800136192 0.14773705073950119 0 -0.17750590225812751 0.14847297531024131 0 -0.17247304501528171 0.16022213531101329 0 -0.1874846800136192 0.14773705073950119 0 -0.17247304501528171 0.16022213531101329 0 -0.19224339878474059 0.16825910250510151 0 -0.1874846800136192 0.14773705073950119 0 -0.17247304501528171 0.16022213531101329 0 -0.19224339878474059 0.16825910250510151 0 -0.17247304501528171 0.16022213531101329 0 -0.18601943967026299 0.18470641307242811 0 -0.17247304501528171 0.16022213531101329 0 -0.18601943967026299 0.18470641307242811 0 -0.1708777734939933 0.17739850170737681 0 -0.17247304501528171 0.16022213531101329 0 -0.18601943967026299 0.18470641307242811 0 -0.18601943967026299 0.18470641307242811 0 -0.17559680926750121 0.18647987674638289 0 -0.1708777734939933 0.17739850170737681 0 -0.1682547504311209 0.19360973251447941 0 -0.1546217802962401 0.17506892246979289 0 -0.1682547504311209 0.19360973251447941 0 -0.1532662676507828 0.19077325441796941 0 -0.1546217802962401 0.17506892246979289 0 -0.1682547504311209 0.19360973251447941 0 -0.17559680926750121 0.18647987674638289 0 -0.1708777734939933 0.17739850170737681 0 -0.1682547504311209 0.19360973251447941 0 -0.1708777734939933 0.17739850170737681 0 -0.1546217802962401 0.17506892246979289 0 -0.17247304501528171 0.16022213531101329 0 -0.1558852727511397 0.15695132162027881 0 -0.1546217802962401 0.17506892246979289 0 -0.17247304501528171 0.16022213531101329 0 -0.1546217802962401 0.17506892246979289 0 -0.17247304501528171 0.16022213531101329 0 -0.1708777734939933 0.17739850170737681 0 -0.1546217802962401 0.17506892246979289 0 -0.1558852727511397 0.15695132162027881 0 -0.1546217802962401 0.17506892246979289 0 -0.13921709849023309 0.154118588365177 0 -0.1546217802962401 0.17506892246979289 0 -0.1365706083235784 0.1715954172317791 0 -0.13921709849023309 0.154118588365177 0 -0.1546217802962401 0.17506892246979289 0 -0.13921709849023309 0.154118588365177 0 -0.1532662676507828 0.19077325441796941 0 -0.13905206469341119 0.18801815925028259 0 -0.1546217802962401 0.17506892246979289 0 -0.13905206469341119 0.18801815925028259 0 -0.1546217802962401 0.17506892246979289 0 -0.1365706083235784 0.1715954172317791 0 -0.13905206469341119 0.18801815925028259 0 -0.1546217802962401 0.17506892246979289 0 -0.13905206469341119 0.18801815925028259 0 -0.1237352964109938 0.17670131132742839 0 -0.1187019022991877 0.19002215984854731 0 -0.13905206469341119 0.18801815925028259 0 -0.1365706083235784 0.1715954172317791 0 -0.1237352964109938 0.17670131132742839 0 -0.1365706083235784 0.1715954172317791 0 -0.12622680172701389 0.1640701047462145 0 -0.13921709849023309 0.154118588365177 0 -0.12622680172701389 0.1640701047462145 0 -0.13921709849023309 0.154118588365177 0 -0.1164636076616436 0.1521404113521877 0 -0.1365706083235784 0.1715954172317791 0 -0.12622680172701389 0.1640701047462145 0 -0.1237352964109938 0.17670131132742839 0 -0.13921709849023309 0.154118588365177 0 -0.12381241668422691 0.13316825426056031 0 -0.1164636076616436 0.1521404113521877 0 -0.13921709849023309 0.154118588365177 0 -0.12381241668422691 0.13316825426056031 0 -0.13921709849023309 0.154118588365177 0 -0.14428185282777281 0.1347700723653617 0 -0.12381241668422691 0.13316825426056031 0 -0.13921709849023309 0.154118588365177 0 -0.15032775298560239 0.14675010112650891 0 -0.14428185282777281 0.1347700723653617 0 -0.16192678787326381 0.1411604221552181 0 -0.1558852727511397 0.15695132162027881 0 -0.15032775298560239 0.14675010112650891 0 -0.16192678787326381 0.1411604221552181 0 -0.15032775298560239 0.14675010112650891 0 -0.14428185282777281 0.1347700723653617 0 -0.1558852727511397 0.15695132162027881 0 -0.13921709849023309 0.154118588365177 0 -0.15032775298560239 0.14675010112650891 0 -0.1647512889713186 0.13637189047016421 0 -0.14428185282777281 0.1347700723653617 0 -0.1647512889713186 0.13637189047016421 0 -0.15554477117086929 0.12564914735237839 0 -0.14428185282777281 0.1347700723653617 0 -0.14428185282777281 0.1347700723653617 0 -0.12381241668422691 0.13316825426056031 0 -0.13555127085324509 0.1197277393278956 0 -0.14428185282777281 0.1347700723653617 0 -0.12381241668422691 0.13316825426056031 0 -0.12381241668422691 0.13316825426056031 0 -0.111381703213609 0.1268898013591036 0 -0.1122596530848709 0.1174565206274932 0 -0.12381241668422691 0.13316825426056031 0 -0.1123242140592248 0.13226925485347621 0 -0.12381241668422691 0.13316825426056031 0 -0.1122596530848709 0.1174565206274932 0 -0.12381241668422691 0.13316825426056031 0 -0.1110517048636708 0.13946975719249319 0 -0.1123242140592248 0.13226925485347621 0 -0.1110517048636708 0.13946975719249319 0 -0.1123242140592248 0.13226925485347621 0 -0.1107156811544083 0.13233215200647791 0 -0.12381241668422691 0.13316825426056031 0 -0.1123242140592248 0.13226925485347621 0 -0.111381703213609 0.1268898013591036 0 -0.1123242140592248 0.13226925485347621 0 -0.1107156811544083 0.13233215200647791 0 -0.111381703213609 0.1268898013591036 0 -0.1107156811544083 0.13233215200647791 0 -0.089178858724338561 0.13097171985192929 0 -0.098976796174051251 0.12029000037555899 0 -0.1107156811544083 0.13233215200647791 0 -0.099492872937665511 0.13884543507270669 0 -0.089178858724338561 0.13097171985192929 0 -0.1107156811544083 0.13233215200647791 0 -0.089178858724338561 0.13097171985192929 0 -0.1107156811544083 0.13233215200647791 0 -0.111381703213609 0.1268898013591036 0 -0.098976796174051251 0.12029000037555899 0 -0.1110517048636708 0.13946975719249319 0 -0.1107156811544083 0.13233215200647791 0 -0.099492872937665511 0.13884543507270669 0 -0.1032687722125379 0.1478060095741843 0 -0.1020525931816542 0.1577475492334193 0 -0.090840577498372335 0.14985798092432781 0 -0.099492872937665511 0.13884543507270669 0 -0.1032687722125379 0.1478060095741843 0 -0.090840577498372335 0.14985798092432781 0 -0.1110517048636708 0.13946975719249319 0 -0.099492872937665511 0.13884543507270669 0 -0.1032687722125379 0.1478060095741843 0 -0.1032687722125379 0.1478060095741843 0 -0.1164636076616436 0.1521404113521877 0 -0.1020525931816542 0.1577475492334193 0 -0.12381241668422691 0.13316825426056031 0 -0.1110517048636708 0.13946975719249319 0 -0.1164636076616436 0.1521404113521877 0 -0.1110517048636708 0.13946975719249319 0 -0.1032687722125379 0.1478060095741843 0 -0.1164636076616436 0.1521404113521877 0 -0.12622680172701389 0.1640701047462145 0 -0.1164636076616436 0.1521404113521877 0 -0.11297861954559391 0.16587536692405949 0 -0.12622680172701389 0.1640701047462145 0 -0.11297861954559391 0.16587536692405949 0 -0.1237352964109938 0.17670131132742839 0 -0.1164636076616436 0.1521404113521877 0 -0.11297861954559391 0.16587536692405949 0 -0.1020525931816542 0.1577475492334193 0 -0.1237352964109938 0.17670131132742839 0 -0.112211271212838 0.17890338961624111 0 -0.1187019022991877 0.19002215984854731 0 -0.11297861954559391 0.16587536692405949 0 -0.1237352964109938 0.17670131132742839 0 -0.112211271212838 0.17890338961624111 0 -0.112211271212838 0.17890338961624111 0 -0.1187019022991877 0.19002215984854731 0 -0.1045255199248738 0.19205178715918739 0 -0.1011384063619952 0.17018694150711561 0 -0.085713895169174728 0.17496048919485921 0 -0.10055807916991311 0.19119188640206891 0 -0.1011384063619952 0.17018694150711561 0 -0.1045255199248738 0.19205178715918739 0 -0.10055807916991311 0.19119188640206891 0 -0.1011384063619952 0.17018694150711561 0 -0.1045255199248738 0.19205178715918739 0 -0.112211271212838 0.17890338961624111 0 -0.1011384063619952 0.17018694150711561 0 -0.1045255199248738 0.19205178715918739 0 -0.11297861954559391 0.16587536692405949 0 -0.1020525931816542 0.1577475492334193 0 -0.1011384063619952 0.17018694150711561 0 -0.11297861954559391 0.16587536692405949 0 -0.112211271212838 0.17890338961624111 0 -0.1011384063619952 0.17018694150711561 0 -0.1020525931816542 0.1577475492334193 0 -0.1011384063619952 0.17018694150711561 0 -0.087625575809782544 0.1606185851186413 0 -0.087625575809782544 0.1606185851186413 0 -0.085713895169174728 0.17496048919485921 0 -0.070869711168436406 0.15872909198764951 0 -0.085713895169174728 0.17496048919485921 0 -0.070869711168436406 0.15872909198764951 0 -0.087625575809782544 0.1606185851186413 0 -0.070869711168436406 0.15872909198764951 0 -0.080327040634603997 0.15062934870135611 0 -0.1011384063619952 0.17018694150711561 0 -0.087625575809782544 0.1606185851186413 0 -0.085713895169174728 0.17496048919485921 0 -0.085713895169174728 0.17496048919485921 0 -0.10055807916991311 0.19119188640206891 0 -0.085713895169174728 0.17496048919485921 0 -0.10055807916991311 0.19119188640206891 0 -0.08798140175631447 0.18903758726007591 0 -0.085713895169174728 0.17496048919485921 0 -0.079349943840950538 0.185306542726279 0 -0.072828032970530726 0.17572942929580129 0 -0.085713895169174728 0.17496048919485921 0 -0.079349943840950538 0.185306542726279 0 -0.08798140175631447 0.18903758726007591 0 -0.072828032970530726 0.17572942929580129 0 -0.068098521468996642 0.19011124280595501 0 -0.060736419346617332 0.16777498675267749 0 -0.068098521468996642 0.19011124280595501 0 -0.060736419346617332 0.16777498675267749 0 -0.079349943840950538 0.185306542726279 0 -0.072828032970530726 0.17572942929580129 0 -0.068098521468996642 0.19011124280595501 0 -0.072828032970530726 0.17572942929580129 0 -0.070869711168436406 0.15872909198764951 0 -0.060736419346617332 0.16777498675267749 0 -0.085713895169174728 0.17496048919485921 0 -0.072828032970530726 0.17572942929580129 0 -0.070869711168436406 0.15872909198764951 0 -0.070869711168436406 0.15872909198764951 0 -0.070663575033186682 0.1440141477839538 0 -0.056025527167698257 0.14249769478043969 0 -0.070869711168436406 0.15872909198764951 0 -0.056025527167698257 0.14249769478043969 0 -0.070869711168436406 0.15872909198764951 0 -0.070663575033186682 0.1440141477839538 0 -0.080327040634603997 0.15062934870135611 0 -0.070663575033186682 0.1440141477839538 0 -0.081635763663242017 0.1399269376922079 0 -0.080327040634603997 0.15062934870135611 0 -0.070663575033186682 0.1440141477839538 0 -0.067642036294268848 0.12961128769738181 0 -0.056025527167698257 0.14249769478043969 0 -0.067642036294268848 0.12961128769738181 0 -0.067590993058720891 0.1254124308508304 0 -0.070216716689920355 0.1227339065238708 0 -0.067642036294268848 0.12961128769738181 0 -0.067590993058720891 0.1254124308508304 0 -0.064269202538017628 0.122862251816772 0 -0.067642036294268848 0.12961128769738181 0 -0.070216716689920355 0.1227339065238708 0 -0.079987968592669184 0.1227003892801261 0 -0.070663575033186682 0.1440141477839538 0 -0.067642036294268848 0.12961128769738181 0 -0.081635763663242017 0.1399269376922079 0 -0.067642036294268848 0.12961128769738181 0 -0.089178858724338561 0.13097171985192929 0 -0.079987968592669184 0.1227003892801261 0 -0.067642036294268848 0.12961128769738181 0 -0.089178858724338561 0.13097171985192929 0 -0.067642036294268848 0.12961128769738181 0 -0.089178858724338561 0.13097171985192929 0 -0.081635763663242017 0.1399269376922079 0 -0.099492872937665511 0.13884543507270669 0 -0.089178858724338561 0.13097171985192929 0 -0.081635763663242017 0.1399269376922079 0 -0.099492872937665511 0.13884543507270669 0 -0.081635763663242017 0.1399269376922079 0 -0.090840577498372335 0.14985798092432781 0 -0.1020525931816542 0.1577475492334193 0 -0.087625575809782544 0.1606185851186413 0 -0.090840577498372335 0.14985798092432781 0 -0.087625575809782544 0.1606185851186413 0 -0.090840577498372335 0.14985798092432781 0 -0.080327040634603997 0.15062934870135611 0 -0.081635763663242017 0.1399269376922079 0 -0.090840577498372335 0.14985798092432781 0 -0.080327040634603997 0.15062934870135611 0 -0.1139546125557739 0.25291944074870898 0 -0.095899470041642246 0.24465461395185101 0 -0.095899470041642246 0.24465461395185101 0 -0.1024198819976649 0.23699364107716361 0 -0.1132373374395927 0.2482892122623577 0 -0.1139546125557739 0.25291944074870898 0 -0.095899470041642246 0.24465461395185101 0 -0.1132373374395927 0.2482892122623577 0 -0.095899470041642246 0.24465461395185101 0 -0.1132373374395927 0.2482892122623577 0 -0.1024198819976649 0.23699364107716361 0 -0.1132373374395927 0.2482892122623577 0 -0.11057498546367189 0.23110292253680861 0 -0.095899470041642246 0.24465461395185101 0 -0.1024198819976649 0.23699364107716361 0 -0.09216809768224403 0.23602823456452959 0 -0.12648633267218329 0.2374374328555271 0 -0.1132373374395927 0.2482892122623577 0 -0.11057498546367189 0.23110292253680861 0 -0.1132373374395927 0.2482892122623577 0 -0.11057498546367189 0.23110292253680861 0 -0.12648633267218329 0.2374374328555271 0 -0.11057498546367189 0.23110292253680861 0 -0.123817973102626 0.2202036132319922 0 -0.11057498546367189 0.23110292253680861 0 -0.123817973102626 0.2202036132319922 0 -0.10791263348775131 0.21391663281125939 0 -0.11057498546367189 0.23110292253680861 0 -0.095367679600752778 0.22435019386188421 0 -0.10791263348775131 0.21391663281125939 0 -0.095367679600752778 0.22435019386188421 0 -0.10791263348775131 0.21391663281125939 0 -0.11057498546367189 0.23110292253680861 0 -0.10791263348775131 0.21391663281125939 0 -0.1024198819976649 0.23699364107716361 0 -0.11057498546367189 0.23110292253680861 0 -0.095367679600752778 0.22435019386188421 0 -0.1024198819976649 0.23699364107716361 0 -0.095367679600752778 0.22435019386188421 0 -0.09216809768224403 0.23602823456452959 0 -0.096495060594929488 0.2141752400979379 0 -0.097410313711887575 0.2059912706469986 0 -0.10791263348775131 0.21391663281125939 0 -0.095367679600752778 0.22435019386188421 0 -0.096495060594929488 0.2141752400979379 0 -0.10791263348775131 0.21391663281125939 0 -0.096495060594929488 0.2141752400979379 0 -0.097410313711887575 0.2059912706469986 0 -0.088201710689619767 0.20801581780479639 0 -0.097410313711887575 0.2059912706469986 0 -0.10791263348775131 0.21391663281125939 0 -0.1006384190395489 0.19968436738207901 0 -0.123817973102626 0.2202036132319922 0 -0.10791263348775131 0.21391663281125939 0 -0.12348234909058051 0.20096739603077021 0 -0.10791263348775131 0.21391663281125939 0 -0.11318558685695709 0.19967050334917899 0 -0.12348234909058051 0.20096739603077021 0 -0.10791263348775131 0.21391663281125939 0 -0.12348234909058051 0.20096739603077021 0 -0.11318558685695709 0.19967050334917899 0 -0.12348234909058051 0.20096739603077021 0 -0.1187019022991877 0.19002215984854731 0 -0.11318558685695709 0.19967050334917899 0 -0.1187019022991877 0.19002215984854731 0 -0.1045255199248738 0.19205178715918739 0 -0.10791263348775131 0.21391663281125939 0 -0.1045255199248738 0.19205178715918739 0 -0.10791263348775131 0.21391663281125939 0 -0.11318558685695709 0.19967050334917899 0 -0.1045255199248738 0.19205178715918739 0 -0.1045255199248738 0.19205178715918739 0 -0.1006384190395489 0.19968436738207901 0 -0.10055807916991311 0.19119188640206891 0 -0.10791263348775131 0.21391663281125939 0 -0.1045255199248738 0.19205178715918739 0 -0.1006384190395489 0.19968436738207901 0 -0.097410313711887575 0.2059912706469986 0 -0.1006384190395489 0.19968436738207901 0 -0.092780232900995796 0.19861275827006711 0 -0.1006384190395489 0.19968436738207901 0 -0.10055807916991311 0.19119188640206891 0 -0.092780232900995796 0.19861275827006711 0 -0.10055807916991311 0.19119188640206891 0 -0.08798140175631447 0.18903758726007591 0 -0.092780232900995796 0.19861275827006711 0 -0.08798140175631447 0.18903758726007591 0 -0.092780232900995796 0.19861275827006711 0 -0.082127867839736149 0.1966939650747036 0 -0.092780232900995796 0.19861275827006711 0 -0.082127867839736149 0.1966939650747036 0 -0.088201710689619767 0.20801581780479639 0 -0.079349943840950538 0.185306542726279 0 -0.08798140175631447 0.18903758726007591 0 -0.082127867839736149 0.1966939650747036 0 -0.079349943840950538 0.185306542726279 0 -0.082127867839736149 0.1966939650747036 0 -0.068098521468996642 0.19011124280595501 0 -0.068098521468996642 0.19011124280595501 0 -0.075460623591375967 0.2124474988592327 0 -0.082127867839736149 0.1966939650747036 0 -0.068098521468996642 0.19011124280595501 0 -0.075460623591375967 0.2124474988592327 0 -0.068098521468996642 0.19011124280595501 0 -0.075460623591375967 0.2124474988592327 0 -0.058166415853446847 0.20848692501919591 0 -0.075460623591375967 0.2124474988592327 0 -0.064447747308749193 0.23025743926067499 0 -0.058166415853446847 0.20848692501919591 0 -0.075460623591375967 0.2124474988592327 0 -0.088201710689619767 0.20801581780479639 0 -0.087669560038086722 0.21875450110727229 0 -0.082127867839736149 0.1966939650747036 0 -0.075460623591375967 0.2124474988592327 0 -0.088201710689619767 0.20801581780479639 0 -0.097410313711887575 0.2059912706469986 0 -0.092780232900995796 0.19861275827006711 0 -0.088201710689619767 0.20801581780479639 0 -0.096495060594929488 0.2141752400979379 0 -0.088201710689619767 0.20801581780479639 0 -0.087669560038086722 0.21875450110727229 0 -0.075460623591375967 0.2124474988592327 0 -0.08282272571375543 0.2347837549125103 0 -0.075460623591375967 0.2124474988592327 0 -0.087669560038086722 0.21875450110727229 0 -0.08282272571375543 0.2347837549125103 0 -0.095367679600752778 0.22435019386188421 0 -0.087669560038086722 0.21875450110727229 0 -0.08282272571375543 0.2347837549125103 0 -0.095367679600752778 0.22435019386188421 0 -0.096495060594929488 0.2141752400979379 0 -0.087669560038086722 0.21875450110727229 0 -0.095367679600752778 0.22435019386188421 0 -0.08282272571375543 0.2347837549125103 0 -0.09216809768224403 0.23602823456452959 0 -0.095367679600752778 0.22435019386188421 0 -0.08282272571375543 0.2347837549125103 0 -0.074722171638248472 0.2281080878798771 0 -0.079809873865678366 0.23728952527855329 0 -0.08282272571375543 0.2347837549125103 0 -0.075460623591375967 0.2124474988592327 0 -0.074722171638248472 0.2281080878798771 0 -0.08282272571375543 0.2347837549125103 0 -0.075460623591375967 0.2124474988592327 0 -0.064447747308749193 0.23025743926067499 0 -0.074722171638248472 0.2281080878798771 0 -0.064447747308749193 0.23025743926067499 0 -0.079809873865678366 0.23728952527855329 0 -0.064447747308749193 0.23025743926067499 0 -0.074722171638248472 0.2281080878798771 0 -0.079809873865678366 0.23728952527855329 0 -0.075976142101070843 0.24047801642631211 0 -0.066844302080345003 0.23856367658570671 0 -0.069056986348909832 0.24623263574251739 0 -0.075976142101070843 0.24047801642631211 0 -0.066844302080345003 0.23856367658570671 0 -0.079809873865678366 0.23728952527855329 0 -0.064447747308749193 0.23025743926067499 0 -0.066844302080345003 0.23856367658570671 0 -0.079809873865678366 0.23728952527855329 0 -0.075976142101070843 0.24047801642631211 0 -0.066844302080345003 0.23856367658570671 0 -0.075976142101070843 0.24047801642631211 0 -0.079809873865678366 0.23728952527855329 0 -0.064447747308749193 0.23025743926067499 0 -0.066844302080345003 0.23856367658570671 0 -0.066844302080345003 0.23856367658570671 0 -0.069056986348909832 0.24623263574251739 0 -0.053727016073584467 0.24549115984460171 0 -0.066844302080345003 0.23856367658570671 0 -0.069056986348909832 0.24623263574251739 0 -0.075976142101070843 0.24047801642631211 0 -0.069056986348909832 0.24623263574251739 0 -0.080161358985251369 0.24910441659422339 0 -0.075976142101070843 0.24047801642631211 0 -0.069056986348909832 0.24623263574251739 0 -0.075976142101070843 0.24047801642631211 0 -0.080161358985251369 0.24910441659422339 0 -0.085347064928283617 0.24244247603913011 0 -0.087846419425038916 0.25002539475982699 0 -0.080161358985251369 0.24910441659422339 0 -0.085347064928283617 0.24244247603913011 0 -0.075976142101070843 0.24047801642631211 0 -0.079809873865678366 0.23728952527855329 0 -0.084330731057407932 0.2393589690192372 0 -0.075976142101070843 0.24047801642631211 0 -0.085347064928283617 0.24244247603913011 0 -0.075976142101070843 0.24047801642631211 0 -0.085347064928283617 0.24244247603913011 0 -0.084330731057407932 0.2393589690192372 0 -0.079809873865678366 0.23728952527855329 0 -0.08282272571375543 0.2347837549125103 0 -0.079809873865678366 0.23728952527855329 0 -0.08282272571375543 0.2347837549125103 0 -0.084330731057407932 0.2393589690192372 0 -0.08282272571375543 0.2347837549125103 0 -0.084330731057407932 0.2393589690192372 0 -0.079809873865678366 0.23728952527855329 0 -0.084330731057407932 0.2393589690192372 0 -0.085347064928283617 0.24244247603913011 0 -0.084330731057407932 0.2393589690192372 0 -0.095899470041642246 0.24465461395185101 0 -0.084330731057407932 0.2393589690192372 0 -0.08282272571375543 0.2347837549125103 0 -0.084330731057407932 0.2393589690192372 0 -0.09216809768224403 0.23602823456452959 0 -0.095899470041642246 0.24465461395185101 0 -0.085347064928283617 0.24244247603913011 0 -0.084330731057407932 0.2393589690192372 0 -0.095899470041642246 0.24465461395185101 0 -0.084330731057407932 0.2393589690192372 0 -0.09216809768224403 0.23602823456452959 0 -0.087846419425038916 0.25002539475982699 0 -0.095899470041642246 0.24465461395185101 0 -0.085347064928283617 0.24244247603913011 0 -0.095899470041642246 0.24465461395185101 0 -0.085347064928283617 0.24244247603913011 0 -0.087846419425038916 0.25002539475982699 0 -0.091944161823561771 0.25465332983941341 0 -0.095899470041642246 0.24465461395185101 0 -0.087846419425038916 0.25002539475982699 0 -0.085347064928283617 0.24244247603913011 0 -0.037505058957649627 0.2424167145473391 0 -0.044496305465871473 0.2338787872118353 0 -0.028420522582991801 0.23895545322445819 0 -0.037505058957649627 0.2424167145473391 0 -0.053727016073584467 0.24549115984460171 0 -0.044496305465871473 0.2338787872118353 0 -0.040614352755267667 0.25721351647262058 0 -0.037505058957649627 0.2424167145473391 0 -0.053727016073584467 0.24549115984460171 0 -0.066844302080345003 0.23856367658570671 0 -0.044496305465871473 0.2338787872118353 0 -0.066844302080345003 0.23856367658570671 0 -0.053727016073584467 0.24549115984460171 0 -0.044496305465871473 0.2338787872118353 0 -0.064447747308749193 0.23025743926067499 0 -0.04027081764832921 0.2191903354720148 0 -0.064447747308749193 0.23025743926067499 0 -0.066844302080345003 0.23856367658570671 0 -0.044496305465871473 0.2338787872118353 0 -0.064447747308749193 0.23025743926067499 0 -0.058166415853446847 0.20848692501919591 0 -0.064447747308749193 0.23025743926067499 0 -0.04027081764832921 0.2191903354720148 0 -0.044496305465871473 0.2338787872118353 0 -0.064447747308749193 0.23025743926067499 0 -0.04027081764832921 0.2191903354720148 0 -0.058166415853446847 0.20848692501919591 0 -0.044496305465871473 0.2338787872118353 0 -0.0221483088513964 0.2291938978379712 0 -0.04027081764832921 0.2191903354720148 0 -0.044496305465871473 0.2338787872118353 0 -0.0221483088513964 0.2291938978379712 0 -0.044496305465871473 0.2338787872118353 0 -0.0221483088513964 0.2291938978379712 0 -0.028420522582991801 0.23895545322445819 0 -0.04027081764832921 0.2191903354720148 0 -0.058166415853446847 0.20848692501919591 0 -0.0414262441511839 0.20013582025559251 0 -0.04027081764832921 0.2191903354720148 0 -0.031813010903851517 0.20561420870843031 0 -0.0414262441511839 0.20013582025559251 0 -0.058166415853446847 0.20848692501919591 0 -0.0414262441511839 0.20013582025559251 0 -0.051885084398137729 0.18671641077771869 0 -0.068098521468996642 0.19011124280595501 0 -0.058166415853446847 0.20848692501919591 0 -0.051885084398137729 0.18671641077771869 0 -0.058166415853446847 0.20848692501919591 0 -0.051885084398137729 0.18671641077771869 0 -0.0414262441511839 0.20013582025559251 0 -0.051885084398137729 0.18671641077771869 0 -0.03329204465070152 0.1847192225785694 0 -0.031813010903851517 0.20561420870843031 0 -0.0414262441511839 0.20013582025559251 0 -0.030987248196313492 0.1964696124683554 0 -0.0414262441511839 0.20013582025559251 0 -0.030987248196313492 0.1964696124683554 0 -0.03329204465070152 0.1847192225785694 0 -0.023795941354249731 0.19113744292540721 0 -0.01532344449188673 0.18764926318830591 0 -0.03329204465070152 0.1847192225785694 0 -0.023795941354249731 0.19113744292540721 0 -0.030987248196313492 0.1964696124683554 0 -0.03329204465070152 0.1847192225785694 0 -0.031813010903851517 0.20561420870843031 0 -0.030987248196313492 0.1964696124683554 0 -0.023873526266925429 0.20029957049177499 0 -0.023795941354249731 0.19113744292540721 0 -0.030987248196313492 0.1964696124683554 0 -0.023873526266925429 0.20029957049177499 0 -0.023873526266925429 0.20029957049177499 0 -0.016542707726507861 0.19724888188488371 0 -0.016093887987911792 0.20812323168334859 0 -0.023795941354249731 0.19113744292540721 0 -0.023873526266925429 0.20029957049177499 0 -0.016542707726507861 0.19724888188488371 0 -0.023795941354249731 0.19113744292540721 0 -0.016542707726507861 0.19724888188488371 0 -0.017603783108736091 0.19202442234777159 0 -0.016542707726507861 0.19724888188488371 0 -0.017603783108736091 0.19202442234777159 0 -0.01475303886230005 0.19206210139248939 0 -0.023795941354249731 0.19113744292540721 0 -0.017603783108736091 0.19202442234777159 0 -0.01532344449188673 0.18764926318830591 0 -0.017603783108736091 0.19202442234777159 0 -0.01532344449188673 0.18764926318830591 0 -0.01475303886230005 0.19206210139248939 0 -0.01475303886230005 0.19206210139248939 0 -0.01136205739571867 0.18819944689317331 0 -0.001589346560153329 0.20148370931046791 0 -0.01532344449188673 0.18764926318830591 0 -0.01475303886230005 0.19206210139248939 0 -0.01136205739571867 0.18819944689317331 0 -0.0066629366953797724 0.18999833803222901 0 -0.001589346560153329 0.20148370931046791 0 0.0017311615861355901 0.19160618149517469 0 -0.01136205739571867 0.18819944689317331 0 -0.001589346560153329 0.20148370931046791 0 -0.01136205739571867 0.18819944689317331 0 -0.0066629366953797724 0.18999833803222901 0 -0.001589346560153329 0.20148370931046791 0 -0.016542707726507861 0.19724888188488371 0 -0.001589346560153329 0.20148370931046791 0 -0.016093887987911792 0.20812323168334859 0 -0.016542707726507861 0.19724888188488371 0 -0.01475303886230005 0.19206210139248939 0 -0.001589346560153329 0.20148370931046791 0 -0.016093887987911792 0.20812323168334859 0 0.00019968776307876379 0.22450900846410751 0 -0.001589346560153329 0.20148370931046791 0 -0.016093887987911792 0.20812323168334859 0 0.00019968776307876379 0.22450900846410751 0 -0.001589346560153329 0.20148370931046791 0 -0.016093887987911792 0.20812323168334859 0 -0.04027081764832921 0.2191903354720148 0 -0.016093887987911792 0.20812323168334859 0 -0.031813010903851517 0.20561420870843031 0 -0.023873526266925429 0.20029957049177499 0 -0.016093887987911792 0.20812323168334859 0 -0.04027081764832921 0.2191903354720148 0 -0.031813010903851517 0.20561420870843031 0 -0.016093887987911792 0.20812323168334859 0 -0.023873526266925429 0.20029957049177499 0 -0.016093887987911792 0.20812323168334859 0 -0.04027081764832921 0.2191903354720148 0 -0.016093887987911792 0.20812323168334859 0 -0.0221483088513964 0.2291938978379712 0 -0.0221483088513964 0.2291938978379712 0 -0.015366227920990421 0.23960540924605911 0 0.00019968776307876379 0.22450900846410751 0 -0.0221483088513964 0.2291938978379712 0 0.00019968776307876379 0.22450900846410751 0 -0.016093887987911792 0.20812323168334859 0 -0.0221483088513964 0.2291938978379712 0 0.00019968776307876379 0.22450900846410751 0 -0.0056995695430253424 0.24881063984595411 0 -0.015366227920990421 0.23960540924605911 0 0.00019968776307876379 0.22450900846410751 0 -0.0056995695430253424 0.24881063984595411 0 -0.015366227920990421 0.23960540924605911 0 -0.02258671171905104 0.24968245727908639 0 -0.015366227920990421 0.23960540924605911 0 -0.02258671171905104 0.24968245727908639 0 -0.028420522582991801 0.23895545322445819 0 -0.0221483088513964 0.2291938978379712 0 -0.015366227920990421 0.23960540924605911 0 -0.028420522582991801 0.23895545322445819 0 -0.037505058957649627 0.2424167145473391 0 -0.02258671171905104 0.24968245727908639 0 -0.028420522582991801 0.23895545322445819 0 -0.037794951491563283 0.15097297922838671 0 -0.053374317224237133 0.14543873069940019 0 -0.034348880858061218 0.16654399694385241 0 -0.053374317224237133 0.14543873069940019 0 -0.034348880858061218 0.16654399694385241 0 -0.042517926161546288 0.14385908400083369 0 -0.037794951491563283 0.15097297922838671 0 -0.053374317224237133 0.14543873069940019 0 -0.042517926161546288 0.14385908400083369 0 -0.04388784808544488 0.1372274983754932 0 -0.048032944448651117 0.14099981993615601 0 -0.037794951491563283 0.15097297922838671 0 -0.0340459037102714 0.14609610363630979 0 -0.024687729503699438 0.1529269808615375 0 -0.042517926161546288 0.14385908400083369 0 -0.0340459037102714 0.14609610363630979 0 -0.03611223596052808 0.1376963078325561 0 -0.042517926161546288 0.14385908400083369 0 -0.037794951491563283 0.15097297922838671 0 -0.0340459037102714 0.14609610363630979 0 -0.0340459037102714 0.14609610363630979 0 -0.03611223596052808 0.1376963078325561 0 -0.028181735552292149 0.14066712910211501 0 -0.041393994417723429 0.1279532585113777 0 -0.040195452045668698 0.1328877825938366 0 -0.025129262899167271 0.1269258523647766 0 -0.041393994417723429 0.1279532585113777 0 -0.025129262899167271 0.1269258523647766 0 -0.03611223596052808 0.1376963078325561 0 -0.040195452045668698 0.1328877825938366 0 -0.025129262899167271 0.1269258523647766 0 -0.041393994417723429 0.1279532585113777 0 -0.044713442163284621 0.13104473062847549 0 -0.040195452045668698 0.1328877825938366 0 -0.041393994417723429 0.1279532585113777 0 -0.044713442163284621 0.13104473062847549 0 -0.047743242292869907 0.12835432607807981 0 -0.041393994417723429 0.1279532585113777 0 -0.044713442163284621 0.13104473062847549 0 -0.041393994417723429 0.1279532585113777 0 -0.047743242292869907 0.12835432607807981 0 -0.042517926161546288 0.14385908400083369 0 -0.03611223596052808 0.1376963078325561 0 -0.04388784808544488 0.1372274983754932 0 -0.03611223596052808 0.1376963078325561 0 -0.040195452045668698 0.1328877825938366 0 -0.04388784808544488 0.1372274983754932 0 -0.044713442163284621 0.13104473062847549 0 -0.040195452045668698 0.1328877825938366 0 -0.04388784808544488 0.1372274983754932 0 -0.044713442163284621 0.13104473062847549 0 -0.04388784808544488 0.1372274983754932 0 -0.050364779434270403 0.13630794093836229 0 -0.04388784808544488 0.1372274983754932 0 -0.050364779434270403 0.13630794093836229 0 -0.048032944448651117 0.14099981993615601 0 -0.067642036294268848 0.12961128769738181 0 -0.050364779434270403 0.13630794093836229 0 -0.056025527167698257 0.14249769478043969 0 -0.067642036294268848 0.12961128769738181 0 -0.050364779434270403 0.13630794093836229 0 -0.047743242292869907 0.12835432607807981 0 -0.067642036294268848 0.12961128769738181 0 -0.047743242292869907 0.12835432607807981 0 -0.067642036294268848 0.12961128769738181 0 -0.047743242292869907 0.12835432607807981 0 -0.064269202538017628 0.122862251816772 0 -0.044713442163284621 0.13104473062847549 0 -0.050364779434270403 0.13630794093836229 0 -0.050364779434270403 0.13630794093836229 0 -0.056025527167698257 0.14249769478043969 0 -0.044713442163284621 0.13104473062847549 0 -0.050364779434270403 0.13630794093836229 0 -0.047743242292869907 0.12835432607807981 0 -0.050364779434270403 0.13630794093836229 0 -0.047743242292869907 0.12835432607807981 0 -0.067642036294268848 0.12961128769738181 0 -0.056025527167698257 0.14249769478043969 0 -0.070869711168436406 0.15872909198764951 0 -0.056025527167698257 0.14249769478043969 0 -0.053374317224237133 0.14543873069940019 0 -0.056025527167698257 0.14249769478043969 0 -0.053374317224237133 0.14543873069940019 0 -0.050364779434270403 0.13630794093836229 0 -0.053374317224237133 0.14543873069940019 0 -0.042517926161546288 0.14385908400083369 0 -0.053374317224237133 0.14543873069940019 0 -0.048032944448651117 0.14099981993615601 0 -0.050364779434270403 0.13630794093836229 0 -0.053374317224237133 0.14543873069940019 0 -0.048032944448651117 0.14099981993615601 0 -0.050364779434270403 0.13630794093836229 0 -0.056025527167698257 0.14249769478043969 0 -0.053374317224237133 0.14543873069940019 0 -0.053374317224237133 0.14543873069940019 0 -0.060736419346617332 0.16777498675267749 0 -0.053374317224237133 0.14543873069940019 0 -0.060736419346617332 0.16777498675267749 0 -0.049150589312562797 0.16329662447370219 0 -0.070869711168436406 0.15872909198764951 0 -0.053374317224237133 0.14543873069940019 0 -0.060736419346617332 0.16777498675267749 0 -0.060736419346617332 0.16777498675267749 0 -0.049150589312562797 0.16329662447370219 0 -0.047937253390629923 0.17418849014703389 0 -0.068098521468996642 0.19011124280595501 0 -0.057164319651095398 0.17969778262084629 0 -0.051885084398137729 0.18671641077771869 0 -0.068098521468996642 0.19011124280595501 0 -0.060736419346617332 0.16777498675267749 0 -0.057164319651095398 0.17969778262084629 0 -0.060736419346617332 0.16777498675267749 0 -0.057164319651095398 0.17969778262084629 0 -0.047937253390629923 0.17418849014703389 0 -0.057164319651095398 0.17969778262084629 0 -0.047937253390629923 0.17418849014703389 0 -0.051885084398137729 0.18671641077771869 0 -0.047937253390629923 0.17418849014703389 0 -0.03329204465070152 0.1847192225785694 0 -0.034348880858061218 0.16654399694385241 0 -0.047937253390629923 0.17418849014703389 0 -0.051885084398137729 0.18671641077771869 0 -0.03329204465070152 0.1847192225785694 0 -0.053374317224237133 0.14543873069940019 0 -0.049150589312562797 0.16329662447370219 0 -0.034348880858061218 0.16654399694385241 0 -0.049150589312562797 0.16329662447370219 0 -0.047937253390629923 0.17418849014703389 0 -0.034348880858061218 0.16654399694385241 0 -0.037794951491563283 0.15097297922838671 0 -0.034348880858061218 0.16654399694385241 0 -0.024687729503699438 0.1529269808615375 0 -0.034348880858061218 0.16654399694385241 0 -0.018841043436444271 0.1629092472088933 0 -0.024687729503699438 0.1529269808615375 0 -0.034348880858061218 0.16654399694385241 0 -0.018841043436444271 0.1629092472088933 0 -0.021574988280812779 0.1763973923547027 0 -0.018841043436444271 0.1629092472088933 0 -0.021574988280812779 0.1763973923547027 0 -0.0090614930587861481 0.17120137051503201 0 -0.01532344449188673 0.18764926318830591 0 -0.034348880858061218 0.16654399694385241 0 -0.021574988280812779 0.1763973923547027 0 -0.01532344449188673 0.18764926318830591 0 -0.034348880858061218 0.16654399694385241 0 -0.01532344449188673 0.18764926318830591 0 -0.03329204465070152 0.1847192225785694 0 -0.034348880858061218 0.16654399694385241 0 -0.01532344449188673 0.18764926318830591 0 -0.01136205739571867 0.18819944689317331 0 -0.021574988280812779 0.1763973923547027 0 -0.01136205739571867 0.18819944689317331 0 -0.021574988280812779 0.1763973923547027 0 -0.01136205739571867 0.18819944689317331 0 -0.0066629366953797724 0.18999833803222901 0 0.01344576801394029 0.18333649714282829 0 -0.01136205739571867 0.18819944689317331 0 -0.021574988280812779 0.1763973923547027 0 -0.0087171138724231531 0.1796617750013334 0 -0.021574988280812779 0.1763973923547027 0 -0.0087171138724231531 0.1796617750013334 0 -0.0090614930587861481 0.17120137051503201 0 -0.0087171138724231531 0.1796617750013334 0 -0.001324430570601732 0.1741405339803169 0 -0.0090614930587861481 0.17120137051503201 0 -0.0087171138724231531 0.1796617750013334 0 -0.001324430570601732 0.1741405339803169 0 -0.00051260274126067287 0.18121067213763981 0 -0.01136205739571867 0.18819944689317331 0 -0.0087171138724231531 0.1796617750013334 0 -0.00051260274126067287 0.18121067213763981 0 -0.018841043436444271 0.1629092472088933 0 -0.0081316537854729861 0.15837712695760689 0 -0.014758050703267149 0.1509602879690698 0 -0.018841043436444271 0.1629092472088933 0 -0.0081316537854729861 0.15837712695760689 0 -0.0090614930587861481 0.17120137051503201 0 -0.0081316537854729861 0.15837712695760689 0 -0.0090614930587861481 0.17120137051503201 0 -0.00070541203608843984 0.1630392700939233 0 -0.001324430570601732 0.1741405339803169 0 -0.0090614930587861481 0.17120137051503201 0 -0.00070541203608843984 0.1630392700939233 0 -0.0081316537854729861 0.15837712695760689 0 -0.00070541203608843984 0.1630392700939233 0 0.0011711219489800449 0.15271394953975989 0 -0.0081316537854729861 0.15837712695760689 0 -0.0065950454272319589 0.14943863641896299 0 0.0011711219489800449 0.15271394953975989 0 -0.0065950454272319589 0.14943863641896299 0 -0.00097805911919941865 0.1419087685033614 0 -0.01043528733087414 0.14159549761637719 0 -0.0065950454272319589 0.14943863641896299 0 -0.00097805911919941865 0.1419087685033614 0 0.0011711219489800449 0.15271394953975989 0 -0.01043528733087414 0.14159549761637719 0 -0.014758050703267149 0.1509602879690698 0 -0.019903241487262961 0.1407520500796989 0 -0.0065950454272319589 0.14943863641896299 0 -0.01043528733087414 0.14159549761637719 0 -0.014758050703267149 0.1509602879690698 0 -0.0081316537854729861 0.15837712695760689 0 -0.0065950454272319589 0.14943863641896299 0 -0.014758050703267149 0.1509602879690698 0 -0.018841043436444271 0.1629092472088933 0 -0.014758050703267149 0.1509602879690698 0 -0.024687729503699438 0.1529269808615375 0 -0.014758050703267149 0.1509602879690698 0 -0.019903241487262961 0.1407520500796989 0 -0.024687729503699438 0.1529269808615375 0 -0.0340459037102714 0.14609610363630979 0 -0.028181735552292149 0.14066712910211501 0 -0.024687729503699438 0.1529269808615375 0 -0.019903241487262961 0.1407520500796989 0 -0.028181735552292149 0.14066712910211501 0 -0.024687729503699438 0.1529269808615375 0 -0.019903241487262961 0.1407520500796989 0 -0.028181735552292149 0.14066712910211501 0 -0.025129262899167271 0.1269258523647766 0 -0.03611223596052808 0.1376963078325561 0 -0.028181735552292149 0.14066712910211501 0 -0.025129262899167271 0.1269258523647766 0 -0.019903241487262961 0.1407520500796989 0 -0.025129262899167271 0.1269258523647766 0 -0.013740091926029039 0.1313373952414193 0 -0.025129262899167271 0.1269258523647766 0 -0.013740091926029039 0.1313373952414193 0 -0.01278459587341294 0.1205260062236844 0 -0.013740091926029039 0.1313373952414193 0 -0.0054084845452745988 0.1249371053928276 0 -0.01278459587341294 0.1205260062236844 0 -0.013740091926029039 0.1313373952414193 0 -0.0052693219901578346 0.1337219935135508 0 -0.0054084845452745988 0.1249371053928276 0 -0.01043528733087414 0.14159549761637719 0 -0.019903241487262961 0.1407520500796989 0 -0.013740091926029039 0.1313373952414193 0 -0.01043528733087414 0.14159549761637719 0 -0.013740091926029039 0.1313373952414193 0 -0.0052693219901578346 0.1337219935135508 0 -0.00097805911919941865 0.1419087685033614 0 -0.0052693219901578346 0.1337219935135508 0 0.0059239200155680044 0.1300880145081178 0 -0.00097805911919941865 0.1419087685033614 0 -0.01043528733087414 0.14159549761637719 0 -0.0052693219901578346 0.1337219935135508 0 -0.0052693219901578346 0.1337219935135508 0 -0.0054084845452745988 0.1249371053928276 0 0.0059239200155680044 0.1300880145081178 0 -0.0054084845452745988 0.1249371053928276 0 -0.0069681455254653928 0.11595865654167439 0 0.00161899537904374 0.1187473658997415 0 -0.0054084845452745988 0.1249371053928276 0 -0.01278459587341294 0.1205260062236844 0 -0.0069681455254653928 0.11595865654167439 0 -0.01278459587341294 0.1205260062236844 0 -0.014010532302401549 0.11486886439061519 0 -0.01870450414101154 0.1183349840377 0 -0.014010532302401549 0.11486886439061519 0 -0.0089300856766541259 0.1082137598020091 0 -0.022284838306129331 0.11179708564181461 0 -0.01278459587341294 0.1205260062236844 0 -0.014010532302401549 0.11486886439061519 0 -0.0069681455254653928 0.11595865654167439 0 -0.014010532302401549 0.11486886439061519 0 -0.0069681455254653928 0.11595865654167439 0 -0.0089300856766541259 0.1082137598020091 0 -0.0069681455254653928 0.11595865654167439 0 -0.001333648451441927 0.1109504403439602 0 -0.0089300856766541259 0.1082137598020091 0 -0.0069681455254653928 0.11595865654167439 0 -0.001333648451441927 0.1109504403439602 0 0.00161899537904374 0.1187473658997415 0 -0.001069719932619818 0.1036219918733553 0 -0.003175682194534461 0.095640912772252423 0 -0.0089300856766541259 0.1082137598020091 0 -0.003175682194534461 0.095640912772252423 0 -0.0089300856766541259 0.1082137598020091 0 -0.022284838306129331 0.11179708564181461 0 -0.003175682194534461 0.095640912772252423 0 -0.01340288624808232 0.095891898547238869 0 -0.022284838306129331 0.11179708564181461 0 -0.001333648451441927 0.1109504403439602 0 -0.001069719932619818 0.1036219918733553 0 -0.0089300856766541259 0.1082137598020091 0 -0.003175682194534461 0.095640912772252423 0 -0.022284838306129331 0.11179708564181461 0 -0.01340288624808232 0.095891898547238869 0 -0.027214195584354312 0.097159476144461646 0 -0.028104283197050071 0.1119671650197972 0 -0.01340288624808232 0.095891898547238869 0 -0.028104283197050071 0.1119671650197972 0 -0.022284838306129331 0.11179708564181461 0 -0.01340288624808232 0.095891898547238869 0 -0.028104283197050071 0.1119671650197972 0 -0.027214195584354312 0.097159476144461646 0 -0.028104283197050071 0.1119671650197972 0 -0.036175706912119548 0.10309692989847651 0 -0.041393994417723429 0.1279532585113777 0 -0.028104283197050071 0.1119671650197972 0 -0.022284838306129331 0.11179708564181461 0 -0.041393994417723429 0.1279532585113777 0 -0.025129262899167271 0.1269258523647766 0 -0.022284838306129331 0.11179708564181461 0 -0.025129262899167271 0.1269258523647766 0 -0.01278459587341294 0.1205260062236844 0 -0.01870450414101154 0.1183349840377 0 -0.025129262899167271 0.1269258523647766 0 -0.01870450414101154 0.1183349840377 0 -0.022284838306129331 0.11179708564181461 0 -0.014010532302401549 0.11486886439061519 0 -0.01870450414101154 0.1183349840377 0 -0.022284838306129331 0.11179708564181461 0 -0.0084906221752836016 0.068652433082301886 0 0.0013024964620959271 0.05535878318175054 0 0.002422932715842983 0.073009312654500419 0 -0.0084906221752836016 0.068652433082301886 0 -0.020886055839210899 0.070354965983526516 0 -0.017293068300753781 0.056308738345618607 0 -0.0084906221752836016 0.068652433082301886 0 -0.0094793422212290229 0.082693964760066657 0 0.002422932715842983 0.073009312654500419 0 -0.0084906221752836016 0.068652433082301886 0 -0.0094793422212290229 0.082693964760066657 0 -0.020886055839210899 0.070354965983526516 0 -0.003175682194534461 0.095640912772252423 0 -0.0094793422212290229 0.082693964760066657 0 0.002422932715842983 0.073009312654500419 0 -0.003175682194534461 0.095640912772252423 0 -0.01340288624808232 0.095891898547238869 0 -0.0094793422212290229 0.082693964760066657 0 -0.01340288624808232 0.095891898547238869 0 -0.0094793422212290229 0.082693964760066657 0 -0.022854735124356821 0.084119036234683392 0 -0.022854735124356821 0.084119036234683392 0 -0.034605505356763412 0.071674595143966333 0 -0.036064331380908497 0.089815178965562376 0 -0.01340288624808232 0.095891898547238869 0 -0.027214195584354312 0.097159476144461646 0 -0.022854735124356821 0.084119036234683392 0 -0.027214195584354312 0.097159476144461646 0 -0.022854735124356821 0.084119036234683392 0 -0.036064331380908497 0.089815178965562376 0 -0.0094793422212290229 0.082693964760066657 0 -0.022854735124356821 0.084119036234683392 0 -0.020886055839210899 0.070354965983526516 0 -0.020886055839210899 0.070354965983526516 0 -0.034605505356763412 0.071674595143966333 0 -0.032229321421617052 0.055769315791265518 0 -0.022854735124356821 0.084119036234683392 0 -0.020886055839210899 0.070354965983526516 0 -0.034605505356763412 0.071674595143966333 0 -0.034605505356763412 0.071674595143966333 0 -0.048704330146127087 0.069508965888233645 0 -0.047615075088516458 0.055299853822334662 0 -0.034605505356763412 0.071674595143966333 0 -0.049365040877556728 0.08274696069506976 0 -0.048704330146127087 0.069508965888233645 0 -0.036064331380908497 0.089815178965562376 0 -0.049365040877556728 0.08274696069506976 0 -0.048920333972823977 0.099577509077144688 0 -0.034605505356763412 0.071674595143966333 0 -0.036064331380908497 0.089815178965562376 0 -0.049365040877556728 0.08274696069506976 0 -0.049365040877556728 0.08274696069506976 0 -0.061754685100226817 0.068939430796485318 0 -0.065169831796626276 0.090852600976531805 0 -0.049365040877556728 0.08274696069506976 0 -0.048920333972823977 0.099577509077144688 0 -0.065169831796626276 0.090852600976531805 0 -0.049365040877556728 0.08274696069506976 0 -0.061754685100226817 0.068939430796485318 0 -0.048704330146127087 0.069508965888233645 0 -0.061754685100226817 0.068939430796485318 0 -0.048704330146127087 0.069508965888233645 0 -0.047615075088516458 0.055299853822334662 0 -0.041393994417723429 0.1279532585113777 0 -0.028104283197050071 0.1119671650197972 0 -0.041393994417723429 0.1279532585113777 0 -0.022284838306129331 0.11179708564181461 0 -0.041393994417723429 0.1279532585113777 0 -0.028104283197050071 0.1119671650197972 0 -0.042644914423829547 0.11288624986377351 0 -0.047743242292869907 0.12835432607807981 0 -0.042644914423829547 0.11288624986377351 0 -0.041393994417723429 0.1279532585113777 0 -0.047743242292869907 0.12835432607807981 0 -0.042644914423829547 0.11288624986377351 0 -0.028104283197050071 0.1119671650197972 0 -0.042644914423829547 0.11288624986377351 0 -0.036175706912119548 0.10309692989847651 0 -0.027214195584354312 0.097159476144461646 0 -0.036064331380908497 0.089815178965562376 0 -0.036175706912119548 0.10309692989847651 0 -0.036064331380908497 0.089815178965562376 0 -0.036175706912119548 0.10309692989847651 0 -0.048920333972823977 0.099577509077144688 0 -0.042644914423829547 0.11288624986377351 0 -0.036175706912119548 0.10309692989847651 0 -0.048920333972823977 0.099577509077144688 0 -0.048920333972823977 0.099577509077144688 0 -0.060240794730620377 0.1050158766286587 0 -0.051672679898570432 0.1125654803136682 0 -0.042644914423829547 0.11288624986377351 0 -0.048920333972823977 0.099577509077144688 0 -0.051672679898570432 0.1125654803136682 0 -0.048920333972823977 0.099577509077144688 0 -0.060240794730620377 0.1050158766286587 0 -0.065169831796626276 0.090852600976531805 0 -0.047743242292869907 0.12835432607807981 0 -0.058814114072708479 0.11699343992068149 0 -0.064269202538017628 0.122862251816772 0 -0.047743242292869907 0.12835432607807981 0 -0.058814114072708479 0.11699343992068149 0 -0.051672679898570432 0.1125654803136682 0 -0.047743242292869907 0.12835432607807981 0 -0.042644914423829547 0.11288624986377351 0 -0.051672679898570432 0.1125654803136682 0 -0.060240794730620377 0.1050158766286587 0 -0.058814114072708479 0.11699343992068149 0 -0.051672679898570432 0.1125654803136682 0 -0.060240794730620377 0.1050158766286587 0 -0.058814114072708479 0.11699343992068149 0 -0.068194560810947241 0.1163855611927631 0 -0.058814114072708479 0.11699343992068149 0 -0.064269202538017628 0.122862251816772 0 -0.068194560810947241 0.1163855611927631 0 -0.064269202538017628 0.122862251816772 0 -0.070216716689920355 0.1227339065238708 0 -0.068194560810947241 0.1163855611927631 0 -0.067590993058720891 0.1254124308508304 0 -0.064269202538017628 0.122862251816772 0 -0.070216716689920355 0.1227339065238708 0 -0.060240794730620377 0.1050158766286587 0 -0.068194560810947241 0.1163855611927631 0 -0.075310697451589734 0.1081165718388296 0 -0.068194560810947241 0.1163855611927631 0 -0.079987968592669184 0.1227003892801261 0 -0.075310697451589734 0.1081165718388296 0 -0.070216716689920355 0.1227339065238708 0 -0.068194560810947241 0.1163855611927631 0 -0.079987968592669184 0.1227003892801261 0 -0.089178858724338561 0.13097171985192929 0 -0.079987968592669184 0.1227003892801261 0 -0.098976796174051251 0.12029000037555899 0 -0.079987968592669184 0.1227003892801261 0 -0.088182749841696537 0.1099994347884132 0 -0.098976796174051251 0.12029000037555899 0 -0.079987968592669184 0.1227003892801261 0 -0.088182749841696537 0.1099994347884132 0 -0.075310697451589734 0.1081165718388296 0 -0.088182749841696537 0.1099994347884132 0 -0.085931397504657045 0.097145425453126016 0 -0.1007068894855155 0.1017447869944255 0 -0.088182749841696537 0.1099994347884132 0 -0.085931397504657045 0.097145425453126016 0 -0.075310697451589734 0.1081165718388296 0 -0.085931397504657045 0.097145425453126016 0 -0.075310697451589734 0.1081165718388296 0 -0.065169831796626276 0.090852600976531805 0 -0.060240794730620377 0.1050158766286587 0 -0.075310697451589734 0.1081165718388296 0 -0.065169831796626276 0.090852600976531805 0 -0.065169831796626276 0.090852600976531805 0 -0.078912471350390756 0.066960706823331939 0 -0.089600678690574836 0.082111940646113865 0 -0.065169831796626276 0.090852600976531805 0 -0.089600678690574836 0.082111940646113865 0 -0.061754685100226817 0.068939430796485318 0 -0.078912471350390756 0.066960706823331939 0 -0.065601339100510775 0.053066254535491297 0 -0.061754685100226817 0.068939430796485318 0 -0.065169831796626276 0.090852600976531805 0 -0.078912471350390756 0.066960706823331939 0 -0.078912471350390756 0.066960706823331939 0 -0.089600678690574836 0.082111940646113865 0 -0.097404414649247512 0.065602143048147404 0 -0.085931397504657045 0.097145425453126016 0 -0.089600678690574836 0.082111940646113865 0 -0.1033178696139883 0.088797977194866276 0 -0.085931397504657045 0.097145425453126016 0 -0.065169831796626276 0.090852600976531805 0 -0.089600678690574836 0.082111940646113865 0 -0.089600678690574836 0.082111940646113865 0 -0.1033178696139883 0.088797977194866276 0 -0.1140315255845229 0.073371280315694495 0 -0.097404414649247512 0.065602143048147404 0 -0.1140315255845229 0.073371280315694495 0 -0.097404414649247512 0.065602143048147404 0 -0.1140315255845229 0.073371280315694495 0 -0.1098252037927008 0.061048042868125103 0 -0.089600678690574836 0.082111940646113865 0 -0.1140315255845229 0.073371280315694495 0 -0.089600678690574836 0.082111940646113865 0 -0.097404414649247512 0.065602143048147404 0 -0.1140315255845229 0.073371280315694495 0 -0.1140315255845229 0.073371280315694495 0 -0.123313990261863 0.056145434382516159 0 -0.1098252037927008 0.061048042868125103 0 -0.13269894467134469 0.082093766253321626 0 -0.1140315255845229 0.073371280315694495 0 -0.12596249164327 0.081654930772735779 0 -0.13269894467134469 0.082093766253321626 0 -0.1140315255845229 0.073371280315694495 0 -0.1033178696139883 0.088797977194866276 0 -0.1139469278747775 0.093650468344117735 0 -0.1156897985438821 0.084763961415720041 0 -0.1033178696139883 0.088797977194866276 0 -0.1140315255845229 0.073371280315694495 0 -0.1156897985438821 0.084763961415720041 0 -0.12596249164327 0.081654930772735779 0 -0.1140315255845229 0.073371280315694495 0 -0.1156897985438821 0.084763961415720041 0 -0.12596249164327 0.081654930772735779 0 -0.1156897985438821 0.084763961415720041 0 -0.12211852262909891 0.088601711304333058 0 -0.12916308144813141 0.093395965774513146 0 -0.12211852262909891 0.088601711304333058 0 -0.1219223393634596 0.096612265698231253 0 -0.1139469278747775 0.093650468344117735 0 -0.12211852262909891 0.088601711304333058 0 -0.1219223393634596 0.096612265698231253 0 -0.1139469278747775 0.093650468344117735 0 -0.1156897985438821 0.084763961415720041 0 -0.12211852262909891 0.088601711304333058 0 -0.1163891295019383 0.1049200579001159 0 -0.1122596530848709 0.1174565206274932 0 -0.1007068894855155 0.1017447869944255 0 -0.1139469278747775 0.093650468344117735 0 -0.1219223393634596 0.096612265698231253 0 -0.1163891295019383 0.1049200579001159 0 -0.1139469278747775 0.093650468344117735 0 -0.1163891295019383 0.1049200579001159 0 -0.1007068894855155 0.1017447869944255 0 -0.12799403536335169 0.1024931251680764 0 -0.1219223393634596 0.096612265698231253 0 -0.1163891295019383 0.1049200579001159 0 -0.12799403536335169 0.1024931251680764 0 -0.1163891295019383 0.1049200579001159 0 -0.1246884739219324 0.1134091289710715 0 -0.12381241668422691 0.13316825426056031 0 -0.1246884739219324 0.1134091289710715 0 -0.1122596530848709 0.1174565206274932 0 -0.1163891295019383 0.1049200579001159 0 -0.1246884739219324 0.1134091289710715 0 -0.1122596530848709 0.1174565206274932 0 -0.1122596530848709 0.1174565206274932 0 -0.1007068894855155 0.1017447869944255 0 -0.088182749841696537 0.1099994347884132 0 -0.098976796174051251 0.12029000037555899 0 -0.1007068894855155 0.1017447869944255 0 -0.1122596530848709 0.1174565206274932 0 -0.098976796174051251 0.12029000037555899 0 -0.1007068894855155 0.1017447869944255 0 -0.111381703213609 0.1268898013591036 0 -0.1122596530848709 0.1174565206274932 0 -0.098976796174051251 0.12029000037555899 0 -0.085931397504657045 0.097145425453126016 0 -0.1033178696139883 0.088797977194866276 0 -0.1007068894855155 0.1017447869944255 0 -0.1033178696139883 0.088797977194866276 0 -0.1139469278747775 0.093650468344117735 0 -0.1007068894855155 0.1017447869944255 0 -0.10345299808598191 0.030022223051307199 0 -0.1096078295466902 0.01546877663148389 0 -0.093168168815275315 0.0099037328048501554 0 -0.1066168776230814 -0.0002609920833909378 0 -0.1096078295466902 0.01546877663148389 0 -0.093168168815275315 0.0099037328048501554 0 -0.1066168776230814 -0.0002609920833909378 0 -0.1252665686555624 0.011687616998799151 0 -0.1096078295466902 0.01546877663148389 0 -0.1238376520846925 -0.003178898693025302 0 -0.1066168776230814 -0.0002609920833909378 0 -0.1252665686555624 0.011687616998799151 0 -0.1252665686555624 0.011687616998799151 0 -0.1096078295466902 0.01546877663148389 0 -0.1180203002965771 0.024875042507404341 0 -0.1252665686555624 0.011687616998799151 0 -0.13126336880004569 0.02887313403689408 0 -0.1180203002965771 0.024875042507404341 0 -0.10345299808598191 0.030022223051307199 0 -0.1180203002965771 0.024875042507404341 0 -0.118151616595517 0.037271012093908748 0 -0.10345299808598191 0.030022223051307199 0 -0.1096078295466902 0.01546877663148389 0 -0.1180203002965771 0.024875042507404341 0 -0.13126336880004569 0.02887313403689408 0 -0.1180203002965771 0.024875042507404341 0 -0.118151616595517 0.037271012093908748 0 -0.13059315886047951 0.043011130708000757 0 -0.118151616595517 0.037271012093908748 0 -0.123313990261863 0.056145434382516159 0 -0.118151616595517 0.037271012093908748 0 -0.123313990261863 0.056145434382516159 0 -0.10455088467516981 0.04907331372614239 0 -0.123313990261863 0.056145434382516159 0 -0.1098252037927008 0.061048042868125103 0 -0.10455088467516981 0.04907331372614239 0 -0.097404414649247512 0.065602143048147404 0 -0.1098252037927008 0.061048042868125103 0 -0.10455088467516981 0.04907331372614239 0 -0.097404414649247512 0.065602143048147404 0 -0.10455088467516981 0.04907331372614239 0 -0.083866625661689925 0.051564110824933847 0 -0.10345299808598191 0.030022223051307199 0 -0.10455088467516981 0.04907331372614239 0 -0.090022374103297234 0.038433924027932907 0 -0.10345299808598191 0.030022223051307199 0 -0.118151616595517 0.037271012093908748 0 -0.10455088467516981 0.04907331372614239 0 -0.090022374103297234 0.038433924027932907 0 -0.083866625661689925 0.051564110824933847 0 -0.071919992990043799 0.036119924562171501 0 -0.090022374103297234 0.038433924027932907 0 -0.071919992990043799 0.036119924562171501 0 -0.082286096391358671 0.02323492279720429 0 -0.10455088467516981 0.04907331372614239 0 -0.090022374103297234 0.038433924027932907 0 -0.083866625661689925 0.051564110824933847 0 -0.078912471350390756 0.066960706823331939 0 -0.097404414649247512 0.065602143048147404 0 -0.083866625661689925 0.051564110824933847 0 -0.078912471350390756 0.066960706823331939 0 -0.083866625661689925 0.051564110824933847 0 -0.065601339100510775 0.053066254535491297 0 -0.083866625661689925 0.051564110824933847 0 -0.065601339100510775 0.053066254535491297 0 -0.071919992990043799 0.036119924562171501 0 -0.071919992990043799 0.036119924562171501 0 -0.082286096391358671 0.02323492279720429 0 -0.060427749827186433 0.02027595457117411 0 -0.082286096391358671 0.02323492279720429 0 -0.073521406826148411 0.0051031726183403594 0 -0.060427749827186433 0.02027595457117411 0 -0.10345299808598191 0.030022223051307199 0 -0.082286096391358671 0.02323492279720429 0 -0.093168168815275315 0.0099037328048501554 0 -0.10345299808598191 0.030022223051307199 0 -0.090022374103297234 0.038433924027932907 0 -0.082286096391358671 0.02323492279720429 0 -0.086642348690371879 -0.010471720479631821 0 -0.093168168815275315 0.0099037328048501554 0 -0.073521406826148411 0.0051031726183403594 0 -0.082286096391358671 0.02323492279720429 0 -0.093168168815275315 0.0099037328048501554 0 -0.073521406826148411 0.0051031726183403594 0 -0.053589612230985843 -0.00040132381324650641 0 -0.073521406826148411 0.0051031726183403594 0 -0.060427749827186433 0.02027595457117411 0 -0.053589612230985843 -0.00040132381324650641 0 -0.060427749827186433 0.02027595457117411 0 -0.042959027172531861 0.013213834152179121 0 -0.060427749827186433 0.02027595457117411 0 -0.046664519700551597 0.02523069858554108 0 -0.042959027172531861 0.013213834152179121 0 -0.060427749827186433 0.02027595457117411 0 -0.046664519700551597 0.02523069858554108 0 -0.049108060905650473 0.040477384212012232 0 -0.034163240896837643 0.026955621406798878 0 -0.042959027172531861 0.013213834152179121 0 -0.022994580573299121 0.01284147743840266 0 -0.046664519700551597 0.02523069858554108 0 -0.034163240896837643 0.026955621406798878 0 -0.042959027172531861 0.013213834152179121 0 -0.046664519700551597 0.02523069858554108 0 -0.034163240896837643 0.026955621406798878 0 -0.049108060905650473 0.040477384212012232 0 -0.053589612230985843 -0.00040132381324650641 0 -0.033062794546480478 -0.0035548247123766822 0 -0.042959027172531861 0.013213834152179121 0 -0.033062794546480478 -0.0035548247123766822 0 -0.042959027172531861 0.013213834152179121 0 -0.022994580573299121 0.01284147743840266 0 -0.061754685100226817 0.068939430796485318 0 -0.065601339100510775 0.053066254535491297 0 -0.047615075088516458 0.055299853822334662 0 -0.065601339100510775 0.053066254535491297 0 -0.047615075088516458 0.055299853822334662 0 -0.049108060905650473 0.040477384212012232 0 -0.065601339100510775 0.053066254535491297 0 -0.071919992990043799 0.036119924562171501 0 -0.049108060905650473 0.040477384212012232 0 -0.071919992990043799 0.036119924562171501 0 -0.060427749827186433 0.02027595457117411 0 -0.049108060905650473 0.040477384212012232 0 -0.034163240896837643 0.026955621406798878 0 -0.049108060905650473 0.040477384212012232 0 -0.02535081940303878 0.0404597147503378 0 -0.049108060905650473 0.040477384212012232 0 -0.032229321421617052 0.055769315791265518 0 -0.02535081940303878 0.0404597147503378 0 -0.047615075088516458 0.055299853822334662 0 -0.049108060905650473 0.040477384212012232 0 -0.032229321421617052 0.055769315791265518 0 -0.034605505356763412 0.071674595143966333 0 -0.047615075088516458 0.055299853822334662 0 -0.032229321421617052 0.055769315791265518 0 -0.032229321421617052 0.055769315791265518 0 -0.017293068300753781 0.056308738345618607 0 -0.02535081940303878 0.0404597147503378 0 -0.020886055839210899 0.070354965983526516 0 -0.032229321421617052 0.055769315791265518 0 -0.017293068300753781 0.056308738345618607 0 -0.017293068300753781 0.056308738345618607 0 -0.02535081940303878 0.0404597147503378 0 -0.01054705764037376 0.042473115639127229 0 -0.034163240896837643 0.026955621406798878 0 -0.02535081940303878 0.0404597147503378 0 -0.01634738646120415 0.028616087529426751 0 -0.02535081940303878 0.0404597147503378 0 -0.01054705764037376 0.042473115639127229 0 -0.01634738646120415 0.028616087529426751 0 -0.01054705764037376 0.042473115639127229 0 -0.01634738646120415 0.028616087529426751 0 0.0012619046770115359 0.031979740052392437 0 -0.01054705764037376 0.042473115639127229 0 0.0013024964620959271 0.05535878318175054 0 0.0012619046770115359 0.031979740052392437 0 -0.017293068300753781 0.056308738345618607 0 -0.01054705764037376 0.042473115639127229 0 0.0013024964620959271 0.05535878318175054 0 -0.0084906221752836016 0.068652433082301886 0 -0.017293068300753781 0.056308738345618607 0 0.0013024964620959271 0.05535878318175054 0 -0.033062794546480478 -0.0035548247123766822 0 -0.01129150054699473 -0.0013760759300521341 0 -0.022994580573299121 0.01284147743840266 0 -0.034163240896837643 0.026955621406798878 0 -0.022994580573299121 0.01284147743840266 0 -0.01634738646120415 0.028616087529426751 0 -0.01634738646120415 0.028616087529426751 0 -0.0062905249306871372 0.01698685588950152 0 0.0012619046770115359 0.031979740052392437 0 -0.022994580573299121 0.01284147743840266 0 -0.01634738646120415 0.028616087529426751 0 -0.0062905249306871372 0.01698685588950152 0 -0.01129150054699473 -0.0013760759300521341 0 -0.022994580573299121 0.01284147743840266 0 -0.0062905249306871372 0.01698685588950152 0 -0.01129150054699473 -0.0013760759300521341 0 -0.0062905249306871372 0.01698685588950152 0 0.0034452991329774578 0.0051537710705144932 0 0.0034452991329774578 0.0051537710705144932 0 0.01568870949054121 0.018531695866404949 0 0.013560617637746009 -0.010546814510073379 0 -0.0062905249306871372 0.01698685588950152 0 0.0034452991329774578 0.0051537710705144932 0 0.01296304569164157 0.018340118929763709 0 0.01568870949054121 0.018531695866404949 0 0.013560617637746009 -0.010546814510073379 0 0.0034452991329774578 0.0051537710705144932 0 0.01296304569164157 0.018340118929763709 0 0.01568870949054121 0.018531695866404949 0 0.01296304569164157 0.018340118929763709 0 0.01568870949054121 0.018531695866404949 0 0.017067990998746459 0.037378369047172719 0 -0.0062905249306871372 0.01698685588950152 0 0.01296304569164157 0.018340118929763709 0 -0.0062905249306871372 0.01698685588950152 0 0.01296304569164157 0.018340118929763709 0 0.0012619046770115359 0.031979740052392437 0 0.01296304569164157 0.018340118929763709 0 0.0012619046770115359 0.031979740052392437 0 0.017067990998746459 0.037378369047172719 0 0.01296304569164157 0.018340118929763709 0 0.01568870949054121 0.018531695866404949 0 0.01568870949054121 0.018531695866404949 0 0.017067990998746459 0.037378369047172719 0 0.01568870949054121 0.018531695866404949 0 0.024929592646765641 0.027329215348151411 0 0.017067990998746459 0.037378369047172719 0 0.01568870949054121 0.018531695866404949 0 0.035489491002934442 0.017534121702129781 0 0.01568870949054121 0.018531695866404949 0 0.024929592646765641 0.027329215348151411 0 0.036042033936569122 0.021059931567737371 0 0.01568870949054121 0.018531695866404949 0 0.036042033936569122 0.021059931567737371 0 0.01568870949054121 0.018531695866404949 0 0.035489491002934442 0.017534121702129781 0 0.036042033936569122 0.021059931567737371 0 0.01568870949054121 0.018531695866404949 0 0.02842268352822833 0.0042313109911599374 0 0.013560617637746009 -0.010546814510073379 0 0.01568870949054121 0.018531695866404949 0 0.02842268352822833 0.0042313109911599374 0 0.035489491002934442 0.017534121702129781 0 0.0013024964620959271 0.05535878318175054 0 0.017067990998746459 0.037378369047172719 0 0.018447272506948699 0.056225042227940773 0 0.0013024964620959271 0.05535878318175054 0 0.018447272506948699 0.056225042227940773 0 0.002422932715842983 0.073009312654500419 0 0.0013024964620959271 0.05535878318175054 0 0.0012619046770115359 0.031979740052392437 0 0.017067990998746459 0.037378369047172719 0 0.017067990998746459 0.037378369047172719 0 0.018447272506948699 0.056225042227940773 0 0.017067990998746459 0.037378369047172719 0 0.018447272506948699 0.056225042227940773 0 0.032840017784796241 0.044702035075982458 0 0.017067990998746459 0.037378369047172719 0 0.032840017784796241 0.044702035075982458 0 0.034048314061970522 0.032683752434498399 0 0.024929592646765641 0.027329215348151411 0 0.017067990998746459 0.037378369047172719 0 0.034048314061970522 0.032683752434498399 0 0.018447272506948699 0.056225042227940773 0 0.032840017784796241 0.044702035075982458 0 0.035042630028655118 0.063328567033128239 0 0.0506440657463125 0.05666028196803731 0 0.052085824950024617 0.064524747396888391 0 0.035042630028655118 0.063328567033128239 0 0.05415178614024993 0.047172394163566132 0 0.0506440657463125 0.05666028196803731 0 0.035042630028655118 0.063328567033128239 0 0.043425006748642372 0.045981025802147787 0 0.05415178614024993 0.047172394163566132 0 0.035042630028655118 0.063328567033128239 0 0.043425006748642372 0.045981025802147787 0 0.032840017784796241 0.044702035075982458 0 0.035042630028655118 0.063328567033128239 0 0.05415178614024993 0.047172394163566132 0 0.035042630028655118 0.063328567033128239 0 0.043425006748642372 0.045981025802147787 0 0.043818020606875008 0.034435172417375273 0 0.051817238748936949 0.040558435786144979 0 0.043425006748642372 0.045981025802147787 0 0.032840017784796241 0.044702035075982458 0 0.043818020606875008 0.034435172417375273 0 0.032840017784796241 0.044702035075982458 0 0.034048314061970522 0.032683752434498399 0 0.043818020606875008 0.034435172417375273 0 0.061296021866320341 0.051615419278566492 0 0.056395358382597148 0.02358816726906883 0 0.043818020606875008 0.034435172417375273 0 0.051817238748936949 0.040558435786144979 0 0.056395358382597148 0.02358816726906883 0 0.051817238748936949 0.040558435786144979 0 0.061296021866320341 0.051615419278566492 0 0.056395358382597148 0.02358816726906883 0 0.061296021866320341 0.051615419278566492 0 0.056395358382597148 0.02358816726906883 0 0.066287575339930502 0.036300553497861071 0 0.051817238748936949 0.040558435786144979 0 0.05415178614024993 0.047172394163566132 0 0.061296021866320341 0.051615419278566492 0 0.043425006748642372 0.045981025802147787 0 0.051817238748936949 0.040558435786144979 0 0.05415178614024993 0.047172394163566132 0 0.05415178614024993 0.047172394163566132 0 0.061296021866320341 0.051615419278566492 0 0.0506440657463125 0.05666028196803731 0 0.061296021866320341 0.051615419278566492 0 0.0506440657463125 0.05666028196803731 0 0.052085824950024617 0.064524747396888391 0 0.044516681068846077 0.0085253256890689064 0 0.035489491002934442 0.017534121702129781 0 0.055382349086266977 0.01779469319549102 0 0.02842268352822833 0.0042313109911599374 0 0.044516681068846077 0.0085253256890689064 0 0.036730620827910967 -0.0085450903031558736 0 0.02842268352822833 0.0042313109911599374 0 0.044516681068846077 0.0085253256890689064 0 0.035489491002934442 0.017534121702129781 0 0.035489491002934442 0.017534121702129781 0 0.036042033936569122 0.021059931567737371 0 0.055382349086266977 0.01779469319549102 0 0.036042033936569122 0.021059931567737371 0 0.056395358382597148 0.02358816726906883 0 0.035489491002934442 0.017534121702129781 0 0.055382349086266977 0.01779469319549102 0 0.043818020606875008 0.034435172417375273 0 0.036042033936569122 0.021059931567737371 0 0.056395358382597148 0.02358816726906883 0 0.024929592646765641 0.027329215348151411 0 0.034048314061970522 0.032683752434498399 0 0.036042033936569122 0.021059931567737371 0 0.034048314061970522 0.032683752434498399 0 0.043818020606875008 0.034435172417375273 0 0.036042033936569122 0.021059931567737371 0 0.056395358382597148 0.02358816726906883 0 0.055382349086266977 0.01779469319549102 0 0.071941344334193719 0.018011595266688302 0 0.036042033936569122 0.021059931567737371 0 0.056395358382597148 0.02358816726906883 0 0.055382349086266977 0.01779469319549102 0 0.056395358382597148 0.02358816726906883 0 0.055382349086266977 0.01779469319549102 0 0.055382349086266977 0.01779469319549102 0 0.051971399160469382 -0.001712778288651375 0 0.044516681068846077 0.0085253256890689064 0 0.055382349086266977 0.01779469319549102 0 0.051971399160469382 -0.001712778288651375 0 0.055382349086266977 0.01779469319549102 0 0.065069697678856273 0.0043599765667019456 0 0.051971399160469382 -0.001712778288651375 0 0.055382349086266977 0.01779469319549102 0 0.065069697678856273 0.0043599765667019456 0 0.071941344334193719 0.018011595266688302 0 0.065069697678856273 0.0043599765667019456 0 0.076857487901468832 0.0075331794604891443 0 0.071941344334193719 0.018011595266688302 0 0.076857487901468832 0.0075331794604891443 0 0.083620991358063529 0.0153464140439408 0 0.071941344334193719 0.018011595266688302 0 0.065069697678856273 0.0043599765667019456 0 0.076857487901468832 0.0075331794604891443 0 0.076769895714656561 -0.0062810663660294828 0 0.076857487901468832 0.0075331794604891443 0 0.092790705774556365 0.007637089620086213 0 0.076769895714656561 -0.0062810663660294828 0 0.076857487901468832 0.0075331794604891443 0 0.092790705774556365 0.007637089620086213 0 0.083620991358063529 0.0153464140439408 0 0.092790705774556365 0.007637089620086213 0 0.083620991358063529 0.0153464140439408 0 0.1015833724969744 0.029201301912464089 0 0.078989365439785783 0.02639473459076665 0 0.1015833724969744 0.029201301912464089 0 0.083620991358063529 0.0153464140439408 0 0.078989365439785783 0.02639473459076665 0 0.1015833724969744 0.029201301912464089 0 0.078989365439785783 0.02639473459076665 0 0.090755302193531687 0.038029808675473432 0 0.1015833724969744 0.029201301912464089 0 0.083620991358063529 0.0153464140439408 0 0.078989365439785783 0.02639473459076665 0 0.071941344334193719 0.018011595266688302 0 0.055382349086266977 0.01779469319549102 0 0.071941344334193719 0.018011595266688302 0 0.056395358382597148 0.02358816726906883 0 0.078989365439785783 0.02639473459076665 0 0.069641392102315652 0.030963284548296239 0 0.056395358382597148 0.02358816726906883 0 0.078989365439785783 0.02639473459076665 0 0.056395358382597148 0.02358816726906883 0 0.078989365439785783 0.02639473459076665 0 0.071941344334193719 0.018011595266688302 0 0.056395358382597148 0.02358816726906883 0 0.069641392102315652 0.030963284548296239 0 0.066287575339930502 0.036300553497861071 0 0.061296021866320341 0.051615419278566492 0 0.066287575339930502 0.036300553497861071 0 0.069596739864833917 0.043366316013373978 0 0.066287575339930502 0.036300553497861071 0 0.069596739864833917 0.043366316013373978 0 0.076893269246949197 0.037569682835488019 0 0.069596739864833917 0.043366316013373978 0 0.076893269246949197 0.037569682835488019 0 0.073910093006135658 0.04797960844158039 0 0.078989365439785783 0.02639473459076665 0 0.069641392102315652 0.030963284548296239 0 0.076893269246949197 0.037569682835488019 0 0.069641392102315652 0.030963284548296239 0 0.066287575339930502 0.036300553497861071 0 0.076893269246949197 0.037569682835488019 0 0.061296021866320341 0.051615419278566492 0 0.073910093006135658 0.04797960844158039 0 0.076611754050950276 0.064727483615732051 0 0.061296021866320341 0.051615419278566492 0 0.069596739864833917 0.043366316013373978 0 0.073910093006135658 0.04797960844158039 0 0.073910093006135658 0.04797960844158039 0 0.08739116500974993 0.051105586243152687 0 0.076611754050950276 0.064727483615732051 0 0.08739116500974993 0.051105586243152687 0 0.097863971243321524 0.070076688843868681 0 0.076611754050950276 0.064727483615732051 0 0.078989365439785783 0.02639473459076665 0 0.076893269246949197 0.037569682835488019 0 0.090755302193531687 0.038029808675473432 0 0.076893269246949197 0.037569682835488019 0 0.073910093006135658 0.04797960844158039 0 0.08739116500974993 0.051105586243152687 0 0.076893269246949197 0.037569682835488019 0 0.08739116500974993 0.051105586243152687 0 0.090755302193531687 0.038029808675473432 0 0.08739116500974993 0.051105586243152687 0 0.090755302193531687 0.038029808675473432 0 0.1085601432141982 0.049827524651164037 0 0.090755302193531687 0.038029808675473432 0 0.1085601432141982 0.049827524651164037 0 0.1015833724969744 0.029201301912464089 0 0.08739116500974993 0.051105586243152687 0 0.1085601432141982 0.049827524651164037 0 0.097863971243321524 0.070076688843868681 0 0.1085601432141982 0.049827524651164037 0 0.13128349153670479 0.051381496601359523 0 0.12510808010429661 0.076418478020843436 0 0.1085601432141982 0.049827524651164037 0 0.12417737955416309 0.032007869234161539 0 0.13128349153670479 0.051381496601359523 0 0.1085601432141982 0.049827524651164037 0 0.12417737955416309 0.032007869234161539 0 0.1015833724969744 0.029201301912464089 0 0.12417737955416309 0.032007869234161539 0 0.1015833724969744 0.029201301912464089 0 0.12417737955416309 0.032007869234161539 0 0.1118443090855482 0.01244278967355154 0 0.13528482264666189 0.01493099364781119 0 0.12417737955416309 0.032007869234161539 0 0.1118443090855482 0.01244278967355154 0 0.1015833724969744 0.029201301912464089 0 0.1118443090855482 0.01244278967355154 0 0.13528482264666189 0.01493099364781119 0 0.1253528781060689 -0.0035925746653820922 0 0.092790705774556365 0.007637089620086213 0 0.1118443090855482 0.01244278967355154 0 0.1014456400804002 -0.009727969571319571 0 0.092790705774556365 0.007637089620086213 0 0.1118443090855482 0.01244278967355154 0 0.1015833724969744 0.029201301912464089 0 0.1029298566107561 0.1126861338735807 0 0.1188617035112491 0.10017210572911719 0 0.099371192290717877 0.091524607572078462 0 0.1029298566107561 0.1126861338735807 0 0.099371192290717877 0.091524607572078462 0 0.089506569897118402 0.10785346109669761 0 0.1029298566107561 0.1126861338735807 0 0.082090926209860471 0.1205723658178179 0 0.10118583527366309 0.1314961729504136 0 0.1029298566107561 0.1126861338735807 0 0.1215951808840359 0.121275415706405 0 0.10118583527366309 0.1314961729504136 0 0.1029298566107561 0.1126861338735807 0 0.1215951808840359 0.121275415706405 0 0.1188617035112491 0.10017210572911719 0 0.1188617035112491 0.10017210572911719 0 0.099371192290717877 0.091524607572078462 0 0.12510808010429661 0.076418478020843436 0 0.099371192290717877 0.091524607572078462 0 0.12510808010429661 0.076418478020843436 0 0.1085601432141982 0.049827524651164037 0 0.097863971243321524 0.070076688843868681 0 0.12510808010429661 0.076418478020843436 0 0.097863971243321524 0.070076688843868681 0 0.099371192290717877 0.091524607572078462 0 0.12510808010429661 0.076418478020843436 0 0.097863971243321524 0.070076688843868681 0 0.099371192290717877 0.091524607572078462 0 0.081979411193420171 0.08619814724229416 0 0.097863971243321524 0.070076688843868681 0 0.081979411193420171 0.08619814724229416 0 0.076611754050950276 0.064727483615732051 0 0.081979411193420171 0.08619814724229416 0 0.076611754050950276 0.064727483615732051 0 0.066196685350042223 0.079642671288064321 0 0.061296021866320341 0.051615419278566492 0 0.076611754050950276 0.064727483615732051 0 0.066196685350042223 0.079642671288064321 0 0.061296021866320341 0.051615419278566492 0 0.066196685350042223 0.079642671288064321 0 0.066196685350042223 0.079642671288064321 0 0.071097348833764118 0.10766992329756229 0 0.081979411193420171 0.08619814724229416 0 0.066196685350042223 0.079642671288064321 0 0.073634304477139131 0.1066307371233135 0 0.066196685350042223 0.079642671288064321 0 0.071097348833764118 0.10766992329756229 0 0.073634304477139131 0.1066307371233135 0 0.066196685350042223 0.079642671288064321 0 0.071097348833764118 0.10766992329756229 0 0.056746110627890117 0.096904363599102164 0 0.099371192290717877 0.091524607572078462 0 0.073634304477139131 0.1066307371233135 0 0.099371192290717877 0.091524607572078462 0 0.073634304477139131 0.1066307371233135 0 0.089506569897118402 0.10785346109669761 0 0.099371192290717877 0.091524607572078462 0 0.081979411193420171 0.08619814724229416 0 0.073634304477139131 0.1066307371233135 0 0.1029298566107561 0.1126861338735807 0 0.089506569897118402 0.10785346109669761 0 0.082090926209860471 0.1205723658178179 0 0.073634304477139131 0.1066307371233135 0 0.089506569897118402 0.10785346109669761 0 0.082090926209860471 0.1205723658178179 0 0.071097348833764118 0.10766992329756229 0 0.082090926209860471 0.1205723658178179 0 0.075998012317486013 0.13569717530706021 0 0.071097348833764118 0.10766992329756229 0 0.064204244060129534 0.1206251093654561 0 0.075998012317486013 0.13569717530706021 0 0.071097348833764118 0.10766992329756229 0 0.075998012317486013 0.13569717530706021 0 0.071097348833764118 0.10766992329756229 0 0.073634304477139131 0.1066307371233135 0 0.082090926209860471 0.1205723658178179 0 0.071097348833764118 0.10766992329756229 0 0.064204244060129534 0.1206251093654561 0 0.05884635994209142 0.1095440014792614 0 0.064204244060129534 0.1206251093654561 0 0.053559097572028549 0.1177276241394728 0 0.05850255178466373 0.13195961314861809 0 0.053559097572028549 0.1177276241394728 0 0.05884635994209142 0.1095440014792614 0 0.048123529931072467 0.10724637853194049 0 0.053559097572028549 0.1177276241394728 0 0.048123529931072467 0.10724637853194049 0 0.04041231452871568 0.11808681884184651 0 0.064204244060129534 0.1206251093654561 0 0.053559097572028549 0.1177276241394728 0 0.05884635994209142 0.1095440014792614 0 0.071097348833764118 0.10766992329756229 0 0.05884635994209142 0.1095440014792614 0 0.056746110627890117 0.096904363599102164 0 0.056746110627890117 0.096904363599102164 0 0.048123529931072467 0.10724637853194049 0 0.042321316854179912 0.095199458229510509 0 0.05884635994209142 0.1095440014792614 0 0.056746110627890117 0.096904363599102164 0 0.048123529931072467 0.10724637853194049 0 0.048123529931072467 0.10724637853194049 0 0.042321316854179912 0.095199458229510509 0 0.037222072830894092 0.1058946167287883 0 0.042321316854179912 0.095199458229510509 0 0.037222072830894092 0.1058946167287883 0 0.02917902696908433 0.094282004538688138 0 0.037222072830894092 0.1058946167287883 0 0.032291340752243193 0.112421042691285 0 0.025611805019273869 0.10700620566496551 0 0.032291340752243193 0.112421042691285 0 0.04041231452871568 0.11808681884184651 0 0.025919170630089111 0.11869652952953989 0 0.037222072830894092 0.1058946167287883 0 0.032291340752243193 0.112421042691285 0 0.04041231452871568 0.11808681884184651 0 0.04041231452871568 0.11808681884184651 0 0.025919170630089111 0.11869652952953989 0 0.029556306321531479 0.12785875760749399 0 0.053559097572028549 0.1177276241394728 0 0.04041231452871568 0.11808681884184651 0 0.043381788998227852 0.1305035565938257 0 0.048123529931072467 0.10724637853194049 0 0.037222072830894092 0.1058946167287883 0 0.04041231452871568 0.11808681884184651 0 0.066196685350042223 0.079642671288064321 0 0.052085824950024617 0.064524747396888391 0 0.046738671806650429 0.074156722795786306 0 0.061296021866320341 0.051615419278566492 0 0.066196685350042223 0.079642671288064321 0 0.052085824950024617 0.064524747396888391 0 0.066196685350042223 0.079642671288064321 0 0.049550508610833238 0.085514770673055573 0 0.046738671806650429 0.074156722795786306 0 0.066196685350042223 0.079642671288064321 0 0.056746110627890117 0.096904363599102164 0 0.049550508610833238 0.085514770673055573 0 0.056746110627890117 0.096904363599102164 0 0.042321316854179912 0.095199458229510509 0 0.049550508610833238 0.085514770673055573 0 0.042321316854179912 0.095199458229510509 0 0.049550508610833238 0.085514770673055573 0 0.035749758415403482 0.081670637452814582 0 0.042321316854179912 0.095199458229510509 0 0.035749758415403482 0.081670637452814582 0 0.02917902696908433 0.094282004538688138 0 0.049550508610833238 0.085514770673055573 0 0.035749758415403482 0.081670637452814582 0 0.046738671806650429 0.074156722795786306 0 0.035749758415403482 0.081670637452814582 0 0.035042630028655118 0.063328567033128239 0 0.046738671806650429 0.074156722795786306 0 0.052085824950024617 0.064524747396888391 0 0.035042630028655118 0.063328567033128239 0 0.046738671806650429 0.074156722795786306 0 0.018447272506948699 0.056225042227940773 0 0.035042630028655118 0.063328567033128239 0 0.015933473917060351 0.07948473990269031 0 0.035042630028655118 0.063328567033128239 0 0.015933473917060351 0.07948473990269031 0 0.035749758415403482 0.081670637452814582 0 0.035042630028655118 0.063328567033128239 0 0.015933473917060351 0.07948473990269031 0 0.035749758415403482 0.081670637452814582 0 0.015933473917060351 0.07948473990269031 0 0.02917902696908433 0.094282004538688138 0 0.015933473917060351 0.07948473990269031 0 0.02917902696908433 0.094282004538688138 0 0.018529013501309581 0.097005033551151837 0 0.015933473917060351 0.07948473990269031 0 0.018529013501309581 0.097005033551151837 0 0.0076941449860111963 0.097775914174429282 0 -0.003175682194534461 0.095640912772252423 0 0.015933473917060351 0.07948473990269031 0 0.0076941449860111963 0.097775914174429282 0 -0.003175682194534461 0.095640912772252423 0 0.015933473917060351 0.07948473990269031 0 0.002422932715842983 0.073009312654500419 0 -0.003175682194534461 0.095640912772252423 0 0.015933473917060351 0.07948473990269031 0 0.018447272506948699 0.056225042227940773 0 0.015933473917060351 0.07948473990269031 0 0.002422932715842983 0.073009312654500419 0 0.01946023825147512 0.11299045083931621 0 0.01881411499718031 0.1245869922793531 0 0.025919170630089111 0.11869652952953989 0 0.01946023825147512 0.11299045083931621 0 0.01881411499718031 0.1245869922793531 0 0.01203654450331286 0.1174865900417701 0 0.01881411499718031 0.1245869922793531 0 0.025919170630089111 0.11869652952953989 0 0.029556306321531479 0.12785875760749399 0 0.032291340752243193 0.112421042691285 0 0.025919170630089111 0.11869652952953989 0 0.025611805019273869 0.10700620566496551 0 0.01946023825147512 0.11299045083931621 0 0.025919170630089111 0.11869652952953989 0 0.025611805019273869 0.10700620566496551 0 0.037222072830894092 0.1058946167287883 0 0.025611805019273869 0.10700620566496551 0 0.02917902696908433 0.094282004538688138 0 0.025611805019273869 0.10700620566496551 0 0.02917902696908433 0.094282004538688138 0 0.018529013501309581 0.097005033551151837 0 0.025611805019273869 0.10700620566496551 0 0.018529013501309581 0.097005033551151837 0 0.01422661661511816 0.10647630347498591 0 0.01946023825147512 0.11299045083931621 0 0.025611805019273869 0.10700620566496551 0 0.01422661661511816 0.10647630347498591 0 0.01422661661511816 0.10647630347498591 0 0.0046445543349532799 0.10630099679393409 0 0.0061502077012441717 0.11297700723249229 0 0.01422661661511816 0.10647630347498591 0 0.0076941449860111963 0.097775914174429282 0 0.0046445543349532799 0.10630099679393409 0 0.018529013501309581 0.097005033551151837 0 0.01422661661511816 0.10647630347498591 0 0.0076941449860111963 0.097775914174429282 0 -0.001069719932619818 0.1036219918733553 0 -0.003175682194534461 0.095640912772252423 0 0.0076941449860111963 0.097775914174429282 0 -0.001069719932619818 0.1036219918733553 0 0.0076941449860111963 0.097775914174429282 0 0.0046445543349532799 0.10630099679393409 0 -0.001333648451441927 0.1109504403439602 0 -0.001069719932619818 0.1036219918733553 0 0.0046445543349532799 0.10630099679393409 0 0.0061502077012441717 0.11297700723249229 0 0.01203654450331286 0.1174865900417701 0 0.00161899537904374 0.1187473658997415 0 -0.001333648451441927 0.1109504403439602 0 0.0046445543349532799 0.10630099679393409 0 0.0061502077012441717 0.11297700723249229 0 -0.001333648451441927 0.1109504403439602 0 0.0061502077012441717 0.11297700723249229 0 0.00161899537904374 0.1187473658997415 0 0.01422661661511816 0.10647630347498591 0 0.0061502077012441717 0.11297700723249229 0 0.01203654450331286 0.1174865900417701 0 0.01946023825147512 0.11299045083931621 0 0.01422661661511816 0.10647630347498591 0 0.01203654450331286 0.1174865900417701 0 0.01881411499718031 0.1245869922793531 0 0.01203654450331286 0.1174865900417701 0 0.0059239200155680044 0.1300880145081178 0 -0.0054084845452745988 0.1249371053928276 0 0.00161899537904374 0.1187473658997415 0 0.0059239200155680044 0.1300880145081178 0 0.01203654450331286 0.1174865900417701 0 0.00161899537904374 0.1187473658997415 0 0.0059239200155680044 0.1300880145081178 0 -0.00097805911919941865 0.1419087685033614 0 0.0059239200155680044 0.1300880145081178 0 0.0093362580685193708 0.1438945194233997 0 0.0059239200155680044 0.1300880145081178 0 0.01828837609734478 0.13487689713516079 0 0.0093362580685193708 0.1438945194233997 0 0.01881411499718031 0.1245869922793531 0 0.0059239200155680044 0.1300880145081178 0 0.01828837609734478 0.13487689713516079 0 0.01881411499718031 0.1245869922793531 0 0.01828837609734478 0.13487689713516079 0 0.029556306321531479 0.12785875760749399 0 0.01828837609734478 0.13487689713516079 0 0.030522072677631139 0.1404017512652381 0 0.029556306321531479 0.12785875760749399 0 0.02054966872930989 0.14870051516913821 0 0.022154673091015119 0.1611381566176823 0 0.031928509114905343 0.15451844293024181 0 0.030522072677631139 0.1404017512652381 0 0.02054966872930989 0.14870051516913821 0 0.031928509114905343 0.15451844293024181 0 0.01828837609734478 0.13487689713516079 0 0.030522072677631139 0.1404017512652381 0 0.02054966872930989 0.14870051516913821 0 0.01828837609734478 0.13487689713516079 0 0.02054966872930989 0.14870051516913821 0 0.0093362580685193708 0.1438945194233997 0 0.02054966872930989 0.14870051516913821 0 0.0110681233264436 0.1573733236431068 0 0.022154673091015119 0.1611381566176823 0 0.02054966872930989 0.14870051516913821 0 0.0093362580685193708 0.1438945194233997 0 0.0110681233264436 0.1573733236431068 0 -0.00097805911919941865 0.1419087685033614 0 0.0093362580685193708 0.1438945194233997 0 0.0011711219489800449 0.15271394953975989 0 0.0093362580685193708 0.1438945194233997 0 0.0011711219489800449 0.15271394953975989 0 0.0110681233264436 0.1573733236431068 0 -0.00070541203608843984 0.1630392700939233 0 0.0060539330553351046 0.16767533557541309 0 0.0110681233264436 0.1573733236431068 0 -0.00070541203608843984 0.1630392700939233 0 0.0011711219489800449 0.15271394953975989 0 0.0110681233264436 0.1573733236431068 0 -0.001324430570601732 0.1741405339803169 0 -0.00070541203608843984 0.1630392700939233 0 0.0060539330553351046 0.16767533557541309 0 0.0060539330553351046 0.16767533557541309 0 0.014560329739494849 0.16825179924619421 0 0.0110681233264436 0.1573733236431068 0 0.0060539330553351046 0.16767533557541309 0 0.014560329739494849 0.16825179924619421 0 0.005341848656587489 0.17584079851530041 0 0.014560329739494849 0.16825179924619421 0 0.005341848656587489 0.17584079851530041 0 0.021797721040093369 0.1771571729538918 0 0.005341848656587489 0.17584079851530041 0 0.021797721040093369 0.1771571729538918 0 -0.01136205739571867 0.18819944689317331 0 -0.00051260274126067287 0.18121067213763981 0 0.01344576801394029 0.18333649714282829 0 -0.01136205739571867 0.18819944689317331 0 0.01344576801394029 0.18333649714282829 0 0.005341848656587489 0.17584079851530041 0 0.01344576801394029 0.18333649714282829 0 0.021797721040093369 0.1771571729538918 0 -0.00051260274126067287 0.18121067213763981 0 0.005341848656587489 0.17584079851530041 0 0.01344576801394029 0.18333649714282829 0 -0.001324430570601732 0.1741405339803169 0 0.0060539330553351046 0.16767533557541309 0 0.005341848656587489 0.17584079851530041 0 -0.001324430570601732 0.1741405339803169 0 -0.00051260274126067287 0.18121067213763981 0 0.005341848656587489 0.17584079851530041 0 0.021797721040093369 0.1771571729538918 0 0.038253593423599221 0.17847354739248331 0 0.01344576801394029 0.18333649714282829 0 0.038253593423599221 0.17847354739248331 0 0.022769015454990969 0.190333554004154 0 0.021797721040093369 0.1771571729538918 0 0.030847531496448768 0.16754118770592261 0 0.038253593423599221 0.17847354739248331 0 0.01344576801394029 0.18333649714282829 0 0.038253593423599221 0.17847354739248331 0 0.01344576801394029 0.18333649714282829 0 0.021797721040093369 0.1771571729538918 0 0.038253593423599221 0.17847354739248331 0 0.014560329739494849 0.16825179924619421 0 0.0110681233264436 0.1573733236431068 0 0.022154673091015119 0.1611381566176823 0 0.014560329739494849 0.16825179924619421 0 0.021797721040093369 0.1771571729538918 0 0.022340063841763031 0.16852207913092271 0 0.014560329739494849 0.16825179924619421 0 0.022154673091015119 0.1611381566176823 0 0.022340063841763031 0.16852207913092271 0 0.022154673091015119 0.1611381566176823 0 0.022340063841763031 0.16852207913092271 0 0.030847531496448768 0.16754118770592261 0 0.021797721040093369 0.1771571729538918 0 0.022340063841763031 0.16852207913092271 0 0.030847531496448768 0.16754118770592261 0 0.022154673091015119 0.1611381566176823 0 0.030847531496448768 0.16754118770592261 0 0.031928509114905343 0.15451844293024181 0 0.030847531496448768 0.16754118770592261 0 0.043173319141048813 0.1624415124190309 0 0.031928509114905343 0.15451844293024181 0 0.030847531496448768 0.16754118770592261 0 0.043173319141048813 0.1624415124190309 0 0.038253593423599221 0.17847354739248331 0 0.047127377470138218 0.17918339869784669 0 0.022769015454990969 0.190333554004154 0 0.043173319141048813 0.1624415124190309 0 0.038253593423599221 0.17847354739248331 0 0.056485625629878911 0.17489961638475801 0 0.038253593423599221 0.17847354739248331 0 0.047127377470138218 0.17918339869784669 0 0.022769015454990969 0.190333554004154 0 0.038253593423599221 0.17847354739248331 0 0.047127377470138218 0.17918339869784669 0 0.038253593423599221 0.17847354739248331 0 0.056485625629878911 0.17489961638475801 0 0.047127377470138218 0.17918339869784669 0 0.065623261246508441 0.18066296222720979 0 0.047127377470138218 0.17918339869784669 0 0.056485625629878911 0.17489961638475801 0 0.065623261246508441 0.18066296222720979 0 0.047127377470138218 0.17918339869784669 0 0.055093819004974121 0.1959430952038777 0 0.065623261246508441 0.18066296222720979 0 0.038253593423599221 0.17847354739248331 0 0.047127377470138218 0.17918339869784669 0 0.056485625629878911 0.17489961638475801 0 0.047127377470138218 0.17918339869784669 0 0.056485625629878911 0.17489961638475801 0 0.043173319141048813 0.1624415124190309 0 0.056485625629878911 0.17489961638475801 0 0.058794076833276102 0.1524899975488046 0 0.058794076833276102 0.1524899975488046 0 0.05850255178466373 0.13195961314861809 0 0.04391139364111854 0.1457688038131546 0 0.043173319141048813 0.1624415124190309 0 0.058794076833276102 0.1524899975488046 0 0.04391139364111854 0.1457688038131546 0 0.053559097572028549 0.1177276241394728 0 0.05850255178466373 0.13195961314861809 0 0.043381788998227852 0.1305035565938257 0 0.05850255178466373 0.13195961314861809 0 0.043381788998227852 0.1305035565938257 0 0.04391139364111854 0.1457688038131546 0 0.030522072677631139 0.1404017512652381 0 0.043381788998227852 0.1305035565938257 0 0.04391139364111854 0.1457688038131546 0 0.04041231452871568 0.11808681884184651 0 0.029556306321531479 0.12785875760749399 0 0.043381788998227852 0.1305035565938257 0 0.030522072677631139 0.1404017512652381 0 0.029556306321531479 0.12785875760749399 0 0.043381788998227852 0.1305035565938257 0 0.030522072677631139 0.1404017512652381 0 0.031928509114905343 0.15451844293024181 0 0.04391139364111854 0.1457688038131546 0 0.043173319141048813 0.1624415124190309 0 0.031928509114905343 0.15451844293024181 0 0.04391139364111854 0.1457688038131546 0 0.016413041927559369 0.24081410970564679 0 0.02600312488796469 0.23611824814666049 0 0.032250197965227448 0.244401837527949 0 0.016413041927559369 0.24081410970564679 0 0.032250197965227448 0.244401837527949 0 0.032626396092040141 0.25711921094718598 0 0.016413041927559369 0.24081410970564679 0 0.032626396092040141 0.25711921094718598 0 -0.0056995695430253424 0.24881063984595411 0 0.016413041927559369 0.24081410970564679 0 0.01026063558519786 0.25922996976751439 0 -0.0056995695430253424 0.24881063984595411 0 0.016413041927559369 0.24081410970564679 0 0.00019968776307876379 0.22450900846410751 0 0.016413041927559369 0.24081410970564679 0 0.00019968776307876379 0.22450900846410751 0 0.014385212286278631 0.22153524691187931 0 0.016413041927559369 0.24081410970564679 0 0.00019968776307876379 0.22450900846410751 0 0.00019968776307876379 0.22450900846410751 0 0.014385212286278631 0.22153524691187931 0 0.014385212286278631 0.22153524691187931 0 0.040416278779897202 0.21607826260540691 0 0.016413041927559369 0.24081410970564679 0 0.02600312488796469 0.23611824814666049 0 0.014385212286278631 0.22153524691187931 0 0.02600312488796469 0.23611824814666049 0 0.014385212286278631 0.22153524691187931 0 0.034226317999815632 0.22844232981072279 0 0.014385212286278631 0.22153524691187931 0 0.040416278779897202 0.21607826260540691 0 0.034226317999815632 0.22844232981072279 0 0.02600312488796469 0.23611824814666049 0 0.014385212286278631 0.22153524691187931 0 0.014385212286278631 0.22153524691187931 0 0.022769015454990969 0.190333554004154 0 0.040416278779897202 0.21607826260540691 0 -0.001589346560153329 0.20148370931046791 0 0.014385212286278631 0.22153524691187931 0 -0.001589346560153329 0.20148370931046791 0 0.014385212286278631 0.22153524691187931 0 0.022769015454990969 0.190333554004154 0 -0.001589346560153329 0.20148370931046791 0 0.00019968776307876379 0.22450900846410751 0 0.014385212286278631 0.22153524691187931 0 -0.001589346560153329 0.20148370931046791 0 0.01344576801394029 0.18333649714282829 0 0.022769015454990969 0.190333554004154 0 -0.0066629366953797724 0.18999833803222901 0 0.01344576801394029 0.18333649714282829 0 0.0017311615861355901 0.19160618149517469 0 -0.001589346560153329 0.20148370931046791 0 0.01344576801394029 0.18333649714282829 0 0.0017311615861355901 0.19160618149517469 0 -0.001589346560153329 0.20148370931046791 0 0.022769015454990969 0.190333554004154 0 0.040648565953369603 0.19480945965854901 0 0.055093819004974121 0.1959430952038777 0 0.040416278779897202 0.21607826260540691 0 0.022769015454990969 0.190333554004154 0 0.040648565953369603 0.19480945965854901 0 0.040416278779897202 0.21607826260540691 0 0.047127377470138218 0.17918339869784669 0 0.022769015454990969 0.190333554004154 0 0.040648565953369603 0.19480945965854901 0 0.047127377470138218 0.17918339869784669 0 0.040648565953369603 0.19480945965854901 0 0.055093819004974121 0.1959430952038777 0 0.040416278779897202 0.21607826260540691 0 0.056684753887975781 0.22232233426345119 0 0.06644734527351584 0.2106212782989339 0 0.055093819004974121 0.1959430952038777 0 0.040416278779897202 0.21607826260540691 0 0.06644734527351584 0.2106212782989339 0 0.040416278779897202 0.21607826260540691 0 0.06644734527351584 0.2106212782989339 0 0.02600312488796469 0.23611824814666049 0 0.034226317999815632 0.22844232981072279 0 0.040607710297638891 0.2378299330458655 0 0.034226317999815632 0.22844232981072279 0 0.048765022939919432 0.22922448086969791 0 0.040607710297638891 0.2378299330458655 0 0.040416278779897202 0.21607826260540691 0 0.034226317999815632 0.22844232981072279 0 0.048765022939919432 0.22922448086969791 0 0.040416278779897202 0.21607826260540691 0 0.056684753887975781 0.22232233426345119 0 0.048765022939919432 0.22922448086969791 0 0.062126650548652733 0.2285351296456625 0 0.048765022939919432 0.22922448086969791 0 0.055429071105777911 0.23892038012566641 0 0.056684753887975781 0.22232233426345119 0 0.062126650548652733 0.2285351296456625 0 0.048765022939919432 0.22922448086969791 0 0.048765022939919432 0.22922448086969791 0 0.055429071105777911 0.23892038012566641 0 0.040607710297638891 0.2378299330458655 0 0.055429071105777911 0.23892038012566641 0 0.055297548381604437 0.249518344159599 0 0.064262919428539261 0.24528358325525779 0 0.055429071105777911 0.23892038012566641 0 0.040607710297638891 0.2378299330458655 0 0.045600716620934179 0.25012768579438599 0 0.055429071105777911 0.23892038012566641 0 0.055297548381604437 0.249518344159599 0 0.045600716620934179 0.25012768579438599 0 0.040607710297638891 0.2378299330458655 0 0.032250197965227448 0.244401837527949 0 0.045600716620934179 0.25012768579438599 0 0.02600312488796469 0.23611824814666049 0 0.040607710297638891 0.2378299330458655 0 0.032250197965227448 0.244401837527949 0 0.086381384202169925 0.24861796181918919 0 0.070022411318448094 0.2334406816392128 0 0.09361020234983114 0.22458362897478981 0 0.064262919428539261 0.24528358325525779 0 0.070022411318448094 0.2334406816392128 0 0.063964088952372614 0.25799115617148111 0 0.086381384202169925 0.24861796181918919 0 0.070022411318448094 0.2334406816392128 0 0.063964088952372614 0.25799115617148111 0 0.070022411318448094 0.2334406816392128 0 0.063964088952372614 0.25799115617148111 0 0.055429071105777911 0.23892038012566641 0 0.070022411318448094 0.2334406816392128 0 0.055429071105777911 0.23892038012566641 0 0.064262919428539261 0.24528358325525779 0 0.070022411318448094 0.2334406816392128 0 0.071585252678507294 0.22710749322669849 0 0.070022411318448094 0.2334406816392128 0 0.077645421223554084 0.2237962945533217 0 0.071585252678507294 0.22710749322669849 0 0.070022411318448094 0.2334406816392128 0 0.062126650548652733 0.2285351296456625 0 0.055429071105777911 0.23892038012566641 0 0.070022411318448094 0.2334406816392128 0 0.062126650548652733 0.2285351296456625 0 0.071585252678507294 0.22710749322669849 0 0.070022411318448094 0.2334406816392128 0 0.056684753887975781 0.22232233426345119 0 0.062126650548652733 0.2285351296456625 0 0.070273391361287726 0.22019540774924809 0 0.062126650548652733 0.2285351296456625 0 0.071585252678507294 0.22710749322669849 0 0.070273391361287726 0.22019540774924809 0 0.070273391361287726 0.22019540774924809 0 0.077645421223554084 0.2237962945533217 0 0.080895548687430485 0.21542131408849011 0 0.071585252678507294 0.22710749322669849 0 0.070273391361287726 0.22019540774924809 0 0.077645421223554084 0.2237962945533217 0 0.070022411318448094 0.2334406816392128 0 0.09361020234983114 0.22458362897478981 0 0.070022411318448094 0.2334406816392128 0 0.077645421223554084 0.2237962945533217 0 0.09361020234983114 0.22458362897478981 0 0.077645421223554084 0.2237962945533217 0 0.09361020234983114 0.22458362897478981 0 0.080895548687430485 0.21542131408849011 0 0.09247841176713445 0.20516429399246081 0 0.06644734527351584 0.2106212782989339 0 0.086251184782981091 0.1943358166954767 0 0.09361020234983114 0.22458362897478981 0 0.09247841176713445 0.20516429399246081 0 0.080895548687430485 0.21542131408849011 0 0.09247841176713445 0.20516429399246081 0 0.080895548687430485 0.21542131408849011 0 0.06644734527351584 0.2106212782989339 0 0.09247841176713445 0.20516429399246081 0 0.06644734527351584 0.2106212782989339 0 0.070273391361287726 0.22019540774924809 0 0.080895548687430485 0.21542131408849011 0 0.06644734527351584 0.2106212782989339 0 0.056684753887975781 0.22232233426345119 0 0.070273391361287726 0.22019540774924809 0 0.06644734527351584 0.2106212782989339 0 0.055093819004974121 0.1959430952038777 0 0.071506951066171401 0.19274113563641379 0 0.065623261246508441 0.18066296222720979 0 0.06644734527351584 0.2106212782989339 0 0.071506951066171401 0.19274113563641379 0 0.086251184782981091 0.1943358166954767 0 0.055093819004974121 0.1959430952038777 0 0.06644734527351584 0.2106212782989339 0 0.071506951066171401 0.19274113563641379 0 0.086251184782981091 0.1943358166954767 0 0.084119145022878816 0.18214252575657089 0 0.071506951066171401 0.19274113563641379 0 0.086251184782981091 0.1943358166954767 0 0.084119145022878816 0.18214252575657089 0 0.09247841176713445 0.20516429399246081 0 0.086251184782981091 0.1943358166954767 0 0.09898042539168489 0.1911011018320935 0 0.086251184782981091 0.1943358166954767 0 0.09898042539168489 0.1911011018320935 0 0.090966731829053238 0.1826902930233269 0 0.09247841176713445 0.20516429399246081 0 0.09898042539168489 0.1911011018320935 0 0.1185094782607532 0.19970730968598771 0 0.09247841176713445 0.20516429399246081 0 0.1185094782607532 0.19970730968598771 0 0.09898042539168489 0.1911011018320935 0 0.1228441540104533 0.19033184824574251 0 0.10850584336214859 0.18415170571076639 0 0.09898042539168489 0.1911011018320935 0 0.1228441540104533 0.19033184824574251 0 0.1185094782607532 0.19970730968598771 0 0.09898042539168489 0.1911011018320935 0 0.1228441540104533 0.19033184824574251 0 0.12340497517282351 0.20714093835431591 0 0.1171979933812142 0.21572657631036701 0 0.1331838075224718 0.20972401347841649 0 0.1127789313825087 0.2094136692185509 0 0.12340497517282351 0.20714093835431591 0 0.1171979933812142 0.21572657631036701 0 0.1185094782607532 0.19970730968598771 0 0.1127789313825087 0.2094136692185509 0 0.12340497517282351 0.20714093835431591 0 0.1127789313825087 0.2094136692185509 0 0.1157743272304349 0.21626115311992211 0 0.10583062116142811 0.21125094444485201 0 0.1171979933812142 0.21572657631036701 0 0.1157743272304349 0.21626115311992211 0 0.1127789313825087 0.2094136692185509 0 0.1171979933812142 0.21572657631036701 0 0.1157743272304349 0.21626115311992211 0 0.09361020234983114 0.22458362897478981 0 0.09247841176713445 0.20516429399246081 0 0.10235342746977261 0.214331410730766 0 0.1157743272304349 0.21626115311992211 0 0.10583062116142811 0.21125094444485201 0 0.10235342746977261 0.214331410730766 0 0.09247841176713445 0.20516429399246081 0 0.1185094782607532 0.19970730968598771 0 0.1127789313825087 0.2094136692185509 0 0.09247841176713445 0.20516429399246081 0 0.1127789313825087 0.2094136692185509 0 0.10583062116142811 0.21125094444485201 0 0.09361020234983114 0.22458362897478981 0 0.1157743272304349 0.21626115311992211 0 0.10235342746977261 0.214331410730766 0 0.09247841176713445 0.20516429399246081 0 0.10583062116142811 0.21125094444485201 0 0.10235342746977261 0.214331410730766 0 0.09361020234983114 0.22458362897478981 0 0.1157743272304349 0.21626115311992211 0 0.11127490779096991 0.22877442463444109 0 0.09361020234983114 0.22458362897478981 0 0.1157743272304349 0.21626115311992211 0 0.09361020234983114 0.22458362897478981 0 0.11127490779096991 0.22877442463444109 0 0.10937537131814699 0.24297727822045739 0 0.11127490779096991 0.22877442463444109 0 0.10937537131814699 0.24297727822045739 0 0.12519039915036981 0.229640952798669 0 0.1171979933812142 0.21572657631036701 0 0.1157743272304349 0.21626115311992211 0 0.11127490779096991 0.22877442463444109 0 0.1171979933812142 0.21572657631036701 0 0.11127490779096991 0.22877442463444109 0 0.12519039915036981 0.229640952798669 0 0.10937537131814699 0.24297727822045739 0 0.12811207241051631 0.2456379328732762 0 0.12519039915036981 0.229640952798669 0 0.086381384202169925 0.24861796181918919 0 0.09361020234983114 0.22458362897478981 0 0.10937537131814699 0.24297727822045739 0 0.075998012317486013 0.13569717530706021 0 0.080898675801190589 0.16372442731656131 0 0.075998012317486013 0.13569717530706021 0 0.080898675801190589 0.16372442731656131 0 0.1017999038070096 0.15415679143805841 0 0.082090926209860471 0.1205723658178179 0 0.075998012317486013 0.13569717530706021 0 0.10118583527366309 0.1314961729504136 0 0.075998012317486013 0.13569717530706021 0 0.1017999038070096 0.15415679143805841 0 0.10118583527366309 0.1314961729504136 0 0.058794076833276102 0.1524899975488046 0 0.05850255178466373 0.13195961314861809 0 0.075998012317486013 0.13569717530706021 0 0.064204244060129534 0.1206251093654561 0 0.05850255178466373 0.13195961314861809 0 0.075998012317486013 0.13569717530706021 0 0.058794076833276102 0.1524899975488046 0 0.075998012317486013 0.13569717530706021 0 0.080898675801190589 0.16372442731656131 0 0.056485625629878911 0.17489961638475801 0 0.080898675801190589 0.16372442731656131 0 0.056485625629878911 0.17489961638475801 0 0.069476900785133189 0.17235300388528829 0 0.080898675801190589 0.16372442731656131 0 0.056485625629878911 0.17489961638475801 0 0.058794076833276102 0.1524899975488046 0 0.080898675801190589 0.16372442731656131 0 0.069476900785133189 0.17235300388528829 0 0.082756593862614428 0.17434999626104641 0 0.080898675801190589 0.16372442731656131 0 0.071506951066171401 0.19274113563641379 0 0.065623261246508441 0.18066296222720979 0 0.084119145022878816 0.18214252575657089 0 0.065623261246508441 0.18066296222720979 0 0.084119145022878816 0.18214252575657089 0 0.065623261246508441 0.18066296222720979 0 0.069476900785133189 0.17235300388528829 0 0.082756593862614428 0.17434999626104641 0 0.065623261246508441 0.18066296222720979 0 0.084119145022878816 0.18214252575657089 0 0.082756593862614428 0.17434999626104641 0 0.056485625629878911 0.17489961638475801 0 0.065623261246508441 0.18066296222720979 0 0.069476900785133189 0.17235300388528829 0 0.056485625629878911 0.17489961638475801 0 0.069476900785133189 0.17235300388528829 0 0.084119145022878816 0.18214252575657089 0 0.082756593862614428 0.17434999626104641 0 0.082756593862614428 0.17434999626104641 0 0.090966731829053238 0.1826902930233269 0 0.096370582305789487 0.17499806648632499 0 0.084119145022878816 0.18214252575657089 0 0.082756593862614428 0.17434999626104641 0 0.090966731829053238 0.1826902930233269 0 0.086251184782981091 0.1943358166954767 0 0.084119145022878816 0.18214252575657089 0 0.090966731829053238 0.1826902930233269 0 0.084119145022878816 0.18214252575657089 0 0.090966731829053238 0.1826902930233269 0 0.082756593862614428 0.17434999626104641 0 0.080898675801190589 0.16372442731656131 0 0.10272886283772389 0.15946957591030539 0 0.082756593862614428 0.17434999626104641 0 0.10272886283772389 0.15946957591030539 0 0.080898675801190589 0.16372442731656131 0 0.1017999038070096 0.15415679143805841 0 0.082756593862614428 0.17434999626104641 0 0.080898675801190589 0.16372442731656131 0 0.080898675801190589 0.16372442731656131 0 0.10272886283772389 0.15946957591030539 0 0.1017999038070096 0.15415679143805841 0 0.10272886283772389 0.15946957591030539 0 0.096370582305789487 0.17499806648632499 0 0.1058241150463097 0.17632620238595731 0 0.082756593862614428 0.17434999626104641 0 0.10272886283772389 0.15946957591030539 0 0.096370582305789487 0.17499806648632499 0 0.10272886283772389 0.15946957591030539 0 0.1058241150463097 0.17632620238595731 0 0.1171649848546237 0.17137722049827561 0 0.090966731829053238 0.1826902930233269 0 0.099576607953246743 0.18215426485098929 0 0.096370582305789487 0.17499806648632499 0 0.09898042539168489 0.1911011018320935 0 0.090966731829053238 0.1826902930233269 0 0.099576607953246743 0.18215426485098929 0 0.099576607953246743 0.18215426485098929 0 0.096370582305789487 0.17499806648632499 0 0.1058241150463097 0.17632620238595731 0 0.09898042539168489 0.1911011018320935 0 0.099576607953246743 0.18215426485098929 0 0.10850584336214859 0.18415170571076639 0 0.099576607953246743 0.18215426485098929 0 0.1058241150463097 0.17632620238595731 0 0.10850584336214859 0.18415170571076639 0 0.1228441540104533 0.19033184824574251 0 0.10850584336214859 0.18415170571076639 0 0.11530391440904821 0.18084511123904959 0 0.1058241150463097 0.17632620238595731 0 0.10850584336214859 0.18415170571076639 0 0.11530391440904821 0.18084511123904959 0 0.1058241150463097 0.17632620238595731 0 0.11530391440904821 0.18084511123904959 0 0.1171649848546237 0.17137722049827561 0 0.11530391440904821 0.18084511123904959 0 0.1236644051517084 0.17810696910116591 0 0.1171649848546237 0.17137722049827561 0 0.1236644051517084 0.17810696910116591 0 0.1171649848546237 0.17137722049827561 0 0.1289489498503453 0.17010647560358971 0 0.1228441540104533 0.19033184824574251 0 0.11530391440904821 0.18084511123904959 0 0.1236644051517084 0.17810696910116591 0 0.10272886283772389 0.15946957591030539 0 0.1171649848546237 0.17137722049827561 0 0.1249149733312704 0.15998231572783361 0 0.1171649848546237 0.17137722049827561 0 0.1249149733312704 0.15998231572783361 0 0.1289489498503453 0.17010647560358971 0 0.10272886283772389 0.15946957591030539 0 0.1249149733312704 0.15998231572783361 0 0.1227011318128314 0.14458915555956151 0 0.1227011318128314 0.14458915555956151 0 0.1017999038070096 0.15415679143805841 0 0.10272886283772389 0.15946957591030539 0 0.1227011318128314 0.14458915555956151 0 0.10272886283772389 0.15946957591030539 0 0.1227011318128314 0.14458915555956151 0 0.1017999038070096 0.15415679143805841 0 0.1227011318128314 0.14458915555956151 0 0.1017999038070096 0.15415679143805841 0 0.10118583527366309 0.1314961729504136 0 0.1215951808840359 0.121275415706405 0 0.1227011318128314 0.14458915555956151 0 0.10118583527366309 0.1314961729504136 0 0.1227011318128314 0.14458915555956151 0 0.14475045543133369 0.13449597348957429 0 0.1227011318128314 0.14458915555956151 0 0.1436180987418452 0.12900488415033171 0 0.1227011318128314 0.14458915555956151 0 0.1436180987418452 0.12900488415033171 0 0.14475045543133369 0.13449597348957429 0 0.1215951808840359 0.121275415706405 0 0.1227011318128314 0.14458915555956151 0 0.1436180987418452 0.12900488415033171 0 0.1436180987418452 0.12900488415033171 0 0.14475045543133369 0.13449597348957429 0 0.16679977904983581 0.1244027914195862 0 0.14475045543133369 0.13449597348957429 0 0.16679977904983581 0.1244027914195862 0 0.14475045543133369 0.13449597348957429 0 0.16154787050135219 0.13183135707003091 0 0.15669917128805669 0.14215531907669249 0 0.14792703428647411 0.14674124334546271 0 0.15130586701713919 0.1566083572378858 0 0.15669917128805669 0.14215531907669249 0 0.14475045543133369 0.13449597348957429 0 0.14792703428647411 0.14674124334546271 0 0.15669917128805669 0.14215531907669249 0 0.14475045543133369 0.13449597348957429 0 0.14792703428647411 0.14674124334546271 0 0.13805075287944071 0.14895061636925061 0 0.14792703428647411 0.14674124334546271 0 0.13805075287944071 0.14895061636925061 0 0.15130586701713919 0.1566083572378858 0 0.1227011318128314 0.14458915555956151 0 0.14475045543133369 0.13449597348957429 0 0.13805075287944071 0.14895061636925061 0 0.1249149733312704 0.15998231572783361 0 0.1227011318128314 0.14458915555956151 0 0.13805075287944071 0.14895061636925061 0 0.1249149733312704 0.15998231572783361 0 0.13805075287944071 0.14895061636925061 0 0.13989515775265859 0.16540085042602071 0 0.1249149733312704 0.15998231572783361 0 0.1289489498503453 0.17010647560358971 0 0.13989515775265859 0.16540085042602071 0 0.1289489498503453 0.17010647560358971 0 0.13989515775265859 0.16540085042602071 0 0.13395112079943139 0.1778463957510249 0 0.1228441540104533 0.19033184824574251 0 0.13395112079943139 0.1778463957510249 0 0.1392702107163914 0.18391856976926521 0 0.1228441540104533 0.19033184824574251 0 0.1236644051517084 0.17810696910116591 0 0.13395112079943139 0.1778463957510249 0 0.1236644051517084 0.17810696910116591 0 0.1289489498503453 0.17010647560358971 0 0.13395112079943139 0.1778463957510249 0 0.13989515775265859 0.16540085042602071 0 0.13395112079943139 0.1778463957510249 0 0.1463373865220223 0.17743701004328941 0 0.13395112079943139 0.1778463957510249 0 0.1392702107163914 0.18391856976926521 0 0.1463373865220223 0.17743701004328941 0 0.1392702107163914 0.18391856976926521 0 0.14650133494728829 0.18370584295188941 0 0.14670788262922169 0.18956259465939149 0 0.1392702107163914 0.18391856976926521 0 0.14650133494728829 0.18370584295188941 0 0.1463373865220223 0.17743701004328941 0 0.1463373865220223 0.17743701004328941 0 0.15384068324999081 0.16875033747909579 0 0.1583219095875254 0.17931804075545821 0 0.1463373865220223 0.17743701004328941 0 0.1536898599215176 0.1839051973356117 0 0.1583219095875254 0.17931804075545821 0 0.14650133494728829 0.18370584295188941 0 0.1463373865220223 0.17743701004328941 0 0.1536898599215176 0.1839051973356117 0 0.14650133494728829 0.18370584295188941 0 0.1536898599215176 0.1839051973356117 0 0.14670788262922169 0.18956259465939149 0 0.13805075287944071 0.14895061636925061 0 0.13989515775265859 0.16540085042602071 0 0.15130586701713919 0.1566083572378858 0 0.13989515775265859 0.16540085042602071 0 0.15384068324999081 0.16875033747909579 0 0.15130586701713919 0.1566083572378858 0 0.13989515775265859 0.16540085042602071 0 0.1463373865220223 0.17743701004328941 0 0.15384068324999081 0.16875033747909579 0 0.15384068324999081 0.16875033747909579 0 0.15130586701713919 0.1566083572378858 0 0.1647683098784371 0.16523683234963829 0 0.15384068324999081 0.16875033747909579 0 0.1647683098784371 0.16523683234963829 0 0.16406799248655221 0.1780833794559632 0 0.1647683098784371 0.16523683234963829 0 0.17303165469957299 0.1759533865728411 0 0.1748365875767727 0.16337534665222181 0 0.1647683098784371 0.16523683234963829 0 0.1748365875767727 0.16337534665222181 0 0.16657324275563681 0.1526587924290185 0 0.1647683098784371 0.16523683234963829 0 0.16406799248655221 0.1780833794559632 0 0.17297640346832069 0.18871582196152781 0 0.1647683098784371 0.16523683234963829 0 0.17297640346832069 0.18871582196152781 0 0.1536898599215176 0.1839051973356117 0 0.1583219095875254 0.17931804075545821 0 0.1705716112479902 0.18879334107304099 0 0.1536898599215176 0.1839051973356117 0 0.14670788262922169 0.18956259465939149 0 0.1705716112479902 0.18879334107304099 0 0.1647683098784371 0.16523683234963829 0 0.17303165469957299 0.1759533865728411 0 0.17297640346832069 0.18871582196152781 0 0.15384068324999081 0.16875033747909579 0 0.1583219095875254 0.17931804075545821 0 0.16406799248655221 0.1780833794559632 0 0.1583219095875254 0.17931804075545821 0 0.16406799248655221 0.1780833794559632 0 0.1705716112479902 0.18879334107304099 0 0.16406799248655221 0.1780833794559632 0 0.1705716112479902 0.18879334107304099 0 0.17297640346832069 0.18871582196152781 0 0.17968427287426489 0.18688302166692189 0 0.17303165469957299 0.1759533865728411 0 0.1748365875767727 0.16337534665222181 0 0.17968427287426489 0.18688302166692189 0 0.1748365875767727 0.16337534665222181 0 0.17968427287426489 0.18688302166692189 0 0.1800154359802057 0.18848891689188291 0 0.19594718793240021 0.18347376940783641 0 0.18539188775458659 0.17342455803002879 0 0.17968427287426489 0.18688302166692189 0 0.1748365875767727 0.16337534665222181 0 0.18539188775458659 0.17342455803002879 0 0.17968427287426489 0.18688302166692189 0 0.19594718793240021 0.18347376940783641 0 0.17968427287426489 0.18688302166692189 0 0.17303165469957299 0.1759533865728411 0 0.17297640346832069 0.18871582196152781 0 0.18539188775458659 0.17342455803002879 0 0.1748365875767727 0.16337534665222181 0 0.19109950263490849 0.15996609439313539 0 0.16998890227928101 0.1398676716375214 0 0.19109950263490849 0.15996609439313539 0 0.1748365875767727 0.16337534665222181 0 0.16998890227928101 0.1398676716375214 0 0.19109950263490849 0.15996609439313539 0 0.1748365875767727 0.16337534665222181 0 0.16998890227928101 0.1398676716375214 0 0.16998890227928101 0.1398676716375214 0 0.19356516006555999 0.1381525739661425 0 0.19109950263490849 0.15996609439313539 0 0.18047224869311551 0.1296445599867028 0 0.16998890227928101 0.1398676716375214 0 0.19356516006555999 0.1381525739661425 0 0.18047224869311551 0.1296445599867028 0 0.16998890227928101 0.1398676716375214 0 0.16679977904983581 0.1244027914195862 0 0.16998890227928101 0.1398676716375214 0 0.16154787050135219 0.13183135707003091 0 0.14475045543133369 0.13449597348957429 0 0.16154787050135219 0.13183135707003091 0 0.16679977904983581 0.1244027914195862 0 0.16998890227928101 0.1398676716375214 0 0.16154787050135219 0.13183135707003091 0 0.16679977904983581 0.1244027914195862 0 0.16998890227928101 0.1398676716375214 0 0.16679977904983581 0.1244027914195862 0 0.16998890227928101 0.1398676716375214 0 0.16154787050135219 0.13183135707003091 0 0.15669917128805669 0.14215531907669249 0 0.1748365875767727 0.16337534665222181 0 0.16998890227928101 0.1398676716375214 0 0.16657324275563681 0.1526587924290185 0 0.1647683098784371 0.16523683234963829 0 0.15669917128805669 0.14215531907669249 0 0.16657324275563681 0.1526587924290185 0 0.15130586701713919 0.1566083572378858 0 0.1647683098784371 0.16523683234963829 0 0.15669917128805669 0.14215531907669249 0 0.1647683098784371 0.16523683234963829 0 0.15669917128805669 0.14215531907669249 0 0.16998890227928101 0.1398676716375214 0 0.15669917128805669 0.14215531907669249 0 0.16657324275563681 0.1526587924290185 0 0.14134015425902 0.2343946335940853 0 0.156309635178044 0.24192708784607339 0 0.14640669834802569 0.25564940172523481 0 0.14134015425902 0.2343946335940853 0 0.12811207241051631 0.2456379328732762 0 0.12519039915036981 0.229640952798669 0 0.14134015425902 0.2343946335940853 0 0.12811207241051631 0.2456379328732762 0 0.14640669834802569 0.25564940172523481 0 0.14134015425902 0.2343946335940853 0 0.12519039915036981 0.229640952798669 0 0.1372072283596022 0.21077464893535749 0 0.14134015425902 0.2343946335940853 0 0.15442575292642319 0.22276357140898509 0 0.156309635178044 0.24192708784607339 0 0.14134015425902 0.2343946335940853 0 0.15442575292642319 0.22276357140898509 0 0.1372072283596022 0.21077464893535749 0 0.1372072283596022 0.21077464893535749 0 0.15721646333799011 0.20582272156034789 0 0.14916962166372949 0.2037214506464661 0 0.1331838075224718 0.20972401347841649 0 0.14916962166372949 0.2037214506464661 0 0.1372072283596022 0.21077464893535749 0 0.15721646333799011 0.20582272156034789 0 0.15442575292642319 0.22276357140898509 0 0.1372072283596022 0.21077464893535749 0 0.15721646333799011 0.20582272156034789 0 0.14916962166372949 0.2037214506464661 0 0.1331838075224718 0.20972401347841649 0 0.1337773626497325 0.20311618704407389 0 0.14916962166372949 0.2037214506464661 0 0.1372072283596022 0.21077464893535749 0 0.1331838075224718 0.20972401347841649 0 0.1171979933812142 0.21572657631036701 0 0.1331838075224718 0.20972401347841649 0 0.1171979933812142 0.21572657631036701 0 0.1372072283596022 0.21077464893535749 0 0.1331838075224718 0.20972401347841649 0 0.1171979933812142 0.21572657631036701 0 0.1372072283596022 0.21077464893535749 0 0.1171979933812142 0.21572657631036701 0 0.12519039915036981 0.229640952798669 0 0.1372072283596022 0.21077464893535749 0 0.1185094782607532 0.19970730968598771 0 0.12340497517282351 0.20714093835431591 0 0.1337773626497325 0.20311618704407389 0 0.12340497517282351 0.20714093835431591 0 0.1331838075224718 0.20972401347841649 0 0.1337773626497325 0.20311618704407389 0 0.1185094782607532 0.19970730968598771 0 0.1445405447543717 0.1942503253795147 0 0.1228441540104533 0.19033184824574251 0 0.1185094782607532 0.19970730968598771 0 0.1445405447543717 0.1942503253795147 0 0.1228441540104533 0.19033184824574251 0 0.1392702107163914 0.18391856976926521 0 0.14670788262922169 0.18956259465939149 0 0.1228441540104533 0.19033184824574251 0 0.1445405447543717 0.1942503253795147 0 0.14670788262922169 0.18956259465939149 0 0.1185094782607532 0.19970730968598771 0 0.1337773626497325 0.20311618704407389 0 0.1445405447543717 0.1942503253795147 0 0.1228441540104533 0.19033184824574251 0 0.14670788262922169 0.18956259465939149 0 0.1445405447543717 0.1942503253795147 0 0.14670788262922169 0.18956259465939149 0 0.1705716112479902 0.18879334107304099 0 0.14916962166372949 0.2037214506464661 0 0.1337773626497325 0.20311618704407389 0 0.1445405447543717 0.1942503253795147 0 0.14916962166372949 0.2037214506464661 0 0.1445405447543717 0.1942503253795147 0 0.15721646333799011 0.20582272156034789 0 0.1705716112479902 0.18879334107304099 0 0.17722569831637791 0.20087079418533829 0 0.15721646333799011 0.20582272156034789 0 0.14670788262922169 0.18956259465939149 0 0.1705716112479902 0.18879334107304099 0 0.1445405447543717 0.1942503253795147 0 0.1705716112479902 0.18879334107304099 0 0.15721646333799011 0.20582272156034789 0 0.1445405447543717 0.1942503253795147 0 0.1705716112479902 0.18879334107304099 0 0.1705716112479902 0.18879334107304099 0 0.17297640346832069 0.18871582196152781 0 0.17297640346832069 0.18871582196152781 0 0.1800154359802057 0.18848891689188291 0 0.1814411832879948 0.195402732931445 0 0.17297640346832069 0.18871582196152781 0 0.1814411832879948 0.195402732931445 0 0.17722569831637791 0.20087079418533829 0 0.1705716112479902 0.18879334107304099 0 0.17297640346832069 0.18871582196152781 0 0.17722569831637791 0.20087079418533829 0 0.1814411832879948 0.195402732931445 0 0.17722569831637791 0.20087079418533829 0 0.20129168053662461 0.19491489450743199 0 0.17297640346832069 0.18871582196152781 0 0.17722569831637791 0.20087079418533829 0 0.17968427287426489 0.18688302166692189 0 0.17297640346832069 0.18871582196152781 0 0.1800154359802057 0.18848891689188291 0 0.17968427287426489 0.18688302166692189 0 0.17297640346832069 0.18871582196152781 0 0.17297640346832069 0.18871582196152781 0 0.1800154359802057 0.18848891689188291 0 0.17968427287426489 0.18688302166692189 0 0.1800154359802057 0.18848891689188291 0 0.1800154359802057 0.18848891689188291 0 0.1814411832879948 0.195402732931445 0 0.17722569831637791 0.20087079418533829 0 0.18311555161741411 0.21771853147734599 0 0.17722569831637791 0.20087079418533829 0 0.18311555161741411 0.21771853147734599 0 0.16877109213005309 0.21735861057854569 0 0.17722569831637791 0.20087079418533829 0 0.1850657203291616 0.2133181242482087 0 0.18311555161741411 0.21771853147734599 0 0.17722569831637791 0.20087079418533829 0 0.1850657203291616 0.2133181242482087 0 0.19078824061891431 0.20200060724102131 0 0.18484137478683041 0.21574459013134689 0 0.18433607412081471 0.22120979712443489 0 0.18484137478683041 0.21574459013134689 0 0.1850657203291616 0.2133181242482087 0 0.18311555161741411 0.21771853147734599 0 0.18484137478683041 0.21574459013134689 0 0.18311555161741411 0.21771853147734599 0 0.18433607412081471 0.22120979712443489 0 0.18484137478683041 0.21574459013134689 0 0.18311555161741411 0.21771853147734599 0 0.18484137478683041 0.21574459013134689 0 0.1850657203291616 0.2133181242482087 0 0.17722569831637791 0.20087079418533829 0 0.16877109213005309 0.21735861057854569 0 0.15721646333799011 0.20582272156034789 0 0.15442575292642319 0.22276357140898509 0 0.16877109213005309 0.21735861057854569 0 0.15721646333799011 0.20582272156034789 0 0.17722569831637791 0.20087079418533829 0 0.15721646333799011 0.20582272156034789 0 0.15442575292642319 0.22276357140898509 0 0.16532180442800001 0.2303426772256697 0 0.156309635178044 0.24192708784607339 0 0.15442575292642319 0.22276357140898509 0 0.16877109213005309 0.21735861057854569 0 0.16532180442800001 0.2303426772256697 0 0.16532180442800001 0.2303426772256697 0 0.17532128215411441 0.22663336761358721 0 0.16932084640681469 0.2402298505246982 0 0.16877109213005309 0.21735861057854569 0 0.16532180442800001 0.2303426772256697 0 0.17532128215411441 0.22663336761358721 0 0.18433607412081471 0.22120979712443489 0 0.17532128215411441 0.22663336761358721 0 0.18183655241779509 0.24824400548678319 0 0.18433607412081471 0.22120979712443489 0 0.18999081994053149 0.23738501697361711 0 0.18311555161741411 0.21771853147734599 0 0.17532128215411441 0.22663336761358721 0 0.18311555161741411 0.21771853147734599 0 0.16877109213005309 0.21735861057854569 0 0.17532128215411441 0.22663336761358721 0 0.18311555161741411 0.21771853147734599 0 0.18433607412081471 0.22120979712443489 0 0.17532128215411441 0.22663336761358721 0 0.18484137478683041 0.21574459013134689 0 0.18433607412081471 0.22120979712443489 0 0.19138760349667189 0.2205683167856996 0 0.18311555161741411 0.21771853147734599 0 0.18433607412081471 0.22120979712443489 0 0.17532128215411441 0.22663336761358721 0 0.18183655241779509 0.24824400548678319 0 0.16932084640681469 0.2402298505246982 0 0.18433607412081471 0.22120979712443489 0 0.18183655241779509 0.24824400548678319 0 0.18999081994053149 0.23738501697361711 0 0.18433607412081471 0.22120979712443489 0 0.18183655241779509 0.24824400548678319 0 0.18183655241779509 0.24824400548678319 0 0.16932084640681469 0.2402298505246982 0 0.16511150178394041 0.25596916607527909 0 0.16932084640681469 0.2402298505246982 0 0.156309635178044 0.24192708784607339 0 0.16511150178394041 0.25596916607527909 0 0.16532180442800001 0.2303426772256697 0 0.16932084640681469 0.2402298505246982 0 0.156309635178044 0.24192708784607339 0 0.21162878896817741 0.2407576271053469 0 0.22287539685364899 0.23970440102010229 0 0.21960299125344371 0.25061575866082519 0 0.21162878896817741 0.2407576271053469 0 0.20553805290600821 0.25503567047266268 0 0.21960299125344371 0.25061575866082519 0 0.21162878896817741 0.2407576271053469 0 0.21853834457928539 0.22732436878248261 0 0.22287539685364899 0.23970440102010229 0 0.21162878896817741 0.2407576271053469 0 0.19696661788618969 0.24550446176998431 0 0.2034155507006693 0.23264404174952541 0 0.21162878896817741 0.2407576271053469 0 0.19696661788618969 0.24550446176998431 0 0.20553805290600821 0.25503567047266268 0 0.18183655241779509 0.24824400548678319 0 0.19696661788618969 0.24550446176998431 0 0.18999081994053149 0.23738501697361711 0 0.19696661788618969 0.24550446176998431 0 0.18999081994053149 0.23738501697361711 0 0.2034155507006693 0.23264404174952541 0 0.18999081994053149 0.23738501697361711 0 0.19535308201266541 0.22643436687948121 0 0.2034155507006693 0.23264404174952541 0 0.18433607412081471 0.22120979712443489 0 0.18999081994053149 0.23738501697361711 0 0.19535308201266541 0.22643436687948121 0 0.18433607412081471 0.22120979712443489 0 0.19138760349667189 0.2205683167856996 0 0.19535308201266541 0.22643436687948121 0 0.19138760349667189 0.2205683167856996 0 0.19535308201266541 0.22643436687948121 0 0.19701922101568689 0.21527825279129309 0 0.19535308201266541 0.22643436687948121 0 0.205755528087291 0.22016110896033891 0 0.2034155507006693 0.23264404174952541 0 0.19535308201266541 0.22643436687948121 0 0.205755528087291 0.22016110896033891 0 0.19701922101568689 0.21527825279129309 0 0.205755528087291 0.22016110896033891 0 0.2034155507006693 0.23264404174952541 0 0.21853834457928539 0.22732436878248261 0 0.21162878896817741 0.2407576271053469 0 0.2034155507006693 0.23264404174952541 0 0.21853834457928539 0.22732436878248261 0 0.205755528087291 0.22016110896033891 0 0.21853834457928539 0.22732436878248261 0 0.21659742092864159 0.21181981117794851 0 0.21659742092864159 0.21181981117794851 0 0.20590735939927321 0.20928950082499739 0 0.21348949990154881 0.1975021110127517 0 0.21659742092864159 0.21181981117794851 0 0.21348949990154881 0.1975021110127517 0 0.2215546002178313 0.20088814835308999 0 0.205755528087291 0.22016110896033891 0 0.21659742092864159 0.21181981117794851 0 0.20590735939927321 0.20928950082499739 0 0.205755528087291 0.22016110896033891 0 0.20590735939927321 0.20928950082499739 0 0.19701922101568689 0.21527825279129309 0 0.18484137478683041 0.21574459013134689 0 0.1850657203291616 0.2133181242482087 0 0.19956986329349241 0.1988986160231066 0 0.18484137478683041 0.21574459013134689 0 0.19956986329349241 0.1988986160231066 0 0.18484137478683041 0.21574459013134689 0 0.19701922101568689 0.21527825279129309 0 0.19956986329349241 0.1988986160231066 0 0.20590735939927321 0.20928950082499739 0 0.19701922101568689 0.21527825279129309 0 0.19956986329349241 0.1988986160231066 0 0.18484137478683041 0.21574459013134689 0 0.19138760349667189 0.2205683167856996 0 0.19701922101568689 0.21527825279129309 0 0.1850657203291616 0.2133181242482087 0 0.19956986329349241 0.1988986160231066 0 0.19078824061891431 0.20200060724102131 0 0.17722569831637791 0.20087079418533829 0 0.19078824061891431 0.20200060724102131 0 0.20129168053662461 0.19491489450743199 0 0.17722569831637791 0.20087079418533829 0 0.20129168053662461 0.19491489450743199 0 0.1800154359802057 0.18848891689188291 0 0.1814411832879948 0.195402732931445 0 0.20129168053662461 0.19491489450743199 0 0.1800154359802057 0.18848891689188291 0 0.2060217246406981 0.187650597317463 0 0.19956986329349241 0.1988986160231066 0 0.19078824061891431 0.20200060724102131 0 0.20129168053662461 0.19491489450743199 0 0.1800154359802057 0.18848891689188291 0 0.20129168053662461 0.19491489450743199 0 0.2060217246406981 0.187650597317463 0 0.20129168053662461 0.19491489450743199 0 0.2060217246406981 0.187650597317463 0 0.2142983518001525 0.1820526419148647 0 0.19956986329349241 0.1988986160231066 0 0.20129168053662461 0.19491489450743199 0 0.2142983518001525 0.1820526419148647 0 0.19956986329349241 0.1988986160231066 0 0.21348949990154881 0.1975021110127517 0 0.2142983518001525 0.1820526419148647 0 0.19956986329349241 0.1988986160231066 0 0.2142983518001525 0.1820526419148647 0 0.20590735939927321 0.20928950082499739 0 0.19956986329349241 0.1988986160231066 0 0.21348949990154881 0.1975021110127517 0 0.21348949990154881 0.1975021110127517 0 0.21888716763897789 0.19435889754265809 0 0.2215546002178313 0.20088814835308999 0 0.21348949990154881 0.1975021110127517 0 0.2142983518001525 0.1820526419148647 0 0.21761173603247069 0.18520716125259501 0 0.21348949990154881 0.1975021110127517 0 0.21888716763897789 0.19435889754265809 0 0.21761173603247069 0.18520716125259501 0 0.22578757063435551 0.19105056539264739 0 0.21888716763897789 0.19435889754265809 0 0.21761173603247069 0.18520716125259501 0 0.22578757063435551 0.19105056539264739 0 0.21888716763897789 0.19435889754265809 0 0.2215546002178313 0.20088814835308999 0 0.2215546002178313 0.20088814835308999 0 0.22977296314496479 0.20011326267498691 0 0.22701107985995519 0.20778285359561649 0 0.22578757063435551 0.19105056539264739 0 0.2215546002178313 0.20088814835308999 0 0.22977296314496479 0.20011326267498691 0 0.22578757063435551 0.19105056539264739 0 0.22977296314496479 0.20011326267498691 0 0.23858071410545889 0.195749067707712 0 0.22578757063435551 0.19105056539264739 0 0.23858071410545889 0.195749067707712 0 0.23573315388871169 0.18554051908952951 0 0.23858071410545889 0.195749067707712 0 0.23573315388871169 0.18554051908952951 0 0.25317992106129272 0.18846692460435269 0 0.23858071410545889 0.195749067707712 0 0.24819076086490249 0.2034194395802591 0 0.25317992106129272 0.18846692460435269 0 0.23858071410545889 0.195749067707712 0 0.23649145881566361 0.20899374188662881 0 0.24819076086490249 0.2034194395802591 0 0.22977296314496479 0.20011326267498691 0 0.23858071410545889 0.195749067707712 0 0.23649145881566361 0.20899374188662881 0 0.23649145881566361 0.20899374188662881 0 0.24819076086490249 0.2034194395802591 0 0.2496020388829098 0.2174496008327092 0 0.23649145881566361 0.20899374188662881 0 0.2496020388829098 0.2174496008327092 0 0.23563906704522031 0.22360512569537691 0 0.23649145881566361 0.20899374188662881 0 0.2271157141489247 0.21634326353949171 0 0.23563906704522031 0.22360512569537691 0 0.23649145881566361 0.20899374188662881 0 0.2271157141489247 0.21634326353949171 0 0.22701107985995519 0.20778285359561649 0 0.22977296314496479 0.20011326267498691 0 0.23649145881566361 0.20899374188662881 0 0.22701107985995519 0.20778285359561649 0 0.21659742092864159 0.21181981117794851 0 0.2215546002178313 0.20088814835308999 0 0.22701107985995519 0.20778285359561649 0 0.21853834457928539 0.22732436878248261 0 0.21659742092864159 0.21181981117794851 0 0.2271157141489247 0.21634326353949171 0 0.21659742092864159 0.21181981117794851 0 0.2271157141489247 0.21634326353949171 0 0.22701107985995519 0.20778285359561649 0 0.21853834457928539 0.22732436878248261 0 0.2271157141489247 0.21634326353949171 0 0.23563906704522031 0.22360512569537691 0 0.21853834457928539 0.22732436878248261 0 0.23563906704522031 0.22360512569537691 0 0.23298685109501749 0.23496936769828641 0 0.21853834457928539 0.22732436878248261 0 0.23298685109501749 0.23496936769828641 0 0.22287539685364899 0.23970440102010229 0 0.2496020388829098 0.2174496008327092 0 0.24442332300999661 0.23079137593239779 0 0.25429160712161381 0.22670675697131451 0 0.2496020388829098 0.2174496008327092 0 0.23563906704522031 0.22360512569537691 0 0.24442332300999661 0.23079137593239779 0 0.23563906704522031 0.22360512569537691 0 0.24442332300999661 0.23079137593239779 0 0.23298685109501749 0.23496936769828641 0 0.24442332300999661 0.23079137593239779 0 0.242133551746054 0.24582125946899899 0 0.23298685109501749 0.23496936769828641 0 0.24442332300999661 0.23079137593239779 0 0.242133551746054 0.24582125946899899 0 0.25303131550129021 0.23735654553870739 0 0.242133551746054 0.24582125946899899 0 0.25421322039033012 0.25011983010618499 0 0.25303131550129021 0.23735654553870739 0 0.242133551746054 0.24582125946899899 0 0.23076984391265709 0.24584645890712861 0 0.23298685109501749 0.23496936769828641 0 0.23076984391265709 0.24584645890712861 0 0.23298685109501749 0.23496936769828641 0 0.22287539685364899 0.23970440102010229 0 0.23076984391265709 0.24584645890712861 0 0.22287539685364899 0.23970440102010229 0 0.21960299125344371 0.25061575866082519 0 0.21493159510114199 0.1283202641525775 0 0.19356516006555999 0.1381525739661425 0 0.21207222559391431 0.1586279103322738 0 0.18047224869311551 0.1296445599867028 0 0.19356516006555999 0.1381525739661425 0 0.1928264860909987 0.11248894329464421 0 0.21493159510114199 0.1283202641525775 0 0.19356516006555999 0.1381525739661425 0 0.1928264860909987 0.11248894329464421 0 0.19356516006555999 0.1381525739661425 0 0.19109950263490849 0.15996609439313539 0 0.21207222559391431 0.1586279103322738 0 0.19109950263490849 0.15996609439313539 0 0.21221010299053519 0.1800645171487503 0 0.19109950263490849 0.15996609439313539 0 0.19594718793240021 0.18347376940783641 0 0.21221010299053519 0.1800645171487503 0 0.18539188775458659 0.17342455803002879 0 0.19109950263490849 0.15996609439313539 0 0.19594718793240021 0.18347376940783641 0 0.17968427287426489 0.18688302166692189 0 0.19594718793240021 0.18347376940783641 0 0.1800154359802057 0.18848891689188291 0 0.2060217246406981 0.187650597317463 0 0.19594718793240021 0.18347376940783641 0 0.21689529234480059 0.1790823443751037 0 0.21221010299053519 0.1800645171487503 0 0.21207222559391431 0.1586279103322738 0 0.2060217246406981 0.187650597317463 0 0.19594718793240021 0.18347376940783641 0 0.21221010299053519 0.1800645171487503 0 0.19594718793240021 0.18347376940783641 0 0.21221010299053519 0.1800645171487503 0 0.2060217246406981 0.187650597317463 0 0.21221010299053519 0.1800645171487503 0 0.2142983518001525 0.1820526419148647 0 0.21689529234480059 0.1790823443751037 0 0.21221010299053519 0.1800645171487503 0 0.21689529234480059 0.1790823443751037 0 0.21221010299053519 0.1800645171487503 0 0.2142983518001525 0.1820526419148647 0 0.21221010299053519 0.1800645171487503 0 0.2142983518001525 0.1820526419148647 0 0.21689529234480059 0.1790823443751037 0 0.2142983518001525 0.1820526419148647 0 0.21689529234480059 0.1790823443751037 0 0.2142983518001525 0.1820526419148647 0 0.21761173603247069 0.18520716125259501 0 0.2142983518001525 0.1820526419148647 0 0.21761173603247069 0.18520716125259501 0 0.19109950263490849 0.15996609439313539 0 0.21221010299053519 0.1800645171487503 0 0.21207222559391431 0.1586279103322738 0 0.21689529234480059 0.1790823443751037 0 0.2329875012160649 0.16067659052825961 0 0.21689529234480059 0.1790823443751037 0 0.2329875012160649 0.16067659052825961 0 0.2442222712976507 0.1733536933678313 0 0.21689529234480059 0.1790823443751037 0 0.21207222559391431 0.1586279103322738 0 0.2329875012160649 0.16067659052825961 0 0.21689529234480059 0.1790823443751037 0 0.2442222712976507 0.1733536933678313 0 0.23573315388871169 0.18554051908952951 0 0.21689529234480059 0.1790823443751037 0 0.2442222712976507 0.1733536933678313 0 0.22578757063435551 0.19105056539264739 0 0.21689529234480059 0.1790823443751037 0 0.23573315388871169 0.18554051908952951 0 0.22578757063435551 0.19105056539264739 0 0.21689529234480059 0.1790823443751037 0 0.21761173603247069 0.18520716125259501 0 0.2442222712976507 0.1733536933678313 0 0.23573315388871169 0.18554051908952951 0 0.25317992106129272 0.18846692460435269 0 0.2329875012160649 0.16067659052825961 0 0.2442222712976507 0.1733536933678313 0 0.2529989822304976 0.1585621632079868 0 0.2329875012160649 0.16067659052825961 0 0.2490797100873286 0.14227083668141521 0 0.2304781917628739 0.14219759910685351 0 0.2329875012160649 0.16067659052825961 0 0.2490797100873286 0.14227083668141521 0 0.2529989822304976 0.1585621632079868 0 0.2329875012160649 0.16067659052825961 0 0.2490797100873286 0.14227083668141521 0 0.21493159510114199 0.1283202641525775 0 0.21207222559391431 0.1586279103322738 0 0.2304781917628739 0.14219759910685351 0 0.21207222559391431 0.1586279103322738 0 0.2329875012160649 0.16067659052825961 0 0.2304781917628739 0.14219759910685351 0 0.21493159510114199 0.1283202641525775 0 0.2304781917628739 0.14219759910685351 0 0.2403526613891277 0.1184031388598471 0 0.2490797100873286 0.14227083668141521 0 0.2304781917628739 0.14219759910685351 0 0.2403526613891277 0.1184031388598471 0 0.2403526613891277 0.1184031388598471 0 0.21885319313216009 0.1005750951696993 0 0.24487990017332159 0.088661247044754365 0 0.21885319313216009 0.1005750951696993 0 0.24487990017332159 0.088661247044754365 0 0.21493159510114199 0.1283202641525775 0 0.2403526613891277 0.1184031388598471 0 0.21885319313216009 0.1005750951696993 0 0.21493159510114199 0.1283202641525775 0 0.21885319313216009 0.1005750951696993 0 0.1928264860909987 0.11248894329464421 0 0.21885319313216009 0.1005750951696993 0 0.1928264860909987 0.11248894329464421 0 0.21885319313216009 0.1005750951696993 0 0.19705209975204871 0.099121628747612781 0 0.20154910178172791 0.085843154371511174 0 0.21885319313216009 0.1005750951696993 0 0.19705209975204871 0.099121628747612781 0 0.1928264860909987 0.11248894329464421 0 0.19705209975204871 0.099121628747612781 0 0.20154910178172791 0.085843154371511174 0 0.1830420837262928 0.099631883556305534 0 0.19705209975204871 0.099121628747612781 0 0.1928264860909987 0.11248894329464421 0 0.1830420837262928 0.099631883556305534 0 0.20154910178172791 0.085843154371511174 0 0.20117368126069241 0.05800732803441639 0 0.17909559612213261 0.072824162091998698 0 0.20154910178172791 0.085843154371511174 0 0.1830420837262928 0.099631883556305534 0 0.20154910178172791 0.085843154371511174 0 0.1830420837262928 0.099631883556305534 0 0.17909559612213261 0.072824162091998698 0 0.20154910178172791 0.085843154371511174 0 0.220056119837163 0.072054425186716786 0 0.20154910178172791 0.085843154371511174 0 0.220056119837163 0.072054425186716786 0 0.22802986650602181 0.084941978696387005 0 0.21885319313216009 0.1005750951696993 0 0.20154910178172791 0.085843154371511174 0 0.22802986650602181 0.084941978696387005 0 0.20154910178172791 0.085843154371511174 0 0.220056119837163 0.072054425186716786 0 0.20117368126069241 0.05800732803441639 0 0.220056119837163 0.072054425186716786 0 0.23856313789259739 0.058265696001921392 0 0.220056119837163 0.072054425186716786 0 0.22802986650602181 0.084941978696387005 0 0.23749650840714859 0.074331647851353641 0 0.220056119837163 0.072054425186716786 0 0.23749650840714859 0.074331647851353641 0 0.23856313789259739 0.058265696001921392 0 0.21885319313216009 0.1005750951696993 0 0.22802986650602181 0.084941978696387005 0 0.24487990017332159 0.088661247044754365 0 0.22802986650602181 0.084941978696387005 0 0.24487990017332159 0.088661247044754365 0 0.23749650840714859 0.074331647851353641 0 0.23856313789259739 0.058265696001921392 0 0.25473487255354033 0.067506547460864375 0 0.23749650840714859 0.074331647851353641 0 0.23856313789259739 0.058265696001921392 0 0.25473487255354033 0.067506547460864375 0 0.24487990017332159 0.088661247044754365 0 0.23749650840714859 0.074331647851353641 0 0.25473487255354033 0.067506547460864375 0 0.23856313789259739 0.058265696001921392 0 0.24429996058699779 0.053991452886291709 0 0.22349129187036729 0.049653342829946538 0 0.23856313789259739 0.058265696001921392 0 0.24429996058699779 0.053991452886291709 0 0.25473487255354033 0.067506547460864375 0 0.23856313789259739 0.058265696001921392 0 0.24429996058699779 0.053991452886291709 0 0.24429996058699779 0.053991452886291709 0 0.24555631408787959 0.033076231293803958 0 0.22316814878328289 0.033935038687030752 0 0.24429996058699779 0.053991452886291709 0 0.22316814878328289 0.033935038687030752 0 0.22349129187036729 0.049653342829946538 0 0.24429996058699779 0.053991452886291709 0 0.22316814878328289 0.033935038687030752 0 0.220056119837163 0.072054425186716786 0 0.23856313789259739 0.058265696001921392 0 0.22349129187036729 0.049653342829946538 0 0.23856313789259739 0.058265696001921392 0 0.22349129187036729 0.049653342829946538 0 0.24063459591653041 0.0074870902855560884 0 0.23723079603227201 0.02173474138951954 0 0.25762412804278623 0.01749275415485519 0 0.24063459591653041 0.0074870902855560884 0 0.23723079603227201 0.02173474138951954 0 0.22527954636644021 0.01444874710527551 0 0.24555631408787959 0.033076231293803958 0 0.23723079603227201 0.02173474138951954 0 0.25762412804278623 0.01749275415485519 0 0.24555631408787959 0.033076231293803958 0 0.22316814878328289 0.033935038687030752 0 0.23723079603227201 0.02173474138951954 0 0.22316814878328289 0.033935038687030752 0 0.23723079603227201 0.02173474138951954 0 0.22527954636644021 0.01444874710527551 0 0.24063459591653041 0.0074870902855560884 0 0.22527954636644021 0.01444874710527551 0 0.22332785412054751 -0.0047917593234988306 0 0.20203633697956791 0.013878624487770009 0 0.20327883938983121 -0.0069456637936660091 0 0.22332785412054751 -0.0047917593234988306 0 0.22527954636644021 0.01444874710527551 0 0.20203633697956791 0.013878624487770009 0 0.22332785412054751 -0.0047917593234988306 0 0.22316814878328289 0.033935038687030752 0 0.20203633697956791 0.013878624487770009 0 0.22316814878328289 0.033935038687030752 0 0.22527954636644021 0.01444874710527551 0 0.20203633697956791 0.013878624487770009 0 0.22316814878328289 0.033935038687030752 0 0.20203633697956791 0.013878624487770009 0 0.20881399712914719 0.038588546785267942 0 0.20203633697956791 0.013878624487770009 0 0.19420052675182531 0.037468399887176013 0 0.1780174576146801 0.022259657006414441 0 0.20203633697956791 0.013878624487770009 0 0.20881399712914719 0.038588546785267942 0 0.19420052675182531 0.037468399887176013 0 0.20203633697956791 0.013878624487770009 0 0.1809045251758529 -0.0061777897114907443 0 0.20203633697956791 0.013878624487770009 0 0.1809045251758529 -0.0061777897114907443 0 0.20327883938983121 -0.0069456637936660091 0 0.22349129187036729 0.049653342829946538 0 0.20881399712914719 0.038588546785267942 0 0.20117368126069241 0.05800732803441639 0 0.220056119837163 0.072054425186716786 0 0.22349129187036729 0.049653342829946538 0 0.20117368126069241 0.05800732803441639 0 0.22316814878328289 0.033935038687030752 0 0.22349129187036729 0.049653342829946538 0 0.20881399712914719 0.038588546785267942 0 0.20881399712914719 0.038588546785267942 0 0.19420052675182531 0.037468399887176013 0 0.20117368126069241 0.05800732803441639 0 0.19420052675182531 0.037468399887176013 0 0.20117368126069241 0.05800732803441639 0 0.1765818557314541 0.04620621891837344 0 0.20117368126069241 0.05800732803441639 0 0.1765818557314541 0.04620621891837344 0 0.17909559612213261 0.072824162091998698 0 0.19420052675182531 0.037468399887176013 0 0.1765818557314541 0.04620621891837344 0 0.1780174576146801 0.022259657006414441 0 0.1765818557314541 0.04620621891837344 0 0.1780174576146801 0.022259657006414441 0 0.1477268868929906 0.037341262631020167 0 0.1765818557314541 0.04620621891837344 0 0.15084496791787541 0.061312348469608431 0 0.1477268868929906 0.037341262631020167 0 0.1765818557314541 0.04620621891837344 0 0.15084496791787541 0.061312348469608431 0 0.17909559612213261 0.072824162091998698 0 0.1765818557314541 0.04620621891837344 0 0.15084496791787541 0.061312348469608431 0 0.1555972868758565 0.01502877810208756 0 0.14911197860261319 -0.0064425923122114707 0 0.1809045251758529 -0.0061777897114907443 0 0.20203633697956791 0.013878624487770009 0 0.1780174576146801 0.022259657006414441 0 0.1809045251758529 -0.0061777897114907443 0 0.1780174576146801 0.022259657006414441 0 0.1555972868758565 0.01502877810208756 0 0.1477268868929906 0.037341262631020167 0 0.1780174576146801 0.022259657006414441 0 0.1555972868758565 0.01502877810208756 0 0.1809045251758529 -0.0061777897114907443 0 0.1555972868758565 0.01502877810208756 0 0.13528482264666189 0.01493099364781119 0 0.14911197860261319 -0.0064425923122114707 0 0.1555972868758565 0.01502877810208756 0 0.13528482264666189 0.01493099364781119 0 0.1477268868929906 0.037341262631020167 0 0.12417737955416309 0.032007869234161539 0 0.13528482264666189 0.01493099364781119 0 0.1477268868929906 0.037341262631020167 0 0.13528482264666189 0.01493099364781119 0 0.14911197860261319 -0.0064425923122114707 0 0.1253528781060689 -0.0035925746653820922 0 0.15084496791787541 0.061312348469608431 0 0.1477268868929906 0.037341262631020167 0 0.13128349153670479 0.051381496601359523 0 0.12417737955416309 0.032007869234161539 0 0.1477268868929906 0.037341262631020167 0 0.13128349153670479 0.051381496601359523 0 0.15084496791787541 0.061312348469608431 0 0.12510808010429661 0.076418478020843436 0 0.15844591288291929 0.083892742000861886 0 0.15084496791787541 0.061312348469608431 0 0.13128349153670479 0.051381496601359523 0 0.12510808010429661 0.076418478020843436 0 0.15084496791787541 0.061312348469608431 0 0.12510808010429661 0.076418478020843436 0 0.12510808010429661 0.076418478020843436 0 0.14049664497838329 0.1029859677104155 0 0.15844591288291929 0.083892742000861886 0 0.1188617035112491 0.10017210572911719 0 0.12510808010429661 0.076418478020843436 0 0.14049664497838329 0.1029859677104155 0 0.1215951808840359 0.121275415706405 0 0.1188617035112491 0.10017210572911719 0 0.14049664497838329 0.1029859677104155 0 0.1215951808840359 0.121275415706405 0 0.1436180987418452 0.12900488415033171 0 0.14049664497838329 0.1029859677104155 0 0.1436180987418452 0.12900488415033171 0 0.14049664497838329 0.1029859677104155 0 0.1645350656708576 0.1134206127410998 0 0.1436180987418452 0.12900488415033171 0 0.1645350656708576 0.1134206127410998 0 0.14049664497838329 0.1029859677104155 0 0.1645350656708576 0.1134206127410998 0 0.15844591288291929 0.083892742000861886 0 0.1645350656708576 0.1134206127410998 0 0.15844591288291929 0.083892742000861886 0 0.1645350656708576 0.1134206127410998 0 0.1830420837262928 0.099631883556305534 0 0.15844591288291929 0.083892742000861886 0 0.1436180987418452 0.12900488415033171 0 0.1645350656708576 0.1134206127410998 0 0.16679977904983581 0.1244027914195862 0 0.1645350656708576 0.1134206127410998 0 0.16679977904983581 0.1244027914195862 0 0.1928264860909987 0.11248894329464421 0 0.1645350656708576 0.1134206127410998 0 0.16679977904983581 0.1244027914195862 0 0.18047224869311551 0.1296445599867028 0 0.1928264860909987 0.11248894329464421 0 0.16679977904983581 0.1244027914195862 0 0.1928264860909987 0.11248894329464421 0 0.16679977904983581 0.1244027914195862 0 0.1645350656708576 0.1134206127410998 0 0.1830420837262928 0.099631883556305534 0 0.1928264860909987 0.11248894329464421 0 0.1645350656708576 0.1134206127410998 0 0.1830420837262928 0.099631883556305534 0 0.1830420837262928 0.099631883556305534 0 0.17909559612213261 0.072824162091998698 0 0.15844591288291929 0.083892742000861886 0 0.15084496791787541 0.061312348469608431 0 0.17909559612213261 0.072824162091998698 0 0.15844591288291929 0.083892742000861886 0 0.097409164501878032 0.48043616448826182 0 0.10389178133274631 0.46420599485328051 0 0.083507325080051459 0.46175286235977908 0 0.097409164501878032 0.48043616448826182 0 0.117087238109316 0.47555329320773032 0 0.10389178133274631 0.46420599485328051 0 0.097409164501878032 0.48043616448826182 0 0.11675323034391789 0.5 0 0.088987757194300021 0.5 0 0.097409164501878032 0.48043616448826182 0 0.11675323034391789 0.5 0 0.117087238109316 0.47555329320773032 0 0.11675323034391789 0.5 0 0.117087238109316 0.47555329320773032 0 0.1340822501540728 0.48388572070748981 0 0.117087238109316 0.47555329320773032 0 0.1178521261576949 0.45882390178641819 0 0.10389178133274631 0.46420599485328051 0 0.117087238109316 0.47555329320773032 0 0.1178521261576949 0.45882390178641819 0 0.1374291981924019 0.46244480650865188 0 0.1061982999677642 0.44582192889127381 0 0.12888927485547691 0.4298909954227686 0 0.1246541131862461 0.44609348547115463 0 0.1061982999677642 0.44582192889127381 0 0.12888927485547691 0.4298909954227686 0 0.1178521261576949 0.45882390178641819 0 0.1246541131862461 0.44609348547115463 0 0.1061982999677642 0.44582192889127381 0 0.1061982999677642 0.44582192889127381 0 0.091050528969125466 0.44423069517446079 0 0.1014110555407066 0.43342950467554592 0 0.1061982999677642 0.44582192889127381 0 0.083507325080051459 0.46175286235977908 0 0.1178521261576949 0.45882390178641819 0 0.1061982999677642 0.44582192889127381 0 0.10389178133274631 0.46420599485328051 0 0.1061982999677642 0.44582192889127381 0 0.10389178133274631 0.46420599485328051 0 0.083507325080051459 0.46175286235977908 0 0.1061982999677642 0.44582192889127381 0 0.083507325080051459 0.46175286235977908 0 0.091050528969125466 0.44423069517446079 0 0.083507325080051459 0.46175286235977908 0 0.091050528969125466 0.44423069517446079 0 0.078879145568010678 0.44828784970425312 0 0.091050528969125466 0.44423069517446079 0 0.078879145568010678 0.44828784970425312 0 0.086363537594471518 0.4321424589314159 0 0.078879145568010678 0.44828784970425312 0 0.071098015104609391 0.45931029116798089 0 0.062449176664651107 0.44522919647801518 0 0.062449176664651107 0.44522919647801518 0 0.086363537594471518 0.4321424589314159 0 0.078879145568010678 0.44828784970425312 0 0.062449176664651107 0.44522919647801518 0 0.086363537594471518 0.4321424589314159 0 0.071098015104609391 0.45931029116798089 0 0.060284859221188002 0.46966778627162492 0 0.062449176664651107 0.44522919647801518 0 0.083507325080051459 0.46175286235977908 0 0.071098015104609391 0.45931029116798089 0 0.077047846465125608 0.47953342346259298 0 0.083507325080051459 0.46175286235977908 0 0.078879145568010678 0.44828784970425312 0 0.071098015104609391 0.45931029116798089 0 0.071098015104609391 0.45931029116798089 0 0.077047846465125608 0.47953342346259298 0 0.060284859221188002 0.46966778627162492 0 0.077047846465125608 0.47953342346259298 0 0.061222284044682107 0.5 0 0.060284859221188002 0.46966778627162492 0 0.097409164501878032 0.48043616448826182 0 0.083507325080051459 0.46175286235977908 0 0.077047846465125608 0.47953342346259298 0 0.097409164501878032 0.48043616448826182 0 0.077047846465125608 0.47953342346259298 0 0.088987757194300021 0.5 0 0.077047846465125608 0.47953342346259298 0 0.088987757194300021 0.5 0 0.061222284044682107 0.5 0 0.061222284044682107 0.5 0 0.060284859221188002 0.46966778627162492 0 0.041165592997406512 0.47978775601282259 0 0.060284859221188002 0.46966778627162492 0 0.041165592997406512 0.47978775601282259 0 0.038534815734830627 0.45831593402461462 0 0.041165592997406512 0.47978775601282259 0 0.031007157199161139 0.46911529227912191 0 0.038534815734830627 0.45831593402461462 0 0.061222284044682107 0.5 0 0.041165592997406512 0.47978775601282259 0 0.033456810895064248 0.5 0 0.041165592997406512 0.47978775601282259 0 0.033456810895064248 0.5 0 0.02044349072536298 0.47771329294284298 0 0.033456810895064248 0.5 0 0.02044349072536298 0.47771329294284298 0 0.0056913377454463343 0.5 0 0.02044349072536298 0.47771329294284298 0 0.031007157199161139 0.46911529227912191 0 0.02388472933904447 0.46064418613620739 0 0.041165592997406512 0.47978775601282259 0 0.02044349072536298 0.47771329294284298 0 0.031007157199161139 0.46911529227912191 0 -0.0023826318983338418 0.47186636235082491 0 0.02044349072536298 0.47771329294284298 0 0.0096850223273389317 0.46061410315644602 0 -0.0023826318983338418 0.47186636235082491 0 0.02044349072536298 0.47771329294284298 0 0.0056913377454463343 0.5 0 0.0053989850622760578 0.44158620941391241 0 0.0096850223273389317 0.46061410315644602 0 0.01929117586931926 0.44820115950453832 0 -0.002657138242852936 0.45352434717382473 0 0.0053989850622760578 0.44158620941391241 0 0.0096850223273389317 0.46061410315644602 0 0.0053989850622760578 0.44158620941391241 0 0.01929117586931926 0.44820115950453832 0 0.020599379566329179 0.43326004449536237 0 -0.002657138242852936 0.45352434717382473 0 -0.0023826318983338418 0.47186636235082491 0 0.0096850223273389317 0.46061410315644602 0 0.0096850223273389317 0.46061410315644602 0 0.02388472933904447 0.46064418613620739 0 0.01929117586931926 0.44820115950453832 0 0.02044349072536298 0.47771329294284298 0 0.0096850223273389317 0.46061410315644602 0 0.02388472933904447 0.46064418613620739 0 0.031007157199161139 0.46911529227912191 0 0.02388472933904447 0.46064418613620739 0 0.038534815734830627 0.45831593402461462 0 0.02388472933904447 0.46064418613620739 0 0.01929117586931926 0.44820115950453832 0 0.031878256288527293 0.44506291206705528 0 0.01929117586931926 0.44820115950453832 0 0.031878256288527293 0.44506291206705528 0 0.020599379566329179 0.43326004449536237 0 0.031878256288527293 0.44506291206705528 0 0.038534815734830627 0.45831593402461462 0 0.047536754680009258 0.44767944637431639 0 0.031878256288527293 0.44506291206705528 0 0.047536754680009258 0.44767944637431639 0 0.037398254612687677 0.42320846990486738 0 0.02388472933904447 0.46064418613620739 0 0.031878256288527293 0.44506291206705528 0 0.038534815734830627 0.45831593402461462 0 0.060284859221188002 0.46966778627162492 0 0.038534815734830627 0.45831593402461462 0 0.062449176664651107 0.44522919647801518 0 0.038534815734830627 0.45831593402461462 0 0.062449176664651107 0.44522919647801518 0 0.038534815734830627 0.45831593402461462 0 0.047536754680009258 0.44767944637431639 0 0.062449176664651107 0.44522919647801518 0 0.047536754680009258 0.44767944637431639 0 0.062449176664651107 0.44522919647801518 0 0.053696483327620372 0.43264281519750902 0 0.062449176664651107 0.44522919647801518 0 0.053696483327620372 0.43264281519750902 0 0.064254907820636739 0.42923200299231151 0 0.053696483327620372 0.43264281519750902 0 0.056843322860117097 0.41786496023803482 0 0.037398254612687677 0.42320846990486738 0 0.053696483327620372 0.43264281519750902 0 0.056843322860117097 0.41786496023803482 0 0.064254907820636739 0.42923200299231151 0 0.056843322860117097 0.41786496023803482 0 0.037398254612687677 0.42320846990486738 0 0.050003493982855703 0.40026753698620748 0 0.056843322860117097 0.41786496023803482 0 0.050003493982855703 0.40026753698620748 0 0.065858952722723574 0.40160861150136501 0 0.037398254612687677 0.42320846990486738 0 0.027259754545366121 0.39873749343541842 0 0.037398254612687677 0.42320846990486738 0 0.027259754545366121 0.39873749343541842 0 0.050003493982855703 0.40026753698620748 0 0.047536754680009258 0.44767944637431639 0 0.053696483327620372 0.43264281519750902 0 0.037398254612687677 0.42320846990486738 0 0.047536754680009258 0.44767944637431639 0 0.037398254612687677 0.42320846990486738 0 0.037398254612687677 0.42320846990486738 0 0.020599379566329179 0.43326004449536237 0 0.017074158823456521 0.41538997541778161 0 0.031878256288527293 0.44506291206705528 0 0.037398254612687677 0.42320846990486738 0 0.020599379566329179 0.43326004449536237 0 0.037398254612687677 0.42320846990486738 0 0.017074158823456521 0.41538997541778161 0 0.027259754545366121 0.39873749343541842 0 -0.0012406144994851411 0.41540870768952831 0 0.017074158823456521 0.41538997541778161 0 0.0080554846440630493 0.42635277819034512 0 -0.00042721496257028051 0.39595132885435019 0 -0.0012406144994851411 0.41540870768952831 0 0.017074158823456521 0.41538997541778161 0 0.020599379566329179 0.43326004449536237 0 0.017074158823456521 0.41538997541778161 0 0.0080554846440630493 0.42635277819034512 0 -0.0081425709555884122 0.4354078604818632 0 0.0053989850622760578 0.44158620941391241 0 0.0080554846440630493 0.42635277819034512 0 0.0053989850622760578 0.44158620941391241 0 0.020599379566329179 0.43326004449536237 0 0.0080554846440630493 0.42635277819034512 0 -0.00042721496257028051 0.39595132885435019 0 -0.010583799764655641 0.38308260013621809 0 0.017121254478044499 0.3742665169659693 0 -0.00042721496257028051 0.39595132885435019 0 0.027259754545366121 0.39873749343541842 0 0.017121254478044499 0.3742665169659693 0 -0.003230469334243001 0.36843033323843127 0 -0.010583799764655641 0.38308260013621809 0 0.017121254478044499 0.3742665169659693 0 -0.00042721496257028051 0.39595132885435019 0 0.017074158823456521 0.41538997541778161 0 0.027259754545366121 0.39873749343541842 0 0.027259754545366121 0.39873749343541842 0 0.031696040175547453 0.3688725360656957 0 0.017121254478044499 0.3742665169659693 0 0.027259754545366121 0.39873749343541842 0 0.017121254478044499 0.3742665169659693 0 0.027259754545366121 0.39873749343541842 0 0.049295379851565992 0.37535547876331232 0 0.031696040175547453 0.3688725360656957 0 0.027259754545366121 0.39873749343541842 0 0.050003493982855703 0.40026753698620748 0 0.049295379851565992 0.37535547876331232 0 0.050003493982855703 0.40026753698620748 0 0.065366826877546247 0.38504897890159928 0 0.065858952722723574 0.40160861150136501 0 0.050003493982855703 0.40026753698620748 0 0.049295379851565992 0.37535547876331232 0 0.065366826877546247 0.38504897890159928 0 0.065366826877546247 0.38504897890159928 0 0.07999429794521809 0.37821679985710088 0 0.078528444873600584 0.39375672042539389 0 0.07999429794521809 0.37821679985710088 0 0.09001954531533099 0.38386919499703198 0 0.090364273968923076 0.36819470124864617 0 0.07999429794521809 0.37821679985710088 0 0.09001954531533099 0.38386919499703198 0 0.078528444873600584 0.39375672042539389 0 0.09001954531533099 0.38386919499703198 0 0.078528444873600584 0.39375672042539389 0 0.09539405267560358 0.4011031556982329 0 0.078528444873600584 0.39375672042539389 0 0.074148118260168094 0.41476243963653431 0 0.09539405267560358 0.4011031556982329 0 0.065366826877546247 0.38504897890159928 0 0.078528444873600584 0.39375672042539389 0 0.065858952722723574 0.40160861150136501 0 0.078528444873600584 0.39375672042539389 0 0.065858952722723574 0.40160861150136501 0 0.074148118260168094 0.41476243963653431 0 0.056843322860117097 0.41786496023803482 0 0.074148118260168094 0.41476243963653431 0 0.064254907820636739 0.42923200299231151 0 0.056843322860117097 0.41786496023803482 0 0.065858952722723574 0.40160861150136501 0 0.074148118260168094 0.41476243963653431 0 0.062449176664651107 0.44522919647801518 0 0.064254907820636739 0.42923200299231151 0 0.074437437715565019 0.42909956233579138 0 0.062449176664651107 0.44522919647801518 0 0.074437437715565019 0.42909956233579138 0 0.086363537594471518 0.4321424589314159 0 0.074148118260168094 0.41476243963653431 0 0.064254907820636739 0.42923200299231151 0 0.074437437715565019 0.42909956233579138 0 0.074148118260168094 0.41476243963653431 0 0.074437437715565019 0.42909956233579138 0 0.084971448237897595 0.42413171364067959 0 0.084971448237897595 0.42413171364067959 0 0.086363537594471518 0.4321424589314159 0 0.096387478882012392 0.41542566218337668 0 0.074437437715565019 0.42909956233579138 0 0.084971448237897595 0.42413171364067959 0 0.086363537594471518 0.4321424589314159 0 0.091050528969125466 0.44423069517446079 0 0.086363537594471518 0.4321424589314159 0 0.1014110555407066 0.43342950467554592 0 0.084971448237897595 0.42413171364067959 0 0.09539405267560358 0.4011031556982329 0 0.084971448237897595 0.42413171364067959 0 0.096387478882012392 0.41542566218337668 0 0.09539405267560358 0.4011031556982329 0 0.074148118260168094 0.41476243963653431 0 0.084971448237897595 0.42413171364067959 0 0.09539405267560358 0.4011031556982329 0 0.096387478882012392 0.41542566218337668 0 0.11027789852429171 0.41905572138481673 0 0.11193350067825671 0.40029374163945958 0 0.086363537594471518 0.4321424589314159 0 0.11027789852429171 0.41905572138481673 0 0.086363537594471518 0.4321424589314159 0 0.1014110555407066 0.43342950467554592 0 0.11027789852429171 0.41905572138481673 0 0.086363537594471518 0.4321424589314159 0 0.096387478882012392 0.41542566218337668 0 0.11027789852429171 0.41905572138481673 0 0.1061982999677642 0.44582192889127381 0 0.1014110555407066 0.43342950467554592 0 0.12888927485547691 0.4298909954227686 0 0.1014110555407066 0.43342950467554592 0 0.11027789852429171 0.41905572138481673 0 0.12888927485547691 0.4298909954227686 0 0.11027789852429171 0.41905572138481673 0 0.11193350067825671 0.40029374163945958 0 0.13419225945411201 0.40596898383821739 0 0.11027789852429171 0.41905572138481673 0 0.13419225945411201 0.40596898383821739 0 0.12888927485547691 0.4298909954227686 0 0.11027789852429171 0.41905572138481673 0 0.13419225945411201 0.40596898383821739 0 0.11193350067825671 0.40029374163945958 0 0.1232016095315123 0.38640416029862562 0 0.13419225945411201 0.40596898383821739 0 0.1232016095315123 0.38640416029862562 0 0.10581665711330961 0.37807459775578611 0 0.1245294276094052 0.36705946116809979 0 0.11193350067825671 0.40029374163945958 0 0.1232016095315123 0.38640416029862562 0 0.10581665711330961 0.37807459775578611 0 0.10581665711330961 0.37807459775578611 0 0.09539405267560358 0.4011031556982329 0 0.09001954531533099 0.38386919499703198 0 0.10581665711330961 0.37807459775578611 0 0.090364273968923076 0.36819470124864617 0 0.09001954531533099 0.38386919499703198 0 0.10581665711330961 0.37807459775578611 0 0.09539405267560358 0.4011031556982329 0 0.096387478882012392 0.41542566218337668 0 0.11193350067825671 0.40029374163945958 0 0.09539405267560358 0.4011031556982329 0 0.11193350067825671 0.40029374163945958 0 0.10581665711330961 0.37807459775578611 0 0.09539405267560358 0.4011031556982329 0 0.1060524444385426 0.35726314118829428 0 0.10519868622170039 0.36511036867406771 0 0.1168304669342336 0.35465885027811339 0 0.1025578626589866 0.35240292303708909 0 0.1060524444385426 0.35726314118829428 0 0.097485063106936623 0.35862480256678358 0 0.1025578626589866 0.35240292303708909 0 0.1060524444385426 0.35726314118829428 0 0.10956049030116891 0.35288630270244931 0 0.1025578626589866 0.35240292303708909 0 0.1058255153731419 0.34730653984775428 0 0.10956049030116891 0.35288630270244931 0 0.1058255153731419 0.34730653984775428 0 0.1128522034956536 0.34396239114303451 0 0.10339918850027249 0.34048197572013228 0 0.1058255153731419 0.34730653984775428 0 0.100757831909628 0.34679910663606628 0 0.10339918850027249 0.34048197572013228 0 0.1025578626589866 0.35240292303708909 0 0.1058255153731419 0.34730653984775428 0 0.100757831909628 0.34679910663606628 0 0.1025578626589866 0.35240292303708909 0 0.100757831909628 0.34679910663606628 0 0.096095628588907106 0.35138768377251067 0 0.100757831909628 0.34679910663606628 0 0.094666415020572464 0.3449942924984577 0 0.10339918850027249 0.34048197572013228 0 0.100757831909628 0.34679910663606628 0 0.094666415020572464 0.3449942924984577 0 0.096095628588907106 0.35138768377251067 0 0.096095628588907106 0.35138768377251067 0 0.097485063106936623 0.35862480256678358 0 0.088643057337276468 0.35314112002613002 0 0.1025578626589866 0.35240292303708909 0 0.096095628588907106 0.35138768377251067 0 0.097485063106936623 0.35862480256678358 0 0.097485063106936623 0.35862480256678358 0 0.10519868622170039 0.36511036867406771 0 0.090364273968923076 0.36819470124864617 0 0.10581665711330961 0.37807459775578611 0 0.10519868622170039 0.36511036867406771 0 0.1168304669342336 0.35465885027811339 0 0.10581665711330961 0.37807459775578611 0 0.10519868622170039 0.36511036867406771 0 0.090364273968923076 0.36819470124864617 0 0.1060524444385426 0.35726314118829428 0 0.097485063106936623 0.35862480256678358 0 0.10519868622170039 0.36511036867406771 0 0.10581665711330961 0.37807459775578611 0 0.1168304669342336 0.35465885027811339 0 0.10581665711330961 0.37807459775578611 0 0.1245294276094052 0.36705946116809979 0 0.1168304669342336 0.35465885027811339 0 0.1060524444385426 0.35726314118829428 0 0.1168304669342336 0.35465885027811339 0 0.10956049030116891 0.35288630270244931 0 0.1168304669342336 0.35465885027811339 0 0.10956049030116891 0.35288630270244931 0 0.1128522034956536 0.34396239114303451 0 0.1058255153731419 0.34730653984775428 0 0.10956049030116891 0.35288630270244931 0 0.1128522034956536 0.34396239114303451 0 0.1168304669342336 0.35465885027811339 0 0.12666186598872181 0.33201748187089242 0 0.1168304669342336 0.35465885027811339 0 0.1128522034956536 0.34396239114303451 0 0.12666186598872181 0.33201748187089242 0 0.1128522034956536 0.34396239114303451 0 0.1117057125083228 0.3301361986086746 0 0.12666186598872181 0.33201748187089242 0 0.1117057125083228 0.3301361986086746 0 0.1189171160094491 0.31877074561265029 0 0.12666186598872181 0.33201748187089242 0 0.1117057125083228 0.3301361986086746 0 0.1189171160094491 0.31877074561265029 0 0.10614094417406381 0.31842632169262569 0 0.1189171160094491 0.31877074561265029 0 0.10614094417406381 0.31842632169262569 0 0.1163659570049219 0.30567201985701697 0 0.10614094417406381 0.31842632169262569 0 0.10016785218955181 0.32995021759527032 0 0.087177622783574715 0.32551809144541621 0 0.10614094417406381 0.31842632169262569 0 0.087177622783574715 0.32551809144541621 0 0.10082243932588859 0.29889137192136961 0 0.1117057125083228 0.3301361986086746 0 0.10614094417406381 0.31842632169262569 0 0.10016785218955181 0.32995021759527032 0 0.1128522034956536 0.34396239114303451 0 0.1117057125083228 0.3301361986086746 0 0.10339918850027249 0.34048197572013228 0 0.1117057125083228 0.3301361986086746 0 0.10339918850027249 0.34048197572013228 0 0.10016785218955181 0.32995021759527032 0 0.10339918850027249 0.34048197572013228 0 0.10016785218955181 0.32995021759527032 0 0.092415792981525302 0.33518850050950277 0 0.094666415020572464 0.3449942924984577 0 0.10339918850027249 0.34048197572013228 0 0.092415792981525302 0.33518850050950277 0 0.092415792981525302 0.33518850050950277 0 0.082757552410402488 0.3333026978698494 0 0.085392237355570749 0.34344029037740831 0 0.094666415020572464 0.3449942924984577 0 0.092415792981525302 0.33518850050950277 0 0.085392237355570749 0.34344029037740831 0 0.092415792981525302 0.33518850050950277 0 0.082757552410402488 0.3333026978698494 0 0.087177622783574715 0.32551809144541621 0 0.10016785218955181 0.32995021759527032 0 0.092415792981525302 0.33518850050950277 0 0.087177622783574715 0.32551809144541621 0 0.082757552410402488 0.3333026978698494 0 0.085392237355570749 0.34344029037740831 0 0.075356970955925417 0.3394650481646056 0 0.087177622783574715 0.32551809144541621 0 0.073327376438198394 0.32240419854617042 0 0.085343374731514599 0.29592855843759941 0 0.082757552410402488 0.3333026978698494 0 0.087177622783574715 0.32551809144541621 0 0.073327376438198394 0.32240419854617042 0 0.073327376438198394 0.32240419854617042 0 0.07011738318675638 0.32947698800581893 0 0.073327376438198394 0.32240419854617042 0 0.064124334000396827 0.32250131223398237 0 0.07011738318675638 0.32947698800581893 0 0.073327376438198394 0.32240419854617042 0 0.064124334000396827 0.32250131223398237 0 0.066123338095549225 0.31628795133472121 0 0.073327376438198394 0.32240419854617042 0 0.066123338095549225 0.31628795133472121 0 0.071156784390679226 0.30777516547429268 0 0.064124334000396827 0.32250131223398237 0 0.066123338095549225 0.31628795133472121 0 0.060275245027915828 0.31827012669833471 0 0.075356970955925417 0.3394650481646056 0 0.07011738318675638 0.32947698800581893 0 0.061311378144882203 0.34887983865474143 0 0.082757552410402488 0.3333026978698494 0 0.073327376438198394 0.32240419854617042 0 0.075356970955925417 0.3394650481646056 0 0.073327376438198394 0.32240419854617042 0 0.075356970955925417 0.3394650481646056 0 0.07011738318675638 0.32947698800581893 0 0.07011738318675638 0.32947698800581893 0 0.061311378144882203 0.34887983865474143 0 0.07011738318675638 0.32947698800581893 0 0.061311378144882203 0.34887983865474143 0 0.056755704313026838 0.33539158760094639 0 0.075356970955925417 0.3394650481646056 0 0.077460041582030084 0.35081893461984748 0 0.061311378144882203 0.34887983865474143 0 0.077460041582030084 0.35081893461984748 0 0.073324058064207567 0.36161377586186028 0 0.061311378144882203 0.34887983865474143 0 0.085392237355570749 0.34344029037740831 0 0.075356970955925417 0.3394650481646056 0 0.077460041582030084 0.35081893461984748 0 0.085392237355570749 0.34344029037740831 0 0.077460041582030084 0.35081893461984748 0 0.088643057337276468 0.35314112002613002 0 0.077460041582030084 0.35081893461984748 0 0.088643057337276468 0.35314112002613002 0 0.073324058064207567 0.36161377586186028 0 0.094666415020572464 0.3449942924984577 0 0.096095628588907106 0.35138768377251067 0 0.088643057337276468 0.35314112002613002 0 0.094666415020572464 0.3449942924984577 0 0.085392237355570749 0.34344029037740831 0 0.088643057337276468 0.35314112002613002 0 0.07999429794521809 0.37821679985710088 0 0.090364273968923076 0.36819470124864617 0 0.073324058064207567 0.36161377586186028 0 0.088643057337276468 0.35314112002613002 0 0.090364273968923076 0.36819470124864617 0 0.073324058064207567 0.36161377586186028 0 0.097485063106936623 0.35862480256678358 0 0.088643057337276468 0.35314112002613002 0 0.090364273968923076 0.36819470124864617 0 0.065366826877546247 0.38504897890159928 0 0.07999429794521809 0.37821679985710088 0 0.073324058064207567 0.36161377586186028 0 0.049295379851565992 0.37535547876331232 0 0.065366826877546247 0.38504897890159928 0 0.073324058064207567 0.36161377586186028 0 0.049295379851565992 0.37535547876331232 0 0.073324058064207567 0.36161377586186028 0 0.061311378144882203 0.34887983865474143 0 0.049295379851565992 0.37535547876331232 0 0.061311378144882203 0.34887983865474143 0 0.043041420609277702 0.356759595079293 0 0.049295379851565992 0.37535547876331232 0 0.061311378144882203 0.34887983865474143 0 0.061311378144882203 0.34887983865474143 0 0.043041420609277702 0.356759595079293 0 0.044419765420738652 0.3421811494479331 0 0.043041420609277702 0.356759595079293 0 0.028484539453654211 0.34850897246478257 0 0.044419765420738652 0.3421811494479331 0 0.043041420609277702 0.356759595079293 0 0.031696040175547453 0.3688725360656957 0 0.028484539453654211 0.34850897246478257 0 0.049295379851565992 0.37535547876331232 0 0.043041420609277702 0.356759595079293 0 0.031696040175547453 0.3688725360656957 0 0.031696040175547453 0.3688725360656957 0 0.017121254478044499 0.3742665169659693 0 0.019866960075309258 0.35879323688059361 0 0.031696040175547453 0.3688725360656957 0 0.028484539453654211 0.34850897246478257 0 0.019866960075309258 0.35879323688059361 0 0.028484539453654211 0.34850897246478257 0 0.019866960075309258 0.35879323688059361 0 0.006982754410723358 0.34979554049652001 0 -0.003230469334243001 0.36843033323843127 0 0.006982754410723358 0.34979554049652001 0 0.017121254478044499 0.3742665169659693 0 0.019866960075309258 0.35879323688059361 0 0.006982754410723358 0.34979554049652001 0 -0.003230469334243001 0.36843033323843127 0 0.017121254478044499 0.3742665169659693 0 0.006982754410723358 0.34979554049652001 0 0.017121254478044499 0.3742665169659693 0 0.006982754410723358 0.34979554049652001 0 -0.003266460577282769 0.32505733492997929 0 0.019814923635143419 0.32638228529940227 0 -0.003266460577282769 0.32505733492997929 0 0.0040085258537659778 0.31432247436608168 0 0.019814923635143419 0.32638228529940227 0 0.0040085258537659778 0.31432247436608168 0 0.019814923635143419 0.32638228529940227 0 0.01397060526970679 0.3094985661918247 0 -0.003266460577282769 0.32505733492997929 0 0.006982754410723358 0.34979554049652001 0 0.006982754410723358 0.34979554049652001 0 0.019814923635143419 0.32638228529940227 0 -0.003266460577282769 0.32505733492997929 0 0.006982754410723358 0.34979554049652001 0 0.019814923635143419 0.32638228529940227 0 0.028484539453654211 0.34850897246478257 0 0.006982754410723358 0.34979554049652001 0 0.019814923635143419 0.32638228529940227 0 0.028484539453654211 0.34850897246478257 0 0.019814923635143419 0.32638228529940227 0 0.033056961415635952 0.33449402502511222 0 0.019814923635143419 0.32638228529940227 0 0.029489865842269512 0.30872962759584321 0 0.019814923635143419 0.32638228529940227 0 0.038784411032714163 0.31848703711348297 0 0.029489865842269512 0.30872962759584321 0 0.019814923635143419 0.32638228529940227 0 0.029489865842269512 0.30872962759584321 0 0.01397060526970679 0.3094985661918247 0 0.038784411032714163 0.31848703711348297 0 0.047306340872555079 0.32549426929212061 0 0.052606053729426047 0.30401794999793502 0 0.019814923635143419 0.32638228529940227 0 0.044704871084176923 0.32781105338211358 0 0.019814923635143419 0.32638228529940227 0 0.038784411032714163 0.31848703711348297 0 0.044704871084176923 0.32781105338211358 0 0.038784411032714163 0.31848703711348297 0 0.044704871084176923 0.32781105338211358 0 0.047306340872555079 0.32549426929212061 0 0.028484539453654211 0.34850897246478257 0 0.033056961415635952 0.33449402502511222 0 0.044419765420738652 0.3421811494479331 0 0.019814923635143419 0.32638228529940227 0 0.044704871084176923 0.32781105338211358 0 0.033056961415635952 0.33449402502511222 0 0.044704871084176923 0.32781105338211358 0 0.033056961415635952 0.33449402502511222 0 0.042677864928085181 0.33489639556028211 0 0.044704871084176923 0.32781105338211358 0 0.042677864928085181 0.33489639556028211 0 0.048529861791789232 0.33509935438596938 0 0.033056961415635952 0.33449402502511222 0 0.042677864928085181 0.33489639556028211 0 0.044419765420738652 0.3421811494479331 0 0.042677864928085181 0.33489639556028211 0 0.044419765420738652 0.3421811494479331 0 0.048529861791789232 0.33509935438596938 0 0.061311378144882203 0.34887983865474143 0 0.044419765420738652 0.3421811494479331 0 0.056755704313026838 0.33539158760094639 0 0.07011738318675638 0.32947698800581893 0 0.044704871084176923 0.32781105338211358 0 0.07011738318675638 0.32947698800581893 0 0.044704871084176923 0.32781105338211358 0 0.056755704313026838 0.33539158760094639 0 0.044419765420738652 0.3421811494479331 0 0.048529861791789232 0.33509935438596938 0 0.056755704313026838 0.33539158760094639 0 0.044704871084176923 0.32781105338211358 0 0.048529861791789232 0.33509935438596938 0 0.056755704313026838 0.33539158760094639 0 0.064124334000396827 0.32250131223398237 0 0.07011738318675638 0.32947698800581893 0 0.047306340872555079 0.32549426929212061 0 0.064124334000396827 0.32250131223398237 0 0.047306340872555079 0.32549426929212061 0 0.060275245027915828 0.31827012669833471 0 0.047306340872555079 0.32549426929212061 0 0.059735675103278318 0.31008385680395589 0 0.052606053729426047 0.30401794999793502 0 0.047306340872555079 0.32549426929212061 0 0.052606053729426047 0.30401794999793502 0 0.07011738318675638 0.32947698800581893 0 0.044704871084176923 0.32781105338211358 0 0.047306340872555079 0.32549426929212061 0 0.047306340872555079 0.32549426929212061 0 0.060275245027915828 0.31827012669833471 0 0.059735675103278318 0.31008385680395589 0 0.066123338095549225 0.31628795133472121 0 0.060275245027915828 0.31827012669833471 0 0.059735675103278318 0.31008385680395589 0 0.059735675103278318 0.31008385680395589 0 0.052606053729426047 0.30401794999793502 0 0.068196345986301518 0.29798862426303752 0 0.052606053729426047 0.30401794999793502 0 0.057905766586297681 0.28254163070374949 0 0.039164808049395733 0.29107696989228432 0 0.052606053729426047 0.30401794999793502 0 0.063673236048262832 0.28834173674786678 0 0.068196345986301518 0.29798862426303752 0 0.052606053729426047 0.30401794999793502 0 0.057905766586297681 0.28254163070374949 0 0.063673236048262832 0.28834173674786678 0 0.057905766586297681 0.28254163070374949 0 0.039164808049395733 0.29107696989228432 0 0.048839750256521083 0.27342431218872498 0 0.052606053729426047 0.30401794999793502 0 0.057905766586297681 0.28254163070374949 0 0.057905766586297681 0.28254163070374949 0 0.063673236048262832 0.28834173674786678 0 0.039164808049395733 0.29107696989228432 0 0.048839750256521083 0.27342431218872498 0 0.052606053729426047 0.30401794999793502 0 0.039164808049395733 0.29107696989228432 0 0.029489865842269512 0.30872962759584321 0 0.038784411032714163 0.31848703711348297 0 0.052606053729426047 0.30401794999793502 0 0.029489865842269512 0.30872962759584321 0 0.039164808049395733 0.29107696989228432 0 0.029489865842269512 0.30872962759584321 0 0.029489865842269512 0.30872962759584321 0 0.017110246233864802 0.29306289703364308 0 0.01397060526970679 0.3094985661918247 0 0.039164808049395733 0.29107696989228432 0 0.029489865842269512 0.30872962759584321 0 0.017110246233864802 0.29306289703364308 0 0.039164808049395733 0.29107696989228432 0 0.017110246233864802 0.29306289703364308 0 0.025849953128844701 0.27477930341567941 0 0.017110246233864802 0.29306289703364308 0 0.0083028186825339686 0.27684628714416698 0 0.025849953128844701 0.27477930341567941 0 -0.001418554502264915 0.28717865170253037 0 0.017110246233864802 0.29306289703364308 0 0.00040933639570822628 0.30400734945188329 0 -0.001418554502264915 0.28717865170253037 0 0.017110246233864802 0.29306289703364308 0 0.0083028186825339686 0.27684628714416698 0 0.017110246233864802 0.29306289703364308 0 0.00040933639570822628 0.30400734945188329 0 0.01397060526970679 0.3094985661918247 0 0.0040085258537659778 0.31432247436608168 0 0.00040933639570822628 0.30400734945188329 0 0.01397060526970679 0.3094985661918247 0 0.01026063558519786 0.25922996976751439 0 0.0083028186825339686 0.27684628714416698 0 0.025849953128844701 0.27477930341567941 0 -0.0089883946882110457 0.26901310806805018 0 0.01026063558519786 0.25922996976751439 0 0.0083028186825339686 0.27684628714416698 0 0.016413041927559369 0.24081410970564679 0 0.01026063558519786 0.25922996976751439 0 0.032626396092040141 0.25711921094718598 0 0.01026063558519786 0.25922996976751439 0 0.025849953128844701 0.27477930341567941 0 0.032626396092040141 0.25711921094718598 0 0.032626396092040141 0.25711921094718598 0 0.045600716620934179 0.25012768579438599 0 0.048839750256521083 0.27342431218872498 0 0.032250197965227448 0.244401837527949 0 0.032626396092040141 0.25711921094718598 0 0.045600716620934179 0.25012768579438599 0 0.032626396092040141 0.25711921094718598 0 0.048839750256521083 0.27342431218872498 0 0.025849953128844701 0.27477930341567941 0 0.032626396092040141 0.25711921094718598 0 0.048839750256521083 0.27342431218872498 0 0.039164808049395733 0.29107696989228432 0 0.025849953128844701 0.27477930341567941 0 0.048839750256521083 0.27342431218872498 0 0.057905766586297681 0.28254163070374949 0 0.048839750256521083 0.27342431218872498 0 0.056551334842530603 0.25935394772199172 0 0.057905766586297681 0.28254163070374949 0 0.056551334842530603 0.25935394772199172 0 0.063964088952372614 0.25799115617148111 0 0.057905766586297681 0.28254163070374949 0 0.063964088952372614 0.25799115617148111 0 0.057905766586297681 0.28254163070374949 0 0.048839750256521083 0.27342431218872498 0 0.048839750256521083 0.27342431218872498 0 0.056551334842530603 0.25935394772199172 0 0.045600716620934179 0.25012768579438599 0 0.048839750256521083 0.27342431218872498 0 0.056551334842530603 0.25935394772199172 0 0.055297548381604437 0.249518344159599 0 0.045600716620934179 0.25012768579438599 0 0.056551334842530603 0.25935394772199172 0 0.064262919428539261 0.24528358325525779 0 0.056551334842530603 0.25935394772199172 0 0.063964088952372614 0.25799115617148111 0 0.064262919428539261 0.24528358325525779 0 0.056551334842530603 0.25935394772199172 0 0.055297548381604437 0.249518344159599 0 0.064262919428539261 0.24528358325525779 0 0.056551334842530603 0.25935394772199172 0 0.086381384202169925 0.24861796181918919 0 0.063964088952372614 0.25799115617148111 0 0.08395685824938999 0.26326210758016588 0 0.063964088952372614 0.25799115617148111 0 0.08395685824938999 0.26326210758016588 0 0.073496300794921518 0.26780239632633579 0 0.086381384202169925 0.24861796181918919 0 0.08395685824938999 0.26326210758016588 0 0.097359373024830789 0.2694529183290284 0 0.08395685824938999 0.26326210758016588 0 0.080694219823202976 0.2771915139074097 0 0.097359373024830789 0.2694529183290284 0 0.080694219823202976 0.2771915139074097 0 0.085343374731514599 0.29592855843759941 0 0.097359373024830789 0.2694529183290284 0 0.08395685824938999 0.26326210758016588 0 0.080694219823202976 0.2771915139074097 0 0.073496300794921518 0.26780239632633579 0 0.080694219823202976 0.2771915139074097 0 0.069238246996636721 0.27710192616118873 0 0.07367784373237328 0.28688539545827851 0 0.057905766586297681 0.28254163070374949 0 0.063964088952372614 0.25799115617148111 0 0.069238246996636721 0.27710192616118873 0 0.080694219823202976 0.2771915139074097 0 0.073496300794921518 0.26780239632633579 0 0.069238246996636721 0.27710192616118873 0 0.063964088952372614 0.25799115617148111 0 0.073496300794921518 0.26780239632633579 0 0.069238246996636721 0.27710192616118873 0 0.069238246996636721 0.27710192616118873 0 0.063673236048262832 0.28834173674786678 0 0.07367784373237328 0.28688539545827851 0 0.07367784373237328 0.28688539545827851 0 0.068196345986301518 0.29798862426303752 0 0.085343374731514599 0.29592855843759941 0 0.057905766586297681 0.28254163070374949 0 0.069238246996636721 0.27710192616118873 0 0.063673236048262832 0.28834173674786678 0 0.063673236048262832 0.28834173674786678 0 0.07367784373237328 0.28688539545827851 0 0.068196345986301518 0.29798862426303752 0 0.073327376438198394 0.32240419854617042 0 0.071156784390679226 0.30777516547429268 0 0.085343374731514599 0.29592855843759941 0 0.068196345986301518 0.29798862426303752 0 0.071156784390679226 0.30777516547429268 0 0.085343374731514599 0.29592855843759941 0 0.059735675103278318 0.31008385680395589 0 0.068196345986301518 0.29798862426303752 0 0.071156784390679226 0.30777516547429268 0 0.066123338095549225 0.31628795133472121 0 0.059735675103278318 0.31008385680395589 0 0.071156784390679226 0.30777516547429268 0 0.087177622783574715 0.32551809144541621 0 0.085343374731514599 0.29592855843759941 0 0.10082243932588859 0.29889137192136961 0 0.073327376438198394 0.32240419854617042 0 0.085343374731514599 0.29592855843759941 0 0.085343374731514599 0.29592855843759941 0 0.097359373024830789 0.2694529183290284 0 0.080694219823202976 0.2771915139074097 0 0.07367784373237328 0.28688539545827851 0 0.085343374731514599 0.29592855843759941 0 0.085343374731514599 0.29592855843759941 0 0.10082243932588859 0.29889137192136961 0 0.097359373024830789 0.2694529183290284 0 0.10082243932588859 0.29889137192136961 0 0.1144672558682024 0.27226465239732289 0 0.087177622783574715 0.32551809144541621 0 0.10082243932588859 0.29889137192136961 0 0.10614094417406381 0.31842632169262569 0 0.10082243932588859 0.29889137192136961 0 0.1163659570049219 0.30567201985701697 0 0.1189171160094491 0.31877074561265029 0 0.1163659570049219 0.30567201985701697 0 0.13300561023586699 0.31216712834374499 0 0.10082243932588859 0.29889137192136961 0 0.1163659570049219 0.30567201985701697 0 0.1177252918172132 0.29041668176670549 0 0.1163659570049219 0.30567201985701697 0 0.1177252918172132 0.29041668176670549 0 0.12704776086179481 0.29600887388519143 0 0.10082243932588859 0.29889137192136961 0 0.1177252918172132 0.29041668176670549 0 0.1144672558682024 0.27226465239732289 0 0.1177252918172132 0.29041668176670549 0 0.1144672558682024 0.27226465239732289 0 0.12942229048753739 0.28174586079079922 0 0.1177252918172132 0.29041668176670549 0 0.12942229048753739 0.28174586079079922 0 0.12704776086179481 0.29600887388519143 0 0.10937537131814699 0.24297727822045739 0 0.12811207241051631 0.2456379328732762 0 0.1144672558682024 0.27226465239732289 0 0.12811207241051631 0.2456379328732762 0 0.1144672558682024 0.27226465239732289 0 0.086381384202169925 0.24861796181918919 0 0.10937537131814699 0.24297727822045739 0 0.097359373024830789 0.2694529183290284 0 0.10937537131814699 0.24297727822045739 0 0.1144672558682024 0.27226465239732289 0 0.097359373024830789 0.2694529183290284 0 0.10937537131814699 0.24297727822045739 0 0.097359373024830789 0.2694529183290284 0 0.10082243932588859 0.29889137192136961 0 0.1144672558682024 0.27226465239732289 0 0.097359373024830789 0.2694529183290284 0 0.14477905750391939 0.27560806843851471 0 0.14640669834802569 0.25564940172523481 0 0.16174409602920031 0.27253674725515592 0 0.14477905750391939 0.27560806843851471 0 0.14640669834802569 0.25564940172523481 0 0.1326374749236402 0.26618118324502948 0 0.156309635178044 0.24192708784607339 0 0.14640669834802569 0.25564940172523481 0 0.16511150178394041 0.25596916607527909 0 0.12811207241051631 0.2456379328732762 0 0.14640669834802569 0.25564940172523481 0 0.1326374749236402 0.26618118324502948 0 0.12811207241051631 0.2456379328732762 0 0.1144672558682024 0.27226465239732289 0 0.1326374749236402 0.26618118324502948 0 0.1144672558682024 0.27226465239732289 0 0.1326374749236402 0.26618118324502948 0 0.12942229048753739 0.28174586079079922 0 0.14477905750391939 0.27560806843851471 0 0.1326374749236402 0.26618118324502948 0 0.12942229048753739 0.28174586079079922 0 0.14477905750391939 0.27560806843851471 0 0.12942229048753739 0.28174586079079922 0 0.14331488463736361 0.29294038249357091 0 0.12942229048753739 0.28174586079079922 0 0.12704776086179481 0.29600887388519143 0 0.14331488463736361 0.29294038249357091 0 0.1163659570049219 0.30567201985701697 0 0.12704776086179481 0.29600887388519143 0 0.13300561023586699 0.31216712834374499 0 0.12704776086179481 0.29600887388519143 0 0.13300561023586699 0.31216712834374499 0 0.14331488463736361 0.29294038249357091 0 0.13300561023586699 0.31216712834374499 0 0.15428507327449351 0.30669440440283158 0 0.14331488463736361 0.29294038249357091 0 0.15428507327449351 0.30669440440283158 0 0.14331488463736361 0.29294038249357091 0 0.1623719761379511 0.28808919285641271 0 0.14477905750391939 0.27560806843851471 0 0.14331488463736361 0.29294038249357091 0 0.1623719761379511 0.28808919285641271 0 0.15428507327449351 0.30669440440283158 0 0.17683750901175649 0.30231242221147991 0 0.17440664607958989 0.32510958067335388 0 0.15428507327449351 0.30669440440283158 0 0.1623719761379511 0.28808919285641271 0 0.17683750901175649 0.30231242221147991 0 0.17683750901175649 0.30231242221147991 0 0.1793370307147758 0.27527821384913159 0 0.19392191954091059 0.28602238640267419 0 0.1623719761379511 0.28808919285641271 0 0.17683750901175649 0.30231242221147991 0 0.1793370307147758 0.27527821384913159 0 0.17683750901175649 0.30231242221147991 0 0.1793370307147758 0.27527821384913159 0 0.1623719761379511 0.28808919285641271 0 0.1793370307147758 0.27527821384913159 0 0.16174409602920031 0.27253674725515592 0 0.1793370307147758 0.27527821384913159 0 0.16174409602920031 0.27253674725515592 0 0.16511150178394041 0.25596916607527909 0 0.14477905750391939 0.27560806843851471 0 0.1623719761379511 0.28808919285641271 0 0.16174409602920031 0.27253674725515592 0 0.14640669834802569 0.25564940172523481 0 0.16174409602920031 0.27253674725515592 0 0.16511150178394041 0.25596916607527909 0 0.18183655241779509 0.24824400548678319 0 0.1793370307147758 0.27527821384913159 0 0.19236331366387169 0.258977408696138 0 0.18183655241779509 0.24824400548678319 0 0.1793370307147758 0.27527821384913159 0 0.16511150178394041 0.25596916607527909 0 0.18183655241779509 0.24824400548678319 0 0.1793370307147758 0.27527821384913159 0 0.18183655241779509 0.24824400548678319 0 0.19696661788618969 0.24550446176998431 0 0.19236331366387169 0.258977408696138 0 0.19236331366387169 0.258977408696138 0 0.1981383143945894 0.27082469190212838 0 0.20553805290600821 0.25503567047266268 0 0.19696661788618969 0.24550446176998431 0 0.19236331366387169 0.258977408696138 0 0.20553805290600821 0.25503567047266268 0 0.1793370307147758 0.27527821384913159 0 0.1981383143945894 0.27082469190212838 0 0.19392191954091059 0.28602238640267419 0 0.1793370307147758 0.27527821384913159 0 0.19236331366387169 0.258977408696138 0 0.1981383143945894 0.27082469190212838 0 0.1981383143945894 0.27082469190212838 0 0.20798105107015921 0.28243622060112022 0 0.19392191954091059 0.28602238640267419 0 0.1981383143945894 0.27082469190212838 0 0.21930556369080659 0.26908345291036229 0 0.20798105107015921 0.28243622060112022 0 0.20553805290600821 0.25503567047266268 0 0.21960299125344371 0.25061575866082519 0 0.21930556369080659 0.26908345291036229 0 0.1981383143945894 0.27082469190212838 0 0.20553805290600821 0.25503567047266268 0 0.21930556369080659 0.26908345291036229 0 0.21960299125344371 0.25061575866082519 0 0.21930556369080659 0.26908345291036229 0 0.2345500996957938 0.26010465979454561 0 0.23076984391265709 0.24584645890712861 0 0.21960299125344371 0.25061575866082519 0 0.2345500996957938 0.26010465979454561 0 0.21930556369080659 0.26908345291036229 0 0.2358224435773868 0.27975293748984509 0 0.2345500996957938 0.26010465979454561 0 0.21930556369080659 0.26908345291036229 0 0.2358224435773868 0.27975293748984509 0 0.22242461069790581 0.29228018386676591 0 0.2358224435773868 0.27975293748984509 0 0.24784470446055051 0.270369817975116 0 0.25168040627867022 0.28489417946397078 0 0.2358224435773868 0.27975293748984509 0 0.24784470446055051 0.270369817975116 0 0.2345500996957938 0.26010465979454561 0 0.24784470446055051 0.270369817975116 0 0.2462911328595512 0.25813819144323402 0 0.2345500996957938 0.26010465979454561 0 0.242133551746054 0.24582125946899899 0 0.2462911328595512 0.25813819144323402 0 0.25421322039033012 0.25011983010618499 0 0.242133551746054 0.24582125946899899 0 0.23076984391265709 0.24584645890712861 0 0.2345500996957938 0.26010465979454561 0 0.242133551746054 0.24582125946899899 0 0.2462911328595512 0.25813819144323402 0 0.2345500996957938 0.26010465979454561 0 0.24961685989573831 0.30873847525730141 0 0.24090865690401669 0.29671589577026741 0 0.25800559541785328 0.29777215638650789 0 0.23729751152030409 0.31122260483591457 0 0.24090865690401669 0.29671589577026741 0 0.2262378009434739 0.30630766447377572 0 0.23729751152030409 0.31122260483591457 0 0.24961685989573831 0.30873847525730141 0 0.24090865690401669 0.29671589577026741 0 0.2358224435773868 0.27975293748984509 0 0.24090865690401669 0.29671589577026741 0 0.25168040627867022 0.28489417946397078 0 0.2358224435773868 0.27975293748984509 0 0.24090865690401669 0.29671589577026741 0 0.22242461069790581 0.29228018386676591 0 0.22242461069790581 0.29228018386676591 0 0.2262378009434739 0.30630766447377572 0 0.21271269160480971 0.30885588949641068 0 0.24090865690401669 0.29671589577026741 0 0.22242461069790581 0.29228018386676591 0 0.2262378009434739 0.30630766447377572 0 0.22242461069790581 0.29228018386676591 0 0.21271269160480971 0.30885588949641068 0 0.20892001544164029 0.29525995835880647 0 0.21271269160480971 0.30885588949641068 0 0.20892001544164029 0.29525995835880647 0 0.19721771597375601 0.3012977015229219 0 0.21930556369080659 0.26908345291036229 0 0.22242461069790581 0.29228018386676591 0 0.20798105107015921 0.28243622060112022 0 0.22242461069790581 0.29228018386676591 0 0.20892001544164029 0.29525995835880647 0 0.20798105107015921 0.28243622060112022 0 0.20892001544164029 0.29525995835880647 0 0.20798105107015921 0.28243622060112022 0 0.19392191954091059 0.28602238640267419 0 0.17683750901175649 0.30231242221147991 0 0.19392191954091059 0.28602238640267419 0 0.19721771597375601 0.3012977015229219 0 0.20892001544164029 0.29525995835880647 0 0.19392191954091059 0.28602238640267419 0 0.19721771597375601 0.3012977015229219 0 0.17683750901175649 0.30231242221147991 0 0.19721771597375601 0.3012977015229219 0 0.19461830934828739 0.31916301696644112 0 0.21271269160480971 0.30885588949641068 0 0.19721771597375601 0.3012977015229219 0 0.19461830934828739 0.31916301696644112 0 0.19461830934828739 0.31916301696644112 0 0.19452821888468619 0.34352475694387608 0 0.2106423257490288 0.3294121885668897 0 0.19461830934828739 0.31916301696644112 0 0.19452821888468619 0.34352475694387608 0 0.17440664607958989 0.32510958067335388 0 0.2106423257490288 0.3294121885668897 0 0.2211230327580633 0.33762019206653893 0 0.21609789587607131 0.3473731304249153 0 0.19452821888468619 0.34352475694387608 0 0.2106423257490288 0.3294121885668897 0 0.21609789587607131 0.3473731304249153 0 0.21271269160480971 0.30885588949641068 0 0.2106423257490288 0.3294121885668897 0 0.2251425556639767 0.32273908572330151 0 0.21271269160480971 0.30885588949641068 0 0.19461830934828739 0.31916301696644112 0 0.2106423257490288 0.3294121885668897 0 0.23729751152030409 0.31122260483591457 0 0.2262378009434739 0.30630766447377572 0 0.2251425556639767 0.32273908572330151 0 0.2262378009434739 0.30630766447377572 0 0.21271269160480971 0.30885588949641068 0 0.2251425556639767 0.32273908572330151 0 0.2106423257490288 0.3294121885668897 0 0.2251425556639767 0.32273908572330151 0 0.2211230327580633 0.33762019206653893 0 0.2251425556639767 0.32273908572330151 0 0.2211230327580633 0.33762019206653893 0 0.23109669343611239 0.34006355674996791 0 0.2251425556639767 0.32273908572330151 0 0.23109669343611239 0.34006355674996791 0 0.24298945884259771 0.32260938587607951 0 0.2211230327580633 0.33762019206653893 0 0.23109669343611239 0.34006355674996791 0 0.22413902150533099 0.34758949390151211 0 0.23109669343611239 0.34006355674996791 0 0.24846533802493659 0.3372087639246224 0 0.24298945884259771 0.32260938587607951 0 0.23729751152030409 0.31122260483591457 0 0.2251425556639767 0.32273908572330151 0 0.24298945884259771 0.32260938587607951 0 0.23729751152030409 0.31122260483591457 0 0.24961685989573831 0.30873847525730141 0 0.24298945884259771 0.32260938587607951 0 0.23317816381475659 0.35842220373624412 0 0.25624437599770439 0.37334353110294588 0 0.2409752559851096 0.37474981790331319 0 0.23317816381475659 0.35842220373624412 0 0.23212430694485739 0.36913247167210661 0 0.23317816381475659 0.35842220373624412 0 0.25248066312555761 0.35471214092788489 0 0.25624437599770439 0.37334353110294588 0 0.2409752559851096 0.37474981790331319 0 0.23317816381475659 0.35842220373624412 0 0.25624437599770439 0.37334353110294588 0 0.24846533802493659 0.3372087639246224 0 0.23317816381475659 0.35842220373624412 0 0.23109669343611239 0.34006355674996791 0 0.24846533802493659 0.3372087639246224 0 0.23317816381475659 0.35842220373624412 0 0.24846533802493659 0.3372087639246224 0 0.23317816381475659 0.35842220373624412 0 0.25248066312555761 0.35471214092788489 0 0.23317816381475659 0.35842220373624412 0 0.2276330009173429 0.35483508721110141 0 0.22324222071266811 0.36222650163369619 0 0.23109669343611239 0.34006355674996791 0 0.23317816381475659 0.35842220373624412 0 0.2276330009173429 0.35483508721110141 0 0.23317816381475659 0.35842220373624412 0 0.2276330009173429 0.35483508721110141 0 0.23109669343611239 0.34006355674996791 0 0.2276330009173429 0.35483508721110141 0 0.22413902150533099 0.34758949390151211 0 0.2276330009173429 0.35483508721110141 0 0.21609789587607131 0.3473731304249153 0 0.2276330009173429 0.35483508721110141 0 0.22413902150533099 0.34758949390151211 0 0.21609789587607131 0.3473731304249153 0 0.2211230327580633 0.33762019206653893 0 0.22413902150533099 0.34758949390151211 0 0.21609789587607131 0.3473731304249153 0 0.2276330009173429 0.35483508721110141 0 0.21464979168978021 0.36193993321440099 0 0.21609789587607131 0.3473731304249153 0 0.2276330009173429 0.35483508721110141 0 0.21464979168978021 0.36193993321440099 0 0.22428711926925601 0.3707599736690832 0 0.21464979168978021 0.36193993321440099 0 0.22324222071266811 0.36222650163369619 0 0.22428711926925601 0.3707599736690832 0 0.21464979168978021 0.36193993321440099 0 0.2276330009173429 0.35483508721110141 0 0.22324222071266811 0.36222650163369619 0 0.21464979168978021 0.36193993321440099 0 0.23317816381475659 0.35842220373624412 0 0.23212430694485739 0.36913247167210661 0 0.22428711926925601 0.3707599736690832 0 0.23317816381475659 0.35842220373624412 0 0.22324222071266811 0.36222650163369619 0 0.22428711926925601 0.3707599736690832 0 0.23317816381475659 0.35842220373624412 0 0.22428711926925601 0.3707599736690832 0 0.23212430694485739 0.36913247167210661 0 0.22428711926925601 0.3707599736690832 0 0.22961052220879549 0.3756319289799393 0 0.2409752559851096 0.37474981790331319 0 0.23212430694485739 0.36913247167210661 0 0.22961052220879549 0.3756319289799393 0 0.22428711926925601 0.3707599736690832 0 0.22961052220879549 0.3756319289799393 0 0.22428711926925601 0.3707599736690832 0 0.21664133519966161 0.3712762318130064 0 0.21809635562736021 0.37935066480007518 0 0.21464979168978021 0.36193993321440099 0 0.19722817621294 0.3589054345061724 0 0.1983353865017666 0.37086772097971038 0 0.21664133519966161 0.3712762318130064 0 0.21464979168978021 0.36193993321440099 0 0.20953207421224981 0.37305435556846528 0 0.21664133519966161 0.3712762318130064 0 0.20953207421224981 0.37305435556846528 0 0.21809635562736021 0.37935066480007518 0 0.22428711926925601 0.3707599736690832 0 0.21664133519966161 0.3712762318130064 0 0.21464979168978021 0.36193993321440099 0 0.21464979168978021 0.36193993321440099 0 0.20953207421224981 0.37305435556846528 0 0.1983353865017666 0.37086772097971038 0 0.21464979168978021 0.36193993321440099 0 0.1983353865017666 0.37086772097971038 0 0.20953207421224981 0.37305435556846528 0 0.1983353865017666 0.37086772097971038 0 0.20309883690160921 0.3775634712125584 0 0.19452821888468619 0.34352475694387608 0 0.21464979168978021 0.36193993321440099 0 0.19452821888468619 0.34352475694387608 0 0.21464979168978021 0.36193993321440099 0 0.21609789587607131 0.3473731304249153 0 0.19452821888468619 0.34352475694387608 0 0.21464979168978021 0.36193993321440099 0 0.19722817621294 0.3589054345061724 0 0.19452821888468619 0.34352475694387608 0 0.19722817621294 0.3589054345061724 0 0.1813993077755266 0.35928932688670118 0 0.19722817621294 0.3589054345061724 0 0.1983353865017666 0.37086772097971038 0 0.1813993077755266 0.35928932688670118 0 0.1983353865017666 0.37086772097971038 0 0.1813993077755266 0.35928932688670118 0 0.18202098131375161 0.379795508745017 0 0.160290809853913 0.37141662258938041 0 0.1813993077755266 0.35928932688670118 0 0.18202098131375161 0.379795508745017 0 0.160290809853913 0.37141662258938041 0 0.1588158540135296 0.34807725987244492 0 0.1813993077755266 0.35928932688670118 0 0.19452821888468619 0.34352475694387608 0 0.1772875066883331 0.344000231094094 0 0.1813993077755266 0.35928932688670118 0 0.1588158540135296 0.34807725987244492 0 0.1772875066883331 0.344000231094094 0 0.1813993077755266 0.35928932688670118 0 0.19452821888468619 0.34352475694387608 0 0.1772875066883331 0.344000231094094 0 0.17440664607958989 0.32510958067335388 0 0.19452821888468619 0.34352475694387608 0 0.17440664607958989 0.32510958067335388 0 0.17683750901175649 0.30231242221147991 0 0.19461830934828739 0.31916301696644112 0 0.17440664607958989 0.32510958067335388 0 0.15428507327449351 0.30669440440283158 0 0.17440664607958989 0.32510958067335388 0 0.15428507327449351 0.30669440440283158 0 0.17440664607958989 0.32510958067335388 0 0.146963178336973 0.32866414843544062 0 0.1588158540135296 0.34807725987244492 0 0.1772875066883331 0.344000231094094 0 0.17440664607958989 0.32510958067335388 0 0.1588158540135296 0.34807725987244492 0 0.17440664607958989 0.32510958067335388 0 0.146963178336973 0.32866414843544062 0 0.1588158540135296 0.34807725987244492 0 0.146963178336973 0.32866414843544062 0 0.136111928340716 0.34584163282190988 0 0.13300561023586699 0.31216712834374499 0 0.15428507327449351 0.30669440440283158 0 0.146963178336973 0.32866414843544062 0 0.13300561023586699 0.31216712834374499 0 0.146963178336973 0.32866414843544062 0 0.12666186598872181 0.33201748187089242 0 0.1189171160094491 0.31877074561265029 0 0.13300561023586699 0.31216712834374499 0 0.12666186598872181 0.33201748187089242 0 0.146963178336973 0.32866414843544062 0 0.12666186598872181 0.33201748187089242 0 0.136111928340716 0.34584163282190988 0 0.1168304669342336 0.35465885027811339 0 0.13856063839407329 0.36303773643374693 0 0.1168304669342336 0.35465885027811339 0 0.12666186598872181 0.33201748187089242 0 0.136111928340716 0.34584163282190988 0 0.1168304669342336 0.35465885027811339 0 0.136111928340716 0.34584163282190988 0 0.13856063839407329 0.36303773643374693 0 0.1245294276094052 0.36705946116809979 0 0.1168304669342336 0.35465885027811339 0 0.13856063839407329 0.36303773643374693 0 0.1245294276094052 0.36705946116809979 0 0.13856063839407329 0.36303773643374693 0 0.139536202802478 0.38062401709156501 0 0.160290809853913 0.37141662258938041 0 0.1588158540135296 0.34807725987244492 0 0.13856063839407329 0.36303773643374693 0 0.160290809853913 0.37141662258938041 0 0.13856063839407329 0.36303773643374693 0 0.160290809853913 0.37141662258938041 0 0.13856063839407329 0.36303773643374693 0 0.139536202802478 0.38062401709156501 0 0.1588158540135296 0.34807725987244492 0 0.136111928340716 0.34584163282190988 0 0.13856063839407329 0.36303773643374693 0 0.13419225945411201 0.40596898383821739 0 0.15158024974318959 0.41396006195426333 0 0.15810662038393231 0.39288224629161811 0 0.13419225945411201 0.40596898383821739 0 0.15810662038393231 0.39288224629161811 0 0.139536202802478 0.38062401709156501 0 0.13419225945411201 0.40596898383821739 0 0.15810662038393231 0.39288224629161811 0 0.160290809853913 0.37141662258938041 0 0.139536202802478 0.38062401709156501 0 0.15810662038393231 0.39288224629161811 0 0.1232016095315123 0.38640416029862562 0 0.1245294276094052 0.36705946116809979 0 0.139536202802478 0.38062401709156501 0 0.1232016095315123 0.38640416029862562 0 0.139536202802478 0.38062401709156501 0 0.13419225945411201 0.40596898383821739 0 0.13419225945411201 0.40596898383821739 0 0.12888927485547691 0.4298909954227686 0 0.15158024974318959 0.41396006195426333 0 0.12888927485547691 0.4298909954227686 0 0.15158024974318959 0.41396006195426333 0 0.12888927485547691 0.4298909954227686 0 0.15423395529618869 0.42881070169982838 0 0.1494062871843066 0.44175303163277552 0 0.12888927485547691 0.4298909954227686 0 0.15423395529618869 0.42881070169982838 0 0.15158024974318959 0.41396006195426333 0 0.15423395529618869 0.42881070169982838 0 0.15158024974318959 0.41396006195426333 0 0.1677302297263048 0.42240647881821097 0 0.15158024974318959 0.41396006195426333 0 0.175005441445579 0.4120727193990415 0 0.1742712246309025 0.39802912848575789 0 0.15158024974318959 0.41396006195426333 0 0.1677302297263048 0.42240647881821097 0 0.175005441445579 0.4120727193990415 0 0.15423395529618869 0.42881070169982838 0 0.17415846118236719 0.4374125777943963 0 0.1494062871843066 0.44175303163277552 0 0.15423395529618869 0.42881070169982838 0 0.1677302297263048 0.42240647881821097 0 0.17415846118236719 0.4374125777943963 0 0.17415846118236719 0.4374125777943963 0 0.1874863015182878 0.42809589674614601 0 0.1989106351804279 0.43307212395601707 0 0.17415846118236719 0.4374125777943963 0 0.1989106351804279 0.43307212395601707 0 0.1677302297263048 0.42240647881821097 0 0.17415846118236719 0.4374125777943963 0 0.1825309990488663 0.42192368556513898 0 0.17415846118236719 0.4374125777943963 0 0.1825309990488663 0.42192368556513898 0 0.1874863015182878 0.42809589674614601 0 0.1677302297263048 0.42240647881821097 0 0.1825309990488663 0.42192368556513898 0 0.175005441445579 0.4120727193990415 0 0.1825309990488663 0.42192368556513898 0 0.175005441445579 0.4120727193990415 0 0.18918669153476519 0.41224556987005773 0 0.175005441445579 0.4120727193990415 0 0.18473325398944579 0.40387139170082009 0 0.18918669153476519 0.41224556987005773 0 0.18473325398944579 0.40387139170082009 0 0.1742712246309025 0.39802912848575789 0 0.18849683576098419 0.3977185366222975 0 0.1742712246309025 0.39802912848575789 0 0.1933737175977939 0.39018641157316941 0 0.18849683576098419 0.3977185366222975 0 0.175005441445579 0.4120727193990415 0 0.18473325398944579 0.40387139170082009 0 0.1742712246309025 0.39802912848575789 0 0.15158024974318959 0.41396006195426333 0 0.1742712246309025 0.39802912848575789 0 0.15158024974318959 0.41396006195426333 0 0.1742712246309025 0.39802912848575789 0 0.15810662038393231 0.39288224629161811 0 0.1742712246309025 0.39802912848575789 0 0.15810662038393231 0.39288224629161811 0 0.18202098131375161 0.379795508745017 0 0.160290809853913 0.37141662258938041 0 0.18202098131375161 0.379795508745017 0 0.15810662038393231 0.39288224629161811 0 0.18202098131375161 0.379795508745017 0 0.160290809853913 0.37141662258938041 0 0.15810662038393231 0.39288224629161811 0 0.18202098131375161 0.379795508745017 0 0.1742712246309025 0.39802912848575789 0 0.18202098131375161 0.379795508745017 0 0.19142069318331759 0.38341992173210881 0 0.1742712246309025 0.39802912848575789 0 0.19696219951861529 0.38209819501725262 0 0.18202098131375161 0.379795508745017 0 0.19142069318331759 0.38341992173210881 0 0.1983353865017666 0.37086772097971038 0 0.18202098131375161 0.379795508745017 0 0.19142069318331759 0.38341992173210881 0 0.1983353865017666 0.37086772097971038 0 0.18202098131375161 0.379795508745017 0 0.1742712246309025 0.39802912848575789 0 0.1933737175977939 0.39018641157316941 0 0.19696219951861529 0.38209819501725262 0 0.1742712246309025 0.39802912848575789 0 0.19142069318331759 0.38341992173210881 0 0.19696219951861529 0.38209819501725262 0 0.1933737175977939 0.39018641157316941 0 0.20168427865737559 0.3886540233570841 0 0.19696219951861529 0.38209819501725262 0 0.20168427865737559 0.3886540233570841 0 0.2023754329344076 0.38317765307415103 0 0.19696219951861529 0.38209819501725262 0 0.2023754329344076 0.38317765307415103 0 0.20309883690160921 0.3775634712125584 0 0.19696219951861529 0.38209819501725262 0 0.1983353865017666 0.37086772097971038 0 0.19142069318331759 0.38341992173210881 0 0.19696219951861529 0.38209819501725262 0 0.1983353865017666 0.37086772097971038 0 0.20309883690160921 0.3775634712125584 0 0.19696219951861529 0.38209819501725262 0 0.18473325398944579 0.40387139170082009 0 0.19357552273473291 0.40162958460705322 0 0.18849683576098419 0.3977185366222975 0 0.18473325398944579 0.40387139170082009 0 0.19357552273473291 0.40162958460705322 0 0.18918669153476519 0.41224556987005773 0 0.19357552273473291 0.40162958460705322 0 0.18849683576098419 0.3977185366222975 0 0.1965304598520459 0.39487616674468679 0 0.1933737175977939 0.39018641157316941 0 0.18849683576098419 0.3977185366222975 0 0.1965304598520459 0.39487616674468679 0 0.1933737175977939 0.39018641157316941 0 0.20168427865737559 0.3886540233570841 0 0.1965304598520459 0.39487616674468679 0 0.20168427865737559 0.3886540233570841 0 0.20243316154236091 0.39466525830955612 0 0.1965304598520459 0.39487616674468679 0 0.20243316154236091 0.39466525830955612 0 0.1965304598520459 0.39487616674468679 0 0.2026435948617496 0.40134620019165917 0 0.19357552273473291 0.40162958460705322 0 0.1965304598520459 0.39487616674468679 0 0.2026435948617496 0.40134620019165917 0 0.19357552273473291 0.40162958460705322 0 0.2026435948617496 0.40134620019165917 0 0.19791602415876949 0.40888700458843052 0 0.2026435948617496 0.40134620019165917 0 0.20887431279827279 0.39378464294479448 0 0.21183898270192411 0.40308444471360261 0 0.20243316154236091 0.39466525830955612 0 0.2026435948617496 0.40134620019165917 0 0.20887431279827279 0.39378464294479448 0 0.20168427865737559 0.3886540233570841 0 0.20243316154236091 0.39466525830955612 0 0.20887431279827279 0.39378464294479448 0 0.20887431279827279 0.39378464294479448 0 0.21183898270192411 0.40308444471360261 0 0.21951643735107301 0.39778453482026732 0 0.20887431279827279 0.39378464294479448 0 0.21566117238851079 0.38801845824856318 0 0.21951643735107301 0.39778453482026732 0 0.21183898270192411 0.40308444471360261 0 0.21951643735107301 0.39778453482026732 0 0.21813374103170469 0.41126607557772488 0 0.20953207421224981 0.37305435556846528 0 0.20309883690160921 0.3775634712125584 0 0.20788712246099059 0.38347699280260311 0 0.2023754329344076 0.38317765307415103 0 0.20309883690160921 0.3775634712125584 0 0.20788712246099059 0.38347699280260311 0 0.20168427865737559 0.3886540233570841 0 0.20887431279827279 0.39378464294479448 0 0.20788712246099059 0.38347699280260311 0 0.20887431279827279 0.39378464294479448 0 0.20788712246099059 0.38347699280260311 0 0.21566117238851079 0.38801845824856318 0 0.20168427865737559 0.3886540233570841 0 0.2023754329344076 0.38317765307415103 0 0.20788712246099059 0.38347699280260311 0 0.20788712246099059 0.38347699280260311 0 0.21566117238851079 0.38801845824856318 0 0.21809635562736021 0.37935066480007518 0 0.20953207421224981 0.37305435556846528 0 0.20788712246099059 0.38347699280260311 0 0.21809635562736021 0.37935066480007518 0 0.22428711926925601 0.3707599736690832 0 0.21809635562736021 0.37935066480007518 0 0.22961052220879549 0.3756319289799393 0 0.21809635562736021 0.37935066480007518 0 0.22961052220879549 0.3756319289799393 0 0.22498365572601001 0.38627974617820432 0 0.22428711926925601 0.3707599736690832 0 0.21809635562736021 0.37935066480007518 0 0.22961052220879549 0.3756319289799393 0 0.23428414428822111 0.38323172651241499 0 0.22498365572601001 0.38627974617820432 0 0.23428414428822111 0.38323172651241499 0 0.22498365572601001 0.38627974617820432 0 0.23195462893669949 0.39372912298726309 0 0.21566117238851079 0.38801845824856318 0 0.21809635562736021 0.37935066480007518 0 0.22498365572601001 0.38627974617820432 0 0.21566117238851079 0.38801845824856318 0 0.22498365572601001 0.38627974617820432 0 0.21951643735107301 0.39778453482026732 0 0.22498365572601001 0.38627974617820432 0 0.21951643735107301 0.39778453482026732 0 0.23195462893669949 0.39372912298726309 0 0.21951643735107301 0.39778453482026732 0 0.22873204222269231 0.40380684372272901 0 0.21813374103170469 0.41126607557772488 0 0.22873204222269231 0.40380684372272901 0 0.23195462893669949 0.39372912298726309 0 0.24017709759903141 0.4023816849863755 0 0.21951643735107301 0.39778453482026732 0 0.22873204222269231 0.40380684372272901 0 0.23195462893669949 0.39372912298726309 0 0.23195462893669949 0.39372912298726309 0 0.24017709759903141 0.4023816849863755 0 0.24389665858449111 0.38576801651335552 0 0.24017709759903141 0.4023816849863755 0 0.24389665858449111 0.38576801651335552 0 0.252914075246371 0.40133046553089918 0 0.24017709759903141 0.4023816849863755 0 0.25217688592437781 0.41268766619691122 0 0.252914075246371 0.40133046553089918 0 0.2409752559851096 0.37474981790331319 0 0.24389665858449111 0.38576801651335552 0 0.25624437599770439 0.37334353110294588 0 0.2409752559851096 0.37474981790331319 0 0.22961052220879549 0.3756319289799393 0 0.23428414428822111 0.38323172651241499 0 0.2409752559851096 0.37474981790331319 0 0.23428414428822111 0.38323172651241499 0 0.24389665858449111 0.38576801651335552 0 0.23428414428822111 0.38323172651241499 0 0.23195462893669949 0.39372912298726309 0 0.24389665858449111 0.38576801651335552 0 0.24841498317654909 0.4243912162792588 0 0.22366280917848849 0.42873167011763791 0 0.24131399117488819 0.44691908366269367 0 0.24841498317654909 0.4243912162792588 0 0.22366280917848849 0.42873167011763791 0 0.24841498317654909 0.4243912162792588 0 0.23387830619495281 0.41387280024201412 0 0.22366280917848849 0.42873167011763791 0 0.24017709759903141 0.4023816849863755 0 0.23387830619495281 0.41387280024201412 0 0.25217688592437781 0.41268766619691122 0 0.24841498317654909 0.4243912162792588 0 0.23387830619495281 0.41387280024201412 0 0.25217688592437781 0.41268766619691122 0 0.22873204222269231 0.40380684372272901 0 0.23387830619495281 0.41387280024201412 0 0.21813374103170469 0.41126607557772488 0 0.23387830619495281 0.41387280024201412 0 0.22366280917848849 0.42873167011763791 0 0.21813374103170469 0.41126607557772488 0 0.22873204222269231 0.40380684372272901 0 0.24017709759903141 0.4023816849863755 0 0.23387830619495281 0.41387280024201412 0 0.22366280917848849 0.42873167011763791 0 0.20583956745197171 0.41468942771927708 0 0.1989106351804279 0.43307212395601707 0 0.22366280917848849 0.42873167011763791 0 0.1989106351804279 0.43307212395601707 0 0.2126139079318064 0.44512303036569761 0 0.22366280917848849 0.42873167011763791 0 0.1989106351804279 0.43307212395601707 0 0.22366280917848849 0.42873167011763791 0 0.21813374103170469 0.41126607557772488 0 0.20583956745197171 0.41468942771927708 0 0.21183898270192411 0.40308444471360261 0 0.21813374103170469 0.41126607557772488 0 0.20583956745197171 0.41468942771927708 0 0.2026435948617496 0.40134620019165917 0 0.21183898270192411 0.40308444471360261 0 0.20583956745197171 0.41468942771927708 0 0.2026435948617496 0.40134620019165917 0 0.20583956745197171 0.41468942771927708 0 0.19791602415876949 0.40888700458843052 0 0.20583956745197171 0.41468942771927708 0 0.19791602415876949 0.40888700458843052 0 0.19434511066148991 0.41997519966903157 0 0.1825309990488663 0.42192368556513898 0 0.19434511066148991 0.41997519966903157 0 0.18918669153476519 0.41224556987005773 0 0.19791602415876949 0.40888700458843052 0 0.19434511066148991 0.41997519966903157 0 0.18918669153476519 0.41224556987005773 0 0.19357552273473291 0.40162958460705322 0 0.19791602415876949 0.40888700458843052 0 0.18918669153476519 0.41224556987005773 0 0.17415846118236719 0.4374125777943963 0 0.1989106351804279 0.43307212395601707 0 0.19082963298514041 0.44109571049281882 0 0.20583956745197171 0.41468942771927708 0 0.19434511066148991 0.41997519966903157 0 0.1989106351804279 0.43307212395601707 0 0.1825309990488663 0.42192368556513898 0 0.1874863015182878 0.42809589674614601 0 0.19434511066148991 0.41997519966903157 0 0.1874863015182878 0.42809589674614601 0 0.19434511066148991 0.41997519966903157 0 0.1989106351804279 0.43307212395601707 0 0.19082963298514041 0.44109571049281882 0 0.2031581296375565 0.46073047366187941 0 0.19082963298514041 0.44109571049281882 0 0.20158536549211259 0.4438472018866767 0 0.2031581296375565 0.46073047366187941 0 0.19082963298514041 0.44109571049281882 0 0.2031581296375565 0.46073047366187941 0 0.18127665267385701 0.4507845026386158 0 0.1989106351804279 0.43307212395601707 0 0.19082963298514041 0.44109571049281882 0 0.20158536549211259 0.4438472018866767 0 0.2031581296375565 0.46073047366187941 0 0.17994883962947561 0.46434845147982418 0 0.18127665267385701 0.4507845026386158 0 0.2031581296375565 0.46073047366187941 0 0.1885846670273158 0.4808732272746038 0 0.17994883962947561 0.46434845147982418 0 0.2031581296375565 0.46073047366187941 0 0.2126139079318064 0.44512303036569761 0 0.2264173523317515 0.45873046469017242 0 0.2031581296375565 0.46073047366187941 0 0.2264173523317515 0.45873046469017242 0 0.2154866262899727 0.48036523683094001 0 0.20158536549211259 0.4438472018866767 0 0.2031581296375565 0.46073047366187941 0 0.2126139079318064 0.44512303036569761 0 0.1989106351804279 0.43307212395601707 0 0.20158536549211259 0.4438472018866767 0 0.2126139079318064 0.44512303036569761 0 0.22366280917848849 0.42873167011763791 0 0.2260020151542336 0.4448760622090504 0 0.24131399117488819 0.44691908366269367 0 0.22366280917848849 0.42873167011763791 0 0.2126139079318064 0.44512303036569761 0 0.2260020151542336 0.4448760622090504 0 0.2260020151542336 0.4448760622090504 0 0.2264173523317515 0.45873046469017242 0 0.24131399117488819 0.44691908366269367 0 0.2126139079318064 0.44512303036569761 0 0.2260020151542336 0.4448760622090504 0 0.2264173523317515 0.45873046469017242 0 0.2264173523317515 0.45873046469017242 0 0.24502420890889409 0.46004077709308971 0 0.2403030807883772 0.47283356816402922 0 0.2264173523317515 0.45873046469017242 0 0.24502420890889409 0.46004077709308971 0 0.24131399117488819 0.44691908366269367 0 0.24502420890889409 0.46004077709308971 0 0.24131399117488819 0.44691908366269367 0 0.26012747631980893 0.45482884786359967 0 0.24502420890889409 0.46004077709308971 0 0.2403030807883772 0.47283356816402922 0 0.25555056379770258 0.46864771481894579 0 0.24855223252474409 0.5 0 0.23737790452612559 0.48794238258448841 0 0.25172960110999948 0.48246953972966722 0 0.24855223252474409 0.5 0 0.23737790452612559 0.48794238258448841 0 0.2278151229423889 0.50000000000000044 0 0.23737790452612559 0.48794238258448841 0 0.2403030807883772 0.47283356816402922 0 0.25172960110999948 0.48246953972966722 0 0.2403030807883772 0.47283356816402922 0 0.25172960110999948 0.48246953972966722 0 0.25555056379770258 0.46864771481894579 0 0.2264173523317515 0.45873046469017242 0 0.2403030807883772 0.47283356816402922 0 0.2154866262899727 0.48036523683094001 0 0.23737790452612559 0.48794238258448841 0 0.2403030807883772 0.47283356816402922 0 0.2154866262899727 0.48036523683094001 0 0.23737790452612559 0.48794238258448841 0 0.2278151229423889 0.50000000000000044 0 0.2154866262899727 0.48036523683094001 0 0.2278151229423889 0.50000000000000044 0 0.2154866262899727 0.48036523683094001 0 0.2278151229423889 0.50000000000000044 0 0.2154866262899727 0.48036523683094001 0 0.20004964979277109 0.5 0 0.2031581296375565 0.46073047366187941 0 0.2154866262899727 0.48036523683094001 0 0.2031581296375565 0.46073047366187941 0 0.2154866262899727 0.48036523683094001 0 0.1885846670273158 0.4808732272746038 0 0.2154866262899727 0.48036523683094001 0 0.1885846670273158 0.4808732272746038 0 0.20004964979277109 0.5 0 0.1885846670273158 0.4808732272746038 0 0.20004964979277109 0.5 0 0.1722841766431534 0.5 0 0.1885846670273158 0.4808732272746038 0 0.1722841766431534 0.5 0 0.16058058017096591 0.47979520167497958 0 0.1722841766431534 0.5 0 0.16058058017096591 0.47979520167497958 0 0.1445187034935356 0.5 0 0.1885846670273158 0.4808732272746038 0 0.16058058017096591 0.47979520167497958 0 0.17994883962947561 0.46434845147982418 0 0.17994883962947561 0.46434845147982418 0 0.18127665267385701 0.4507845026386158 0 0.1636989190733881 0.45474044298754551 0 0.17415846118236719 0.4374125777943963 0 0.19082963298514041 0.44109571049281882 0 0.18127665267385701 0.4507845026386158 0 0.17415846118236719 0.4374125777943963 0 0.18127665267385701 0.4507845026386158 0 0.1636989190733881 0.45474044298754551 0 0.17415846118236719 0.4374125777943963 0 0.1636989190733881 0.45474044298754551 0 0.1494062871843066 0.44175303163277552 0 0.17415846118236719 0.4374125777943963 0 0.1494062871843066 0.44175303163277552 0 0.16058058017096591 0.47979520167497958 0 0.17994883962947561 0.46434845147982418 0 0.1636989190733881 0.45474044298754551 0 0.16058058017096591 0.47979520167497958 0 0.1636989190733881 0.45474044298754551 0 0.1374291981924019 0.46244480650865188 0 0.1636989190733881 0.45474044298754551 0 0.1494062871843066 0.44175303163277552 0 0.1374291981924019 0.46244480650865188 0 0.1246541131862461 0.44609348547115463 0 0.1494062871843066 0.44175303163277552 0 0.1374291981924019 0.46244480650865188 0 0.1246541131862461 0.44609348547115463 0 0.12888927485547691 0.4298909954227686 0 0.1494062871843066 0.44175303163277552 0 0.1246541131862461 0.44609348547115463 0 0.1494062871843066 0.44175303163277552 0 0.1178521261576949 0.45882390178641819 0 0.1246541131862461 0.44609348547115463 0 0.1374291981924019 0.46244480650865188 0 0.117087238109316 0.47555329320773032 0 0.1374291981924019 0.46244480650865188 0 0.1340822501540728 0.48388572070748981 0 0.11675323034391789 0.5 0 0.1340822501540728 0.48388572070748981 0 0.1445187034935356 0.5 0 0.16058058017096591 0.47979520167497958 0 0.1340822501540728 0.48388572070748981 0 0.1445187034935356 0.5 0 0.16058058017096591 0.47979520167497958 0 0.1374291981924019 0.46244480650865188 0 0.1340822501540728 0.48388572070748981 0 0.35388620159590101 0.48167910254806839 0 0.34357795286927678 0.46514536108458682 0 0.33848141111147589 0.47874965692944033 0 0.35388620159590101 0.48167910254806839 0 0.35847543437996793 0.46812875354486239 0 0.34357795286927678 0.46514536108458682 0 0.35388620159590101 0.48167910254806839 0 0.34387074105433718 0.5 0 0.33848141111147589 0.47874965692944033 0 0.35388620159590101 0.48167910254806839 0 0.34387074105433718 0.5 0 0.36873120737008308 0.5 0 0.35388620159590101 0.48167910254806839 0 0.36873120737008308 0.5 0 0.37018046279026501 0.47805084372952139 0 0.36873120737008308 0.5 0 0.37018046279026501 0.47805084372952139 0 0.38494279661275388 0.48573787428206489 0 0.35388620159590101 0.48167910254806839 0 0.37018046279026501 0.47805084372952139 0 0.35847543437996793 0.46812875354486239 0 0.35856995309503858 0.45231737873352462 0 0.35847543437996793 0.46812875354486239 0 0.37512177367696298 0.45895591305414518 0 0.37018046279026501 0.47805084372952139 0 0.35847543437996793 0.46812875354486239 0 0.37512177367696298 0.45895591305414518 0 0.35856995309503858 0.45231737873352462 0 0.35671319946618091 0.4318912509952535 0 0.37690062581237332 0.43627968954933488 0 0.35856995309503858 0.45231737873352462 0 0.37690062581237332 0.43627968954933488 0 0.37512177367696298 0.45895591305414518 0 0.35856995309503858 0.45231737873352462 0 0.3424906606602317 0.44684205033447821 0 0.35671319946618091 0.4318912509952535 0 0.35856995309503858 0.45231737873352462 0 0.34357795286927678 0.46514536108458682 0 0.3424906606602317 0.44684205033447821 0 0.35856995309503858 0.45231737873352462 0 0.35847543437996793 0.46812875354486239 0 0.34357795286927678 0.46514536108458682 0 0.34357795286927678 0.46514536108458682 0 0.33081744323986911 0.4558060151747555 0 0.3424906606602317 0.44684205033447821 0 0.34357795286927678 0.46514536108458682 0 0.33081744323986911 0.4558060151747555 0 0.32111711556193662 0.46808644746929151 0 0.34357795286927678 0.46514536108458682 0 0.32111711556193662 0.46808644746929151 0 0.3424906606602317 0.44684205033447821 0 0.32847368315517489 0.44250138865551453 0 0.33754975553801558 0.43354991765073408 0 0.33081744323986911 0.4558060151747555 0 0.3424906606602317 0.44684205033447821 0 0.32847368315517489 0.44250138865551453 0 0.32847368315517489 0.44250138865551453 0 0.31743597682768998 0.45244458976709778 0 0.31567806248071628 0.43943026677449221 0 0.33081744323986911 0.4558060151747555 0 0.32847368315517489 0.44250138865551453 0 0.31743597682768998 0.45244458976709778 0 0.33081744323986911 0.4558060151747555 0 0.31743597682768998 0.45244458976709778 0 0.32111711556193662 0.46808644746929151 0 0.31743597682768998 0.45244458976709778 0 0.32111711556193662 0.46808644746929151 0 0.30689213545377181 0.45890868430395798 0 0.32111711556193662 0.46808644746929151 0 0.32427753481710259 0.48179949324266241 0 0.33848141111147589 0.47874965692944033 0 0.32111711556193662 0.46808644746929151 0 0.32427753481710259 0.48179949324266241 0 0.29865627825459651 0.47102753385399682 0 0.34357795286927678 0.46514536108458682 0 0.32111711556193662 0.46808644746929151 0 0.33848141111147589 0.47874965692944033 0 0.34387074105433718 0.5 0 0.32427753481710259 0.48179949324266241 0 0.31901027473859128 0.5 0 0.34387074105433718 0.5 0 0.32427753481710259 0.48179949324266241 0 0.33848141111147589 0.47874965692944033 0 0.32427753481710259 0.48179949324266241 0 0.31901027473859128 0.5 0 0.30458508487733132 0.48793925830823959 0 0.31901027473859128 0.5 0 0.30458508487733132 0.48793925830823959 0 0.29414980842284533 0.5 0 0.32111711556193662 0.46808644746929151 0 0.29865627825459651 0.47102753385399682 0 0.32427753481710259 0.48179949324266241 0 0.29865627825459651 0.47102753385399682 0 0.32427753481710259 0.48179949324266241 0 0.30458508487733132 0.48793925830823959 0 0.29865627825459651 0.47102753385399682 0 0.29865627825459651 0.47102753385399682 0 0.27602637792525392 0.47399075783514849 0 0.27894096146472969 0.46273861206450562 0 0.29865627825459651 0.47102753385399682 0 0.28420565509458329 0.48834000783944181 0 0.27602637792525392 0.47399075783514849 0 0.29865627825459651 0.47102753385399682 0 0.27602637792525392 0.47399075783514849 0 0.30458508487733132 0.48793925830823959 0 0.29865627825459651 0.47102753385399682 0 0.28420565509458329 0.48834000783944181 0 0.30458508487733132 0.48793925830823959 0 0.29414980842284533 0.5 0 0.28420565509458329 0.48834000783944181 0 0.29414980842284533 0.5 0 0.28420565509458329 0.48834000783944181 0 0.26928934210709943 0.49999999999999928 0 0.26928934210709943 0.49999999999999928 0 0.27602637792525392 0.47399075783514849 0 0.26928934210709943 0.49999999999999928 0 0.27602637792525392 0.47399075783514849 0 0.26295744012280131 0.48683712860240042 0 0.28420565509458329 0.48834000783944181 0 0.26928934210709943 0.49999999999999928 0 0.27602637792525392 0.47399075783514849 0 0.27602637792525392 0.47399075783514849 0 0.2661208873989509 0.47528781114273821 0 0.27602637792525392 0.47399075783514849 0 0.2661208873989509 0.47528781114273821 0 0.26735325338128918 0.46709874874498758 0 0.27602637792525392 0.47399075783514849 0 0.2661208873989509 0.47528781114273821 0 0.26295744012280131 0.48683712860240042 0 0.2661208873989509 0.47528781114273821 0 0.25172960110999948 0.48246953972966722 0 0.26295744012280131 0.48683712860240042 0 0.2661208873989509 0.47528781114273821 0 0.25555056379770258 0.46864771481894579 0 0.26735325338128918 0.46709874874498758 0 0.2661208873989509 0.47528781114273821 0 0.25172960110999948 0.48246953972966722 0 0.25555056379770258 0.46864771481894579 0 0.24855223252474409 0.5 0 0.26928934210709943 0.49999999999999928 0 0.26295744012280131 0.48683712860240042 0 0.24855223252474409 0.5 0 0.25172960110999948 0.48246953972966722 0 0.26295744012280131 0.48683712860240042 0 0.24131399117488819 0.44691908366269367 0 0.26012747631980893 0.45482884786359967 0 0.24131399117488819 0.44691908366269367 0 0.26012747631980893 0.45482884786359967 0 0.26030715934879761 0.43325051146766608 0 0.26012747631980893 0.45482884786359967 0 0.27057363101015708 0.44953002785008789 0 0.26030715934879761 0.43325051146766608 0 0.24502420890889409 0.46004077709308971 0 0.25555056379770258 0.46864771481894579 0 0.26012747631980893 0.45482884786359967 0 0.25555056379770258 0.46864771481894579 0 0.26012747631980893 0.45482884786359967 0 0.26735325338128918 0.46709874874498758 0 0.26012747631980893 0.45482884786359967 0 0.27894096146472969 0.46273861206450562 0 0.27057363101015708 0.44953002785008789 0 0.26012747631980893 0.45482884786359967 0 0.26735325338128918 0.46709874874498758 0 0.27894096146472969 0.46273861206450562 0 0.26012747631980893 0.45482884786359967 0 0.27894096146472969 0.46273861206450562 0 0.27602637792525392 0.47399075783514849 0 0.27894096146472969 0.46273861206450562 0 0.27602637792525392 0.47399075783514849 0 0.26735325338128918 0.46709874874498758 0 0.27894096146472969 0.46273861206450562 0 0.27894096146472969 0.46273861206450562 0 0.28228283691204642 0.44983684782573102 0 0.27894096146472969 0.46273861206450562 0 0.27057363101015708 0.44953002785008789 0 0.28228283691204642 0.44983684782573102 0 0.27057363101015708 0.44953002785008789 0 0.27391577041644222 0.43939054185118892 0 0.26030715934879761 0.43325051146766608 0 0.27057363101015708 0.44953002785008789 0 0.27391577041644222 0.43939054185118892 0 0.28228283691204642 0.44983684782573102 0 0.27391577041644222 0.43939054185118892 0 0.28282295801992552 0.43967096664509409 0 0.28228283691204642 0.44983684782573102 0 0.28282295801992552 0.43967096664509409 0 0.29320239630487149 0.44245569565205228 0 0.28723710123470181 0.4332609660991214 0 0.28282295801992552 0.43967096664509409 0 0.28228283691204642 0.44983684782573102 0 0.29320239630487149 0.44245569565205228 0 0.29320239630487149 0.44245569565205228 0 0.29354405265997119 0.45577290489706412 0 0.30370725396466502 0.44721194553233962 0 0.28228283691204642 0.44983684782573102 0 0.29320239630487149 0.44245569565205228 0 0.29354405265997119 0.45577290489706412 0 0.29865627825459651 0.47102753385399682 0 0.27894096146472969 0.46273861206450562 0 0.29865627825459651 0.47102753385399682 0 0.27894096146472969 0.46273861206450562 0 0.29354405265997119 0.45577290489706412 0 0.27894096146472969 0.46273861206450562 0 0.28228283691204642 0.44983684782573102 0 0.29354405265997119 0.45577290489706412 0 0.32111711556193662 0.46808644746929151 0 0.29865627825459651 0.47102753385399682 0 0.30689213545377181 0.45890868430395798 0 0.29865627825459651 0.47102753385399682 0 0.29354405265997119 0.45577290489706412 0 0.30689213545377181 0.45890868430395798 0 0.29354405265997119 0.45577290489706412 0 0.30689213545377181 0.45890868430395798 0 0.30370725396466502 0.44721194553233962 0 0.29320239630487149 0.44245569565205228 0 0.30370725396466502 0.44721194553233962 0 0.30409509973607302 0.43724530516892912 0 0.31743597682768998 0.45244458976709778 0 0.31567806248071628 0.43943026677449221 0 0.30370725396466502 0.44721194553233962 0 0.31743597682768998 0.45244458976709778 0 0.30689213545377181 0.45890868430395798 0 0.30370725396466502 0.44721194553233962 0 0.31567806248071628 0.43943026677449221 0 0.30370725396466502 0.44721194553233962 0 0.30409509973607302 0.43724530516892912 0 0.31567806248071628 0.43943026677449221 0 0.30968444992324379 0.42647143236204588 0 0.30409509973607302 0.43724530516892912 0 0.30968444992324379 0.42647143236204588 0 0.29820333600686788 0.43065718552371562 0 0.30176951038703859 0.41931096634927523 0 0.29820333600686788 0.43065718552371562 0 0.30176951038703859 0.41931096634927523 0 0.29292151356026269 0.42516424129976182 0 0.30968444992324379 0.42647143236204588 0 0.30409509973607302 0.43724530516892912 0 0.29820333600686788 0.43065718552371562 0 0.29320239630487149 0.44245569565205228 0 0.30409509973607302 0.43724530516892912 0 0.29820333600686788 0.43065718552371562 0 0.30176951038703859 0.41931096634927523 0 0.32094986060876879 0.4115970740661653 0 0.30176951038703859 0.41931096634927523 0 0.30864839517743969 0.40587570506854681 0 0.32094986060876879 0.4115970740661653 0 0.30968444992324379 0.42647143236204588 0 0.30176951038703859 0.41931096634927523 0 0.32094986060876879 0.4115970740661653 0 0.30176951038703859 0.41931096634927523 0 0.29760074735645009 0.41016270555695872 0 0.29225363880175881 0.41670382441247839 0 0.30176951038703859 0.41931096634927523 0 0.29760074735645009 0.41016270555695872 0 0.30864839517743969 0.40587570506854681 0 0.29225363880175881 0.41670382441247839 0 0.27316715717461021 0.42005076244088219 0 0.29225363880175881 0.41670382441247839 0 0.28010002506970322 0.42360651535067562 0 0.27316715717461021 0.42005076244088219 0 0.29225363880175881 0.41670382441247839 0 0.28238216608887218 0.41225465647531551 0 0.27316715717461021 0.42005076244088219 0 0.29760074735645009 0.41016270555695872 0 0.28935021997006249 0.41002796005105319 0 0.29147798928276553 0.40427096512258021 0 0.29760074735645009 0.41016270555695872 0 0.28935021997006249 0.41002796005105319 0 0.29225363880175881 0.41670382441247839 0 0.30176951038703859 0.41931096634927523 0 0.29225363880175881 0.41670382441247839 0 0.29292151356026269 0.42516424129976182 0 0.28935021997006249 0.41002796005105319 0 0.29225363880175881 0.41670382441247839 0 0.28238216608887218 0.41225465647531551 0 0.28935021997006249 0.41002796005105319 0 0.28238216608887218 0.41225465647531551 0 0.2846820396136871 0.40599856891494018 0 0.28935021997006249 0.41002796005105319 0 0.2846820396136871 0.40599856891494018 0 0.29147798928276553 0.40427096512258021 0 0.29320239630487149 0.44245569565205228 0 0.29820333600686788 0.43065718552371562 0 0.28723710123470181 0.4332609660991214 0 0.29820333600686788 0.43065718552371562 0 0.29292151356026269 0.42516424129976182 0 0.28723710123470181 0.4332609660991214 0 0.29225363880175881 0.41670382441247839 0 0.29292151356026269 0.42516424129976182 0 0.28514398137094621 0.42588826411421848 0 0.29225363880175881 0.41670382441247839 0 0.28514398137094621 0.42588826411421848 0 0.28010002506970322 0.42360651535067562 0 0.29292151356026269 0.42516424129976182 0 0.28514398137094621 0.42588826411421848 0 0.28723710123470181 0.4332609660991214 0 0.28282295801992552 0.43967096664509409 0 0.28723710123470181 0.4332609660991214 0 0.27763390738234589 0.43085977520387231 0 0.28514398137094621 0.42588826411421848 0 0.28723710123470181 0.4332609660991214 0 0.27763390738234589 0.43085977520387231 0 0.27391577041644222 0.43939054185118892 0 0.27763390738234589 0.43085977520387231 0 0.27103956944161001 0.43200769477616341 0 0.27391577041644222 0.43939054185118892 0 0.28282295801992552 0.43967096664509409 0 0.27763390738234589 0.43085977520387231 0 0.27391577041644222 0.43939054185118892 0 0.27103956944161001 0.43200769477616341 0 0.26030715934879761 0.43325051146766608 0 0.27103956944161001 0.43200769477616341 0 0.27230144061885447 0.4245299505819265 0 0.26030715934879761 0.43325051146766608 0 0.27230144061885447 0.4245299505819265 0 0.27316715717461021 0.42005076244088219 0 0.27230144061885447 0.4245299505819265 0 0.28010002506970322 0.42360651535067562 0 0.27316715717461021 0.42005076244088219 0 0.27763390738234589 0.43085977520387231 0 0.27103956944161001 0.43200769477616341 0 0.27230144061885447 0.4245299505819265 0 0.27763390738234589 0.43085977520387231 0 0.27230144061885447 0.4245299505819265 0 0.28010002506970322 0.42360651535067562 0 0.28514398137094621 0.42588826411421848 0 0.27763390738234589 0.43085977520387231 0 0.28010002506970322 0.42360651535067562 0 0.28238216608887218 0.41225465647531551 0 0.27316715717461021 0.42005076244088219 0 0.27623887267763242 0.40415781045526428 0 0.27316715717461021 0.42005076244088219 0 0.27623887267763242 0.40415781045526428 0 0.27316715717461021 0.42005076244088219 0 0.26346455022531717 0.4089955876167124 0 0.27623887267763242 0.40415781045526428 0 0.28238216608887218 0.41225465647531551 0 0.27623887267763242 0.40415781045526428 0 0.2846820396136871 0.40599856891494018 0 0.24841498317654909 0.4243912162792588 0 0.27316715717461021 0.42005076244088219 0 0.25217688592437781 0.41268766619691122 0 0.27316715717461021 0.42005076244088219 0 0.26346455022531717 0.4089955876167124 0 0.25217688592437781 0.41268766619691122 0 0.26346455022531717 0.4089955876167124 0 0.25217688592437781 0.41268766619691122 0 0.252914075246371 0.40133046553089918 0 0.24841498317654909 0.4243912162792588 0 0.27230144061885447 0.4245299505819265 0 0.27316715717461021 0.42005076244088219 0 0.24841498317654909 0.4243912162792588 0 0.27316715717461021 0.42005076244088219 0 0.24841498317654909 0.4243912162792588 0 0.24131399117488819 0.44691908366269367 0 0.26030715934879761 0.43325051146766608 0 0.24841498317654909 0.4243912162792588 0 0.27230144061885447 0.4245299505819265 0 0.26030715934879761 0.43325051146766608 0 0.25475526109715069 0.38986989456895249 0 0.26564059006039131 0.39262797214920803 0 0.25624437599770439 0.37334353110294588 0 0.24389665858449111 0.38576801651335552 0 0.25475526109715069 0.38986989456895249 0 0.25624437599770439 0.37334353110294588 0 0.24389665858449111 0.38576801651335552 0 0.25475526109715069 0.38986989456895249 0 0.252914075246371 0.40133046553089918 0 0.25475526109715069 0.38986989456895249 0 0.252914075246371 0.40133046553089918 0 0.26196372350248398 0.40076502077825932 0 0.26346455022531717 0.4089955876167124 0 0.252914075246371 0.40133046553089918 0 0.26196372350248398 0.40076502077825932 0 0.25475526109715069 0.38986989456895249 0 0.26196372350248398 0.40076502077825932 0 0.26564059006039131 0.39262797214920803 0 0.26564059006039131 0.39262797214920803 0 0.27623887267763242 0.40415781045526428 0 0.27931058818065341 0.38826485846964609 0 0.27623887267763242 0.40415781045526428 0 0.27931058818065341 0.38826485846964609 0 0.27623887267763242 0.40415781045526428 0 0.27931058818065341 0.38826485846964609 0 0.28396095004910288 0.39928145247048757 0 0.26346455022531717 0.4089955876167124 0 0.26196372350248398 0.40076502077825932 0 0.27623887267763242 0.40415781045526428 0 0.26196372350248398 0.40076502077825932 0 0.26564059006039131 0.39262797214920803 0 0.27623887267763242 0.40415781045526428 0 0.27931058818065341 0.38826485846964609 0 0.28307201503430313 0.36880336331370939 0 0.27931058818065341 0.38826485846964609 0 0.25624437599770439 0.37334353110294588 0 0.26564059006039131 0.39262797214920803 0 0.27931058818065341 0.38826485846964609 0 0.25624437599770439 0.37334353110294588 0 0.27931058818065341 0.38826485846964609 0 0.28307201503430313 0.36880336331370939 0 0.25624437599770439 0.37334353110294588 0 0.27931058818065341 0.38826485846964609 0 0.28872785321564493 0.3807260693936394 0 0.28307201503430313 0.36880336331370939 0 0.28872785321564493 0.3807260693936394 0 0.29234401962166601 0.38928478103511222 0 0.28571255026176312 0.39240623076102249 0 0.27931058818065341 0.38826485846964609 0 0.28872785321564493 0.3807260693936394 0 0.28571255026176312 0.39240623076102249 0 0.27931058818065341 0.38826485846964609 0 0.28571255026176312 0.39240623076102249 0 0.28872785321564493 0.3807260693936394 0 0.29234401962166601 0.38928478103511222 0 0.29900111175616839 0.38624492909515601 0 0.28872785321564493 0.3807260693936394 0 0.29764887155040448 0.3750812277780986 0 0.29900111175616839 0.38624492909515601 0 0.27623887267763242 0.40415781045526428 0 0.2846820396136871 0.40599856891494018 0 0.28396095004910288 0.39928145247048757 0 0.2846820396136871 0.40599856891494018 0 0.28396095004910288 0.39928145247048757 0 0.29147798928276553 0.40427096512258021 0 0.28396095004910288 0.39928145247048757 0 0.28571255026176312 0.39240623076102249 0 0.29384702845329241 0.39645839927939858 0 0.27931058818065341 0.38826485846964609 0 0.28396095004910288 0.39928145247048757 0 0.28571255026176312 0.39240623076102249 0 0.29234401962166601 0.38928478103511222 0 0.29384702845329241 0.39645839927939858 0 0.29900111175616839 0.38624492909515601 0 0.29234401962166601 0.38928478103511222 0 0.28571255026176312 0.39240623076102249 0 0.29384702845329241 0.39645839927939858 0 0.29384702845329241 0.39645839927939858 0 0.29147798928276553 0.40427096512258021 0 0.30163003012880107 0.40115038074449427 0 0.28396095004910288 0.39928145247048757 0 0.29384702845329241 0.39645839927939858 0 0.29147798928276553 0.40427096512258021 0 0.29760074735645009 0.41016270555695872 0 0.30163003012880107 0.40115038074449427 0 0.30864839517743969 0.40587570506854681 0 0.29760074735645009 0.41016270555695872 0 0.29147798928276553 0.40427096512258021 0 0.30163003012880107 0.40115038074449427 0 0.29384702845329241 0.39645839927939858 0 0.30163003012880107 0.40115038074449427 0 0.30646991506860932 0.39326297982554143 0 0.29384702845329241 0.39645839927939858 0 0.30646991506860932 0.39326297982554143 0 0.29900111175616839 0.38624492909515601 0 0.30646991506860932 0.39326297982554143 0 0.30864839517743969 0.40587570506854681 0 0.31853432070716209 0.3942910694072842 0 0.30163003012880107 0.40115038074449427 0 0.30646991506860932 0.39326297982554143 0 0.30864839517743969 0.40587570506854681 0 0.29764887155040448 0.3750812277780986 0 0.29900111175616839 0.38624492909515601 0 0.31017375759590632 0.37875340230612708 0 0.30646991506860932 0.39326297982554143 0 0.31017375759590632 0.37875340230612708 0 0.31853432070716209 0.3942910694072842 0 0.30646991506860932 0.39326297982554143 0 0.29900111175616839 0.38624492909515601 0 0.31017375759590632 0.37875340230612708 0 0.32576897673280131 0.38314150879315922 0 0.33643098048573372 0.3911564767102847 0 0.31853432070716209 0.3942910694072842 0 0.31017375759590632 0.37875340230612708 0 0.32576897673280131 0.38314150879315922 0 0.31827681764070348 0.36508481895332839 0 0.31017375759590632 0.37875340230612708 0 0.32576897673280131 0.38314150879315922 0 0.31853432070716209 0.3942910694072842 0 0.33643098048573372 0.3911564767102847 0 0.35191210036269871 0.37071587935440392 0 0.3323763896313004 0.37172078504650868 0 0.32576897673280131 0.38314150879315922 0 0.33643098048573372 0.3911564767102847 0 0.3323763896313004 0.37172078504650868 0 0.33643098048573372 0.3911564767102847 0 0.32094986060876879 0.4115970740661653 0 0.32094986060876879 0.4115970740661653 0 0.347906316137923 0.40075581246861858 0 0.33643098048573372 0.3911564767102847 0 0.32094986060876879 0.4115970740661653 0 0.347906316137923 0.40075581246861858 0 0.30864839517743969 0.40587570506854681 0 0.31853432070716209 0.3942910694072842 0 0.32094986060876879 0.4115970740661653 0 0.33643098048573372 0.3911564767102847 0 0.31853432070716209 0.3942910694072842 0 0.32094986060876879 0.4115970740661653 0 0.30968444992324379 0.42647143236204588 0 0.32094986060876879 0.4115970740661653 0 0.31567806248071628 0.43943026677449221 0 0.30968444992324379 0.42647143236204588 0 0.32573586144523842 0.4277070912722038 0 0.30968444992324379 0.42647143236204588 0 0.32094986060876879 0.4115970740661653 0 0.32573586144523842 0.4277070912722038 0 0.32847368315517489 0.44250138865551453 0 0.31567806248071628 0.43943026677449221 0 0.32573586144523842 0.4277070912722038 0 0.32847368315517489 0.44250138865551453 0 0.32573586144523842 0.4277070912722038 0 0.33754975553801558 0.43354991765073408 0 0.32573586144523842 0.4277070912722038 0 0.33754975553801558 0.43354991765073408 0 0.34094533703013352 0.42019437670321319 0 0.32094986060876879 0.4115970740661653 0 0.32573586144523842 0.4277070912722038 0 0.34094533703013352 0.42019437670321319 0 0.32094986060876879 0.4115970740661653 0 0.34094533703013352 0.42019437670321319 0 0.347906316137923 0.40075581246861858 0 0.34094533703013352 0.42019437670321319 0 0.35757505238683979 0.41582412405380359 0 0.347906316137923 0.40075581246861858 0 0.33754975553801558 0.43354991765073408 0 0.34094533703013352 0.42019437670321319 0 0.35671319946618091 0.4318912509952535 0 0.3424906606602317 0.44684205033447821 0 0.33754975553801558 0.43354991765073408 0 0.35671319946618091 0.4318912509952535 0 0.34094533703013352 0.42019437670321319 0 0.35757505238683979 0.41582412405380359 0 0.35671319946618091 0.4318912509952535 0 0.35671319946618091 0.4318912509952535 0 0.37545881922518831 0.41498188991123097 0 0.37690062581237332 0.43627968954933488 0 0.35757505238683979 0.41582412405380359 0 0.35671319946618091 0.4318912509952535 0 0.37545881922518831 0.41498188991123097 0 0.35757505238683979 0.41582412405380359 0 0.37486277166707721 0.38991455087107191 0 0.37545881922518831 0.41498188991123097 0 0.37486277166707721 0.38991455087107191 0 0.347906316137923 0.40075581246861858 0 0.37486277166707721 0.38991455087107191 0 0.35805751750718762 0.38592163227501691 0 0.347906316137923 0.40075581246861858 0 0.35757505238683979 0.41582412405380359 0 0.37486277166707721 0.38991455087107191 0 0.347906316137923 0.40075581246861858 0 0.37486277166707721 0.38991455087107191 0 0.35805751750718762 0.38592163227501691 0 0.38006561938374028 0.36932935093942532 0 0.35805751750718762 0.38592163227501691 0 0.35191210036269871 0.37071587935440392 0 0.38006561938374028 0.36932935093942532 0 0.33643098048573372 0.3911564767102847 0 0.35805751750718762 0.38592163227501691 0 0.35191210036269871 0.37071587935440392 0 0.33643098048573372 0.3911564767102847 0 0.35191210036269871 0.37071587935440392 0 0.33643098048573372 0.3911564767102847 0 0.35805751750718762 0.38592163227501691 0 0.347906316137923 0.40075581246861858 0 0.35191210036269871 0.37071587935440392 0 0.36739322023966348 0.35027528199852309 0 0.33814576092890808 0.35342808749453092 0 0.36739322023966348 0.35027528199852309 0 0.35345304673213768 0.33674925574513143 0 0.33814576092890808 0.35342808749453092 0 0.35191210036269871 0.37071587935440392 0 0.36739322023966348 0.35027528199852309 0 0.35191210036269871 0.37071587935440392 0 0.36739322023966348 0.35027528199852309 0 0.38006561938374028 0.36932935093942532 0 0.35995093166792158 0.31805278867931502 0 0.35345304673213768 0.33674925574513143 0 0.38211123268095859 0.33254797782701312 0 0.36739322023966348 0.35027528199852309 0 0.35345304673213768 0.33674925574513143 0 0.38211123268095859 0.33254797782701312 0 0.35995093166792158 0.31805278867931502 0 0.37544467820731142 0.29764030856417822 0 0.38211123268095859 0.33254797782701312 0 0.35995093166792158 0.31805278867931502 0 0.35345304673213768 0.33674925574513143 0 0.34078205744641399 0.31682997470122332 0 0.35345304673213768 0.33674925574513143 0 0.32911663614135678 0.33257390104929252 0 0.33814576092890808 0.35342808749453092 0 0.35345304673213768 0.33674925574513143 0 0.32911663614135678 0.33257390104929252 0 0.34078205744641399 0.31682997470122332 0 0.32911663614135678 0.33257390104929252 0 0.34078205744641399 0.31682997470122332 0 0.31586041334298948 0.31249104036651809 0 0.32911663614135678 0.33257390104929252 0 0.31174866196680551 0.33074679314013727 0 0.31586041334298948 0.31249104036651809 0 0.32911663614135678 0.33257390104929252 0 0.31657859499390428 0.34648821095997628 0 0.31174866196680551 0.33074679314013727 0 0.31657859499390428 0.34648821095997628 0 0.33814576092890808 0.35342808749453092 0 0.31827681764070348 0.36508481895332839 0 0.32911663614135678 0.33257390104929252 0 0.31657859499390428 0.34648821095997628 0 0.33814576092890808 0.35342808749453092 0 0.35191210036269871 0.37071587935440392 0 0.33814576092890808 0.35342808749453092 0 0.3323763896313004 0.37172078504650868 0 0.33814576092890808 0.35342808749453092 0 0.3323763896313004 0.37172078504650868 0 0.31827681764070348 0.36508481895332839 0 0.32576897673280131 0.38314150879315922 0 0.3323763896313004 0.37172078504650868 0 0.31827681764070348 0.36508481895332839 0 0.31017375759590632 0.37875340230612708 0 0.31827681764070348 0.36508481895332839 0 0.30029525651356159 0.3626229100238299 0 0.29764887155040448 0.3750812277780986 0 0.31017375759590632 0.37875340230612708 0 0.30029525651356159 0.3626229100238299 0 0.31657859499390428 0.34648821095997628 0 0.31827681764070348 0.36508481895332839 0 0.30029525651356159 0.3626229100238299 0 0.31657859499390428 0.34648821095997628 0 0.30029525651356159 0.3626229100238299 0 0.30021300937299628 0.34052627403723751 0 0.30029525651356159 0.3626229100238299 0 0.28683344188795251 0.34934186815777291 0 0.30021300937299628 0.34052627403723751 0 0.28683344188795251 0.34934186815777291 0 0.28307201503430313 0.36880336331370939 0 0.30029525651356159 0.3626229100238299 0 0.28683344188795251 0.34934186815777291 0 0.28307201503430313 0.36880336331370939 0 0.29764887155040448 0.3750812277780986 0 0.30029525651356159 0.3626229100238299 0 0.28307201503430313 0.36880336331370939 0 0.28872785321564493 0.3807260693936394 0 0.29764887155040448 0.3750812277780986 0 0.28307201503430313 0.36880336331370939 0 0.28307201503430313 0.36880336331370939 0 0.26978669012341228 0.35614139470622252 0 0.25624437599770439 0.37334353110294588 0 0.28683344188795251 0.34934186815777291 0 0.26978669012341228 0.35614139470622252 0 0.26942769623318702 0.33765183843685248 0 0.28683344188795251 0.34934186815777291 0 0.28307201503430313 0.36880336331370939 0 0.26978669012341228 0.35614139470622252 0 0.26978669012341228 0.35614139470622252 0 0.25248066312555761 0.35471214092788489 0 0.26942769623318702 0.33765183843685248 0 0.26978669012341228 0.35614139470622252 0 0.25248066312555761 0.35471214092788489 0 0.25624437599770439 0.37334353110294588 0 0.24961685989573831 0.30873847525730141 0 0.24298945884259771 0.32260938587607951 0 0.26375251223511648 0.31599532411300091 0 0.24846533802493659 0.3372087639246224 0 0.24298945884259771 0.32260938587607951 0 0.26375251223511648 0.31599532411300091 0 0.24846533802493659 0.3372087639246224 0 0.26375251223511648 0.31599532411300091 0 0.24846533802493659 0.3372087639246224 0 0.25248066312555761 0.35471214092788489 0 0.26942769623318702 0.33765183843685248 0 0.24846533802493659 0.3372087639246224 0 0.26375251223511648 0.31599532411300091 0 0.26942769623318702 0.33765183843685248 0 0.28683344188795251 0.34934186815777291 0 0.26942769623318702 0.33765183843685248 0 0.28678554172278781 0.33388395786122688 0 0.26942769623318702 0.33765183843685248 0 0.28047890513702278 0.32024526938660991 0 0.28678554172278781 0.33388395786122688 0 0.26375251223511648 0.31599532411300091 0 0.26942769623318702 0.33765183843685248 0 0.28047890513702278 0.32024526938660991 0 0.26375251223511648 0.31599532411300091 0 0.28047890513702278 0.32024526938660991 0 0.27881887445363851 0.30250515613377671 0 0.28047890513702278 0.32024526938660991 0 0.29697465598278061 0.32165453928766202 0 0.28657127442342978 0.3113756714475624 0 0.28047890513702278 0.32024526938660991 0 0.28678554172278781 0.33388395786122688 0 0.29697465598278061 0.32165453928766202 0 0.29697465598278061 0.32165453928766202 0 0.29556463482070122 0.30632280031717207 0 0.28657127442342978 0.3113756714475624 0 0.28678554172278781 0.33388395786122688 0 0.30021300937299628 0.34052627403723751 0 0.29697465598278061 0.32165453928766202 0 0.28683344188795251 0.34934186815777291 0 0.28678554172278781 0.33388395786122688 0 0.30021300937299628 0.34052627403723751 0 0.31657859499390428 0.34648821095997628 0 0.31174866196680551 0.33074679314013727 0 0.30021300937299628 0.34052627403723751 0 0.31174866196680551 0.33074679314013727 0 0.30021300937299628 0.34052627403723751 0 0.29697465598278061 0.32165453928766202 0 0.31174866196680551 0.33074679314013727 0 0.29697465598278061 0.32165453928766202 0 0.31586041334298948 0.31249104036651809 0 0.29697465598278061 0.32165453928766202 0 0.29556463482070122 0.30632280031717207 0 0.31586041334298948 0.31249104036651809 0 0.29957824376423009 0.28962292484965663 0 0.29556463482070122 0.30632280031717207 0 0.31677959847507198 0.29483145986327269 0 0.29556463482070122 0.30632280031717207 0 0.31677959847507198 0.29483145986327269 0 0.31586041334298948 0.31249104036651809 0 0.29957824376423009 0.28962292484965663 0 0.32033761307482178 0.27674069356553649 0 0.29957824376423009 0.28962292484965663 0 0.32033761307482178 0.27674069356553649 0 0.31677959847507198 0.29483145986327269 0 0.29957824376423009 0.28962292484965663 0 0.27881887445363851 0.30250515613377671 0 0.29957824376423009 0.28962292484965663 0 0.27881887445363851 0.30250515613377671 0 0.27903968644529648 0.2947818843013793 0 0.29957824376423009 0.28962292484965663 0 0.28673117159567379 0.28424552549616661 0 0.2960033628715289 0.27147249874854801 0 0.29957824376423009 0.28962292484965663 0 0.28673117159567379 0.28424552549616661 0 0.27903968644529648 0.2947818843013793 0 0.28673117159567379 0.28424552549616661 0 0.27903968644529648 0.2947818843013793 0 0.27847855102508129 0.28581155346209031 0 0.29957824376423009 0.28962292484965663 0 0.29556463482070122 0.30632280031717207 0 0.27881887445363851 0.30250515613377671 0 0.28047890513702278 0.32024526938660991 0 0.28657127442342978 0.3113756714475624 0 0.27881887445363851 0.30250515613377671 0 0.29556463482070122 0.30632280031717207 0 0.28657127442342978 0.3113756714475624 0 0.27881887445363851 0.30250515613377671 0 0.26375251223511648 0.31599532411300091 0 0.27881887445363851 0.30250515613377671 0 0.27903968644529648 0.2947818843013793 0 0.26375251223511648 0.31599532411300091 0 0.26719585520845668 0.29897726422267218 0 0.27903968644529648 0.2947818843013793 0 0.26375251223511648 0.31599532411300091 0 0.27903968644529648 0.2947818843013793 0 0.27903968644529648 0.2947818843013793 0 0.27847855102508129 0.28581155346209031 0 0.26798562673556048 0.28735969208980061 0 0.28673117159567379 0.28424552549616661 0 0.27847855102508129 0.28581155346209031 0 0.27839904758165701 0.27611331742459738 0 0.27847855102508129 0.28581155346209031 0 0.26798562673556048 0.28735969208980061 0 0.27839904758165701 0.27611331742459738 0 0.26719585520845668 0.29897726422267218 0 0.27903968644529648 0.2947818843013793 0 0.26798562673556048 0.28735969208980061 0 0.26798562673556048 0.28735969208980061 0 0.25168040627867022 0.28489417946397078 0 0.25800559541785328 0.29777215638650789 0 0.24090865690401669 0.29671589577026741 0 0.25168040627867022 0.28489417946397078 0 0.25800559541785328 0.29777215638650789 0 0.26798562673556048 0.28735969208980061 0 0.25168040627867022 0.28489417946397078 0 0.26135740901130278 0.27597681519671369 0 0.26719585520845668 0.29897726422267218 0 0.26798562673556048 0.28735969208980061 0 0.25800559541785328 0.29777215638650789 0 0.24961685989573831 0.30873847525730141 0 0.26375251223511648 0.31599532411300091 0 0.25800559541785328 0.29777215638650789 0 0.26375251223511648 0.31599532411300091 0 0.26719585520845668 0.29897726422267218 0 0.25800559541785328 0.29777215638650789 0 0.257474772974012 0.26326896932235011 0 0.26980408210870821 0.26636148040734819 0 0.26622002360442448 0.25243984376066608 0 0.25421322039033012 0.25011983010618499 0 0.257474772974012 0.26326896932235011 0 0.26622002360442448 0.25243984376066608 0 0.2462911328595512 0.25813819144323402 0 0.25421322039033012 0.25011983010618499 0 0.257474772974012 0.26326896932235011 0 0.24784470446055051 0.270369817975116 0 0.2462911328595512 0.25813819144323402 0 0.257474772974012 0.26326896932235011 0 0.24784470446055051 0.270369817975116 0 0.257474772974012 0.26326896932235011 0 0.26135740901130278 0.27597681519671369 0 0.24784470446055051 0.270369817975116 0 0.25168040627867022 0.28489417946397078 0 0.26135740901130278 0.27597681519671369 0 0.257474772974012 0.26326896932235011 0 0.26135740901130278 0.27597681519671369 0 0.26980408210870821 0.26636148040734819 0 0.26980408210870821 0.26636148040734819 0 0.27839904758165701 0.27611331742459738 0 0.2809419486960506 0.25963357256390279 0 0.26798562673556048 0.28735969208980061 0 0.26135740901130278 0.27597681519671369 0 0.27839904758165701 0.27611331742459738 0 0.26135740901130278 0.27597681519671369 0 0.26980408210870821 0.26636148040734819 0 0.27839904758165701 0.27611331742459738 0 0.2809419486960506 0.25963357256390279 0 0.26622002360442448 0.25243984376066608 0 0.28059146717311512 0.24366402070067791 0 0.26980408210870821 0.26636148040734819 0 0.2809419486960506 0.25963357256390279 0 0.26622002360442448 0.25243984376066608 0 0.2809419486960506 0.25963357256390279 0 0.2965666488762293 0.25172381677544559 0 0.28059146717311512 0.24366402070067791 0 0.2809419486960506 0.25963357256390279 0 0.2965666488762293 0.25172381677544559 0 0.2960033628715289 0.27147249874854801 0 0.28673117159567379 0.28424552549616661 0 0.27839904758165701 0.27611331742459738 0 0.2960033628715289 0.27147249874854801 0 0.27839904758165701 0.27611331742459738 0 0.2809419486960506 0.25963357256390279 0 0.2960033628715289 0.27147249874854801 0 0.29957824376423009 0.28962292484965663 0 0.2960033628715289 0.27147249874854801 0 0.32033761307482178 0.27674069356553649 0 0.2960033628715289 0.27147249874854801 0 0.31449953507627998 0.25881948986149311 0 0.32033761307482178 0.27674069356553649 0 0.2965666488762293 0.25172381677544559 0 0.2960033628715289 0.27147249874854801 0 0.31449953507627998 0.25881948986149311 0 0.2965666488762293 0.25172381677544559 0 0.31449953507627998 0.25881948986149311 0 0.309780111023994 0.24361163266558519 0 0.31449953507627998 0.25881948986149311 0 0.34109698238541353 0.26385846228141641 0 0.3275727375344048 0.24525602491545151 0 0.34109698238541353 0.26385846228141641 0 0.3275727375344048 0.24525602491545151 0 0.34451217634681058 0.24619425716160009 0 0.34109698238541353 0.26385846228141641 0 0.32033761307482178 0.27674069356553649 0 0.33659447921593111 0.28372898205062469 0 0.34109698238541353 0.26385846228141641 0 0.32033761307482178 0.27674069356553649 0 0.31449953507627998 0.25881948986149311 0 0.34109698238541353 0.26385846228141641 0 0.32033761307482178 0.27674069356553649 0 0.32033761307482178 0.27674069356553649 0 0.31677959847507198 0.29483145986327269 0 0.33659447921593111 0.28372898205062469 0 0.31677959847507198 0.29483145986327269 0 0.31586041334298948 0.31249104036651809 0 0.33267603961491049 0.30093316250444219 0 0.34078205744641399 0.31682997470122332 0 0.31586041334298948 0.31249104036651809 0 0.33267603961491049 0.30093316250444219 0 0.34078205744641399 0.31682997470122332 0 0.33267603961491049 0.30093316250444219 0 0.35363527717916832 0.30017969986264059 0 0.33267603961491049 0.30093316250444219 0 0.33659447921593111 0.28372898205062469 0 0.35363527717916832 0.30017969986264059 0 0.31677959847507198 0.29483145986327269 0 0.33267603961491049 0.30093316250444219 0 0.33659447921593111 0.28372898205062469 0 0.33659447921593111 0.28372898205062469 0 0.35363527717916832 0.30017969986264059 0 0.35391324339575331 0.28033697217569398 0 0.35995093166792158 0.31805278867931502 0 0.34078205744641399 0.31682997470122332 0 0.35363527717916832 0.30017969986264059 0 0.35995093166792158 0.31805278867931502 0 0.35363527717916832 0.30017969986264059 0 0.37544467820731142 0.29764030856417822 0 0.35391324339575331 0.28033697217569398 0 0.37544467820731142 0.29764030856417822 0 0.35363527717916832 0.30017969986264059 0 0.35391324339575331 0.28033697217569398 0 0.37544467820731142 0.29764030856417822 0 0.3726814211069297 0.26994360278422452 0 0.35391324339575331 0.28033697217569398 0 0.37544467820731142 0.29764030856417822 0 0.3726814211069297 0.26994360278422452 0 0.36185635169600527 0.25097623099729632 0 0.35391324339575331 0.28033697217569398 0 0.3726814211069297 0.26994360278422452 0 0.36185635169600527 0.25097623099729632 0 0.37636476700360411 0.25356382796969262 0 0.34109698238541353 0.26385846228141641 0 0.36185635169600527 0.25097623099729632 0 0.35391324339575331 0.28033697217569398 0 0.34109698238541353 0.26385846228141641 0 0.36185635169600527 0.25097623099729632 0 0.34109698238541353 0.26385846228141641 0 0.36185635169600527 0.25097623099729632 0 0.34451217634681058 0.24619425716160009 0 0.34109698238541353 0.26385846228141641 0 0.33659447921593111 0.28372898205062469 0 0.35391324339575331 0.28033697217569398 0 0.39399542740317473 0.27238895705497213 0 0.40455138821377679 0.25667138028689518 0 0.41881727607077079 0.27373006479502821 0 0.40455138821377679 0.25667138028689518 0 0.38830557420488471 0.25524147838407418 0 0.39332254021852348 0.24487070095830471 0 0.39399542740317473 0.27238895705497213 0 0.40455138821377679 0.25667138028689518 0 0.38830557420488471 0.25524147838407418 0 0.39399542740317473 0.27238895705497213 0 0.38830557420488471 0.25524147838407418 0 0.3726814211069297 0.26994360278422452 0 0.38830557420488471 0.25524147838407418 0 0.37636476700360411 0.25356382796969262 0 0.3726814211069297 0.26994360278422452 0 0.39399542740317473 0.27238895705497213 0 0.39240459973521929 0.29066003767948301 0 0.3726814211069297 0.26994360278422452 0 0.39399542740317473 0.27238895705497213 0 0.38830557420488471 0.25524147838407418 0 0.3726814211069297 0.26994360278422452 0 0.37544467820731142 0.29764030856417822 0 0.39240459973521929 0.29066003767948301 0 0.37544467820731142 0.29764030856417822 0 0.39697611301886959 0.31494364495266242 0 0.37544467820731142 0.29764030856417822 0 0.39240459973521929 0.29066003767948301 0 0.39697611301886959 0.31494364495266242 0 0.39240459973521929 0.29066003767948301 0 0.41064140960931023 0.29260474471982473 0 0.39697611301886959 0.31494364495266242 0 0.39399542740317473 0.27238895705497213 0 0.39240459973521929 0.29066003767948301 0 0.41064140960931023 0.29260474471982473 0 0.41064140960931023 0.29260474471982473 0 0.42840914400227742 0.30750800989669008 0 0.39697611301886959 0.31494364495266242 0 0.41064140960931023 0.29260474471982473 0 0.43582395223715509 0.2854209893429922 0 0.41881727607077079 0.27373006479502821 0 0.41064140960931023 0.29260474471982473 0 0.42840914400227742 0.30750800989669008 0 0.43582395223715509 0.2854209893429922 0 0.43582395223715509 0.2854209893429922 0 0.41881727607077079 0.27373006479502821 0 0.44408400125468322 0.26570174749936037 0 0.39399542740317473 0.27238895705497213 0 0.41064140960931023 0.29260474471982473 0 0.41881727607077079 0.27373006479502821 0 0.40455138821377679 0.25667138028689518 0 0.4228684862923151 0.25332179165355478 0 0.4099990250929918 0.2404752888754374 0 0.40455138821377679 0.25667138028689518 0 0.41881727607077079 0.27373006479502821 0 0.4228684862923151 0.25332179165355478 0 0.41881727607077079 0.27373006479502821 0 0.4228684862923151 0.25332179165355478 0 0.44408400125468322 0.26570174749936037 0 0.44408400125468322 0.26570174749936037 0 0.46230728882809141 0.25281003656542128 0 0.44570869596409107 0.24482962705539521 0 0.4228684862923151 0.25332179165355478 0 0.44408400125468322 0.26570174749936037 0 0.44570869596409107 0.24482962705539521 0 0.43582395223715509 0.2854209893429922 0 0.44408400125468322 0.26570174749936037 0 0.4572159681581035 0.28140180809377591 0 0.44408400125468322 0.26570174749936037 0 0.46584634123225549 0.26839791498935578 0 0.4572159681581035 0.28140180809377591 0 0.47860798407905192 0.2773826268445595 0 0.4572159681581035 0.28140180809377591 0 0.46584634123225549 0.26839791498935578 0 0.47860798407905192 0.2773826268445595 0 0.4572159681581035 0.28140180809377591 0 0.44408400125468322 0.26570174749936037 0 0.46584634123225549 0.26839791498935578 0 0.46230728882809141 0.25281003656542128 0 0.46584634123225549 0.26839791498935578 0 0.46230728882809141 0.25281003656542128 0 0.48016303729476689 0.26059860211145652 0 0.46230728882809141 0.25281003656542128 0 0.48016303729476689 0.26059860211145652 0 0.47718607119399858 0.24514461198193049 0 0.46584634123225549 0.26839791498935578 0 0.48016303729476689 0.26059860211145652 0 0.47860798407905192 0.2773826268445595 0 0.48016303729476689 0.26059860211145652 0 0.47860798407905192 0.2773826268445595 0 0.50000000000000022 0.27336344559534309 0 0.47860798407905192 0.2773826268445595 0 0.50000000000000022 0.27336344559534309 0 0.49180834173809912 0.2897149424172728 0 0.47860798407905192 0.2773826268445595 0 0.50000000000000022 0.27336344559534309 0 0.48016303729476689 0.26059860211145652 0 0.5 0.24672959946047651 0 0.47718607119399858 0.24514461198193049 0 0.48016303729476689 0.26059860211145652 0 0.50000000000000022 0.27336344559534309 0 0.5 0.24672959946047651 0 0.5 0.29823813088997669 0 0.49180834173809912 0.2897149424172728 0 0.4817290336432466 0.31542784631755327 0 0.5 0.29823813088997669 0 0.4817290336432466 0.31542784631755327 0 0.5 0.32311281618461052 0 0.49180834173809912 0.2897149424172728 0 0.4817290336432466 0.31542784631755327 0 0.50000000000000022 0.27336344559534309 0 0.5 0.29823813088997669 0 0.49180834173809912 0.2897149424172728 0 0.47860798407905192 0.2773826268445595 0 0.49180834173809912 0.2897149424172728 0 0.47185583179478358 0.29622575279040481 0 0.47860798407905192 0.2773826268445595 0 0.47185583179478358 0.29622575279040481 0 0.4572159681581035 0.28140180809377591 0 0.47185583179478358 0.29622575279040481 0 0.46344507121189882 0.31696975787821441 0 0.4817290336432466 0.31542784631755327 0 0.49180834173809912 0.2897149424172728 0 0.47185583179478358 0.29622575279040481 0 0.4817290336432466 0.31542784631755327 0 0.47185583179478358 0.29622575279040481 0 0.45115497127109649 0.29986799004409981 0 0.46344507121189882 0.31696975787821441 0 0.45115497127109649 0.29986799004409981 0 0.44819580218861288 0.31661096714785392 0 0.46344507121189882 0.31696975787821441 0 0.47185583179478358 0.29622575279040481 0 0.4572159681581035 0.28140180809377591 0 0.45115497127109649 0.29986799004409981 0 0.43582395223715509 0.2854209893429922 0 0.4572159681581035 0.28140180809377591 0 0.43582395223715509 0.2854209893429922 0 0.4572159681581035 0.28140180809377591 0 0.45115497127109649 0.29986799004409981 0 0.42840914400227742 0.30750800989669008 0 0.45115497127109649 0.29986799004409981 0 0.44819580218861288 0.31661096714785392 0 0.42840914400227742 0.30750800989669008 0 0.43582395223715509 0.2854209893429922 0 0.45115497127109649 0.29986799004409981 0 0.42840914400227742 0.30750800989669008 0 0.44819580218861288 0.31661096714785392 0 0.43796617464597509 0.33062812729089441 0 0.44819580218861288 0.31661096714785392 0 0.43796617464597509 0.33062812729089441 0 0.45394194978671909 0.33383853368715521 0 0.43796617464597509 0.33062812729089441 0 0.45394194978671909 0.33383853368715521 0 0.44003898264198582 0.34955031772963069 0 0.45394194978671909 0.33383853368715521 0 0.47164972554839413 0.34114075021783391 0 0.45716056756061302 0.35029305183444059 0 0.45394194978671909 0.33383853368715521 0 0.46344507121189882 0.31696975787821441 0 0.47164972554839413 0.34114075021783391 0 0.44819580218861288 0.31661096714785392 0 0.45394194978671909 0.33383853368715521 0 0.46344507121189882 0.31696975787821441 0 0.46344507121189882 0.31696975787821441 0 0.4817290336432466 0.31542784631755327 0 0.47164972554839413 0.34114075021783391 0 0.4817290336432466 0.31542784631755327 0 0.47164972554839413 0.34114075021783391 0 0.4817290336432466 0.31542784631755327 0 0.47164972554839413 0.34114075021783391 0 0.48756147037476538 0.331877606317248 0 0.47164972554839413 0.34114075021783391 0 0.48756147037476538 0.331877606317248 0 0.5 0.34798750147924418 0 0.48756147037476538 0.331877606317248 0 0.5 0.32311281618461052 0 0.5 0.34798750147924418 0 0.4817290336432466 0.31542784631755327 0 0.48756147037476538 0.331877606317248 0 0.5 0.32311281618461052 0 0.5 0.37286218677387789 0 0.5 0.34798750147924418 0 0.48280107034574099 0.36222787113647731 0 0.5 0.37286218677387789 0 0.48280107034574099 0.36222787113647731 0 0.48078520872676722 0.38229526309331502 0 0.47164972554839413 0.34114075021783391 0 0.5 0.34798750147924418 0 0.48280107034574099 0.36222787113647731 0 0.47164972554839413 0.34114075021783391 0 0.48280107034574099 0.36222787113647731 0 0.46157041745354349 0.36685365411811538 0 0.46157041745354349 0.36685365411811538 0 0.48078520872676722 0.38229526309331502 0 0.48280107034574099 0.36222787113647731 0 0.46157041745354349 0.36685365411811538 0 0.48078520872676722 0.38229526309331502 0 0.46157041745354349 0.36685365411811538 0 0.45852427624057618 0.37462453834335829 0 0.46443318435729158 0.3808837337843114 0 0.46157041745354349 0.36685365411811538 0 0.45852427624057618 0.37462453834335829 0 0.4460147790086183 0.36592032468252078 0 0.46157041745354349 0.36685365411811538 0 0.45852427624057618 0.37462453834335829 0 0.47164972554839413 0.34114075021783391 0 0.46157041745354349 0.36685365411811538 0 0.47164972554839413 0.34114075021783391 0 0.46157041745354349 0.36685365411811538 0 0.45716056756061302 0.35029305183444059 0 0.46157041745354349 0.36685365411811538 0 0.45716056756061302 0.35029305183444059 0 0.44003898264198582 0.34955031772963069 0 0.46157041745354349 0.36685365411811538 0 0.44003898264198582 0.34955031772963069 0 0.45394194978671909 0.33383853368715521 0 0.45716056756061302 0.35029305183444059 0 0.44003898264198582 0.34955031772963069 0 0.46157041745354349 0.36685365411811538 0 0.44003898264198582 0.34955031772963069 0 0.4460147790086183 0.36592032468252078 0 0.44003898264198582 0.34955031772963069 0 0.4460147790086183 0.36592032468252078 0 0.4325893461585873 0.37495847541418159 0 0.45852427624057618 0.37462453834335829 0 0.4460147790086183 0.36592032468252078 0 0.44669421545054511 0.37696579432920713 0 0.4460147790086183 0.36592032468252078 0 0.4325893461585873 0.37495847541418159 0 0.44669421545054511 0.37696579432920713 0 0.44003898264198582 0.34955031772963069 0 0.4325893461585873 0.37495847541418159 0 0.41376904018032251 0.36195998601339319 0 0.4325893461585873 0.37495847541418159 0 0.41376904018032251 0.36195998601339319 0 0.41777724232460223 0.38227970146018719 0 0.41376904018032251 0.36195998601339319 0 0.40181922719623131 0.37907328927352529 0 0.41777724232460223 0.38227970146018719 0 0.41376904018032251 0.36195998601339319 0 0.41850754783042782 0.33224698134114661 0 0.39628440422177791 0.35071383624014202 0 0.44003898264198582 0.34955031772963069 0 0.41376904018032251 0.36195998601339319 0 0.41850754783042782 0.33224698134114661 0 0.44003898264198582 0.34955031772963069 0 0.41850754783042782 0.33224698134114661 0 0.42840914400227742 0.30750800989669008 0 0.41850754783042782 0.33224698134114661 0 0.39697611301886959 0.31494364495266242 0 0.43796617464597509 0.33062812729089441 0 0.44003898264198582 0.34955031772963069 0 0.41850754783042782 0.33224698134114661 0 0.42840914400227742 0.30750800989669008 0 0.43796617464597509 0.33062812729089441 0 0.41850754783042782 0.33224698134114661 0 0.41850754783042782 0.33224698134114661 0 0.39697611301886959 0.31494364495266242 0 0.41850754783042782 0.33224698134114661 0 0.39697611301886959 0.31494364495266242 0 0.38211123268095859 0.33254797782701312 0 0.37544467820731142 0.29764030856417822 0 0.39697611301886959 0.31494364495266242 0 0.38211123268095859 0.33254797782701312 0 0.41850754783042782 0.33224698134114661 0 0.38211123268095859 0.33254797782701312 0 0.39628440422177791 0.35071383624014202 0 0.36739322023966348 0.35027528199852309 0 0.38006561938374028 0.36932935093942532 0 0.39628440422177791 0.35071383624014202 0 0.36739322023966348 0.35027528199852309 0 0.38211123268095859 0.33254797782701312 0 0.39628440422177791 0.35071383624014202 0 0.38006561938374028 0.36932935093942532 0 0.39798457274551802 0.36526911561662151 0 0.39628440422177791 0.35071383624014202 0 0.41376904018032251 0.36195998601339319 0 0.39798457274551802 0.36526911561662151 0 0.40181922719623131 0.37907328927352529 0 0.38006561938374028 0.36932935093942532 0 0.39798457274551802 0.36526911561662151 0 0.40181922719623131 0.37907328927352529 0 0.41376904018032251 0.36195998601339319 0 0.39798457274551802 0.36526911561662151 0 0.39628440422177791 0.35071383624014202 0 0.39084818431165702 0.39943120979303171 0 0.40369339433449852 0.41375558206365343 0 0.40790578140853151 0.3920056730625931 0 0.39084818431165702 0.39943120979303171 0 0.40181922719623131 0.37907328927352529 0 0.40790578140853151 0.3920056730625931 0 0.37486277166707721 0.38991455087107191 0 0.40181922719623131 0.37907328927352529 0 0.37486277166707721 0.38991455087107191 0 0.38006561938374028 0.36932935093942532 0 0.40181922719623131 0.37907328927352529 0 0.37486277166707721 0.38991455087107191 0 0.39084818431165702 0.39943120979303171 0 0.40181922719623131 0.37907328927352529 0 0.37486277166707721 0.38991455087107191 0 0.39084818431165702 0.39943120979303171 0 0.37545881922518831 0.41498188991123097 0 0.39084818431165702 0.39943120979303171 0 0.38934884263320407 0.41832297749605529 0 0.37545881922518831 0.41498188991123097 0 0.38934884263320407 0.41832297749605529 0 0.37690062581237332 0.43627968954933488 0 0.393647816504889 0.43135973835123143 0 0.38934884263320407 0.41832297749605529 0 0.37545881922518831 0.41498188991123097 0 0.37690062581237332 0.43627968954933488 0 0.393647816504889 0.43135973835123143 0 0.40755164177553921 0.43291664354494291 0 0.39114757398071942 0.44553250574781172 0 0.393647816504889 0.43135973835123143 0 0.40369339433449852 0.41375558206365343 0 0.40755164177553921 0.43291664354494291 0 0.39084818431165702 0.39943120979303171 0 0.38934884263320407 0.41832297749605529 0 0.40369339433449852 0.41375558206365343 0 0.38934884263320407 0.41832297749605529 0 0.393647816504889 0.43135973835123143 0 0.40369339433449852 0.41375558206365343 0 0.40369339433449852 0.41375558206365343 0 0.41914786652969432 0.41116581089150978 0 0.41982119966431852 0.4259328421359283 0 0.40755164177553921 0.43291664354494291 0 0.41982119966431852 0.4259328421359283 0 0.41784987452244088 0.44372132348948301 0 0.40369339433449852 0.41375558206365343 0 0.40755164177553921 0.43291664354494291 0 0.41982119966431852 0.4259328421359283 0 0.41982119966431852 0.4259328421359283 0 0.43307070335747738 0.4357302959902738 0 0.41784987452244088 0.44372132348948301 0 0.41982119966431852 0.4259328421359283 0 0.43307070335747738 0.4357302959902738 0 0.43515770700081918 0.42058641901900362 0 0.41914786652969432 0.41116581089150978 0 0.43515770700081918 0.42058641901900362 0 0.43280281667933868 0.40340108353724302 0 0.41914786652969432 0.41116581089150978 0 0.41982119966431852 0.4259328421359283 0 0.43515770700081918 0.42058641901900362 0 0.41914786652969432 0.41116581089150978 0 0.43280281667933868 0.40340108353724302 0 0.40790578140853151 0.3920056730625931 0 0.40369339433449852 0.41375558206365343 0 0.41914786652969432 0.41116581089150978 0 0.40790578140853151 0.3920056730625931 0 0.43280281667933868 0.40340108353724302 0 0.40790578140853151 0.3920056730625931 0 0.43280281667933868 0.40340108353724302 0 0.40790578140853151 0.3920056730625931 0 0.41777724232460223 0.38227970146018719 0 0.40181922719623131 0.37907328927352529 0 0.40790578140853151 0.3920056730625931 0 0.41777724232460223 0.38227970146018719 0 0.4325893461585873 0.37495847541418159 0 0.43280281667933868 0.40340108353724302 0 0.41777724232460223 0.38227970146018719 0 0.4325893461585873 0.37495847541418159 0 0.44669421545054511 0.37696579432920713 0 0.44768697956960612 0.39098972236556723 0 0.4325893461585873 0.37495847541418159 0 0.43280281667933868 0.40340108353724302 0 0.44768697956960612 0.39098972236556723 0 0.44669421545054511 0.37696579432920713 0 0.44768697956960612 0.39098972236556723 0 0.45727268411303629 0.38581358903781149 0 0.43280281667933868 0.40340108353724302 0 0.44768697956960612 0.39098972236556723 0 0.45769985195014601 0.414796494011893 0 0.46401333525253502 0.39483162432895708 0 0.47822434041952622 0.4039249198251279 0 0.45769985195014601 0.414796494011893 0 0.44768697956960612 0.39098972236556723 0 0.46401333525253502 0.39483162432895708 0 0.45769985195014601 0.414796494011893 0 0.44768697956960612 0.39098972236556723 0 0.46401333525253502 0.39483162432895708 0 0.45727268411303629 0.38581358903781149 0 0.45852427624057618 0.37462453834335829 0 0.45727268411303629 0.38581358903781149 0 0.46443318435729158 0.3808837337843114 0 0.45852427624057618 0.37462453834335829 0 0.44669421545054511 0.37696579432920713 0 0.45727268411303629 0.38581358903781149 0 0.46401333525253502 0.39483162432895708 0 0.45727268411303629 0.38581358903781149 0 0.46443318435729158 0.3808837337843114 0 0.46401333525253502 0.39483162432895708 0 0.46443318435729158 0.3808837337843114 0 0.48078520872676722 0.38229526309331502 0 0.46157041745354349 0.36685365411811538 0 0.46443318435729158 0.3808837337843114 0 0.48078520872676722 0.38229526309331502 0 0.46401333525253502 0.39483162432895708 0 0.48078520872676722 0.38229526309331502 0 0.47822434041952622 0.4039249198251279 0 0.48078520872676722 0.38229526309331502 0 0.47822434041952622 0.4039249198251279 0 0.49999999999999312 0.3977368720685116 0 0.48078520872676722 0.38229526309331502 0 0.49999999999999312 0.3977368720685116 0 0.5 0.37286218677387789 0 0.48078520872676722 0.38229526309331502 0 0.49999999999999312 0.3977368720685116 0 0.49999999999999312 0.3977368720685116 0 0.48259688722095329 0.42619190448654298 0 0.5 0.45686297636881212 0 0.47822434041952622 0.4039249198251279 0 0.49999999999999312 0.3977368720685116 0 0.48259688722095329 0.42619190448654298 0 0.47822434041952622 0.4039249198251279 0 0.48259688722095329 0.42619190448654298 0 0.45769985195014601 0.414796494011893 0 0.48259688722095329 0.42619190448654298 0 0.45769985195014601 0.414796494011893 0 0.48259688722095329 0.42619190448654298 0 0.46436050514260629 0.43355711544547382 0 0.47687101442029778 0.44210658867308528 0 0.46436050514260629 0.43355711544547382 0 0.45769985195014601 0.414796494011893 0 0.44840380382394041 0.43249198754717377 0 0.48259688722095329 0.42619190448654298 0 0.46436050514260629 0.43355711544547382 0 0.45769985195014601 0.414796494011893 0 0.46436050514260629 0.43355711544547382 0 0.44840380382394041 0.43249198754717377 0 0.45292476510453578 0.44271340961829869 0 0.43280281667933868 0.40340108353724302 0 0.45769985195014601 0.414796494011893 0 0.43515770700081918 0.42058641901900362 0 0.43280281667933868 0.40340108353724302 0 0.45769985195014601 0.414796494011893 0 0.43515770700081918 0.42058641901900362 0 0.45769985195014601 0.414796494011893 0 0.44840380382394041 0.43249198754717377 0 0.43307070335747738 0.4357302959902738 0 0.43515770700081918 0.42058641901900362 0 0.44840380382394041 0.43249198754717377 0 0.43307070335747738 0.4357302959902738 0 0.44840380382394041 0.43249198754717377 0 0.44222888331920113 0.44405337357052083 0 0.44222888331920113 0.44405337357052083 0 0.44358162562612419 0.45605602994030509 0 0.43202167769828731 0.4507152153367579 0 0.44222888331920113 0.44405337357052083 0 0.45292476510453578 0.44271340961829869 0 0.44358162562612419 0.45605602994030509 0 0.44840380382394041 0.43249198754717377 0 0.44222888331920113 0.44405337357052083 0 0.45292476510453578 0.44271340961829869 0 0.44358162562612419 0.45605602994030509 0 0.45960496459582678 0.46417645987526268 0 0.44380417894164309 0.46950433545013248 0 0.45960496459582678 0.46417645987526268 0 0.46604900761080692 0.44740854158802001 0 0.47620008200603681 0.47105329433654441 0 0.44358162562612419 0.45605602994030509 0 0.45960496459582678 0.46417645987526268 0 0.46604900761080692 0.44740854158802001 0 0.45292476510453578 0.44271340961829869 0 0.44358162562612419 0.45605602994030509 0 0.46604900761080692 0.44740854158802001 0 0.44358162562612419 0.45605602994030509 0 0.46604900761080692 0.44740854158802001 0 0.46436050514260629 0.43355711544547382 0 0.45292476510453578 0.44271340961829869 0 0.46604900761080692 0.44740854158802001 0 0.46436050514260629 0.43355711544547382 0 0.46604900761080692 0.44740854158802001 0 0.47687101442029778 0.44210658867308528 0 0.47687101442029778 0.44210658867308528 0 0.5 0.45686297636881212 0 0.47620008200603681 0.47105329433654441 0 0.47687101442029778 0.44210658867308528 0 0.47620008200603681 0.47105329433654441 0 0.46604900761080692 0.44740854158802001 0 0.47687101442029778 0.44210658867308528 0 0.47620008200603681 0.47105329433654441 0 0.48259688722095329 0.42619190448654298 0 0.47687101442029778 0.44210658867308528 0 0.5 0.45686297636881212 0 0.5 0.45686297636881212 0 0.5 0.5 0 0.48793230789945308 0.48197906767633908 0 0.5 0.5 0 0.48793230789945308 0.48197906767633908 0 0.47552914959177561 0.50000000000000366 0 0.5 0.45686297636881212 0 0.48793230789945308 0.48197906767633908 0 0.47620008200603681 0.47105329433654441 0 0.48793230789945308 0.48197906767633908 0 0.47620008200603681 0.47105329433654441 0 0.47552914959177561 0.50000000000000366 0 0.47620008200603681 0.47105329433654441 0 0.47552914959177561 0.50000000000000366 0 0.45737605375507612 0.48089742538044228 0 0.47620008200603681 0.47105329433654441 0 0.47552914959177561 0.50000000000000366 0 0.47552914959177561 0.50000000000000366 0 0.45737605375507612 0.48089742538044228 0 0.44821665762312679 0.5 0 0.45960496459582678 0.46417645987526268 0 0.47620008200603681 0.47105329433654441 0 0.45737605375507612 0.48089742538044228 0 0.45960496459582678 0.46417645987526268 0 0.45737605375507612 0.48089742538044228 0 0.44380417894164309 0.46950433545013248 0 0.45737605375507612 0.48089742538044228 0 0.44380417894164309 0.46950433545013248 0 0.43734400708974719 0.48168824376206232 0 0.45737605375507612 0.48089742538044228 0 0.44821665762312679 0.5 0 0.43734400708974719 0.48168824376206232 0 0.42090416565447802 0.5 0 0.42167884376232539 0.48218588030023679 0 0.43734400708974719 0.48168824376206232 0 0.44821665762312679 0.5 0 0.42090416565447802 0.5 0 0.43734400708974719 0.48168824376206232 0 0.42090416565447802 0.5 0 0.40735295866363502 0.48235175914629441 0 0.42167884376232539 0.48218588030023679 0 0.42090416565447802 0.5 0 0.40735295866363502 0.48235175914629441 0 0.39359167368582898 0.49999999999999872 0 0.40735295866363502 0.48235175914629441 0 0.42111424364144151 0.46470351829259038 0 0.39461243574757809 0.47490382001145193 0 0.42111424364144151 0.46470351829259038 0 0.39461243574757809 0.47490382001145193 0 0.40735295866363502 0.48235175914629441 0 0.42167884376232539 0.48218588030023679 0 0.42111424364144151 0.46470351829259038 0 0.40735295866363502 0.48235175914629441 0 0.42111424364144151 0.46470351829259038 0 0.42167884376232539 0.48218588030023679 0 0.43734400708974719 0.48168824376206232 0 0.42111424364144151 0.46470351829259038 0 0.44380417894164309 0.46950433545013248 0 0.43734400708974719 0.48168824376206232 0 0.42111424364144151 0.46470351829259038 0 0.44358162562612419 0.45605602994030509 0 0.44380417894164309 0.46950433545013248 0 0.42111424364144151 0.46470351829259038 0 0.44358162562612419 0.45605602994030509 0 0.43202167769828731 0.4507152153367579 0 0.42111424364144151 0.46470351829259038 0 0.44358162562612419 0.45605602994030509 0 0.42111424364144151 0.46470351829259038 0 0.43202167769828731 0.4507152153367579 0 0.42111424364144151 0.46470351829259038 0 0.43202167769828731 0.4507152153367579 0 0.41784987452244088 0.44372132348948301 0 0.42111424364144151 0.46470351829259038 0 0.43307070335747738 0.4357302959902738 0 0.44222888331920113 0.44405337357052083 0 0.43202167769828731 0.4507152153367579 0 0.43307070335747738 0.4357302959902738 0 0.43202167769828731 0.4507152153367579 0 0.41784987452244088 0.44372132348948301 0 0.40755164177553921 0.43291664354494291 0 0.41784987452244088 0.44372132348948301 0 0.40405427303296371 0.45226938142235618 0 0.41784987452244088 0.44372132348948301 0 0.42111424364144151 0.46470351829259038 0 0.40405427303296371 0.45226938142235618 0 0.42111424364144151 0.46470351829259038 0 0.40234756637589297 0.4633225970728147 0 0.40405427303296371 0.45226938142235618 0 0.42111424364144151 0.46470351829259038 0 0.40234756637589297 0.4633225970728147 0 0.39461243574757809 0.47490382001145193 0 0.40234756637589297 0.4633225970728147 0 0.40405427303296371 0.45226938142235618 0 0.38960931308158891 0.46141366856486049 0 0.40234756637589297 0.4633225970728147 0 0.38960931308158891 0.46141366856486049 0 0.39461243574757809 0.47490382001145193 0 0.40755164177553921 0.43291664354494291 0 0.39114757398071942 0.44553250574781172 0 0.40405427303296371 0.45226938142235618 0 0.39114757398071942 0.44553250574781172 0 0.40405427303296371 0.45226938142235618 0 0.38960931308158891 0.46141366856486049 0 0.37690062581237332 0.43627968954933488 0 0.39114757398071942 0.44553250574781172 0 0.37512177367696298 0.45895591305414518 0 0.37690062581237332 0.43627968954933488 0 0.393647816504889 0.43135973835123143 0 0.39114757398071942 0.44553250574781172 0 0.39114757398071942 0.44553250574781172 0 0.38960931308158891 0.46141366856486049 0 0.37512177367696298 0.45895591305414518 0 0.38960931308158891 0.46141366856486049 0 0.37512177367696298 0.45895591305414518 0 0.38289335638182981 0.47181242392840878 0 0.37018046279026501 0.47805084372952139 0 0.37512177367696298 0.45895591305414518 0 0.38289335638182981 0.47181242392840878 0 0.38960931308158891 0.46141366856486049 0 0.38289335638182981 0.47181242392840878 0 0.39461243574757809 0.47490382001145193 0 0.38289335638182981 0.47181242392840878 0 0.38494279661275388 0.48573787428206489 0 0.39461243574757809 0.47490382001145193 0 0.37018046279026501 0.47805084372952139 0 0.38289335638182981 0.47181242392840878 0 0.38494279661275388 0.48573787428206489 0 0.36873120737008308 0.5 0 0.38494279661275388 0.48573787428206489 0 0.39359167368582898 0.49999999999999872 0 0.40735295866363502 0.48235175914629441 0 0.38494279661275388 0.48573787428206489 0 0.39359167368582898 0.49999999999999872 0 0.40735295866363502 0.48235175914629441 0 0.39359167368582898 0.49999999999999872 0 0.40735295866363502 0.48235175914629441 0 0.38494279661275388 0.48573787428206489 0 0.39461243574757809 0.47490382001145193 0 0.33352028226985431 0.090119207785541444 0 0.34657515999274219 0.094385042028696645 0 0.34531571522834831 0.074785522443184996 0 0.33352028226985431 0.090119207785541444 0 0.32312461521401242 0.077402607050093233 0 0.34531571522834831 0.074785522443184996 0 0.32312461521401242 0.077402607050093233 0 0.34531571522834831 0.074785522443184996 0 0.33446655575743472 0.047652532151898679 0 0.32312461521401242 0.077402607050093233 0 0.31061177173603349 0.058572172252160881 0 0.30434371664035548 0.077761147227659491 0 0.32312461521401242 0.077402607050093233 0 0.31061177173603349 0.058572172252160881 0 0.32312461521401242 0.077402607050093233 0 0.31145134884318221 0.08759403204634135 0 0.30434371664035548 0.077761147227659491 0 0.32312461521401242 0.077402607050093233 0 0.3209937184345017 0.092450356298595895 0 0.31145134884318221 0.08759403204634135 0 0.33352028226985431 0.090119207785541444 0 0.3209937184345017 0.092450356298595895 0 0.32890529999758122 0.098238231799854803 0 0.33352028226985431 0.090119207785541444 0 0.32312461521401242 0.077402607050093233 0 0.3209937184345017 0.092450356298595895 0 0.3209937184345017 0.092450356298595895 0 0.31145134884318221 0.08759403204634135 0 0.30652465220607023 0.097100259631785146 0 0.32433367470186369 0.1072766899877738 0 0.30652465220607023 0.097100259631785146 0 0.3209937184345017 0.092450356298595895 0 0.32433367470186369 0.1072766899877738 0 0.30652465220607023 0.097100259631785146 0 0.33118606038579479 0.114977610307874 0 0.30922620340601231 0.1110762725420283 0 0.30525112257551762 0.1003416642464236 0 0.32433367470186369 0.1072766899877738 0 0.33118606038579479 0.114977610307874 0 0.30525112257551762 0.1003416642464236 0 0.33118606038579479 0.114977610307874 0 0.30525112257551762 0.1003416642464236 0 0.3209937184345017 0.092450356298595895 0 0.32433367470186369 0.1072766899877738 0 0.32890529999758122 0.098238231799854803 0 0.31569058735429972 0.11724024770867431 0 0.33118606038579479 0.114977610307874 0 0.30922620340601231 0.1110762725420283 0 0.31569058735429972 0.11724024770867431 0 0.32300225620775658 0.1225337689545158 0 0.31395244580793752 0.12803880600780451 0 0.32300225620775658 0.1225337689545158 0 0.33118606038579479 0.114977610307874 0 0.32979145400193982 0.12636757476214061 0 0.31569058735429972 0.11724024770867431 0 0.32300225620775658 0.1225337689545158 0 0.33118606038579479 0.114977610307874 0 0.33118606038579479 0.114977610307874 0 0.3402130111099898 0.12927819269872909 0 0.35712099819607218 0.12961355636932451 0 0.33118606038579479 0.114977610307874 0 0.3402130111099898 0.12927819269872909 0 0.32979145400193982 0.12636757476214061 0 0.33118606038579479 0.114977610307874 0 0.33677352458410531 0.1031066731275081 0 0.34929168980133102 0.1100106297903477 0 0.33352028226985431 0.090119207785541444 0 0.32890529999758122 0.098238231799854803 0 0.33677352458410531 0.1031066731275081 0 0.32433367470186369 0.1072766899877738 0 0.32890529999758122 0.098238231799854803 0 0.33677352458410531 0.1031066731275081 0 0.32433367470186369 0.1072766899877738 0 0.33118606038579479 0.114977610307874 0 0.33677352458410531 0.1031066731275081 0 0.33352028226985431 0.090119207785541444 0 0.33677352458410531 0.1031066731275081 0 0.34657515999274219 0.094385042028696645 0 0.33677352458410531 0.1031066731275081 0 0.34657515999274219 0.094385042028696645 0 0.34929168980133102 0.1100106297903477 0 0.34657515999274219 0.094385042028696645 0 0.34929168980133102 0.1100106297903477 0 0.36016284416764371 0.10154570120728421 0 0.34929168980133102 0.1100106297903477 0 0.36298450455438419 0.1157431939465537 0 0.36016284416764371 0.10154570120728421 0 0.33118606038579479 0.114977610307874 0 0.34929168980133102 0.1100106297903477 0 0.35712099819607218 0.12961355636932451 0 0.33118606038579479 0.114977610307874 0 0.35712099819607218 0.12961355636932451 0 0.34929168980133102 0.1100106297903477 0 0.36298450455438419 0.1157431939465537 0 0.35712099819607218 0.12961355636932451 0 0.36298450455438419 0.1157431939465537 0 0.36016284416764371 0.10154570120728421 0 0.37875588668803689 0.1169754841774589 0 0.36298450455438419 0.1157431939465537 0 0.35712099819607218 0.12961355636932451 0 0.37875588668803689 0.1169754841774589 0 0.36016284416764371 0.10154570120728421 0 0.37194437105163669 0.090227953468852151 0 0.37875588668803689 0.1169754841774589 0 0.34657515999274219 0.094385042028696645 0 0.36016284416764371 0.10154570120728421 0 0.37194437105163669 0.090227953468852151 0 0.34657515999274219 0.094385042028696645 0 0.37194437105163669 0.090227953468852151 0 0.34531571522834831 0.074785522443184996 0 0.37194437105163669 0.090227953468852151 0 0.36513285541523671 0.063480422760245417 0 0.37714360225687033 0.074662844998703556 0 0.37194437105163669 0.090227953468852151 0 0.34531571522834831 0.074785522443184996 0 0.36513285541523671 0.063480422760245417 0 0.36513285541523671 0.063480422760245417 0 0.37714360225687033 0.074662844998703556 0 0.38028085903936792 0.058555013776169673 0 0.37194437105163669 0.090227953468852151 0 0.36513285541523671 0.063480422760245417 0 0.36513285541523671 0.063480422760245417 0 0.36838729724709168 0.047689693189821317 0 0.3583213397788369 0.036732892051638537 0 0.36513285541523671 0.063480422760245417 0 0.3583213397788369 0.036732892051638537 0 0.36513285541523671 0.063480422760245417 0 0.36838729724709168 0.047689693189821317 0 0.38028085903936792 0.058555013776169673 0 0.36838729724709168 0.047689693189821317 0 0.36961793171614221 0.031561823715653303 0 0.3583213397788369 0.036732892051638537 0 0.36838729724709168 0.047689693189821317 0 0.36961793171614221 0.031561823715653303 0 0.38028085903936792 0.058555013776169673 0 0.36961793171614221 0.031561823715653303 0 0.38028085903936792 0.058555013776169673 0 0.36961793171614221 0.031561823715653303 0 0.3583213397788369 0.036732892051638537 0 0.3583213397788369 0.036732892051638537 0 0.33903516774869841 0.027063418963827749 0 0.33446655575743472 0.047652532151898679 0 0.3583213397788369 0.036732892051638537 0 0.33446655575743472 0.047652532151898679 0 0.34531571522834831 0.074785522443184996 0 0.36513285541523671 0.063480422760245417 0 0.33446655575743472 0.047652532151898679 0 0.36513285541523671 0.063480422760245417 0 0.3583213397788369 0.036732892051638537 0 0.33446655575743472 0.047652532151898679 0 0.367426120563213 0.0011923754251482459 0 0.36769859598276772 0.01679057333599266 0 0.35107653077574552 0.0082839004274214839 0 0.367426120563213 0.0011923754251482459 0 0.36769859598276772 0.01679057333599266 0 0.37930030041949347 0.010092054012740419 0 0.36961793171614221 0.031561823715653303 0 0.3583213397788369 0.036732892051638537 0 0.36769859598276772 0.01679057333599266 0 0.36961793171614221 0.031561823715653303 0 0.36769859598276772 0.01679057333599266 0 0.38323450511353407 0.025328772904342128 0 0.3583213397788369 0.036732892051638537 0 0.35107653077574552 0.0082839004274214839 0 0.33903516774869841 0.027063418963827749 0 0.3583213397788369 0.036732892051638537 0 0.36769859598276772 0.01679057333599266 0 0.35107653077574552 0.0082839004274214839 0 0.3583213397788369 0.036732892051638537 0 0.35107653077574552 0.0082839004274214839 0 0.35107653077574552 0.0082839004274214839 0 0.32805118688364687 0.013175465829001811 0 0.32476018564880282 -0.0059557655257515144 0 0.35107653077574552 0.0082839004274214839 0 0.33903516774869841 0.027063418963827749 0 0.32805118688364687 0.013175465829001811 0 0.33903516774869841 0.027063418963827749 0 0.31969540072002778 0.02823221513421224 0 0.32805118688364687 0.013175465829001811 0 0.31969540072002778 0.02823221513421224 0 0.32805118688364687 0.013175465829001811 0 0.30568864952496 0.0082535601452990992 0 0.30568864952496 0.0082535601452990992 0 0.32476018564880282 -0.0059557655257515144 0 0.32805118688364687 0.013175465829001811 0 0.30568864952496 0.0082535601452990992 0 0.32476018564880282 -0.0059557655257515144 0 0.33903516774869841 0.027063418963827749 0 0.31969540072002778 0.02823221513421224 0 0.33446655575743472 0.047652532151898679 0 0.31969540072002778 0.02823221513421224 0 0.33446655575743472 0.047652532151898679 0 0.31061177173603349 0.058572172252160881 0 0.33446655575743472 0.047652532151898679 0 0.31061177173603349 0.058572172252160881 0 0.32312461521401242 0.077402607050093233 0 0.33446655575743472 0.047652532151898679 0 0.31061177173603349 0.058572172252160881 0 0.31061177173603349 0.058572172252160881 0 0.29861444256856379 0.040517529034262853 0 0.29075918947525742 0.067659785585983498 0 0.31061177173603349 0.058572172252160881 0 0.29861444256856379 0.040517529034262853 0 0.31969540072002778 0.02823221513421224 0 0.31061177173603349 0.058572172252160881 0 0.29861444256856379 0.040517529034262853 0 0.29861444256856379 0.040517529034262853 0 0.28661711340111712 0.022462885816349459 0 0.28087450175234963 0.045201433284843627 0 0.29861444256856379 0.040517529034262853 0 0.28661711340111712 0.022462885816349459 0 0.27322954104311692 0.058749696718715383 0 0.28087450175234963 0.045201433284843627 0 0.29075918947525742 0.067659785585983498 0 0.29861444256856379 0.040517529034262853 0 0.28087450175234963 0.045201433284843627 0 0.29075918947525742 0.067659785585983498 0 0.31969540072002778 0.02823221513421224 0 0.29861444256856379 0.040517529034262853 0 0.30302071177845119 0.02457611811427636 0 0.30568864952496 0.0082535601452990992 0 0.30302071177845119 0.02457611811427636 0 0.28661711340111712 0.022462885816349459 0 0.31969540072002778 0.02823221513421224 0 0.30568864952496 0.0082535601452990992 0 0.30302071177845119 0.02457611811427636 0 0.29861444256856379 0.040517529034262853 0 0.30302071177845119 0.02457611811427636 0 0.28661711340111712 0.022462885816349459 0 0.30568864952496 0.0082535601452990992 0 0.28661711340111712 0.022462885816349459 0 0.28661711340111712 0.022462885816349459 0 0.28943901284397561 0.0043087813462744521 0 0.27290296398581099 0.001824619476022873 0 0.30568864952496 0.0082535601452990992 0 0.28943901284397561 0.0043087813462744521 0 0.29265667154496888 -0.01210032114353716 0 0.30568864952496 0.0082535601452990992 0 0.28661711340111712 0.022462885816349459 0 0.28943901284397561 0.0043087813462744521 0 0.28661711340111712 0.022462885816349459 0 0.27290296398581099 0.001824619476022873 0 0.25762412804278623 0.01749275415485519 0 0.28661711340111712 0.022462885816349459 0 0.27290296398581099 0.001824619476022873 0 0.28661711340111712 0.022462885816349459 0 0.26545853699405808 0.038227169351321283 0 0.28661711340111712 0.022462885816349459 0 0.25762412804278623 0.01749275415485519 0 0.26545853699405808 0.038227169351321283 0 0.24555631408787959 0.033076231293803958 0 0.25762412804278623 0.01749275415485519 0 0.26545853699405808 0.038227169351321283 0 0.27290296398581099 0.001824619476022873 0 0.25762412804278623 0.01749275415485519 0 0.25584056744277112 -0.0017130667366374939 0 0.24063459591653041 0.0074870902855560884 0 0.25762412804278623 0.01749275415485519 0 0.25584056744277112 -0.0017130667366374939 0 0.26566601096823511 0.051241836186415902 0 0.27322954104311692 0.058749696718715383 0 0.28087450175234963 0.045201433284843627 0 0.27322954104311692 0.058749696718715383 0 0.26280696745515741 0.060137014834412528 0 0.27027387638572209 0.067272898229365857 0 0.26566601096823511 0.051241836186415902 0 0.27322954104311692 0.058749696718715383 0 0.26280696745515741 0.060137014834412528 0 0.28661711340111712 0.022462885816349459 0 0.28087450175234963 0.045201433284843627 0 0.26545853699405808 0.038227169351321283 0 0.26566601096823511 0.051241836186415902 0 0.28087450175234963 0.045201433284843627 0 0.26545853699405808 0.038227169351321283 0 0.24429996058699779 0.053991452886291709 0 0.26545853699405808 0.038227169351321283 0 0.24429996058699779 0.053991452886291709 0 0.24555631408787959 0.033076231293803958 0 0.26545853699405808 0.038227169351321283 0 0.24429996058699779 0.053991452886291709 0 0.26566601096823511 0.051241836186415902 0 0.26280696745515741 0.060137014834412528 0 0.24429996058699779 0.053991452886291709 0 0.26280696745515741 0.060137014834412528 0 0.26056544829171441 0.069429190151272469 0 0.24429996058699779 0.053991452886291709 0 0.26566601096823511 0.051241836186415902 0 0.26545853699405808 0.038227169351321283 0 0.24429996058699779 0.053991452886291709 0 0.26056544829171441 0.069429190151272469 0 0.25473487255354033 0.067506547460864375 0 0.27090660721448251 0.076747398919808391 0 0.24429996058699779 0.053991452886291709 0 0.25473487255354033 0.067506547460864375 0 0.26056544829171441 0.069429190151272469 0 0.25473487255354033 0.067506547460864375 0 0.26056544829171441 0.069429190151272469 0 0.27090660721448251 0.076747398919808391 0 0.24487990017332159 0.088661247044754365 0 0.25473487255354033 0.067506547460864375 0 0.27090660721448251 0.076747398919808391 0 0.26280696745515741 0.060137014834412528 0 0.26056544829171441 0.069429190151272469 0 0.27027387638572209 0.067272898229365857 0 0.24487990017332159 0.088661247044754365 0 0.27090660721448251 0.076747398919808391 0 0.24487990017332159 0.088661247044754365 0 0.27090660721448251 0.076747398919808391 0 0.26968237783122723 0.1021426490829387 0 0.27090660721448251 0.076747398919808391 0 0.28871562971027648 0.086923829275796477 0 0.26968237783122723 0.1021426490829387 0 0.27090660721448251 0.076747398919808391 0 0.28871562971027648 0.086923829275796477 0 0.27322954104311692 0.058749696718715383 0 0.27027387638572209 0.067272898229365857 0 0.29075918947525742 0.067659785585983498 0 0.27090660721448251 0.076747398919808391 0 0.29075918947525742 0.067659785585983498 0 0.27027387638572209 0.067272898229365857 0 0.27090660721448251 0.076747398919808391 0 0.29075918947525742 0.067659785585983498 0 0.26056544829171441 0.069429190151272469 0 0.27027387638572209 0.067272898229365857 0 0.27090660721448251 0.076747398919808391 0 0.29075918947525742 0.067659785585983498 0 0.28871562971027648 0.086923829275796477 0 0.30434371664035548 0.077761147227659491 0 0.27090660721448251 0.076747398919808391 0 0.29075918947525742 0.067659785585983498 0 0.28871562971027648 0.086923829275796477 0 0.28871562971027648 0.086923829275796477 0 0.30652465220607023 0.097100259631785146 0 0.28871562971027648 0.086923829275796477 0 0.30275883684997112 0.087344817045395609 0 0.30652465220607023 0.097100259631785146 0 0.28871562971027648 0.086923829275796477 0 0.30275883684997112 0.087344817045395609 0 0.30434371664035548 0.077761147227659491 0 0.30275883684997112 0.087344817045395609 0 0.31145134884318221 0.08759403204634135 0 0.30652465220607023 0.097100259631785146 0 0.30275883684997112 0.087344817045395609 0 0.31145134884318221 0.08759403204634135 0 0.30434371664035548 0.077761147227659491 0 0.31061177173603349 0.058572172252160881 0 0.29075918947525742 0.067659785585983498 0 0.31061177173603349 0.058572172252160881 0 0.29075918947525742 0.067659785585983498 0 0.30434371664035548 0.077761147227659491 0 0.29789397917651522 0.1129082861896436 0 0.30595084529435579 0.12061325655967189 0 0.30922620340601231 0.1110762725420283 0 0.29789397917651522 0.1129082861896436 0 0.30922620340601231 0.1110762725420283 0 0.30146030470212848 0.1069125725019484 0 0.29789397917651522 0.1129082861896436 0 0.30595084529435579 0.12061325655967189 0 0.29504643573847411 0.1239125062694071 0 0.31569058735429972 0.11724024770867431 0 0.30595084529435579 0.12061325655967189 0 0.31395244580793752 0.12803880600780451 0 0.31569058735429972 0.11724024770867431 0 0.30595084529435579 0.12061325655967189 0 0.30922620340601231 0.1110762725420283 0 0.30922620340601231 0.1110762725420283 0 0.30525112257551762 0.1003416642464236 0 0.30146030470212848 0.1069125725019484 0 0.32433367470186369 0.1072766899877738 0 0.30652465220607023 0.097100259631785146 0 0.30525112257551762 0.1003416642464236 0 0.30652465220607023 0.097100259631785146 0 0.30525112257551762 0.1003416642464236 0 0.29346991365046898 0.1033240670296984 0 0.30525112257551762 0.1003416642464236 0 0.30146030470212848 0.1069125725019484 0 0.29346991365046898 0.1033240670296984 0 0.29789397917651522 0.1129082861896436 0 0.30146030470212848 0.1069125725019484 0 0.29346991365046898 0.1033240670296984 0 0.29346991365046898 0.1033240670296984 0 0.28428001372231992 0.11707377961609471 0 0.26968237783122723 0.1021426490829387 0 0.28871562971027648 0.086923829275796477 0 0.30652465220607023 0.097100259631785146 0 0.29346991365046898 0.1033240670296984 0 0.28871562971027648 0.086923829275796477 0 0.29346991365046898 0.1033240670296984 0 0.26968237783122723 0.1021426490829387 0 0.29789397917651522 0.1129082861896436 0 0.29346991365046898 0.1033240670296984 0 0.28428001372231992 0.11707377961609471 0 0.29789397917651522 0.1129082861896436 0 0.28428001372231992 0.11707377961609471 0 0.29504643573847411 0.1239125062694071 0 0.28428001372231992 0.11707377961609471 0 0.26968237783122723 0.1021426490829387 0 0.26517191895859238 0.12386508283457071 0 0.2403526613891277 0.1184031388598471 0 0.24487990017332159 0.088661247044754365 0 0.26968237783122723 0.1021426490829387 0 0.2403526613891277 0.1184031388598471 0 0.26968237783122723 0.1021426490829387 0 0.26517191895859238 0.12386508283457071 0 0.2490797100873286 0.14227083668141521 0 0.26517191895859238 0.12386508283457071 0 0.26533450025146438 0.14702143492439321 0 0.2490797100873286 0.14227083668141521 0 0.26517191895859238 0.12386508283457071 0 0.2490797100873286 0.14227083668141521 0 0.2403526613891277 0.1184031388598471 0 0.26517191895859238 0.12386508283457071 0 0.28428001372231992 0.11707377961609471 0 0.26517191895859238 0.12386508283457071 0 0.28422928363144578 0.1390576131824833 0 0.26517191895859238 0.12386508283457071 0 0.26533450025146438 0.14702143492439321 0 0.28422928363144578 0.1390576131824833 0 0.26533450025146438 0.14702143492439321 0 0.27154925025050092 0.16762504236055961 0 0.28422928363144578 0.1390576131824833 0 0.2490797100873286 0.14227083668141521 0 0.26533450025146438 0.14702143492439321 0 0.2529989822304976 0.1585621632079868 0 0.2442222712976507 0.1733536933678313 0 0.2529989822304976 0.1585621632079868 0 0.27154925025050092 0.16762504236055961 0 0.26533450025146438 0.14702143492439321 0 0.2529989822304976 0.1585621632079868 0 0.27154925025050092 0.16762504236055961 0 0.2442222712976507 0.1733536933678313 0 0.27154925025050092 0.16762504236055961 0 0.2442222712976507 0.1733536933678313 0 0.27154925025050092 0.16762504236055961 0 0.25317992106129272 0.18846692460435269 0 0.27154925025050092 0.16762504236055961 0 0.25317992106129272 0.18846692460435269 0 0.27128024212838192 0.18937421325864859 0 0.27154925025050092 0.16762504236055961 0 0.28586542675027449 0.18321595569669741 0 0.27128024212838192 0.18937421325864859 0 0.28586542675027449 0.18321595569669741 0 0.29887622920335111 0.16189639135328801 0 0.30582322295673869 0.19544975348743979 0 0.27154925025050092 0.16762504236055961 0 0.29887622920335111 0.16189639135328801 0 0.29887622920335111 0.16189639135328801 0 0.30582322295673869 0.19544975348743979 0 0.3207478356761409 0.17587839705612179 0 0.27154925025050092 0.16762504236055961 0 0.28586542675027449 0.18321595569669741 0 0.29887622920335111 0.16189639135328801 0 0.29887622920335111 0.16189639135328801 0 0.30033453553708378 0.1438654316591578 0 0.31628749587432048 0.14166726443097799 0 0.30194513343921792 0.13284045766988201 0 0.31395244580793752 0.12803880600780451 0 0.31628749587432048 0.14166726443097799 0 0.30033453553708378 0.1438654316591578 0 0.30194513343921792 0.13284045766988201 0 0.31628749587432048 0.14166726443097799 0 0.30595084529435579 0.12061325655967189 0 0.30194513343921792 0.13284045766988201 0 0.31395244580793752 0.12803880600780451 0 0.30595084529435579 0.12061325655967189 0 0.29504643573847411 0.1239125062694071 0 0.30194513343921792 0.13284045766988201 0 0.30033453553708378 0.1438654316591578 0 0.30194513343921792 0.13284045766988201 0 0.28422928363144578 0.1390576131824833 0 0.29504643573847411 0.1239125062694071 0 0.30194513343921792 0.13284045766988201 0 0.28422928363144578 0.1390576131824833 0 0.28428001372231992 0.11707377961609471 0 0.29504643573847411 0.1239125062694071 0 0.28422928363144578 0.1390576131824833 0 0.27154925025050092 0.16762504236055961 0 0.29887622920335111 0.16189639135328801 0 0.28422928363144578 0.1390576131824833 0 0.29887622920335111 0.16189639135328801 0 0.30033453553708378 0.1438654316591578 0 0.28422928363144578 0.1390576131824833 0 0.28059146717311512 0.24366402070067791 0 0.26719816143785829 0.23785165896462299 0 0.28028801659397712 0.22954542023190039 0 0.26622002360442448 0.25243984376066608 0 0.28059146717311512 0.24366402070067791 0 0.26719816143785829 0.23785165896462299 0 0.25421322039033012 0.25011983010618499 0 0.26622002360442448 0.25243984376066608 0 0.26016568023347569 0.24444196959254541 0 0.26622002360442448 0.25243984376066608 0 0.26719816143785829 0.23785165896462299 0 0.26016568023347569 0.24444196959254541 0 0.25421322039033012 0.25011983010618499 0 0.26016568023347569 0.24444196959254541 0 0.25303131550129021 0.23735654553870739 0 0.26719816143785829 0.23785165896462299 0 0.26016568023347569 0.24444196959254541 0 0.25303131550129021 0.23735654553870739 0 0.26719816143785829 0.23785165896462299 0 0.25303131550129021 0.23735654553870739 0 0.25429160712161381 0.22670675697131451 0 0.26719816143785829 0.23785165896462299 0 0.25429160712161381 0.22670675697131451 0 0.2650713816414213 0.2226152850727825 0 0.24442332300999661 0.23079137593239779 0 0.25303131550129021 0.23735654553870739 0 0.25429160712161381 0.22670675697131451 0 0.2496020388829098 0.2174496008327092 0 0.25429160712161381 0.22670675697131451 0 0.2650713816414213 0.2226152850727825 0 0.26719816143785829 0.23785165896462299 0 0.2650713816414213 0.2226152850727825 0 0.28028801659397712 0.22954542023190039 0 0.2650713816414213 0.2226152850727825 0 0.28028801659397712 0.22954542023190039 0 0.27649791382382122 0.21543014967392271 0 0.2650713816414213 0.2226152850727825 0 0.27649791382382122 0.21543014967392271 0 0.26309967145918739 0.2064378628698928 0 0.27649791382382122 0.21543014967392271 0 0.26309967145918739 0.2064378628698928 0 0.28270694112065398 0.20112528076174069 0 0.2496020388829098 0.2174496008327092 0 0.2650713816414213 0.2226152850727825 0 0.26309967145918739 0.2064378628698928 0 0.24819076086490249 0.2034194395802591 0 0.2496020388829098 0.2174496008327092 0 0.26309967145918739 0.2064378628698928 0 0.26309967145918739 0.2064378628698928 0 0.25317992106129272 0.18846692460435269 0 0.27128024212838192 0.18937421325864859 0 0.24819076086490249 0.2034194395802591 0 0.26309967145918739 0.2064378628698928 0 0.25317992106129272 0.18846692460435269 0 0.28586542675027449 0.18321595569669741 0 0.27128024212838192 0.18937421325864859 0 0.28270694112065398 0.20112528076174069 0 0.26309967145918739 0.2064378628698928 0 0.27128024212838192 0.18937421325864859 0 0.28270694112065398 0.20112528076174069 0 0.28586542675027449 0.18321595569669741 0 0.28270694112065398 0.20112528076174069 0 0.30582322295673869 0.19544975348743979 0 0.30582322295673869 0.19544975348743979 0 0.3082451982575079 0.21647495188444829 0 0.29170491679742683 0.2158323572371228 0 0.28270694112065398 0.20112528076174069 0 0.30582322295673869 0.19544975348743979 0 0.29170491679742683 0.2158323572371228 0 0.27649791382382122 0.21543014967392271 0 0.28270694112065398 0.20112528076174069 0 0.29170491679742683 0.2158323572371228 0 0.28028801659397712 0.22954542023190039 0 0.29170491679742683 0.2158323572371228 0 0.29758346841640743 0.23314168611246711 0 0.28028801659397712 0.22954542023190039 0 0.27649791382382122 0.21543014967392271 0 0.29170491679742683 0.2158323572371228 0 0.3082451982575079 0.21647495188444829 0 0.29170491679742683 0.2158323572371228 0 0.29758346841640743 0.23314168611246711 0 0.3082451982575079 0.21647495188444829 0 0.29758346841640743 0.23314168611246711 0 0.32064952399487467 0.2292912508789402 0 0.29758346841640743 0.23314168611246711 0 0.309780111023994 0.24361163266558519 0 0.32064952399487467 0.2292912508789402 0 0.2965666488762293 0.25172381677544559 0 0.29758346841640743 0.23314168611246711 0 0.309780111023994 0.24361163266558519 0 0.2965666488762293 0.25172381677544559 0 0.28059146717311512 0.24366402070067791 0 0.29758346841640743 0.23314168611246711 0 0.28059146717311512 0.24366402070067791 0 0.28028801659397712 0.22954542023190039 0 0.29758346841640743 0.23314168611246711 0 0.3275727375344048 0.24525602491545151 0 0.33909048131749109 0.22659860343752999 0 0.34451217634681058 0.24619425716160009 0 0.309780111023994 0.24361163266558519 0 0.3275727375344048 0.24525602491545151 0 0.32064952399487467 0.2292912508789402 0 0.31449953507627998 0.25881948986149311 0 0.309780111023994 0.24361163266558519 0 0.3275727375344048 0.24525602491545151 0 0.3082451982575079 0.21647495188444829 0 0.32064952399487467 0.2292912508789402 0 0.32587713762872961 0.2116855616637989 0 0.32064952399487467 0.2292912508789402 0 0.33909048131749109 0.22659860343752999 0 0.32587713762872961 0.2116855616637989 0 0.3275727375344048 0.24525602491545151 0 0.32064952399487467 0.2292912508789402 0 0.33909048131749109 0.22659860343752999 0 0.33909048131749109 0.22659860343752999 0 0.32587713762872961 0.2116855616637989 0 0.35005156604422011 0.20811619323087979 0 0.32587713762872961 0.2116855616637989 0 0.33224407772833142 0.19269582134504371 0 0.35005156604422011 0.20811619323087979 0 0.30582322295673869 0.19544975348743979 0 0.3082451982575079 0.21647495188444829 0 0.32587713762872961 0.2116855616637989 0 0.30582322295673869 0.19544975348743979 0 0.33224407772833142 0.19269582134504371 0 0.3207478356761409 0.17587839705612179 0 0.30582322295673869 0.19544975348743979 0 0.32587713762872961 0.2116855616637989 0 0.33224407772833142 0.19269582134504371 0 0.35036380098379871 0.1888573653424154 0 0.36807295405782292 0.19426654452595929 0 0.35005156604422011 0.20811619323087979 0 0.33224407772833142 0.19269582134504371 0 0.35036380098379871 0.1888573653424154 0 0.35005156604422011 0.20811619323087979 0 0.36807295405782292 0.19426654452595929 0 0.37534433753220869 0.21618027211956789 0 0.36807295405782292 0.19426654452595929 0 0.35005156604422011 0.20811619323087979 0 0.37534433753220869 0.21618027211956789 0 0.35005156604422011 0.20811619323087979 0 0.35893130086430741 0.2309027566970312 0 0.37534433753220869 0.21618027211956789 0 0.33909048131749109 0.22659860343752999 0 0.35005156604422011 0.20811619323087979 0 0.35893130086430741 0.2309027566970312 0 0.35893130086430741 0.2309027566970312 0 0.38261572100659669 0.2380939997131756 0 0.37534433753220869 0.21618027211956789 0 0.36185635169600527 0.25097623099729632 0 0.38261572100659669 0.2380939997131756 0 0.36185635169600527 0.25097623099729632 0 0.35893130086430741 0.2309027566970312 0 0.38261572100659669 0.2380939997131756 0 0.36185635169600527 0.25097623099729632 0 0.37636476700360411 0.25356382796969262 0 0.38261572100659669 0.2380939997131756 0 0.36185635169600527 0.25097623099729632 0 0.35893130086430741 0.2309027566970312 0 0.34451217634681058 0.24619425716160009 0 0.33909048131749109 0.22659860343752999 0 0.35893130086430741 0.2309027566970312 0 0.34451217634681058 0.24619425716160009 0 0.33618158427197781 0.14333176746075499 0 0.32620320815620141 0.15616774034601641 0 0.35353018710905088 0.15043908933874231 0 0.32620320815620141 0.15616774034601641 0 0.35353018710905088 0.15043908933874231 0 0.33618158427197781 0.14333176746075499 0 0.3402130111099898 0.12927819269872909 0 0.34609554973390888 0.1361588461206179 0 0.3402130111099898 0.12927819269872909 0 0.32979145400193982 0.12636757476214061 0 0.32985205757028069 0.13434502945429741 0 0.33618158427197781 0.14333176746075499 0 0.3402130111099898 0.12927819269872909 0 0.32985205757028069 0.13434502945429741 0 0.32985205757028069 0.13434502945429741 0 0.32262102687857819 0.13032619687168981 0 0.31628749587432048 0.14166726443097799 0 0.33618158427197781 0.14333176746075499 0 0.32985205757028069 0.13434502945429741 0 0.31628749587432048 0.14166726443097799 0 0.32979145400193982 0.12636757476214061 0 0.32985205757028069 0.13434502945429741 0 0.32262102687857819 0.13032619687168981 0 0.32300225620775658 0.1225337689545158 0 0.32979145400193982 0.12636757476214061 0 0.32262102687857819 0.13032619687168981 0 0.32300225620775658 0.1225337689545158 0 0.32262102687857819 0.13032619687168981 0 0.31395244580793752 0.12803880600780451 0 0.32262102687857819 0.13032619687168981 0 0.31395244580793752 0.12803880600780451 0 0.31628749587432048 0.14166726443097799 0 0.33618158427197781 0.14333176746075499 0 0.31628749587432048 0.14166726443097799 0 0.32620320815620141 0.15616774034601641 0 0.29887622920335111 0.16189639135328801 0 0.31628749587432048 0.14166726443097799 0 0.32620320815620141 0.15616774034601641 0 0.29887622920335111 0.16189639135328801 0 0.32620320815620141 0.15616774034601641 0 0.3207478356761409 0.17587839705612179 0 0.29887622920335111 0.16189639135328801 0 0.32620320815620141 0.15616774034601641 0 0.33224407772833142 0.19269582134504371 0 0.35036380098379871 0.1888573653424154 0 0.34059244033608188 0.173182278748821 0 0.33224407772833142 0.19269582134504371 0 0.3207478356761409 0.17587839705612179 0 0.34059244033608188 0.173182278748821 0 0.32620320815620141 0.15616774034601641 0 0.3207478356761409 0.17587839705612179 0 0.34059244033608188 0.173182278748821 0 0.32620320815620141 0.15616774034601641 0 0.34059244033608188 0.173182278748821 0 0.35353018710905088 0.15043908933874231 0 0.36080157058343698 0.1723528169323508 0 0.35353018710905088 0.15043908933874231 0 0.34059244033608188 0.173182278748821 0 0.36080157058343698 0.1723528169323508 0 0.35353018710905088 0.15043908933874231 0 0.35036380098379871 0.1888573653424154 0 0.34059244033608188 0.173182278748821 0 0.36080157058343698 0.1723528169323508 0 0.36807295405782292 0.19426654452595929 0 0.36080157058343698 0.1723528169323508 0 0.36807295405782292 0.19426654452595929 0 0.36080157058343698 0.1723528169323508 0 0.3802321666565201 0.18323701038174431 0 0.35036380098379871 0.1888573653424154 0 0.36807295405782292 0.19426654452595929 0 0.36080157058343698 0.1723528169323508 0 0.36080157058343698 0.1723528169323508 0 0.37495560454671267 0.1637460773739377 0 0.3802321666565201 0.18323701038174431 0 0.36080157058343698 0.1723528169323508 0 0.37495560454671267 0.1637460773739377 0 0.35353018710905088 0.15043908933874231 0 0.35353018710905088 0.15043908933874231 0 0.38305593600634952 0.1442495024307745 0 0.35353018710905088 0.15043908933874231 0 0.38305593600634952 0.1442495024307745 0 0.38194988828880588 0.1467944399887533 0 0.37495560454671267 0.1637460773739377 0 0.35353018710905088 0.15043908933874231 0 0.38194988828880588 0.1467944399887533 0 0.35353018710905088 0.15043908933874231 0 0.35712099819607218 0.12961355636932451 0 0.38305593600634952 0.1442495024307745 0 0.33618158427197781 0.14333176746075499 0 0.35353018710905088 0.15043908933874231 0 0.35086660535759567 0.14241186795366309 0 0.35353018710905088 0.15043908933874231 0 0.35086660535759567 0.14241186795366309 0 0.35712099819607218 0.12961355636932451 0 0.35353018710905088 0.15043908933874231 0 0.35086660535759567 0.14241186795366309 0 0.33618158427197781 0.14333176746075499 0 0.35086660535759567 0.14241186795366309 0 0.34609554973390888 0.1361588461206179 0 0.3402130111099898 0.12927819269872909 0 0.34609554973390888 0.1361588461206179 0 0.35712099819607218 0.12961355636932451 0 0.35086660535759567 0.14241186795366309 0 0.34609554973390888 0.1361588461206179 0 0.35712099819607218 0.12961355636932451 0 0.35712099819607218 0.12961355636932451 0 0.38305593600634952 0.1442495024307745 0 0.37875588668803689 0.1169754841774589 0 0.35712099819607218 0.12961355636932451 0 0.38305593600634952 0.1442495024307745 0 0.38556740232443648 0.1437230148860657 0 0.38305593600634952 0.1442495024307745 0 0.37875588668803689 0.1169754841774589 0 0.38556740232443648 0.1437230148860657 0 0.37875588668803689 0.1169754841774589 0 0.39611912303543129 0.12903599556163359 0 0.38556740232443648 0.1437230148860657 0 0.37875588668803689 0.1169754841774589 0 0.39611912303543129 0.12903599556163359 0 0.38556740232443648 0.1437230148860657 0 0.411681031892694 0.13824872259098431 0 0.39611912303543129 0.12903599556163359 0 0.411681031892694 0.13824872259098431 0 0.40121430760825222 0.11168415298604591 0 0.38556740232443648 0.1437230148860657 0 0.411681031892694 0.13824872259098431 0 0.38656400920716882 0.14763650119707489 0 0.38556740232443648 0.1437230148860657 0 0.411681031892694 0.13824872259098431 0 0.4039099253729122 0.15575132421981849 0 0.38656400920716882 0.14763650119707489 0 0.411681031892694 0.13824872259098431 0 0.38656400920716882 0.14763650119707489 0 0.38194988828880588 0.1467944399887533 0 0.39170461108714771 0.1716128422259367 0 0.38656400920716882 0.14763650119707489 0 0.38579079681281958 0.1457928751406648 0 0.38194988828880588 0.1467944399887533 0 0.38656400920716882 0.14763650119707489 0 0.38556740232443648 0.1437230148860657 0 0.38656400920716882 0.14763650119707489 0 0.38579079681281958 0.1457928751406648 0 0.38556740232443648 0.1437230148860657 0 0.38579079681281958 0.1457928751406648 0 0.38305593600634952 0.1442495024307745 0 0.38579079681281958 0.1457928751406648 0 0.38305593600634952 0.1442495024307745 0 0.38194988828880588 0.1467944399887533 0 0.38579079681281958 0.1457928751406648 0 0.38556740232443648 0.1437230148860657 0 0.38305593600634952 0.1442495024307745 0 0.38556740232443648 0.1437230148860657 0 0.38305593600634952 0.1442495024307745 0 0.38194988828880588 0.1467944399887533 0 0.39170461108714771 0.1716128422259367 0 0.37495560454671267 0.1637460773739377 0 0.38194988828880588 0.1467944399887533 0 0.39170461108714771 0.1716128422259367 0 0.37495560454671267 0.1637460773739377 0 0.3802321666565201 0.18323701038174431 0 0.39170461108714771 0.1716128422259367 0 0.39170461108714771 0.1716128422259367 0 0.40145933388548938 0.1964312444631201 0 0.3802321666565201 0.18323701038174431 0 0.39170461108714771 0.1716128422259367 0 0.40145933388548938 0.1964312444631201 0 0.39170461108714771 0.1716128422259367 0 0.41179521513844841 0.17999810376230119 0 0.40145933388548938 0.1964312444631201 0 0.4039099253729122 0.15575132421981849 0 0.39170461108714771 0.1716128422259367 0 0.41179521513844841 0.17999810376230119 0 0.4039099253729122 0.15575132421981849 0 0.38656400920716882 0.14763650119707489 0 0.39170461108714771 0.1716128422259367 0 0.4039099253729122 0.15575132421981849 0 0.42153139955596031 0.1632489777151214 0 0.41179521513844841 0.17999810376230119 0 0.42153139955596031 0.1632489777151214 0 0.41179521513844841 0.17999810376230119 0 0.43138176721922611 0.18824923283925871 0 0.42153139955596031 0.1632489777151214 0 0.43138176721922611 0.18824923283925871 0 0.44561592190136118 0.17624516423932909 0 0.42153139955596031 0.1632489777151214 0 0.43138176721922611 0.18824923283925871 0 0.42153139955596031 0.1632489777151214 0 0.44506121328611709 0.15977177329172471 0 0.44561592190136118 0.17624516423932909 0 0.42153139955596031 0.1632489777151214 0 0.43359200819553151 0.13365544732685569 0 0.411681031892694 0.13824872259098431 0 0.42153139955596031 0.1632489777151214 0 0.43359200819553151 0.13365544732685569 0 0.44506121328611709 0.15977177329172471 0 0.43359200819553151 0.13365544732685569 0 0.411681031892694 0.13824872259098431 0 0.43359200819553151 0.13365544732685569 0 0.411681031892694 0.13824872259098431 0 0.42034451862635042 0.1173007813018255 0 0.42153139955596031 0.1632489777151214 0 0.411681031892694 0.13824872259098431 0 0.4039099253729122 0.15575132421981849 0 0.42153139955596031 0.1632489777151214 0 0.411681031892694 0.13824872259098431 0 0.40455138821377679 0.25667138028689518 0 0.39332254021852348 0.24487070095830471 0 0.4099990250929918 0.2404752888754374 0 0.39332254021852348 0.24487070095830471 0 0.39851607967790681 0.2316585038008033 0 0.4099990250929918 0.2404752888754374 0 0.39332254021852348 0.24487070095830471 0 0.38591833861442149 0.23604455961552839 0 0.39851607967790681 0.2316585038008033 0 0.38830557420488471 0.25524147838407418 0 0.39332254021852348 0.24487070095830471 0 0.38261572100659669 0.2380939997131756 0 0.38830557420488471 0.25524147838407418 0 0.37636476700360411 0.25356382796969262 0 0.38261572100659669 0.2380939997131756 0 0.38830557420488471 0.25524147838407418 0 0.38261572100659669 0.2380939997131756 0 0.39332254021852348 0.24487070095830471 0 0.38261572100659669 0.2380939997131756 0 0.38591833861442149 0.23604455961552839 0 0.38261572100659669 0.2380939997131756 0 0.38591833861442149 0.23604455961552839 0 0.38261572100659669 0.2380939997131756 0 0.37534433753220869 0.21618027211956789 0 0.38591833861442149 0.23604455961552839 0 0.39291396348459567 0.2177640602367974 0 0.37534433753220869 0.21618027211956789 0 0.38261572100659669 0.2380939997131756 0 0.38591833861442149 0.23604455961552839 0 0.37534433753220869 0.21618027211956789 0 0.38591833861442149 0.23604455961552839 0 0.39851607967790681 0.2316585038008033 0 0.39291396348459567 0.2177640602367974 0 0.39851607967790681 0.2316585038008033 0 0.39291396348459567 0.2177640602367974 0 0.41121405668383121 0.22124964670030359 0 0.39291396348459567 0.2177640602367974 0 0.40145933388548938 0.1964312444631201 0 0.41121405668383121 0.22124964670030359 0 0.39291396348459567 0.2177640602367974 0 0.38383151531052268 0.2014148864665018 0 0.40145933388548938 0.1964312444631201 0 0.36807295405782292 0.19426654452595929 0 0.37534433753220869 0.21618027211956789 0 0.38383151531052268 0.2014148864665018 0 0.39291396348459567 0.2177640602367974 0 0.37534433753220869 0.21618027211956789 0 0.38383151531052268 0.2014148864665018 0 0.36807295405782292 0.19426654452595929 0 0.3802321666565201 0.18323701038174431 0 0.38383151531052268 0.2014148864665018 0 0.3802321666565201 0.18323701038174431 0 0.38383151531052268 0.2014148864665018 0 0.40145933388548938 0.1964312444631201 0 0.41179521513844841 0.17999810376230119 0 0.40145933388548938 0.1964312444631201 0 0.42078425370995448 0.20469500111055219 0 0.41179521513844841 0.17999810376230119 0 0.43138176721922611 0.18824923283925871 0 0.42078425370995448 0.20469500111055219 0 0.43138176721922611 0.18824923283925871 0 0.44123213488249191 0.21324948796339591 0 0.43138176721922611 0.18824923283925871 0 0.42078425370995448 0.20469500111055219 0 0.44123213488249191 0.21324948796339591 0 0.42078425370995448 0.20469500111055219 0 0.42960600488081618 0.23016842191889539 0 0.44123213488249191 0.21324948796339591 0 0.42078425370995448 0.20469500111055219 0 0.41121405668383121 0.22124964670030359 0 0.42960600488081618 0.23016842191889539 0 0.40145933388548938 0.1964312444631201 0 0.42078425370995448 0.20469500111055219 0 0.41121405668383121 0.22124964670030359 0 0.40145933388548938 0.1964312444631201 0 0.41121405668383121 0.22124964670030359 0 0.41121405668383121 0.22124964670030359 0 0.42960600488081618 0.23016842191889539 0 0.4099990250929918 0.2404752888754374 0 0.39851607967790681 0.2316585038008033 0 0.41121405668383121 0.22124964670030359 0 0.4099990250929918 0.2404752888754374 0 0.4228684862923151 0.25332179165355478 0 0.42960600488081618 0.23016842191889539 0 0.44570869596409107 0.24482962705539521 0 0.4228684862923151 0.25332179165355478 0 0.42960600488081618 0.23016842191889539 0 0.4099990250929918 0.2404752888754374 0 0.46230728882809141 0.25281003656542128 0 0.46304145716655948 0.23638340335676131 0 0.47718607119399858 0.24514461198193049 0 0.46304145716655948 0.23638340335676131 0 0.44570869596409107 0.24482962705539521 0 0.45136443927222047 0.22656770504201851 0 0.46230728882809141 0.25281003656542128 0 0.46304145716655948 0.23638340335676131 0 0.44570869596409107 0.24482962705539521 0 0.42960600488081618 0.23016842191889539 0 0.45136443927222047 0.22656770504201851 0 0.44123213488249191 0.21324948796339591 0 0.42960600488081618 0.23016842191889539 0 0.44570869596409107 0.24482962705539521 0 0.45136443927222047 0.22656770504201851 0 0.46304145716655948 0.23638340335676131 0 0.45136443927222047 0.22656770504201851 0 0.46561105381340417 0.21732448795579301 0 0.45136443927222047 0.22656770504201851 0 0.45836796481080683 0.20196412501448799 0 0.46561105381340417 0.21732448795579301 0 0.45836796481080683 0.20196412501448799 0 0.48021644763604909 0.20865929555898971 0 0.45136443927222047 0.22656770504201851 0 0.46561105381340417 0.21732448795579301 0 0.45836796481080683 0.20196412501448799 0 0.45136443927222047 0.22656770504201851 0 0.44123213488249191 0.21324948796339591 0 0.45836796481080683 0.20196412501448799 0 0.43138176721922611 0.18824923283925871 0 0.45836796481080683 0.20196412501448799 0 0.44561592190136118 0.17624516423932909 0 0.43138176721922611 0.18824923283925871 0 0.44123213488249191 0.21324948796339591 0 0.45836796481080683 0.20196412501448799 0 0.45836796481080683 0.20196412501448799 0 0.4653714903493929 0.1773605449869575 0 0.48128176419775398 0.18733178979549131 0 0.45836796481080683 0.20196412501448799 0 0.4653714903493929 0.1773605449869575 0 0.45836796481080683 0.20196412501448799 0 0.48021644763604909 0.20865929555898971 0 0.48128176419775398 0.18733178979549131 0 0.5 0.19346190719074319 0 0.48021644763604909 0.20865929555898971 0 0.48128176419775398 0.18733178979549131 0 0.5 0.19346190719074319 0 0.48021644763604909 0.20865929555898971 0 0.5 0.22009575332560979 0 0.46561105381340417 0.21732448795579301 0 0.48021644763604909 0.20865929555898971 0 0.48041857268057558 0.2292014184155369 0 0.46304145716655948 0.23638340335676131 0 0.46561105381340417 0.21732448795579301 0 0.48041857268057558 0.2292014184155369 0 0.48021644763604909 0.20865929555898971 0 0.48041857268057558 0.2292014184155369 0 0.5 0.22009575332560979 0 0.48041857268057558 0.2292014184155369 0 0.5 0.22009575332560979 0 0.5 0.24672959946047651 0 0.48041857268057558 0.2292014184155369 0 0.5 0.24672959946047651 0 0.47718607119399858 0.24514461198193049 0 0.46304145716655948 0.23638340335676131 0 0.48041857268057558 0.2292014184155369 0 0.47718607119399858 0.24514461198193049 0 0.45676437561944733 0.1482161356510889 0 0.46868354149929531 0.1366899112788435 0 0.47237501588797898 0.15275696495942709 0 0.45550298449836829 0.12906217206272491 0 0.47741396080120457 0.1244688967985913 0 0.45676437561944733 0.1482161356510889 0 0.45550298449836829 0.12906217206272491 0 0.46868354149929531 0.1366899112788435 0 0.45550298449836829 0.12906217206272491 0 0.46868354149929531 0.1366899112788435 0 0.47741396080120457 0.1244688967985913 0 0.43359200819553151 0.13365544732685569 0 0.45550298449836829 0.12906217206272491 0 0.43359200819553151 0.13365544732685569 0 0.45676437561944733 0.1482161356510889 0 0.45550298449836829 0.12906217206272491 0 0.43359200819553151 0.13365544732685569 0 0.45676437561944733 0.1482161356510889 0 0.44506121328611709 0.15977177329172471 0 0.44506121328611709 0.15977177329172471 0 0.44561592190136118 0.17624516423932909 0 0.4653714903493929 0.1773605449869575 0 0.45836796481080683 0.20196412501448799 0 0.44561592190136118 0.17624516423932909 0 0.4653714903493929 0.1773605449869575 0 0.45676437561944733 0.1482161356510889 0 0.44506121328611709 0.15977177329172471 0 0.4653714903493929 0.1773605449869575 0 0.45676437561944733 0.1482161356510889 0 0.4653714903493929 0.1773605449869575 0 0.47237501588797898 0.15275696495942709 0 0.4653714903493929 0.1773605449869575 0 0.48165223688268249 0.16869635320272561 0 0.47237501588797898 0.15275696495942709 0 0.48165223688268249 0.16869635320272561 0 0.48968927071328128 0.14749072299388699 0 0.47237501588797898 0.15275696495942709 0 0.4653714903493929 0.1773605449869575 0 0.47237501588797898 0.15275696495942709 0 0.4653714903493929 0.1773605449869575 0 0.48165223688268249 0.16869635320272561 0 0.48128176419775398 0.18733178979549131 0 0.5 0.19346190719074319 0 0.48128176419775398 0.18733178979549131 0 0.49999999999999828 0.16682806105587669 0 0.48165223688268249 0.16869635320272561 0 0.48128176419775398 0.18733178979549131 0 0.49999999999999828 0.16682806105587669 0 0.50000000000000089 0.15676087213031559 0 0.49999999999999828 0.16682806105587669 0 0.48968927071328128 0.14749072299388699 0 0.49999999999999828 0.16682806105587669 0 0.48968927071328128 0.14749072299388699 0 0.48165223688268249 0.16869635320272561 0 0.49999999999999828 0.16682806105587669 0 0.48968927071328128 0.14749072299388699 0 0.50000000000000089 0.15676087213031559 0 0.49651633299773562 0.13897778232817831 0 0.5 0.13824748892414179 0 0.50000000000000089 0.15676087213031559 0 0.48968927071328128 0.14749072299388699 0 0.49651633299773562 0.13897778232817831 0 0.50000000000000089 0.15676087213031559 0 0.49651633299773562 0.13897778232817831 0 0.48968927071328128 0.14749072299388699 0 0.47237501588797898 0.15275696495942709 0 0.47937854142656539 0.12815338493189679 0 0.47237501588797898 0.15275696495942709 0 0.47937854142656539 0.12815338493189679 0 0.46868354149929531 0.1366899112788435 0 0.47237501588797898 0.15275696495942709 0 0.47937854142656539 0.12815338493189679 0 0.46868354149929531 0.1366899112788435 0 0.47937854142656539 0.12815338493189679 0 0.47741396080120457 0.1244688967985913 0 0.47937854142656539 0.12815338493189679 0 0.48015723179951147 0.12541782399163931 0 0.48855675772205731 0.12928739823317709 0 0.47937854142656539 0.12815338493189679 0 0.47741396080120457 0.1244688967985913 0 0.47937854142656539 0.12815338493189679 0 0.48015723179951147 0.12541782399163931 0 0.47937854142656539 0.12815338493189679 0 0.48015723179951147 0.12541782399163931 0 0.47741396080120457 0.1244688967985913 0 0.48968927071328128 0.14749072299388699 0 0.49651633299773562 0.13897778232817831 0 0.48855675772205731 0.12928739823317709 0 0.48968927071328128 0.14749072299388699 0 0.47937854142656539 0.12815338493189679 0 0.5 0.13824748892414179 0 0.49999999999999628 0.119734105717968 0 0.49303266599546941 0.12119469252604111 0 0.48015723179951147 0.12541782399163931 0 0.48855675772205731 0.12928739823317709 0 0.49303266599546941 0.12119469252604111 0 0.49651633299773562 0.13897778232817831 0 0.49303266599546941 0.12119469252604111 0 0.49651633299773562 0.13897778232817831 0 0.5 0.13824748892414179 0 0.49303266599546941 0.12119469252604111 0 0.49651633299773562 0.13897778232817831 0 0.48855675772205731 0.12928739823317709 0 0.49303266599546941 0.12119469252604111 0 0.48968927071328128 0.14749072299388699 0 0.47937854142656539 0.12815338493189679 0 0.48855675772205731 0.12928739823317709 0 0.49999999999999628 0.119734105717968 0 0.49303266599546941 0.12119469252604111 0 0.5 0.097471279036049907 0 0.49999999999999628 0.119734105717968 0 0.49303266599546941 0.12119469252604111 0 0.49303266599546941 0.12119469252604111 0 0.47741396080120457 0.1244688967985913 0 0.49303266599546941 0.12119469252604111 0 0.4880507660703462 0.095763566733566577 0 0.48147691290942879 0.1107159289269513 0 0.49303266599546941 0.12119469252604111 0 0.4880507660703462 0.095763566733566577 0 0.49303266599546941 0.12119469252604111 0 0.4880507660703462 0.095763566733566577 0 0.5 0.097471279036049907 0 0.4880507660703462 0.095763566733566577 0 0.48147691290942879 0.1107159289269513 0 0.46570452752733471 0.102508348380073 0 0.47741396080120457 0.1244688967985913 0 0.48147691290942879 0.1107159289269513 0 0.46570452752733471 0.102508348380073 0 0.47741396080120457 0.1244688967985913 0 0.46446784401804742 0.11726977938232409 0 0.46570452752733471 0.102508348380073 0 0.47741396080120457 0.1244688967985913 0 0.46570452752733471 0.102508348380073 0 0.48015723179951147 0.12541782399163931 0 0.49303266599546941 0.12119469252604111 0 0.47741396080120457 0.1244688967985913 0 0.49303266599546941 0.12119469252604111 0 0.47741396080120457 0.1244688967985913 0 0.48147691290942879 0.1107159289269513 0 0.49999999999999722 0.075208452354131761 0 0.49141839264781861 0.065281604829388981 0 0.49999999999999922 0.058225030273063472 0 0.49999999999999722 0.075208452354131761 0 0.49141839264781861 0.065281604829388981 0 0.48306886614522399 0.070332440941091867 0 0.49999999999999722 0.075208452354131761 0 0.48306886614522399 0.070332440941091867 0 0.49141839264781861 0.065281604829388981 0 0.48198447606122702 0.064796950255070235 0 0.49203862103264329 0.057845150323588439 0 0.49141839264781861 0.065281604829388981 0 0.48306886614522399 0.070332440941091867 0 0.48198447606122702 0.064796950255070235 0 0.4880507660703462 0.095763566733566577 0 0.5 0.097471279036049907 0 0.49999999999999722 0.075208452354131761 0 0.4880507660703462 0.095763566733566577 0 0.49999999999999722 0.075208452354131761 0 0.48306886614522399 0.070332440941091867 0 0.4880507660703462 0.095763566733566577 0 0.48306886614522399 0.070332440941091867 0 0.4880507660703462 0.095763566733566577 0 0.47632802100693339 0.081673335719659332 0 0.48306886614522399 0.070332440941091867 0 0.4880507660703462 0.095763566733566577 0 0.47632802100693339 0.081673335719659332 0 0.46570452752733471 0.102508348380073 0 0.47665156609815951 0.06848431732817753 0 0.45946861353887669 0.063535784435606826 0 0.47229500396614188 0.060490327883834863 0 0.47632802100693339 0.081673335719659332 0 0.48306886614522399 0.070332440941091867 0 0.47665156609815951 0.06848431732817753 0 0.47665156609815951 0.06848431732817753 0 0.46387433585936561 0.077318957026643265 0 0.47632802100693339 0.081673335719659332 0 0.47665156609815951 0.06848431732817753 0 0.46387433585936561 0.077318957026643265 0 0.47655201145450382 0.06335445886162748 0 0.47665156609815951 0.06848431732817753 0 0.47229500396614188 0.060490327883834863 0 0.47655201145450382 0.06335445886162748 0 0.47665156609815951 0.06848431732817753 0 0.48198447606122702 0.064796950255070235 0 0.47655201145450382 0.06335445886162748 0 0.48198447606122702 0.064796950255070235 0 0.48134132395923612 0.061513848977393891 0 0.47665156609815951 0.06848431732817753 0 0.48198447606122702 0.064796950255070235 0 0.48306886614522399 0.070332440941091867 0 0.47665156609815951 0.06848431732817753 0 0.48306886614522399 0.070332440941091867 0 0.48198447606122702 0.064796950255070235 0 0.48306886614522399 0.070332440941091867 0 0.47665156609815951 0.06848431732817753 0 0.48198447606122702 0.064796950255070235 0 0.48198447606122702 0.064796950255070235 0 0.48134132395923612 0.061513848977393891 0 0.47665156609815951 0.06848431732817753 0 0.45946861353887669 0.063535784435606826 0 0.46387433585936561 0.077318957026643265 0 0.47665156609815951 0.06848431732817753 0 0.45946861353887669 0.063535784435606826 0 0.45946861353887669 0.063535784435606826 0 0.45490592615782521 0.069997448241710544 0 0.46387433585936561 0.077318957026643265 0 0.45490592615782521 0.069997448241710544 0 0.46387433585936561 0.077318957026643265 0 0.45399509425346429 0.080547799961555006 0 0.45399509425346429 0.080547799961555006 0 0.46570452752733471 0.102508348380073 0 0.47632802100693339 0.081673335719659332 0 0.46387433585936561 0.077318957026643265 0 0.46570452752733471 0.102508348380073 0 0.46387433585936561 0.077318957026643265 0 0.45399509425346429 0.080547799961555006 0 0.46570452752733471 0.102508348380073 0 0.45399509425346429 0.080547799961555006 0 0.43761101876783393 0.080050081656941108 0 0.43946315400589869 0.1066305385962531 0 0.45946861353887669 0.063535784435606826 0 0.45490592615782521 0.069997448241710544 0 0.44228566097959371 0.058587251543037192 0 0.45399509425346429 0.080547799961555006 0 0.43761101876783393 0.080050081656941108 0 0.44228566097959371 0.058587251543037192 0 0.45490592615782521 0.069997448241710544 0 0.45399509425346429 0.080547799961555006 0 0.44228566097959371 0.058587251543037192 0 0.45399509425346429 0.080547799961555006 0 0.44228566097959371 0.058587251543037192 0 0.45550298449836829 0.12906217206272491 0 0.47741396080120457 0.1244688967985913 0 0.46446784401804742 0.11726977938232409 0 0.45550298449836829 0.12906217206272491 0 0.46446784401804742 0.11726977938232409 0 0.43946315400589869 0.1066305385962531 0 0.46446784401804742 0.11726977938232409 0 0.46570452752733471 0.102508348380073 0 0.43946315400589869 0.1066305385962531 0 0.45399509425346429 0.080547799961555006 0 0.46570452752733471 0.102508348380073 0 0.43946315400589869 0.1066305385962531 0 0.43359200819553151 0.13365544732685569 0 0.45550298449836829 0.12906217206272491 0 0.43946315400589869 0.1066305385962531 0 0.43359200819553151 0.13365544732685569 0 0.43946315400589869 0.1066305385962531 0 0.42034451862635042 0.1173007813018255 0 0.411681031892694 0.13824872259098431 0 0.40121430760825222 0.11168415298604591 0 0.411681031892694 0.13824872259098431 0 0.42034451862635042 0.1173007813018255 0 0.40121430760825222 0.11168415298604591 0 0.42034451862635042 0.1173007813018255 0 0.40939612198988629 0.096659870539690593 0 0.40121430760825222 0.11168415298604591 0 0.43946315400589869 0.1066305385962531 0 0.40939612198988629 0.096659870539690593 0 0.42296334949779951 0.085018441554922913 0 0.43946315400589869 0.1066305385962531 0 0.42034451862635042 0.1173007813018255 0 0.40939612198988629 0.096659870539690593 0 0.43761101876783393 0.080050081656941108 0 0.43946315400589869 0.1066305385962531 0 0.42296334949779951 0.085018441554922913 0 0.43761101876783393 0.080050081656941108 0 0.42296334949779951 0.085018441554922913 0 0.42934783510241331 0.069466376628937454 0 0.43761101876783393 0.080050081656941108 0 0.42934783510241331 0.069466376628937454 0 0.44228566097959371 0.058587251543037192 0 0.42296334949779951 0.085018441554922913 0 0.42934783510241331 0.069466376628937454 0 0.41583555019525997 0.065875220740267151 0 0.42934783510241331 0.069466376628937454 0 0.41583555019525997 0.065875220740267151 0 0.42729482051147022 0.054270026846767738 0 0.41583555019525997 0.065875220740267151 0 0.40769493921556982 0.079797444853579647 0 0.39953209107109289 0.066314108051909876 0 0.42296334949779951 0.085018441554922913 0 0.41583555019525997 0.065875220740267151 0 0.40769493921556982 0.079797444853579647 0 0.40939612198988629 0.096659870539690593 0 0.42296334949779951 0.085018441554922913 0 0.40769493921556982 0.079797444853579647 0 0.40939612198988629 0.096659870539690593 0 0.40769493921556982 0.079797444853579647 0 0.39074758332380999 0.0851195833811077 0 0.40769493921556982 0.079797444853579647 0 0.39074758332380999 0.0851195833811077 0 0.39953209107109289 0.066314108051909876 0 0.39074758332380999 0.0851195833811077 0 0.37714360225687033 0.074662844998703556 0 0.38028085903936792 0.058555013776169673 0 0.39074758332380999 0.0851195833811077 0 0.38028085903936792 0.058555013776169673 0 0.39074758332380999 0.0851195833811077 0 0.39953209107109289 0.066314108051909876 0 0.38028085903936792 0.058555013776169673 0 0.37194437105163669 0.090227953468852151 0 0.39074758332380999 0.0851195833811077 0 0.38500522404259779 0.1011429560888806 0 0.37194437105163669 0.090227953468852151 0 0.39074758332380999 0.0851195833811077 0 0.37714360225687033 0.074662844998703556 0 0.37194437105163669 0.090227953468852151 0 0.37875588668803689 0.1169754841774589 0 0.37194437105163669 0.090227953468852151 0 0.38500522404259779 0.1011429560888806 0 0.37875588668803689 0.1169754841774589 0 0.38500522404259779 0.1011429560888806 0 0.37875588668803689 0.1169754841774589 0 0.40121430760825222 0.11168415298604591 0 0.39611912303543129 0.12903599556163359 0 0.37875588668803689 0.1169754841774589 0 0.40121430760825222 0.11168415298604591 0 0.39074758332380999 0.0851195833811077 0 0.38500522404259779 0.1011429560888806 0 0.40121430760825222 0.11168415298604591 0 0.40939612198988629 0.096659870539690593 0 0.39074758332380999 0.0851195833811077 0 0.40121430760825222 0.11168415298604591 0 0.39074758332380999 0.0851195833811077 0 0.40121430760825222 0.11168415298604591 0 0.39260804163797591 0.01042787121187992 0 0.38323450511353407 0.025328772904342128 0 0.40814767044823091 0.013924653757044389 0 0.38323450511353407 0.025328772904342128 0 0.40177332910255498 0.032913831931892623 0 0.40814767044823091 0.013924653757044389 0 0.38323450511353407 0.025328772904342128 0 0.40814767044823091 0.013924653757044389 0 0.40238464504493571 0.001287509308259075 0 0.39260804163797591 0.01042787121187992 0 0.40814767044823091 0.013924653757044389 0 0.40238464504493571 0.001287509308259075 0 0.39260804163797591 0.01042787121187992 0 0.39083890390067 -0.00081650578165883979 0 0.39260804163797591 0.01042787121187992 0 0.37930030041949347 0.010092054012740419 0 0.38323450511353407 0.025328772904342128 0 0.39260804163797591 0.01042787121187992 0 0.37930030041949347 0.010092054012740419 0 0.39083890390067 -0.00081650578165883979 0 0.37930030041949347 0.010092054012740419 0 0.39083890390067 -0.00081650578165883979 0 0.3793334440860559 -0.0047231161978346864 0 0.367426120563213 0.0011923754251482459 0 0.37930030041949347 0.010092054012740419 0 0.3793334440860559 -0.0047231161978346864 0 0.36769859598276772 0.01679057333599266 0 0.37930030041949347 0.010092054012740419 0 0.38323450511353407 0.025328772904342128 0 0.36961793171614221 0.031561823715653303 0 0.38323450511353407 0.025328772904342128 0 0.36961793171614221 0.031561823715653303 0 0.38323450511353407 0.025328772904342128 0 0.38382433915465303 0.040640458995645022 0 0.36961793171614221 0.031561823715653303 0 0.38382433915465303 0.040640458995645022 0 0.38028085903936792 0.058555013776169673 0 0.38382433915465303 0.040640458995645022 0 0.39472265294650721 0.047016469947239771 0 0.3908887065793123 0.036474883444779893 0 0.38323450511353407 0.025328772904342128 0 0.38382433915465303 0.040640458995645022 0 0.3908887065793123 0.036474883444779893 0 0.38382433915465303 0.040640458995645022 0 0.38028085903936792 0.058555013776169673 0 0.39472265294650721 0.047016469947239771 0 0.39953209107109289 0.066314108051909876 0 0.38028085903936792 0.058555013776169673 0 0.39472265294650721 0.047016469947239771 0 0.39953209107109289 0.066314108051909876 0 0.39472265294650721 0.047016469947239771 0 0.41230398004334667 0.049952802150498007 0 0.38323450511353407 0.025328772904342128 0 0.3908887065793123 0.036474883444779893 0 0.40177332910255498 0.032913831931892623 0 0.39472265294650721 0.047016469947239771 0 0.40177332910255498 0.032913831931892623 0 0.41230398004334667 0.049952802150498007 0 0.39472265294650721 0.047016469947239771 0 0.3908887065793123 0.036474883444779893 0 0.40177332910255498 0.032913831931892623 0 0.40177332910255498 0.032913831931892623 0 0.41816753616861818 0.036783364905397228 0 0.41288077334742851 0.026077942806859052 0 0.40177332910255498 0.032913831931892623 0 0.41816753616861818 0.036783364905397228 0 0.41230398004334667 0.049952802150498007 0 0.41816753616861818 0.036783364905397228 0 0.41230398004334667 0.049952802150498007 0 0.4233798085898926 0.045814337462531822 0 0.41583555019525997 0.065875220740267151 0 0.41230398004334667 0.049952802150498007 0 0.42729482051147022 0.054270026846767738 0 0.41583555019525997 0.065875220740267151 0 0.39953209107109289 0.066314108051909876 0 0.41230398004334667 0.049952802150498007 0 0.41230398004334667 0.049952802150498007 0 0.42729482051147022 0.054270026846767738 0 0.4233798085898926 0.045814337462531822 0 0.41230398004334667 0.049952802150498007 0 0.42729482051147022 0.054270026846767738 0 0.42729482051147022 0.054270026846767738 0 0.43241247921282849 0.048102756726204253 0 0.4233798085898926 0.045814337462531822 0 0.43241247921282849 0.048102756726204253 0 0.43617346338050439 0.055179525015054333 0 0.44174088268015632 0.045762656109252162 0 0.42729482051147022 0.054270026846767738 0 0.43241247921282849 0.048102756726204253 0 0.43617346338050439 0.055179525015054333 0 0.42729482051147022 0.054270026846767738 0 0.43617346338050439 0.055179525015054333 0 0.44228566097959371 0.058587251543037192 0 0.42934783510241331 0.069466376628937454 0 0.42729482051147022 0.054270026846767738 0 0.44228566097959371 0.058587251543037192 0 0.42729482051147022 0.054270026846767738 0 0.44228566097959371 0.058587251543037192 0 0.43113385368971929 0.040048340587146097 0 0.4275334722387672 0.02589293449345579 0 0.44373376439070827 0.034465916919647031 0 0.41816753616861818 0.036783364905397228 0 0.43113385368971929 0.040048340587146097 0 0.4275334722387672 0.02589293449345579 0 0.41816753616861818 0.036783364905397228 0 0.4233798085898926 0.045814337462531822 0 0.43113385368971929 0.040048340587146097 0 0.43241247921282849 0.048102756726204253 0 0.4233798085898926 0.045814337462531822 0 0.43113385368971929 0.040048340587146097 0 0.43241247921282849 0.048102756726204253 0 0.43113385368971929 0.040048340587146097 0 0.44174088268015632 0.045762656109252162 0 0.4275334722387672 0.02589293449345579 0 0.4229374319365431 0.010449586706577099 0 0.45224078871311268 0.018067348514375959 0 0.40177332910255498 0.032913831931892623 0 0.41288077334742851 0.026077942806859052 0 0.40814767044823091 0.013924653757044389 0 0.41288077334742851 0.026077942806859052 0 0.40814767044823091 0.013924653757044389 0 0.4229374319365431 0.010449586706577099 0 0.41816753616861818 0.036783364905397228 0 0.4275334722387672 0.02589293449345579 0 0.41288077334742851 0.026077942806859052 0 0.4275334722387672 0.02589293449345579 0 0.41288077334742851 0.026077942806859052 0 0.4229374319365431 0.010449586706577099 0 0.40814767044823091 0.013924653757044389 0 0.4229374319365431 0.010449586706577099 0 0.43306083578292748 0.0025205346097466538 0 0.40814767044823091 0.013924653757044389 0 0.41602210345152968 0.00055301565283292326 0 0.43306083578292748 0.0025205346097466538 0 0.40814767044823091 0.013924653757044389 0 0.43306083578292748 0.0025205346097466538 0 0.40238464504493571 0.001287509308259075 0 0.40814767044823091 0.013924653757044389 0 0.41602210345152968 0.00055301565283292326 0 0.4229374319365431 0.010449586706577099 0 0.43306083578292748 0.0025205346097466538 0 0.45224078871311268 0.018067348514375959 0 0.43306083578292748 0.0025205346097466538 0 0.45224078871311268 0.018067348514375959 0 0.45797400111762421 -0.0088835845375510487 0 0.4229374319365431 0.010449586706577099 0 0.45224078871311268 0.018067348514375959 0 0.4275334722387672 0.02589293449345579 0 0.45224078871311268 0.018067348514375959 0 0.44373376439070827 0.034465916919647031 0 0.45224078871311268 0.018067348514375959 0 0.45972033633065601 0.029299798752802031 0 0.44373376439070827 0.034465916919647031 0 0.4275334722387672 0.02589293449345579 0 0.45224078871311268 0.018067348514375959 0 0.45224078871311268 0.018067348514375959 0 0.47612039435655601 0.01050392464746893 0 0.47520091095174971 0.02403610982815613 0 0.45224078871311268 0.018067348514375959 0 0.47520091095174971 0.02403610982815613 0 0.45224078871311268 0.018067348514375959 0 0.45972033633065601 0.029299798752802031 0 0.47520091095174971 0.02403610982815613 0 0.45972033633065601 0.029299798752802031 0 0.47075484461144179 0.0335928028083382 0 0.47520091095174971 0.02403610982815613 0 0.45224078871311268 0.018067348514375959 0 0.46509864024943082 0.003813755222785931 0 0.47612039435655601 0.01050392464746893 0 0.45224078871311268 0.018067348514375959 0 0.46509864024943082 0.003813755222785931 0 0.45797400111762421 -0.0088835845375510487 0 0.45224078871311268 0.018067348514375959 0 0.47612039435655601 0.01050392464746893 0 0.43617346338050439 0.055179525015054333 0 0.46410604220657381 0.056512337669322142 0 0.45946861353887669 0.063535784435606826 0 0.44228566097959371 0.058587251543037192 0 0.43617346338050439 0.055179525015054333 0 0.44228566097959371 0.058587251543037192 0 0.46410604220657381 0.056512337669322142 0 0.43617346338050439 0.055179525015054333 0 0.45155305795951622 0.049477872122916218 0 0.46410604220657381 0.056512337669322142 0 0.43617346338050439 0.055179525015054333 0 0.45155305795951622 0.049477872122916218 0 0.44174088268015632 0.045762656109252162 0 0.45972033633065601 0.029299798752802031 0 0.44373376439070827 0.034465916919647031 0 0.45426197899726178 0.042047234887610113 0 0.45155305795951622 0.049477872122916218 0 0.44174088268015632 0.045762656109252162 0 0.45426197899726178 0.042047234887610113 0 0.44174088268015632 0.045762656109252162 0 0.44373376439070827 0.034465916919647031 0 0.45426197899726178 0.042047234887610113 0 0.43113385368971929 0.040048340587146097 0 0.44174088268015632 0.045762656109252162 0 0.44373376439070827 0.034465916919647031 0 0.45972033633065601 0.029299798752802031 0 0.46614037931866931 0.040697768663807372 0 0.45426197899726178 0.042047234887610113 0 0.45972033633065601 0.029299798752802031 0 0.46614037931866931 0.040697768663807372 0 0.47075484461144179 0.0335928028083382 0 0.46614037931866931 0.040697768663807372 0 0.46076617486429461 0.047884422560312542 0 0.46811300025820951 0.047493468606661107 0 0.46614037931866931 0.040697768663807372 0 0.45426197899726178 0.042047234887610113 0 0.46076617486429461 0.047884422560312542 0 0.45155305795951622 0.049477872122916218 0 0.45426197899726178 0.042047234887610113 0 0.46076617486429461 0.047884422560312542 0 0.45946861353887669 0.063535784435606826 0 0.44228566097959371 0.058587251543037192 0 0.46410604220657381 0.056512337669322142 0 0.45155305795951622 0.049477872122916218 0 0.46076617486429461 0.047884422560312542 0 0.46410604220657381 0.056512337669322142 0 0.46076617486429461 0.047884422560312542 0 0.46811300025820951 0.047493468606661107 0 0.46410604220657381 0.056512337669322142 0 0.45946861353887669 0.063535784435606826 0 0.46410604220657381 0.056512337669322142 0 0.47229500396614188 0.060490327883834863 0 0.46410604220657381 0.056512337669322142 0 0.49203862103264329 0.057845150323588439 0 0.47463641533206019 0.0502392894741268 0 0.4857826357888651 0.049942513856276682 0 0.49203862103264329 0.057845150323588439 0 0.48134132395923612 0.061513848977393891 0 0.47229500396614188 0.060490327883834863 0 0.49203862103264329 0.057845150323588439 0 0.46410604220657381 0.056512337669322142 0 0.47463641533206019 0.0502392894741268 0 0.49203862103264329 0.057845150323588439 0 0.46410604220657381 0.056512337669322142 0 0.47229500396614188 0.060490327883834863 0 0.49203862103264329 0.057845150323588439 0 0.47655201145450382 0.06335445886162748 0 0.48134132395923612 0.061513848977393891 0 0.47229500396614188 0.060490327883834863 0 0.46811300025820951 0.047493468606661107 0 0.46410604220657381 0.056512337669322142 0 0.47463641533206019 0.0502392894741268 0 0.47463641533206019 0.0502392894741268 0 0.48395771102749552 0.042432255187182438 0 0.4857826357888651 0.049942513856276682 0 0.48395771102749552 0.042432255187182438 0 0.47368208818792779 0.041558164232774912 0 0.47849017857969051 0.034893400656533499 0 0.47463641533206019 0.0502392894741268 0 0.48395771102749552 0.042432255187182438 0 0.47368208818792779 0.041558164232774912 0 0.46811300025820951 0.047493468606661107 0 0.47463641533206019 0.0502392894741268 0 0.47368208818792779 0.041558164232774912 0 0.46614037931866931 0.040697768663807372 0 0.46811300025820951 0.047493468606661107 0 0.47368208818792779 0.041558164232774912 0 0.46614037931866931 0.040697768663807372 0 0.47368208818792779 0.041558164232774912 0 0.47075484461144179 0.0335928028083382 0 0.47368208818792779 0.041558164232774912 0 0.47075484461144179 0.0335928028083382 0 0.47849017857969051 0.034893400656533499 0 0.48395771102749552 0.042432255187182438 0 0.47849017857969051 0.034893400656533499 0 0.4879682225848187 0.033820605055926413 0 0.49999999999999989 0.052340364594205969 0 0.49816103319038668 0.030004871141936219 0 0.5 0.027640432687384031 0 0.49274719016617341 0.041541217315483103 0 0.49999999999999989 0.052340364594205969 0 0.49816103319038668 0.030004871141936219 0 0.4879682225848187 0.033820605055926413 0 0.49274719016617341 0.041541217315483103 0 0.49816103319038668 0.030004871141936219 0 0.48395771102749552 0.042432255187182438 0 0.49274719016617341 0.041541217315483103 0 0.49168526302845228 0.049032411366300391 0 0.48395771102749552 0.042432255187182438 0 0.4879682225848187 0.033820605055926413 0 0.49274719016617341 0.041541217315483103 0 0.4857826357888651 0.049942513856276682 0 0.49168526302845228 0.049032411366300391 0 0.49203862103264329 0.057845150323588439 0 0.48395771102749552 0.042432255187182438 0 0.4857826357888651 0.049942513856276682 0 0.49168526302845228 0.049032411366300391 0 0.49274719016617341 0.041541217315483103 0 0.49168526302845228 0.049032411366300391 0 0.49999999999999989 0.052340364594205969 0 0.49168526302845228 0.049032411366300391 0 0.49999999999999989 0.052340364594205969 0 0.49203862103264329 0.057845150323588439 0 0.49999999999999922 0.058225030273063472 0 0.49203862103264329 0.057845150323588439 0 0.49999999999999989 0.052340364594205969 0 0.49999999999999922 0.058225030273063472 0 0.49203862103264329 0.057845150323588439 0 0.49999999999999989 0.052340364594205969 0 0.49203862103264329 0.057845150323588439 0 0.49141839264781861 0.065281604829388981 0 0.49999999999999922 0.058225030273063472 0 0.49203862103264329 0.057845150323588439 0 0.48198447606122702 0.064796950255070235 0 0.49203862103264329 0.057845150323588439 0 0.48198447606122702 0.064796950255070235 0 0.48134132395923612 0.061513848977393891 0 0.49203862103264329 0.057845150323588439 0 0.46509864024943082 0.003813755222785931 0 0.47612039435655601 0.01050392464746893 0 0.47405937681043042 -0.0044326677331501148 0 0.47075484461144179 0.0335928028083382 0 0.47849017857969051 0.034893400656533499 0 0.47520091095174971 0.02403610982815613 0 0.47849017857969051 0.034893400656533499 0 0.4879682225848187 0.033820605055926413 0 0.47520091095174971 0.02403610982815613 0 0.47612039435655601 0.01050392464746893 0 0.47520091095174971 0.02403610982815613 0 0.48915207712596359 0.019746370436263209 0 0.47520091095174971 0.02403610982815613 0 0.48915207712596359 0.019746370436263209 0 0.49816103319038668 0.030004871141936219 0 0.4879682225848187 0.033820605055926413 0 0.47520091095174971 0.02403610982815613 0 0.49816103319038668 0.030004871141936219 0 0.47520091095174971 0.02403610982815613 0 0.49816103319038668 0.030004871141936219 0 0.48915207712596359 0.019746370436263209 0 0.5 0.027640432687384031 0 0.49999999999999928 0.0029405007805621869 0 0.48915207712596359 0.019746370436263209 0 0.49816103319038668 0.030004871141936219 0 0.5 0.027640432687384031 0 0.47612039435655601 0.01050392464746893 0 0.48915207712596359 0.019746370436263209 0 0.49999999999999928 0.0029405007805621869 0 0.47612039435655601 0.01050392464746893 0 0.49999999999999928 0.0029405007805621869 0 0.48661338752386141 -0.0072653667984014349 0 0.47612039435655601 0.01050392464746893 0 0.49999999999999928 0.0029405007805621869 0 0.49999999999999928 0.0029405007805621869 0 0.48661338752386141 -0.0072653667984014349 0 0.5 -0.025050888002039421 0 0.48288716645232072 -0.020287703684848751 0 0.45797400111762421 -0.0088835845375510487 0 0.48661338752386141 -0.0072653667984014349 0 0.47405937681043042 -0.0044326677331501148 0 0.48288716645232072 -0.020287703684848751 0 0.47405937681043042 -0.0044326677331501148 0 0.48288716645232072 -0.020287703684848751 0 0.45797400111762421 -0.0088835845375510487 0 0.47612039435655601 0.01050392464746893 0 0.48661338752386141 -0.0072653667984014349 0 0.47405937681043042 -0.0044326677331501148 0 0.48288716645232072 -0.020287703684848751 0 0.48311843445209313 -0.040227722597724391 0 0.46278480469246092 -0.029917716688331802 0 0.48288716645232072 -0.020287703684848751 0 0.5 -0.025050888002039421 0 0.48311843445209313 -0.040227722597724391 0 0.48661338752386141 -0.0072653667984014349 0 0.48288716645232072 -0.020287703684848751 0 0.5 -0.025050888002039421 0 0.5 -0.025050888002039421 0 0.5 -0.053042276784640963 0 0.48311843445209313 -0.040227722597724391 0 0.5 -0.053042276784640963 0 0.48311843445209313 -0.040227722597724391 0 0.47915419491146849 -0.06250408502136752 0 0.48311843445209313 -0.040227722597724391 0 0.46180036330649032 -0.050478320461888528 0 0.47915419491146849 -0.06250408502136752 0 0.48311843445209313 -0.040227722597724391 0 0.46180036330649032 -0.050478320461888528 0 0.46278480469246092 -0.029917716688331802 0 0.46180036330649032 -0.050478320461888528 0 0.43816979888384538 -0.038389817865375972 0 0.46278480469246092 -0.029917716688331802 0 0.46180036330649032 -0.050478320461888528 0 0.45969015021141568 -0.066679068659805094 0 0.43983363117412871 -0.064751743959087185 0 0.46180036330649032 -0.050478320461888528 0 0.47915419491146849 -0.06250408502136752 0 0.45969015021141568 -0.066679068659805094 0 0.46180036330649032 -0.050478320461888528 0 0.43816979888384538 -0.038389817865375972 0 0.43983363117412871 -0.064751743959087185 0 0.43816979888384538 -0.038389817865375972 0 0.43983363117412871 -0.064751743959087185 0 0.43816979888384538 -0.038389817865375972 0 0.44889684984714862 -0.022337763707518169 0 0.43650596659356222 -0.01202789177166475 0 0.43816979888384538 -0.038389817865375972 0 0.44889684984714862 -0.022337763707518169 0 0.46278480469246092 -0.029917716688331802 0 0.43306083578292748 0.0025205346097466538 0 0.45797400111762421 -0.0088835845375510487 0 0.43306083578292748 0.0025205346097466538 0 0.45797400111762421 -0.0088835845375510487 0 0.43650596659356222 -0.01202789177166475 0 0.44889684984714862 -0.022337763707518169 0 0.45797400111762421 -0.0088835845375510487 0 0.43650596659356222 -0.01202789177166475 0 0.46509864024943082 0.003813755222785931 0 0.47405937681043042 -0.0044326677331501148 0 0.45797400111762421 -0.0088835845375510487 0 0.48288716645232072 -0.020287703684848751 0 0.45797400111762421 -0.0088835845375510487 0 0.46278480469246092 -0.029917716688331802 0 0.44889684984714862 -0.022337763707518169 0 0.45797400111762421 -0.0088835845375510487 0 0.46278480469246092 -0.029917716688331802 0 0.4756219178793622 -0.1128785738623389 0 0.46749167243231382 -0.1198217170993895 0 0.47508342966173922 -0.12530855750060921 0 0.46749167243231382 -0.1198217170993895 0 0.46740508961049843 -0.1280090345356969 0 0.47508342966173922 -0.12530855750060921 0 0.4756219178793622 -0.1128785738623389 0 0.48631863465428371 -0.1248194111880794 0 0.47508342966173922 -0.12530855750060921 0 0.4756219178793622 -0.1128785738623389 0 0.48631863465428371 -0.1248194111880794 0 0.5 -0.10902505434984409 0 0.48631863465428371 -0.1248194111880794 0 0.5 -0.10902505434984409 0 0.4999999999999975 -0.13701644313244571 0 0.48544172654116369 -0.095963608704080994 0 0.5 -0.10902505434984409 0 0.5 -0.081033665567242508 0 0.4756219178793622 -0.1128785738623389 0 0.48544172654116369 -0.095963608704080994 0 0.5 -0.10902505434984409 0 0.4756219178793622 -0.1128785738623389 0 0.48544172654116369 -0.095963608704080994 0 0.46617568739111909 -0.098403405739485167 0 0.48544172654116369 -0.095963608704080994 0 0.47031622149881258 -0.083563456056903684 0 0.46617568739111909 -0.098403405739485167 0 0.48544172654116369 -0.095963608704080994 0 0.47031622149881258 -0.083563456056903684 0 0.5 -0.081033665567242508 0 0.5 -0.053042276784640963 0 0.5 -0.081033665567242508 0 0.47915419491146849 -0.06250408502136752 0 0.47031622149881258 -0.083563456056903684 0 0.47915419491146849 -0.06250408502136752 0 0.45969015021141568 -0.066679068659805094 0 0.47031622149881258 -0.083563456056903684 0 0.5 -0.081033665567242508 0 0.47915419491146849 -0.06250408502136752 0 0.43983363117412871 -0.064751743959087185 0 0.44149746346441182 -0.091113670052798315 0 0.45969015021141568 -0.066679068659805094 0 0.43983363117412871 -0.064751743959087185 0 0.44149746346441182 -0.091113670052798315 0 0.47031622149881258 -0.083563456056903684 0 0.45969015021141568 -0.066679068659805094 0 0.44149746346441182 -0.091113670052798315 0 0.47031622149881258 -0.083563456056903684 0 0.44149746346441182 -0.091113670052798315 0 0.46617568739111909 -0.098403405739485167 0 0.44149746346441182 -0.091113670052798315 0 0.46617568739111909 -0.098403405739485167 0 0.46007895930705972 -0.109272908840431 0 0.4756219178793622 -0.1128785738623389 0 0.46617568739111909 -0.098403405739485167 0 0.46007895930705972 -0.109272908840431 0 0.44149746346441182 -0.091113670052798315 0 0.44316129575469432 -0.1174755961465095 0 0.44149746346441182 -0.091113670052798315 0 0.45103208736276712 -0.114995348691852 0 0.44316129575469432 -0.1174755961465095 0 0.44149746346441182 -0.091113670052798315 0 0.46007895930705972 -0.109272908840431 0 0.45103208736276712 -0.114995348691852 0 0.45103208736276712 -0.114995348691852 0 0.44316129575469432 -0.1174755961465095 0 0.44316129575469432 -0.1174755961465095 0 0.44360952062101239 -0.12457731599425489 0 0.43321649721482008 -0.12734116507156709 0 0.44316129575469432 -0.1174755961465095 0 0.44360952062101239 -0.12457731599425489 0 0.44844945590559981 -0.1207068388283653 0 0.44316129575469432 -0.1174755961465095 0 0.44360952062101239 -0.12457731599425489 0 0.45103208736276712 -0.114995348691852 0 0.44844945590559981 -0.1207068388283653 0 0.45435526495467082 -0.1235771025221362 0 0.44360952062101239 -0.12457731599425489 0 0.44844945590559981 -0.1207068388283653 0 0.44616294079318658 -0.1295115982927616 0 0.45103208736276712 -0.114995348691852 0 0.44316129575469432 -0.1174755961465095 0 0.44844945590559981 -0.1207068388283653 0 0.44844945590559981 -0.1207068388283653 0 0.45435526495467082 -0.1235771025221362 0 0.44616294079318658 -0.1295115982927616 0 0.45103208736276712 -0.114995348691852 0 0.45435526495467082 -0.1235771025221362 0 0.45865492731238461 -0.1184247375967219 0 0.45435526495467082 -0.1235771025221362 0 0.45865492731238461 -0.1184247375967219 0 0.46157148455332969 -0.12517052751972901 0 0.46007895930705972 -0.109272908840431 0 0.45103208736276712 -0.114995348691852 0 0.45865492731238461 -0.1184247375967219 0 0.4756219178793622 -0.1128785738623389 0 0.46007895930705972 -0.109272908840431 0 0.46749167243231382 -0.1198217170993895 0 0.46007895930705972 -0.109272908840431 0 0.45865492731238461 -0.1184247375967219 0 0.46749167243231382 -0.1198217170993895 0 0.46749167243231382 -0.1198217170993895 0 0.46157148455332969 -0.12517052751972901 0 0.46740508961049843 -0.1280090345356969 0 0.45865492731238461 -0.1184247375967219 0 0.46749167243231382 -0.1198217170993895 0 0.46157148455332969 -0.12517052751972901 0 0.41029395300418309 -0.1112676529078211 0 0.4193310385157204 -0.1249849977167619 0 0.42678458430046951 -0.10798958204280509 0 0.41029395300418309 -0.1112676529078211 0 0.4193310385157204 -0.1249849977167619 0 0.40333775820725248 -0.1217211762340845 0 0.44316129575469432 -0.1174755961465095 0 0.4193310385157204 -0.1249849977167619 0 0.44316129575469432 -0.1174755961465095 0 0.4193310385157204 -0.1249849977167619 0 0.43321649721482008 -0.12734116507156709 0 0.44316129575469432 -0.1174755961465095 0 0.4193310385157204 -0.1249849977167619 0 0.42678458430046951 -0.10798958204280509 0 0.44149746346441182 -0.091113670052798315 0 0.42678458430046951 -0.10798958204280509 0 0.41456056443478678 -0.093949003313036572 0 0.44149746346441182 -0.091113670052798315 0 0.44316129575469432 -0.1174755961465095 0 0.42678458430046951 -0.10798958204280509 0 0.41029395300418309 -0.1112676529078211 0 0.42678458430046951 -0.10798958204280509 0 0.41456056443478678 -0.093949003313036572 0 0.41029395300418309 -0.1112676529078211 0 0.41456056443478678 -0.093949003313036572 0 0.40072532477094258 -0.1034107738306216 0 0.41456056443478678 -0.093949003313036572 0 0.4239096019348047 -0.077506151537960713 0 0.40405590977968642 -0.076157024841875587 0 0.44149746346441182 -0.091113670052798315 0 0.41456056443478678 -0.093949003313036572 0 0.4239096019348047 -0.077506151537960713 0 0.43983363117412871 -0.064751743959087185 0 0.44149746346441182 -0.091113670052798315 0 0.4239096019348047 -0.077506151537960713 0 0.43983363117412871 -0.064751743959087185 0 0.4239096019348047 -0.077506151537960713 0 0.41687809721215852 -0.058252055987956637 0 0.3990838221870881 -0.062681547344835289 0 0.40405590977968642 -0.076157024841875587 0 0.41687809721215852 -0.058252055987956637 0 0.4239096019348047 -0.077506151537960713 0 0.40405590977968642 -0.076157024841875587 0 0.41687809721215852 -0.058252055987956637 0 0.40405590977968642 -0.076157024841875587 0 0.39052589237044522 -0.06986320397682462 0 0.38716046361447393 -0.080784330836314228 0 0.3990838221870881 -0.062681547344835289 0 0.40405590977968642 -0.076157024841875587 0 0.39052589237044522 -0.06986320397682462 0 0.3990838221870881 -0.062681547344835289 0 0.39052589237044522 -0.06986320397682462 0 0.38185671821547068 -0.059539617530821043 0 0.39052589237044522 -0.06986320397682462 0 0.37999397765270099 -0.072750812106699439 0 0.38185671821547068 -0.059539617530821043 0 0.37999397765270099 -0.072750812106699439 0 0.38185671821547068 -0.059539617530821043 0 0.36657386302136341 -0.070686606899855023 0 0.39052589237044522 -0.06986320397682462 0 0.37999397765270099 -0.072750812106699439 0 0.38716046361447393 -0.080784330836314228 0 0.38716046361447393 -0.080784330836314228 0 0.38249325919362381 -0.091593965672730995 0 0.3737532488745004 -0.083421408118103613 0 0.37999397765270099 -0.072750812106699439 0 0.38716046361447393 -0.080784330836314228 0 0.3737532488745004 -0.083421408118103613 0 0.38249325919362381 -0.091593965672730995 0 0.3737532488745004 -0.083421408118103613 0 0.37140080656200469 -0.097581835557020574 0 0.38716046361447393 -0.080784330836314228 0 0.38249325919362381 -0.091593965672730995 0 0.39505479978193869 -0.090847474130506478 0 0.41456056443478678 -0.093949003313036572 0 0.40405590977968642 -0.076157024841875587 0 0.39505479978193869 -0.090847474130506478 0 0.40405590977968642 -0.076157024841875587 0 0.38716046361447393 -0.080784330836314228 0 0.39505479978193869 -0.090847474130506478 0 0.41456056443478678 -0.093949003313036572 0 0.39505479978193869 -0.090847474130506478 0 0.40072532477094258 -0.1034107738306216 0 0.40072532477094258 -0.1034107738306216 0 0.3854946631281303 -0.105984085874843 0 0.39550833704813992 -0.11514456456236789 0 0.39505479978193869 -0.090847474130506478 0 0.40072532477094258 -0.1034107738306216 0 0.3854946631281303 -0.105984085874843 0 0.38249325919362381 -0.091593965672730995 0 0.39505479978193869 -0.090847474130506478 0 0.3854946631281303 -0.105984085874843 0 0.38249325919362381 -0.091593965672730995 0 0.3854946631281303 -0.105984085874843 0 0.37140080656200469 -0.097581835557020574 0 0.37510744705977711 -0.10933737253140691 0 0.3854946631281303 -0.105984085874843 0 0.37140080656200469 -0.097581835557020574 0 0.3854946631281303 -0.105984085874843 0 0.3868432880593981 -0.1182168326532521 0 0.39550833704813992 -0.11514456456236789 0 0.3854946631281303 -0.105984085874843 0 0.37807172595975502 -0.11875126214602889 0 0.3868432880593981 -0.1182168326532521 0 0.37510744705977711 -0.10933737253140691 0 0.3854946631281303 -0.105984085874843 0 0.37807172595975502 -0.11875126214602889 0 0.37807172595975502 -0.11875126214602889 0 0.37264530279310082 -0.12848939238147181 0 0.38264701268865892 -0.12740858735565361 0 0.37807172595975502 -0.11875126214602889 0 0.3868432880593981 -0.1182168326532521 0 0.38264701268865892 -0.12740858735565361 0 0.3868432880593981 -0.1182168326532521 0 0.39249470147230658 -0.1237956633273669 0 0.38264701268865892 -0.12740858735565361 0 0.39249470147230658 -0.1237956633273669 0 0.39550833704813992 -0.11514456456236789 0 0.40333775820725248 -0.1217211762340845 0 0.3868432880593981 -0.1182168326532521 0 0.39249470147230658 -0.1237956633273669 0 0.39550833704813992 -0.11514456456236789 0 0.41029395300418309 -0.1112676529078211 0 0.39550833704813992 -0.11514456456236789 0 0.40333775820725248 -0.1217211762340845 0 0.41029395300418309 -0.1112676529078211 0 0.40072532477094258 -0.1034107738306216 0 0.39550833704813992 -0.11514456456236789 0 0.41139858080114311 -0.018989648808204491 0 0.41492503893139931 -0.038076464061062389 0 0.39956718326415219 -0.035003263314197577 0 0.41139858080114311 -0.018989648808204491 0 0.42424235825940743 -0.023689822013302029 0 0.41492503893139931 -0.038076464061062389 0 0.41139858080114311 -0.018989648808204491 0 0.42366110924148881 -0.0080828886117897125 0 0.42424235825940743 -0.023689822013302029 0 0.41139858080114311 -0.018989648808204491 0 0.41285625674006599 -0.0068847307990957899 0 0.40053470650595402 -0.009992695869211525 0 0.40238464504493571 0.001287509308259075 0 0.41602210345152968 0.00055301565283292326 0 0.41285625674006599 -0.0068847307990957899 0 0.41602210345152968 0.00055301565283292326 0 0.41285625674006599 -0.0068847307990957899 0 0.42366110924148881 -0.0080828886117897125 0 0.41139858080114311 -0.018989648808204491 0 0.41285625674006599 -0.0068847307990957899 0 0.42366110924148881 -0.0080828886117897125 0 0.42366110924148881 -0.0080828886117897125 0 0.43650596659356222 -0.01202789177166475 0 0.42424235825940743 -0.023689822013302029 0 0.41602210345152968 0.00055301565283292326 0 0.43306083578292748 0.0025205346097466538 0 0.42366110924148881 -0.0080828886117897125 0 0.43306083578292748 0.0025205346097466538 0 0.42366110924148881 -0.0080828886117897125 0 0.43650596659356222 -0.01202789177166475 0 0.43816979888384538 -0.038389817865375972 0 0.43650596659356222 -0.01202789177166475 0 0.42424235825940743 -0.023689822013302029 0 0.43816979888384538 -0.038389817865375972 0 0.43650596659356222 -0.01202789177166475 0 0.43816979888384538 -0.038389817865375972 0 0.42424235825940743 -0.023689822013302029 0 0.41492503893139931 -0.038076464061062389 0 0.43816979888384538 -0.038389817865375972 0 0.41687809721215852 -0.058252055987956637 0 0.41492503893139931 -0.038076464061062389 0 0.43816979888384538 -0.038389817865375972 0 0.43983363117412871 -0.064751743959087185 0 0.41687809721215852 -0.058252055987956637 0 0.41687809721215852 -0.058252055987956637 0 0.41492503893139931 -0.038076464061062389 0 0.39992333325881629 -0.049257040633457157 0 0.41492503893139931 -0.038076464061062389 0 0.39956718326415219 -0.035003263314197577 0 0.39992333325881629 -0.049257040633457157 0 0.39956718326415219 -0.035003263314197577 0 0.39992333325881629 -0.049257040633457157 0 0.38818478040825249 -0.042446684090335189 0 0.39956718326415219 -0.035003263314197577 0 0.38818478040825249 -0.042446684090335189 0 0.38660702378518952 -0.02684838915973186 0 0.3990838221870881 -0.062681547344835289 0 0.41687809721215852 -0.058252055987956637 0 0.39992333325881629 -0.049257040633457157 0 0.3990838221870881 -0.062681547344835289 0 0.39992333325881629 -0.049257040633457157 0 0.38185671821547068 -0.059539617530821043 0 0.39992333325881629 -0.049257040633457157 0 0.38185671821547068 -0.059539617530821043 0 0.38818478040825249 -0.042446684090335189 0 0.37682232149477651 -0.047660390792675852 0 0.38185671821547068 -0.059539617530821043 0 0.38818478040825249 -0.042446684090335189 0 0.37682232149477651 -0.047660390792675852 0 0.38818478040825249 -0.042446684090335189 0 0.37355505143116918 -0.032001718578081997 0 0.38818478040825249 -0.042446684090335189 0 0.38660702378518952 -0.02684838915973186 0 0.37355505143116918 -0.032001718578081997 0 0.38660702378518952 -0.02684838915973186 0 0.37268846663845001 -0.015806780506451901 0 0.37355505143116918 -0.032001718578081997 0 0.38660702378518952 -0.02684838915973186 0 0.38809680984712808 -0.01334525824752782 0 0.37268846663845001 -0.015806780506451901 0 0.41139858080114311 -0.018989648808204491 0 0.39956718326415219 -0.035003263314197577 0 0.39763304270178179 -0.021207540887041292 0 0.39956718326415219 -0.035003263314197577 0 0.38660702378518952 -0.02684838915973186 0 0.39763304270178179 -0.021207540887041292 0 0.38660702378518952 -0.02684838915973186 0 0.39763304270178179 -0.021207540887041292 0 0.38809680984712808 -0.01334525824752782 0 0.41139858080114311 -0.018989648808204491 0 0.39763304270178179 -0.021207540887041292 0 0.40053470650595402 -0.009992695869211525 0 0.40238464504493571 0.001287509308259075 0 0.41285625674006599 -0.0068847307990957899 0 0.40053470650595402 -0.009992695869211525 0 0.39763304270178179 -0.021207540887041292 0 0.40053470650595402 -0.009992695869211525 0 0.38809680984712808 -0.01334525824752782 0 0.40053470650595402 -0.009992695869211525 0 0.39083890390067 -0.00081650578165883979 0 0.38809680984712808 -0.01334525824752782 0 0.40238464504493571 0.001287509308259075 0 0.40053470650595402 -0.009992695869211525 0 0.39083890390067 -0.00081650578165883979 0 0.39083890390067 -0.00081650578165883979 0 0.38809680984712808 -0.01334525824752782 0 0.3793334440860559 -0.0047231161978346864 0 0.38809680984712808 -0.01334525824752782 0 0.3793334440860559 -0.0047231161978346864 0 0.37268846663845001 -0.015806780506451901 0 0.367426120563213 0.0011923754251482459 0 0.37268846663845001 -0.015806780506451901 0 0.35749907648853491 -0.012308244723177739 0 0.367426120563213 0.0011923754251482459 0 0.3793334440860559 -0.0047231161978346864 0 0.37268846663845001 -0.015806780506451901 0 0.37268846663845001 -0.015806780506451901 0 0.36273897761436391 -0.02011813178193133 0 0.37355505143116918 -0.032001718578081997 0 0.36273897761436391 -0.02011813178193133 0 0.359973336769633 -0.028727431620334521 0 0.35578378749202733 -0.021235914601047311 0 0.37268846663845001 -0.015806780506451901 0 0.36273897761436391 -0.02011813178193133 0 0.35749907648853491 -0.012308244723177739 0 0.36273897761436391 -0.02011813178193133 0 0.359973336769633 -0.028727431620334521 0 0.37355505143116918 -0.032001718578081997 0 0.34383172177265098 -0.020165091196794761 0 0.33964558233498793 -0.036603267241073253 0 0.34977435484800612 -0.031349831820363848 0 0.359973336769633 -0.028727431620334521 0 0.3513100667200032 -0.024738210814141209 0 0.34977435484800612 -0.031349831820363848 0 0.359973336769633 -0.028727431620334521 0 0.35578378749202733 -0.021235914601047311 0 0.3513100667200032 -0.024738210814141209 0 0.35578378749202733 -0.021235914601047311 0 0.34955274976633388 -0.020538383292240388 0 0.35749907648853491 -0.012308244723177739 0 0.36273897761436391 -0.02011813178193133 0 0.35578378749202733 -0.021235914601047311 0 0.35749907648853491 -0.012308244723177739 0 0.35578378749202733 -0.021235914601047311 0 0.34955274976633388 -0.020538383292240388 0 0.3513100667200032 -0.024738210814141209 0 0.34383172177265098 -0.020165091196794761 0 0.34955274976633388 -0.020538383292240388 0 0.35749907648853491 -0.012308244723177739 0 0.34383172177265098 -0.020165091196794761 0 0.34955274976633388 -0.020538383292240388 0 0.3513100667200032 -0.024738210814141209 0 0.34383172177265098 -0.020165091196794761 0 0.3513100667200032 -0.024738210814141209 0 0.34977435484800612 -0.031349831820363848 0 0.367426120563213 0.0011923754251482459 0 0.35107653077574552 0.0082839004274214839 0 0.35749907648853491 -0.012308244723177739 0 0.35107653077574552 0.0082839004274214839 0 0.34383172177265098 -0.020165091196794761 0 0.35107653077574552 0.0082839004274214839 0 0.34383172177265098 -0.020165091196794761 0 0.35749907648853491 -0.012308244723177739 0 0.35107653077574552 0.0082839004274214839 0 0.34383172177265098 -0.020165091196794761 0 0.32476018564880282 -0.0059557655257515144 0 0.34383172177265098 -0.020165091196794761 0 0.32476018564880282 -0.0059557655257515144 0 0.34383172177265098 -0.020165091196794761 0 0.32985741002585961 -0.025593597023564771 0 0.33964558233498793 -0.036603267241073253 0 0.34383172177265098 -0.020165091196794761 0 0.32985741002585961 -0.025593597023564771 0 0.32476018564880282 -0.0059557655257515144 0 0.34383172177265098 -0.020165091196794761 0 0.33964558233498793 -0.036603267241073253 0 0.32985741002585961 -0.025593597023564771 0 0.31541028721149411 -0.027280764618136812 0 0.32476018564880282 -0.0059557655257515144 0 0.32985741002585961 -0.025593597023564771 0 0.31541028721149411 -0.027280764618136812 0 0.32312305455415441 -0.0406624791470621 0 0.30568864952496 0.0082535601452990992 0 0.32476018564880282 -0.0059557655257515144 0 0.3090991736871041 -0.01106957266485648 0 0.31541028721149411 -0.027280764618136812 0 0.32476018564880282 -0.0059557655257515144 0 0.3090991736871041 -0.01106957266485648 0 0.32312305455415441 -0.0406624791470621 0 0.33545944289732132 -0.053041443285350882 0 0.31213989077845722 -0.06028194207248011 0 0.33545944289732132 -0.053041443285350882 0 0.31213989077845722 -0.06028194207248011 0 0.32312305455415441 -0.0406624791470621 0 0.30604861535726807 -0.041363850971932611 0 0.31213989077845722 -0.06028194207248011 0 0.31541028721149411 -0.027280764618136812 0 0.32312305455415441 -0.0406624791470621 0 0.30604861535726807 -0.041363850971932611 0 0.32312305455415441 -0.0406624791470621 0 0.33964558233498793 -0.036603267241073253 0 0.33545944289732132 -0.053041443285350882 0 0.33964558233498793 -0.036603267241073253 0 0.33545944289732132 -0.053041443285350882 0 0.35104722325007892 -0.048201585977504929 0 0.33964558233498793 -0.036603267241073253 0 0.33545944289732132 -0.053041443285350882 0 0.32985741002585961 -0.025593597023564771 0 0.32312305455415441 -0.0406624791470621 0 0.33964558233498793 -0.036603267241073253 0 0.33545944289732132 -0.053041443285350882 0 0.35104722325007892 -0.048201585977504929 0 0.33545944289732132 -0.053041443285350882 0 0.35104722325007892 -0.048201585977504929 0 0.34835321149925952 -0.068411922064241015 0 0.35104722325007892 -0.048201585977504929 0 0.36537723908602332 -0.056397365978348872 0 0.34835321149925952 -0.068411922064241015 0 0.33964558233498793 -0.036603267241073253 0 0.35104722325007892 -0.048201585977504929 0 0.34977435484800612 -0.031349831820363848 0 0.35104722325007892 -0.048201585977504929 0 0.34977435484800612 -0.031349831820363848 0 0.35718789128419798 -0.037828257852068309 0 0.35104722325007892 -0.048201585977504929 0 0.35718789128419798 -0.037828257852068309 0 0.36663500360283652 -0.043361728669658997 0 0.35104722325007892 -0.048201585977504929 0 0.36663500360283652 -0.043361728669658997 0 0.359973336769633 -0.028727431620334521 0 0.34977435484800612 -0.031349831820363848 0 0.35718789128419798 -0.037828257852068309 0 0.37682232149477651 -0.047660390792675852 0 0.36663500360283652 -0.043361728669658997 0 0.37355505143116918 -0.032001718578081997 0 0.359973336769633 -0.028727431620334521 0 0.36663500360283652 -0.043361728669658997 0 0.37355505143116918 -0.032001718578081997 0 0.359973336769633 -0.028727431620334521 0 0.35718789128419798 -0.037828257852068309 0 0.36663500360283652 -0.043361728669658997 0 0.38185671821547068 -0.059539617530821043 0 0.36537723908602332 -0.056397365978348872 0 0.36657386302136341 -0.070686606899855023 0 0.37682232149477651 -0.047660390792675852 0 0.38185671821547068 -0.059539617530821043 0 0.36537723908602332 -0.056397365978348872 0 0.35104722325007892 -0.048201585977504929 0 0.36663500360283652 -0.043361728669658997 0 0.36537723908602332 -0.056397365978348872 0 0.37682232149477651 -0.047660390792675852 0 0.36663500360283652 -0.043361728669658997 0 0.36537723908602332 -0.056397365978348872 0 0.36537723908602332 -0.056397365978348872 0 0.36657386302136341 -0.070686606899855023 0 0.34835321149925952 -0.068411922064241015 0 0.37999397765270099 -0.072750812106699439 0 0.36657386302136341 -0.070686606899855023 0 0.3737532488745004 -0.083421408118103613 0 0.3737532488745004 -0.083421408118103613 0 0.35554720617335112 -0.086970505231836789 0 0.37140080656200469 -0.097581835557020574 0 0.36657386302136341 -0.070686606899855023 0 0.3737532488745004 -0.083421408118103613 0 0.35554720617335112 -0.086970505231836789 0 0.35554720617335112 -0.086970505231836789 0 0.34835321149925952 -0.068411922064241015 0 0.33897359687706391 -0.090134937825729983 0 0.36657386302136341 -0.070686606899855023 0 0.35554720617335112 -0.086970505231836789 0 0.34835321149925952 -0.068411922064241015 0 0.36979436099952268 -0.1192923436573685 0 0.36208889453912868 -0.1110338188079027 0 0.36162311814362658 -0.12598057538412091 0 0.37807172595975502 -0.11875126214602889 0 0.36979436099952268 -0.1192923436573685 0 0.37264530279310082 -0.12848939238147181 0 0.36979436099952268 -0.1192923436573685 0 0.37264530279310082 -0.12848939238147181 0 0.36162311814362658 -0.12598057538412091 0 0.37510744705977711 -0.10933737253140691 0 0.37807172595975502 -0.11875126214602889 0 0.36979436099952268 -0.1192923436573685 0 0.37510744705977711 -0.10933737253140691 0 0.36979436099952268 -0.1192923436573685 0 0.36208889453912868 -0.1110338188079027 0 0.35554720617335112 -0.086970505231836789 0 0.37140080656200469 -0.097581835557020574 0 0.35920675474834179 -0.10026632148279579 0 0.36208889453912868 -0.1110338188079027 0 0.37140080656200469 -0.097581835557020574 0 0.35920675474834179 -0.10026632148279579 0 0.37510744705977711 -0.10933737253140691 0 0.36208889453912868 -0.1110338188079027 0 0.37140080656200469 -0.097581835557020574 0 0.35554720617335112 -0.086970505231836789 0 0.35920675474834179 -0.10026632148279579 0 0.34734450687431062 -0.1046893164028975 0 0.35554720617335112 -0.086970505231836789 0 0.34734450687431062 -0.1046893164028975 0 0.33897359687706391 -0.090134937825729983 0 0.36208889453912868 -0.1110338188079027 0 0.35920675474834179 -0.10026632148279579 0 0.34734450687431062 -0.1046893164028975 0 0.34734450687431062 -0.1046893164028975 0 0.35033710761940412 -0.1182944096234021 0 0.33451146657312381 -0.11753635235919251 0 0.36208889453912868 -0.1110338188079027 0 0.34734450687431062 -0.1046893164028975 0 0.35033710761940412 -0.1182944096234021 0 0.36208889453912868 -0.1110338188079027 0 0.35033710761940412 -0.1182944096234021 0 0.36162311814362658 -0.12598057538412091 0 0.35033710761940412 -0.1182944096234021 0 0.33451146657312381 -0.11753635235919251 0 0.34593654893522813 -0.13151216816619529 0 0.34734450687431062 -0.1046893164028975 0 0.33451146657312381 -0.11753635235919251 0 0.3234854644436771 -0.1000609868773128 0 0.34734450687431062 -0.1046893164028975 0 0.3234854644436771 -0.1000609868773128 0 0.33897359687706391 -0.090134937825729983 0 0.3234854644436771 -0.1000609868773128 0 0.31749847521685498 -0.1235707586732938 0 0.30185440508622918 -0.1119289979285859 0 0.33451146657312381 -0.11753635235919251 0 0.3234854644436771 -0.1000609868773128 0 0.31749847521685498 -0.1235707586732938 0 0.3234854644436771 -0.1000609868773128 0 0.31749847521685498 -0.1235707586732938 0 0.33545944289732132 -0.053041443285350882 0 0.34835321149925952 -0.068411922064241015 0 0.32947245367049932 -0.076551215081331836 0 0.33545944289732132 -0.053041443285350882 0 0.32947245367049932 -0.076551215081331836 0 0.3234854644436771 -0.1000609868773128 0 0.32947245367049932 -0.076551215081331836 0 0.33897359687706391 -0.090134937825729983 0 0.34835321149925952 -0.068411922064241015 0 0.32947245367049932 -0.076551215081331836 0 0.33897359687706391 -0.090134937825729983 0 0.3234854644436771 -0.1000609868773128 0 0.32947245367049932 -0.076551215081331836 0 0.3234854644436771 -0.1000609868773128 0 0.32947245367049932 -0.076551215081331836 0 0.30784225922497138 -0.075646730879748811 0 0.33545944289732132 -0.053041443285350882 0 0.32947245367049932 -0.076551215081331836 0 0.31213989077845722 -0.06028194207248011 0 0.32947245367049932 -0.076551215081331836 0 0.30784225922497138 -0.075646730879748811 0 0.31213989077845722 -0.06028194207248011 0 0.2933921074980107 -0.068883633428928087 0 0.28882033865959311 -0.067522440859609373 0 0.31213989077845722 -0.06028194207248011 0 0.30784225922497138 -0.075646730879748811 0 0.2933921074980107 -0.068883633428928087 0 0.31213989077845722 -0.06028194207248011 0 0.28882033865959311 -0.067522440859609373 0 0.31213989077845722 -0.06028194207248011 0 0.30784225922497138 -0.075646730879748811 0 0.2953511337842214 -0.08578275846488928 0 0.2933921074980107 -0.068883633428928087 0 0.30784225922497138 -0.075646730879748811 0 0.3043588146987104 -0.093443941018684806 0 0.2953511337842214 -0.08578275846488928 0 0.3234854644436771 -0.1000609868773128 0 0.30784225922497138 -0.075646730879748811 0 0.3043588146987104 -0.093443941018684806 0 0.3043588146987104 -0.093443941018684806 0 0.2953511337842214 -0.08578275846488928 0 0.29245780451496289 -0.099638053558886455 0 0.2953511337842214 -0.08578275846488928 0 0.2933921074980107 -0.068883633428928087 0 0.27877762094174069 -0.090576235752357251 0 0.2953511337842214 -0.08578275846488928 0 0.29245780451496289 -0.099638053558886455 0 0.27877762094174069 -0.090576235752357251 0 0.2933921074980107 -0.068883633428928087 0 0.27877762094174069 -0.090576235752357251 0 0.28882033865959311 -0.067522440859609373 0 0.27291009263881089 -0.069645011671972901 0 0.28457188567669561 -0.057917682558440708 0 0.2933921074980107 -0.068883633428928087 0 0.28882033865959311 -0.067522440859609373 0 0.27877762094174069 -0.090576235752357251 0 0.31749847521685498 -0.1235707586732938 0 0.30185440508622918 -0.1119289979285859 0 0.30328028366004728 -0.13030275286617979 0 0.30185440508622918 -0.1119289979285859 0 0.28909917237325627 -0.12725859344629459 0 0.30328028366004728 -0.13030275286617979 0 0.3234854644436771 -0.1000609868773128 0 0.3043588146987104 -0.093443941018684806 0 0.30185440508622918 -0.1119289979285859 0 0.3043588146987104 -0.093443941018684806 0 0.30185440508622918 -0.1119289979285859 0 0.29245780451496289 -0.099638053558886455 0 0.29245780451496289 -0.099638053558886455 0 0.2825830670514744 -0.1101346108093819 0 0.27877762094174069 -0.090576235752357251 0 0.30185440508622918 -0.1119289979285859 0 0.29245780451496289 -0.099638053558886455 0 0.2825830670514744 -0.1101346108093819 0 0.30185440508622918 -0.1119289979285859 0 0.2825830670514744 -0.1101346108093819 0 0.28909917237325627 -0.12725859344629459 0 0.2825830670514744 -0.1101346108093819 0 0.27150012169239712 -0.12993679895225069 0 0.28909917237325627 -0.12725859344629459 0 0.2825830670514744 -0.1101346108093819 0 0.26416313438547068 -0.1122688380757866 0 0.27150012169239712 -0.12993679895225069 0 0.26416313438547068 -0.1122688380757866 0 0.27877762094174069 -0.090576235752357251 0 0.2825830670514744 -0.1101346108093819 0 0.26416313438547068 -0.1122688380757866 0 0.27877762094174069 -0.090576235752357251 0 0.25294995541228588 -0.08743910421378126 0 0.24776082221192491 -0.1129473279923605 0 0.26416313438547068 -0.1122688380757866 0 0.27877762094174069 -0.090576235752357251 0 0.25294995541228588 -0.08743910421378126 0 0.26416313438547068 -0.1122688380757866 0 0.25294995541228588 -0.08743910421378126 0 0.24776082221192491 -0.1129473279923605 0 0.26416313438547068 -0.1122688380757866 0 0.24776082221192491 -0.1129473279923605 0 0.24954864782920069 -0.1339614403992159 0 0.26416313438547068 -0.1122688380757866 0 0.24954864782920069 -0.1339614403992159 0 0.28882033865959311 -0.067522440859609373 0 0.27291009263881089 -0.069645011671972901 0 0.27877762094174069 -0.090576235752357251 0 0.27291009263881089 -0.069645011671972901 0 0.27877762094174069 -0.090576235752357251 0 0.25294995541228588 -0.08743910421378126 0 0.27291009263881089 -0.069645011671972901 0 0.25294995541228588 -0.08743910421378126 0 0.25813908861264689 -0.061930880435202097 0 0.25294995541228588 -0.08743910421378126 0 0.25813908861264689 -0.061930880435202097 0 0.2438609853148884 -0.067640948374130455 0 0.25294995541228588 -0.08743910421378126 0 0.25813908861264689 -0.061930880435202097 0 0.25813908861264689 -0.061930880435202097 0 0.26332822181300791 -0.036422656656622927 0 0.24541873300142519 -0.054290412664607282 0 0.25813908861264689 -0.061930880435202097 0 0.27537910869648502 -0.051384310461597991 0 0.26332822181300791 -0.036422656656622927 0 0.25813908861264689 -0.061930880435202097 0 0.26332822181300791 -0.036422656656622927 0 0.27291009263881089 -0.069645011671972901 0 0.27537910869648502 -0.051384310461597991 0 0.28457188567669561 -0.057917682558440708 0 0.27291009263881089 -0.069645011671972901 0 0.25813908861264689 -0.061930880435202097 0 0.27537910869648502 -0.051384310461597991 0 0.27537910869648502 -0.051384310461597991 0 0.2797334042931453 -0.039098566092708079 0 0.26332822181300791 -0.036422656656622927 0 0.2797334042931453 -0.039098566092708079 0 0.26332822181300791 -0.036422656656622927 0 0.28066454571138322 -0.02529148913814739 0 0.27537910869648502 -0.051384310461597991 0 0.2797334042931453 -0.039098566092708079 0 0.28515759422153131 -0.047483149438660978 0 0.26332822181300791 -0.036422656656622927 0 0.24541873300142519 -0.054290412664607282 0 0.24547466515520511 -0.039451913204634308 0 0.26332822181300791 -0.036422656656622927 0 0.25918881457050802 -0.01881364686430571 0 0.24547466515520511 -0.039451913204634308 0 0.25918881457050802 -0.01881364686430571 0 0.24547466515520511 -0.039451913204634308 0 0.26332822181300791 -0.036422656656622927 0 0.25918881457050802 -0.01881364686430571 0 0.26851735501336887 -0.01091443287804377 0 0.25918881457050802 -0.01881364686430571 0 0.25584056744277112 -0.0017130667366374939 0 0.2485653326959707 -0.01183239388210067 0 0.27290296398581099 0.001824619476022873 0 0.25918881457050802 -0.01881364686430571 0 0.25584056744277112 -0.0017130667366374939 0 0.27290296398581099 0.001824619476022873 0 0.25918881457050802 -0.01881364686430571 0 0.26851735501336887 -0.01091443287804377 0 0.28083610981990148 -0.0084345684674861972 0 0.28066454571138322 -0.02529148913814739 0 0.28943901284397561 0.0043087813462744521 0 0.27290296398581099 0.001824619476022873 0 0.28083610981990148 -0.0084345684674861972 0 0.27290296398581099 0.001824619476022873 0 0.25918881457050802 -0.01881364686430571 0 0.26851735501336887 -0.01091443287804377 0 0.27290296398581099 0.001824619476022873 0 0.26851735501336887 -0.01091443287804377 0 0.28083610981990148 -0.0084345684674861972 0 0.26332822181300791 -0.036422656656622927 0 0.26851735501336887 -0.01091443287804377 0 0.28066454571138322 -0.02529148913814739 0 0.26332822181300791 -0.036422656656622927 0 0.26851735501336887 -0.01091443287804377 0 0.28066454571138322 -0.02529148913814739 0 0.29970299189393129 -0.025790718493418938 0 0.29171869056677457 -0.038820417076505312 0 0.28066454571138322 -0.02529148913814739 0 0.29265667154496888 -0.01210032114353716 0 0.29970299189393129 -0.025790718493418938 0 0.28083610981990148 -0.0084345684674861972 0 0.28066454571138322 -0.02529148913814739 0 0.29265667154496888 -0.01210032114353716 0 0.28943901284397561 0.0043087813462744521 0 0.28083610981990148 -0.0084345684674861972 0 0.29265667154496888 -0.01210032114353716 0 0.30568864952496 0.0082535601452990992 0 0.29265667154496888 -0.01210032114353716 0 0.3090991736871041 -0.01106957266485648 0 0.31541028721149411 -0.027280764618136812 0 0.3090991736871041 -0.01106957266485648 0 0.29970299189393129 -0.025790718493418938 0 0.29265667154496888 -0.01210032114353716 0 0.3090991736871041 -0.01106957266485648 0 0.29970299189393129 -0.025790718493418938 0 0.31541028721149411 -0.027280764618136812 0 0.29970299189393129 -0.025790718493418938 0 0.30604861535726807 -0.041363850971932611 0 0.29970299189393129 -0.025790718493418938 0 0.30604861535726807 -0.041363850971932611 0 0.29171869056677457 -0.038820417076505312 0 0.30604861535726807 -0.041363850971932611 0 0.29470260026527412 -0.051966159684605308 0 0.29171869056677457 -0.038820417076505312 0 0.31213989077845722 -0.06028194207248011 0 0.29470260026527412 -0.051966159684605308 0 0.29505867884500497 -0.059422056293783873 0 0.30604861535726807 -0.041363850971932611 0 0.31213989077845722 -0.06028194207248011 0 0.29470260026527412 -0.051966159684605308 0 0.28882033865959311 -0.067522440859609373 0 0.31213989077845722 -0.06028194207248011 0 0.29505867884500497 -0.059422056293783873 0 0.29470260026527412 -0.051966159684605308 0 0.29505867884500497 -0.059422056293783873 0 0.28457188567669561 -0.057917682558440708 0 0.28882033865959311 -0.067522440859609373 0 0.29505867884500497 -0.059422056293783873 0 0.28457188567669561 -0.057917682558440708 0 0.27537910869648502 -0.051384310461597991 0 0.28457188567669561 -0.057917682558440708 0 0.28515759422153131 -0.047483149438660978 0 0.29470260026527412 -0.051966159684605308 0 0.28457188567669561 -0.057917682558440708 0 0.28515759422153131 -0.047483149438660978 0 0.2797334042931453 -0.039098566092708079 0 0.28515759422153131 -0.047483149438660978 0 0.29171869056677457 -0.038820417076505312 0 0.2797334042931453 -0.039098566092708079 0 0.28066454571138322 -0.02529148913814739 0 0.29171869056677457 -0.038820417076505312 0 0.29470260026527412 -0.051966159684605308 0 0.28515759422153131 -0.047483149438660978 0 0.29171869056677457 -0.038820417076505312 0 0.2933615441484419 -0.20501944968024219 0 0.28997504230266308 -0.21601484529300591 0 0.28561890123103562 -0.20500190966974319 0 0.2933615441484419 -0.20501944968024219 0 0.28997504230266308 -0.21601484529300591 0 0.30393756951962481 -0.2095487770895535 0 0.28997504230266308 -0.21601484529300591 0 0.28561890123103562 -0.20500190966974319 0 0.27726345228313692 -0.2107927573852082 0 0.28561890123103562 -0.20500190966974319 0 0.27726345228313692 -0.2107927573852082 0 0.28097148575700881 -0.19519014054323119 0 0.28561890123103562 -0.20500190966974319 0 0.28899717392091001 -0.1973741928055649 0 0.28097148575700881 -0.19519014054323119 0 0.29028773767243699 -0.18902104036176251 0 0.28097148575700881 -0.19519014054323119 0 0.28421033684072139 -0.17843554387239399 0 0.28899717392091001 -0.1973741928055649 0 0.29028773767243699 -0.18902104036176251 0 0.28097148575700881 -0.19519014054323119 0 0.28899717392091001 -0.1973741928055649 0 0.29028773767243699 -0.18902104036176251 0 0.29693608417726108 -0.19408373831723461 0 0.29028773767243699 -0.18902104036176251 0 0.29693608417726108 -0.19408373831723461 0 0.30222918217256928 -0.18353037800062999 0 0.2933615441484419 -0.20501944968024219 0 0.28899717392091001 -0.1973741928055649 0 0.29693608417726108 -0.19408373831723461 0 0.2933615441484419 -0.20501944968024219 0 0.28561890123103562 -0.20500190966974319 0 0.28899717392091001 -0.1973741928055649 0 0.29693608417726108 -0.19408373831723461 0 0.30393756951962481 -0.2095487770895535 0 0.30142219803941389 -0.19936139177822421 0 0.30776328593480978 -0.19208120093634259 0 0.32011119947607453 -0.20205874374740429 0 0.2933615441484419 -0.20501944968024219 0 0.29693608417726108 -0.19408373831723461 0 0.30393756951962481 -0.2095487770895535 0 0.30142219803941389 -0.19936139177822421 0 0.32011119947607453 -0.20205874374740429 0 0.30142219803941389 -0.19936139177822421 0 0.29693608417726108 -0.19408373831723461 0 0.30393756951962481 -0.2095487770895535 0 0.30142219803941389 -0.19936139177822421 0 0.29693608417726108 -0.19408373831723461 0 0.30776328593480978 -0.19208120093634259 0 0.29693608417726108 -0.19408373831723461 0 0.30776328593480978 -0.19208120093634259 0 0.30222918217256928 -0.18353037800062999 0 0.30776328593480978 -0.19208120093634259 0 0.31111744329606589 -0.18461079220340801 0 0.31584868850961528 -0.18981200885019489 0 0.30393756951962481 -0.2095487770895535 0 0.32011119947607453 -0.20205874374740429 0 0.30142219803941389 -0.19936139177822421 0 0.30393756951962481 -0.2095487770895535 0 0.32011119947607453 -0.20205874374740429 0 0.28997504230266308 -0.21601484529300591 0 0.30393756951962481 -0.2095487770895535 0 0.30051933137523951 -0.22248985120321521 0 0.28997504230266308 -0.21601484529300591 0 0.30393756951962481 -0.2095487770895535 0 0.30393756951962481 -0.2095487770895535 0 0.31277872386237149 -0.22907731825143129 0 0.30393756951962481 -0.2095487770895535 0 0.30051933137523951 -0.22248985120321521 0 0.31277872386237149 -0.22907731825143129 0 0.30348794369316962 -0.23247670453314681 0 0.30051933137523951 -0.22248985120321521 0 0.31277872386237149 -0.22907731825143129 0 0.30348794369316962 -0.23247670453314681 0 0.30051933137523951 -0.22248985120321521 0 0.29263905727273481 -0.2297108020210496 0 0.30801466226233248 -0.24862884665689089 0 0.29263905727273481 -0.2297108020210496 0 0.30801466226233248 -0.24862884665689089 0 0.29129395956281962 -0.23808761955519239 0 0.30347191818050478 -0.25849345267182122 0 0.30348794369316962 -0.23247670453314681 0 0.30801466226233248 -0.24862884665689089 0 0.31277872386237149 -0.22907731825143129 0 0.30801466226233248 -0.24862884665689089 0 0.29129395956281962 -0.23808761955519239 0 0.29263905727273481 -0.2297108020210496 0 0.30348794369316962 -0.23247670453314681 0 0.30801466226233248 -0.24862884665689089 0 0.29263905727273481 -0.2297108020210496 0 0.29129395956281962 -0.23808761955519239 0 0.27958677495974732 -0.2447848115143455 0 0.29300723869941647 -0.26352735189550441 0 0.29129395956281962 -0.23808761955519239 0 0.28273068314605249 -0.2324552487051936 0 0.27958677495974732 -0.2447848115143455 0 0.29263905727273481 -0.2297108020210496 0 0.27726345228313692 -0.2107927573852082 0 0.28997504230266308 -0.21601484529300591 0 0.29263905727273481 -0.2297108020210496 0 0.27726345228313692 -0.2107927573852082 0 0.29263905727273481 -0.2297108020210496 0 0.27874857125031122 -0.2245346620075882 0 0.27726345228313692 -0.2107927573852082 0 0.28997504230266308 -0.21601484529300591 0 0.30051933137523951 -0.22248985120321521 0 0.29263905727273481 -0.2297108020210496 0 0.29263905727273481 -0.2297108020210496 0 0.28273068314605249 -0.2324552487051936 0 0.27874857125031122 -0.2245346620075882 0 0.29129395956281962 -0.23808761955519239 0 0.29263905727273481 -0.2297108020210496 0 0.28273068314605249 -0.2324552487051936 0 0.28273068314605249 -0.2324552487051936 0 0.27874857125031122 -0.2245346620075882 0 0.27208709918470142 -0.23070709782578311 0 0.27208709918470142 -0.23070709782578311 0 0.26902256436493027 -0.2190074041007066 0 0.26065811401312761 -0.22649114314979449 0 0.27874857125031122 -0.2245346620075882 0 0.27208709918470142 -0.23070709782578311 0 0.26902256436493027 -0.2190074041007066 0 0.27208709918470142 -0.23070709782578311 0 0.27958677495974732 -0.2447848115143455 0 0.26265931117148639 -0.24279301432387981 0 0.27958677495974732 -0.2447848115143455 0 0.26265931117148639 -0.24279301432387981 0 0.27574235799400748 -0.2611385367805199 0 0.28273068314605249 -0.2324552487051936 0 0.27208709918470142 -0.23070709782578311 0 0.27958677495974732 -0.2447848115143455 0 0.26265931117148639 -0.24279301432387981 0 0.25130844721976531 -0.23249202155761681 0 0.2425869977773347 -0.2530110808549289 0 0.27208709918470142 -0.23070709782578311 0 0.26265931117148639 -0.24279301432387981 0 0.26065811401312761 -0.22649114314979449 0 0.26265931117148639 -0.24279301432387981 0 0.26065811401312761 -0.22649114314979449 0 0.25130844721976531 -0.23249202155761681 0 0.26902256436493027 -0.2190074041007066 0 0.26065811401312761 -0.22649114314979449 0 0.25895833760014542 -0.2130145617397344 0 0.26065811401312761 -0.22649114314979449 0 0.25130844721976531 -0.23249202155761681 0 0.24991292453773681 -0.2209327593510462 0 0.26065811401312761 -0.22649114314979449 0 0.25895833760014542 -0.2130145617397344 0 0.24991292453773681 -0.2209327593510462 0 0.25895833760014542 -0.2130145617397344 0 0.26678305038543781 -0.208672358993754 0 0.26188784729353881 -0.1918747127493669 0 0.25071913866524609 -0.2088259921999813 0 0.25895833760014542 -0.2130145617397344 0 0.26188784729353881 -0.1918747127493669 0 0.25071913866524609 -0.2088259921999813 0 0.25895833760014542 -0.2130145617397344 0 0.24991292453773681 -0.2209327593510462 0 0.26902256436493027 -0.2190074041007066 0 0.25895833760014542 -0.2130145617397344 0 0.26678305038543781 -0.208672358993754 0 0.26902256436493027 -0.2190074041007066 0 0.26678305038543781 -0.208672358993754 0 0.27726345228313692 -0.2107927573852082 0 0.26678305038543781 -0.208672358993754 0 0.27726345228313692 -0.2107927573852082 0 0.26188784729353881 -0.1918747127493669 0 0.27874857125031122 -0.2245346620075882 0 0.26902256436493027 -0.2190074041007066 0 0.27726345228313692 -0.2107927573852082 0 0.28097148575700881 -0.19519014054323119 0 0.26188784729353881 -0.1918747127493669 0 0.28421033684072139 -0.17843554387239399 0 0.27726345228313692 -0.2107927573852082 0 0.28097148575700881 -0.19519014054323119 0 0.26188784729353881 -0.1918747127493669 0 0.27726345228313692 -0.2107927573852082 0 0.26188784729353881 -0.1918747127493669 0 0.26188784729353881 -0.1918747127493669 0 0.24268963472839261 -0.20343292269963939 0 0.25071913866524609 -0.2088259921999813 0 0.26188784729353881 -0.1918747127493669 0 0.24268963472839261 -0.20343292269963939 0 0.26188784729353881 -0.1918747127493669 0 0.25148260257237132 -0.1893326623892739 0 0.24268963472839261 -0.20343292269963939 0 0.26188784729353881 -0.1918747127493669 0 0.25148260257237132 -0.1893326623892739 0 0.24860364772782129 -0.17552991977987151 0 0.26499936939085039 -0.17796490079797581 0 0.26957292714855841 -0.16604679000967229 0 0.24860364772782129 -0.17552991977987151 0 0.26188784729353881 -0.1918747127493669 0 0.26499936939085039 -0.17796490079797581 0 0.24860364772782129 -0.17552991977987151 0 0.26188784729353881 -0.1918747127493669 0 0.24860364772782129 -0.17552991977987151 0 0.25754555157200659 -0.1641020854964671 0 0.26957292714855841 -0.16604679000967229 0 0.24860364772782129 -0.17552991977987151 0 0.25754555157200659 -0.1641020854964671 0 0.24887762459330839 -0.16978030732796051 0 0.24827657619030499 -0.16329531176010531 0 0.26957292714855841 -0.16604679000967229 0 0.24860364772782129 -0.17552991977987151 0 0.25754555157200659 -0.1641020854964671 0 0.24887762459330839 -0.16978030732796051 0 0.24860364772782129 -0.17552991977987151 0 0.25754555157200659 -0.1641020854964671 0 0.25505816379881491 -0.15574787727149389 0 0.24827657619030499 -0.16329531176010531 0 0.25754555157200659 -0.1641020854964671 0 0.26957292714855841 -0.16604679000967229 0 0.26543169171221731 -0.15462962560480539 0 0.25754555157200659 -0.1641020854964671 0 0.25505816379881491 -0.15574787727149389 0 0.26543169171221731 -0.15462962560480539 0 0.26957292714855841 -0.16604679000967229 0 0.27636225146798532 -0.15193412527910119 0 0.29054220656929558 -0.1565636602394736 0 0.26957292714855841 -0.16604679000967229 0 0.29054220656929558 -0.1565636602394736 0 0.26957292714855841 -0.16604679000967229 0 0.26543169171221731 -0.15462962560480539 0 0.27636225146798532 -0.15193412527910119 0 0.26499936939085039 -0.17796490079797581 0 0.26957292714855841 -0.16604679000967229 0 0.28421033684072139 -0.17843554387239399 0 0.26188784729353881 -0.1918747127493669 0 0.26499936939085039 -0.17796490079797581 0 0.28421033684072139 -0.17843554387239399 0 0.26188784729353881 -0.1918747127493669 0 0.28421033684072139 -0.17843554387239399 0 0.26416313438547068 -0.1122688380757866 0 0.27150012169239712 -0.12993679895225069 0 0.24954864782920069 -0.1339614403992159 0 0.25997437710784532 -0.1446581617197546 0 0.27150012169239712 -0.12993679895225069 0 0.24954864782920069 -0.1339614403992159 0 0.25997437710784532 -0.1446581617197546 0 0.24954864782920069 -0.1339614403992159 0 0.24580873852321239 -0.15139799092491929 0 0.25997437710784532 -0.1446581617197546 0 0.25505816379881491 -0.15574787727149389 0 0.24580873852321239 -0.15139799092491929 0 0.25997437710784532 -0.1446581617197546 0 0.25505816379881491 -0.15574787727149389 0 0.26543169171221731 -0.15462962560480539 0 0.26543169171221731 -0.15462962560480539 0 0.27636225146798532 -0.15193412527910119 0 0.27215797703192141 -0.14315542775617229 0 0.27636225146798532 -0.15193412527910119 0 0.27215797703192141 -0.14315542775617229 0 0.28338033918925309 -0.1405398126471552 0 0.25997437710784532 -0.1446581617197546 0 0.26543169171221731 -0.15462962560480539 0 0.27215797703192141 -0.14315542775617229 0 0.25997437710784532 -0.1446581617197546 0 0.27215797703192141 -0.14315542775617229 0 0.27150012169239712 -0.12993679895225069 0 0.27215797703192141 -0.14315542775617229 0 0.27150012169239712 -0.12993679895225069 0 0.28338033918925309 -0.1405398126471552 0 0.27150012169239712 -0.12993679895225069 0 0.28909917237325627 -0.12725859344629459 0 0.28338033918925309 -0.1405398126471552 0 0.28909917237325627 -0.12725859344629459 0 0.28338033918925309 -0.1405398126471552 0 0.2964378796338632 -0.1416748838134502 0 0.28909917237325627 -0.12725859344629459 0 0.2964378796338632 -0.1416748838134502 0 0.30328028366004728 -0.13030275286617979 0 0.28338033918925309 -0.1405398126471552 0 0.2964378796338632 -0.1416748838134502 0 0.29054220656929558 -0.1565636602394736 0 0.27636225146798532 -0.15193412527910119 0 0.28338033918925309 -0.1405398126471552 0 0.29054220656929558 -0.1565636602394736 0 0.31151148599003292 -0.14708053046927469 0 0.30653282638790308 -0.16499637499541969 0 0.31151148599003292 -0.14708053046927469 0 0.29054220656929558 -0.1565636602394736 0 0.30653282638790308 -0.16499637499541969 0 0.31151148599003292 -0.14708053046927469 0 0.29054220656929558 -0.1565636602394736 0 0.2964378796338632 -0.1416748838134502 0 0.31151148599003292 -0.14708053046927469 0 0.29054220656929558 -0.1565636602394736 0 0.31749847521685498 -0.1235707586732938 0 0.31151148599003292 -0.14708053046927469 0 0.30328028366004728 -0.13030275286617979 0 0.2964378796338632 -0.1416748838134502 0 0.31151148599003292 -0.14708053046927469 0 0.30328028366004728 -0.13030275286617979 0 0.29028773767243699 -0.18902104036176251 0 0.28421033684072139 -0.17843554387239399 0 0.30222918217256928 -0.18353037800062999 0 0.26957292714855841 -0.16604679000967229 0 0.28421033684072139 -0.17843554387239399 0 0.29054220656929558 -0.1565636602394736 0 0.28421033684072139 -0.17843554387239399 0 0.29054220656929558 -0.1565636602394736 0 0.30653282638790308 -0.16499637499541969 0 0.28421033684072139 -0.17843554387239399 0 0.30653282638790308 -0.16499637499541969 0 0.31151148599003292 -0.14708053046927469 0 0.30653282638790308 -0.16499637499541969 0 0.3153167339656488 -0.1584368735796203 0 0.30653282638790308 -0.16499637499541969 0 0.31194635920352931 -0.17609465805803801 0 0.31760511182385692 -0.1663484470257727 0 0.30653282638790308 -0.16499637499541969 0 0.30222918217256928 -0.18353037800062999 0 0.30653282638790308 -0.16499637499541969 0 0.31194635920352931 -0.17609465805803801 0 0.30222918217256928 -0.18353037800062999 0 0.28421033684072139 -0.17843554387239399 0 0.30653282638790308 -0.16499637499541969 0 0.30222918217256928 -0.18353037800062999 0 0.30776328593480978 -0.19208120093634259 0 0.30222918217256928 -0.18353037800062999 0 0.31111744329606589 -0.18461079220340801 0 0.31194635920352931 -0.17609465805803801 0 0.30222918217256928 -0.18353037800062999 0 0.31111744329606589 -0.18461079220340801 0 0.31194635920352931 -0.17609465805803801 0 0.31111744329606589 -0.18461079220340801 0 0.31779970065980601 -0.18153571517183439 0 0.31111744329606589 -0.18461079220340801 0 0.31779970065980601 -0.18153571517183439 0 0.31584868850961528 -0.18981200885019489 0 0.31779970065980601 -0.18153571517183439 0 0.31584868850961528 -0.18981200885019489 0 0.32575137512810748 -0.18771112320391639 0 0.31779970065980601 -0.18153571517183439 0 0.32538632547595542 -0.17962651804083099 0 0.32575137512810748 -0.18771112320391639 0 0.32538632547595542 -0.17962651804083099 0 0.31970328290751421 -0.1743534566812906 0 0.32859354036345501 -0.16940532835987401 0 0.31779970065980601 -0.18153571517183439 0 0.32538632547595542 -0.17962651804083099 0 0.31970328290751421 -0.1743534566812906 0 0.31194635920352931 -0.17609465805803801 0 0.31970328290751421 -0.1743534566812906 0 0.31760511182385692 -0.1663484470257727 0 0.31194635920352931 -0.17609465805803801 0 0.31779970065980601 -0.18153571517183439 0 0.31970328290751421 -0.1743534566812906 0 0.30653282638790308 -0.16499637499541969 0 0.31760511182385692 -0.1663484470257727 0 0.3153167339656488 -0.1584368735796203 0 0.31760511182385692 -0.1663484470257727 0 0.3153167339656488 -0.1584368735796203 0 0.32528000396740442 -0.15501306258848141 0 0.31760511182385692 -0.1663484470257727 0 0.32859354036345501 -0.16940532835987401 0 0.32528000396740442 -0.15501306258848141 0 0.31970328290751421 -0.1743534566812906 0 0.31760511182385692 -0.1663484470257727 0 0.32859354036345501 -0.16940532835987401 0 0.32859354036345501 -0.16940532835987401 0 0.33834667213176761 -0.15786985228252379 0 0.33977466149173441 -0.1711035658609534 0 0.32859354036345501 -0.16940532835987401 0 0.33834667213176761 -0.15786985228252379 0 0.32528000396740442 -0.15501306258848141 0 0.33834667213176761 -0.15786985228252379 0 0.33977466149173441 -0.1711035658609534 0 0.34537587342697529 -0.16409407541461979 0 0.33977466149173441 -0.1711035658609534 0 0.33507641321967502 -0.1817223337626237 0 0.34589025659403583 -0.17950153905684799 0 0.33507641321967502 -0.1817223337626237 0 0.34589025659403583 -0.17950153905684799 0 0.34106516946910642 -0.19235492745379021 0 0.33507641321967502 -0.1817223337626237 0 0.34106516946910642 -0.19235492745379021 0 0.32575137512810748 -0.18771112320391639 0 0.32538632547595542 -0.17962651804083099 0 0.33507641321967502 -0.1817223337626237 0 0.32575137512810748 -0.18771112320391639 0 0.32538632547595542 -0.17962651804083099 0 0.32859354036345501 -0.16940532835987401 0 0.33507641321967502 -0.1817223337626237 0 0.32859354036345501 -0.16940532835987401 0 0.33977466149173441 -0.1711035658609534 0 0.33507641321967502 -0.1817223337626237 0 0.31749847521685498 -0.1235707586732938 0 0.31151148599003292 -0.14708053046927469 0 0.32872401746263052 -0.13929634931773499 0 0.31749847521685498 -0.1235707586732938 0 0.31151148599003292 -0.14708053046927469 0 0.33451146657312381 -0.11753635235919251 0 0.31749847521685498 -0.1235707586732938 0 0.32872401746263052 -0.13929634931773499 0 0.31151148599003292 -0.14708053046927469 0 0.32528000396740442 -0.15501306258848141 0 0.32872401746263052 -0.13929634931773499 0 0.31151148599003292 -0.14708053046927469 0 0.32872401746263052 -0.13929634931773499 0 0.31151148599003292 -0.14708053046927469 0 0.3153167339656488 -0.1584368735796203 0 0.32528000396740442 -0.15501306258848141 0 0.32528000396740442 -0.15501306258848141 0 0.33826600606593132 -0.1461322158038004 0 0.32872401746263052 -0.13929634931773499 0 0.33834667213176761 -0.15786985228252379 0 0.32528000396740442 -0.15501306258848141 0 0.33826600606593132 -0.1461322158038004 0 0.33834667213176761 -0.15786985228252379 0 0.33826600606593132 -0.1461322158038004 0 0.34968581350639288 -0.14534478001336501 0 0.32872401746263052 -0.13929634931773499 0 0.34593654893522813 -0.13151216816619529 0 0.33826600606593132 -0.1461322158038004 0 0.32872401746263052 -0.13929634931773499 0 0.34593654893522813 -0.13151216816619529 0 0.33451146657312381 -0.11753635235919251 0 0.32872401746263052 -0.13929634931773499 0 0.34593654893522813 -0.13151216816619529 0 0.34593654893522813 -0.13151216816619529 0 0.35845169360630469 -0.13781000373648011 0 0.36162311814362658 -0.12598057538412091 0 0.35033710761940412 -0.1182944096234021 0 0.34593654893522813 -0.13151216816619529 0 0.36162311814362658 -0.12598057538412091 0 0.34593654893522813 -0.13151216816619529 0 0.35845169360630469 -0.13781000373648011 0 0.34968581350639288 -0.14534478001336501 0 0.35845169360630469 -0.13781000373648011 0 0.34968581350639288 -0.14534478001336501 0 0.36099140033785182 -0.1491753411503107 0 0.33826600606593132 -0.1461322158038004 0 0.34593654893522813 -0.13151216816619529 0 0.34968581350639288 -0.14534478001336501 0 0.33834667213176761 -0.15786985228252379 0 0.34968581350639288 -0.14534478001336501 0 0.35186626075687411 -0.15772712646830611 0 0.34968581350639288 -0.14534478001336501 0 0.36099140033785182 -0.1491753411503107 0 0.35186626075687411 -0.15772712646830611 0 0.36099140033785182 -0.1491753411503107 0 0.36780923437218332 -0.15455826336413811 0 0.36915030359552548 -0.1469708363859287 0 0.36099140033785182 -0.1491753411503107 0 0.36780923437218332 -0.15455826336413811 0 0.36356584521475549 -0.16229703224557071 0 0.36780923437218332 -0.15455826336413811 0 0.37498173825591657 -0.15142720760095379 0 0.37614495713266233 -0.1624948639423652 0 0.36780923437218332 -0.15455826336413811 0 0.37498173825591657 -0.15142720760095379 0 0.36915030359552548 -0.1469708363859287 0 0.37498173825591657 -0.15142720760095379 0 0.36915030359552548 -0.1469708363859287 0 0.37466000061608712 -0.14509625561303691 0 0.37466000061608712 -0.14509625561303691 0 0.37167052403777251 -0.1400038008572673 0 0.37711781380134252 -0.13972697074461701 0 0.36915030359552548 -0.1469708363859287 0 0.37466000061608712 -0.14509625561303691 0 0.37167052403777251 -0.1400038008572673 0 0.36915030359552548 -0.1469708363859287 0 0.36529968747172797 -0.14168916498234979 0 0.37167052403777251 -0.1400038008572673 0 0.36099140033785182 -0.1491753411503107 0 0.36915030359552548 -0.1469708363859287 0 0.36529968747172797 -0.14168916498234979 0 0.35845169360630469 -0.13781000373648011 0 0.36099140033785182 -0.1491753411503107 0 0.36529968747172797 -0.14168916498234979 0 0.35845169360630469 -0.13781000373648011 0 0.36529968747172797 -0.14168916498234979 0 0.36623451578118582 -0.13448584278176229 0 0.36529968747172797 -0.14168916498234979 0 0.36623451578118582 -0.13448584278176229 0 0.37167052403777251 -0.1400038008572673 0 0.36623451578118582 -0.13448584278176229 0 0.37167052403777251 -0.1400038008572673 0 0.37264530279310082 -0.12848939238147181 0 0.36623451578118582 -0.13448584278176229 0 0.37264530279310082 -0.12848939238147181 0 0.36162311814362658 -0.12598057538412091 0 0.35845169360630469 -0.13781000373648011 0 0.36623451578118582 -0.13448584278176229 0 0.36162311814362658 -0.12598057538412091 0 0.34589025659403583 -0.17950153905684799 0 0.36201913946213848 -0.1826511111601764 0 0.34106516946910642 -0.19235492745379021 0 0.34589025659403583 -0.17950153905684799 0 0.35151589932752508 -0.16967575704669599 0 0.36201913946213848 -0.1826511111601764 0 0.33977466149173441 -0.1711035658609534 0 0.34589025659403583 -0.17950153905684799 0 0.35151589932752508 -0.16967575704669599 0 0.35151589932752508 -0.16967575704669599 0 0.36356584521475549 -0.16229703224557071 0 0.36201913946213848 -0.1826511111601764 0 0.33977466149173441 -0.1711035658609534 0 0.35151589932752508 -0.16967575704669599 0 0.34537587342697529 -0.16409407541461979 0 0.33834667213176761 -0.15786985228252379 0 0.34537587342697529 -0.16409407541461979 0 0.35186626075687411 -0.15772712646830611 0 0.35151589932752508 -0.16967575704669599 0 0.34537587342697529 -0.16409407541461979 0 0.35186626075687411 -0.15772712646830611 0 0.36099140033785182 -0.1491753411503107 0 0.35186626075687411 -0.15772712646830611 0 0.36356584521475549 -0.16229703224557071 0 0.35151589932752508 -0.16967575704669599 0 0.35186626075687411 -0.15772712646830611 0 0.36356584521475549 -0.16229703224557071 0 0.36780923437218332 -0.15455826336413811 0 0.36356584521475549 -0.16229703224557071 0 0.37614495713266233 -0.1624948639423652 0 0.36356584521475549 -0.16229703224557071 0 0.37614495713266233 -0.1624948639423652 0 0.37675001539297492 -0.17556881831659249 0 0.36356584521475549 -0.16229703224557071 0 0.36201913946213848 -0.1826511111601764 0 0.37675001539297492 -0.17556881831659249 0 0.36201913946213848 -0.1826511111601764 0 0.37610529436994172 -0.19145745739780329 0 0.37675001539297492 -0.17556881831659249 0 0.36035562456405118 -0.197256056830481 0 0.37470995629361792 -0.20993888997756871 0 0.37610529436994172 -0.19145745739780329 0 0.36201913946213848 -0.1826511111601764 0 0.36035562456405118 -0.197256056830481 0 0.37610529436994172 -0.19145745739780329 0 0.37470995629361792 -0.20993888997756871 0 0.34741057788484619 -0.20599881686248681 0 0.35924269635478229 -0.21977930360326661 0 0.37470995629361792 -0.20993888997756871 0 0.34741057788484619 -0.20599881686248681 0 0.36035562456405118 -0.197256056830481 0 0.37470995629361792 -0.20993888997756871 0 0.34741057788484619 -0.20599881686248681 0 0.34741057788484619 -0.20599881686248681 0 0.34679880144468372 -0.22129632612398781 0 0.35924269635478229 -0.21977930360326661 0 0.36201913946213848 -0.1826511111601764 0 0.36035562456405118 -0.197256056830481 0 0.34106516946910642 -0.19235492745379021 0 0.36035562456405118 -0.197256056830481 0 0.34741057788484619 -0.20599881686248681 0 0.34106516946910642 -0.19235492745379021 0 0.36201913946213848 -0.1826511111601764 0 0.34106516946910642 -0.19235492745379021 0 0.34106516946910642 -0.19235492745379021 0 0.32011119947607453 -0.20205874374740429 0 0.32575137512810748 -0.18771112320391639 0 0.34741057788484619 -0.20599881686248681 0 0.34106516946910642 -0.19235492745379021 0 0.32011119947607453 -0.20205874374740429 0 0.34106516946910642 -0.19235492745379021 0 0.32011119947607453 -0.20205874374740429 0 0.34741057788484619 -0.20599881686248681 0 0.332988398154346 -0.2147707585134713 0 0.32011119947607453 -0.20205874374740429 0 0.34741057788484619 -0.20599881686248681 0 0.32011119947607453 -0.20205874374740429 0 0.34741057788484619 -0.20599881686248681 0 0.332988398154346 -0.2147707585134713 0 0.34679880144468372 -0.22129632612398781 0 0.30393756951962481 -0.2095487770895535 0 0.32113324605439791 -0.21717066078029471 0 0.31277872386237149 -0.22907731825143129 0 0.30393756951962481 -0.2095487770895535 0 0.32113324605439791 -0.21717066078029471 0 0.32011119947607453 -0.20205874374740429 0 0.332988398154346 -0.2147707585134713 0 0.32113324605439791 -0.21717066078029471 0 0.32011119947607453 -0.20205874374740429 0 0.30776328593480978 -0.19208120093634259 0 0.32011119947607453 -0.20205874374740429 0 0.31584868850961528 -0.18981200885019489 0 0.32011119947607453 -0.20205874374740429 0 0.31584868850961528 -0.18981200885019489 0 0.32575137512810748 -0.18771112320391639 0 0.30801466226233248 -0.24862884665689089 0 0.32161987820511828 -0.2486058594133092 0 0.31277872386237149 -0.22907731825143129 0 0.32161987820511828 -0.2486058594133092 0 0.31277872386237149 -0.22907731825143129 0 0.32161987820511828 -0.2486058594133092 0 0.31277872386237149 -0.22907731825143129 0 0.33204157105202359 -0.2428835663714094 0 0.32113324605439791 -0.21717066078029471 0 0.31277872386237149 -0.22907731825143129 0 0.33585033925957258 -0.2303977062996129 0 0.31277872386237149 -0.22907731825143129 0 0.33585033925957258 -0.2303977062996129 0 0.33204157105202359 -0.2428835663714094 0 0.332988398154346 -0.2147707585134713 0 0.32113324605439791 -0.21717066078029471 0 0.33585033925957258 -0.2303977062996129 0 0.332988398154346 -0.2147707585134713 0 0.33585033925957258 -0.2303977062996129 0 0.34679880144468372 -0.22129632612398781 0 0.33585033925957258 -0.2303977062996129 0 0.33204157105202359 -0.2428835663714094 0 0.34448151405886818 -0.25183472295814407 0 0.32161987820511828 -0.2486058594133092 0 0.33204157105202359 -0.2428835663714094 0 0.33229988997940452 -0.25553629683876838 0 0.35850199556987122 -0.23553504534110131 0 0.34448151405886818 -0.25183472295814407 0 0.36028104451921888 -0.25194785591280983 0 0.33585033925957258 -0.2303977062996129 0 0.35850199556987122 -0.23553504534110131 0 0.34448151405886818 -0.25183472295814407 0 0.35850199556987122 -0.23553504534110131 0 0.34448151405886818 -0.25183472295814407 0 0.33585033925957258 -0.2303977062996129 0 0.35850199556987122 -0.23553504534110131 0 0.34679880144468372 -0.22129632612398781 0 0.35850199556987122 -0.23553504534110131 0 0.34679880144468372 -0.22129632612398781 0 0.35924269635478229 -0.21977930360326661 0 0.35850199556987122 -0.23553504534110131 0 0.35924269635478229 -0.21977930360326661 0 0.37100830910442301 -0.22790532161148161 0 0.37470995629361792 -0.20993888997756871 0 0.35924269635478229 -0.21977930360326661 0 0.37100830910442301 -0.22790532161148161 0 0.35850199556987122 -0.23553504534110131 0 0.37842677557578852 -0.2476989620572124 0 0.36028104451921888 -0.25194785591280983 0 0.35850199556987122 -0.23553504534110131 0 0.37100830910442301 -0.22790532161148161 0 0.37842677557578852 -0.2476989620572124 0 0.37842677557578852 -0.2476989620572124 0 0.4012380690170872 -0.24450755129420401 0 0.38501300251791393 -0.22713563901034109 0 0.4012380690170872 -0.24450755129420401 0 0.38501300251791393 -0.22713563901034109 0 0.40108436707899769 -0.2289705765550982 0 0.38501300251791393 -0.22713563901034109 0 0.40200933470238959 -0.21387896309265059 0 0.4012380690170872 -0.24450755129420401 0 0.40108436707899769 -0.2289705765550982 0 0.38501300251791393 -0.22713563901034109 0 0.37470995629361792 -0.20993888997756871 0 0.37100830910442301 -0.22790532161148161 0 0.38501300251791393 -0.22713563901034109 0 0.37100830910442301 -0.22790532161148161 0 0.37842677557578852 -0.2476989620572124 0 0.38501300251791393 -0.22713563901034109 0 0.37470995629361792 -0.20993888997756871 0 0.40200933470238959 -0.21387896309265059 0 0.37470995629361792 -0.20993888997756871 0 0.39095298304820941 -0.19915047188244919 0 0.40200933470238959 -0.21387896309265059 0 0.37470995629361792 -0.20993888997756871 0 0.38501300251791393 -0.22713563901034109 0 0.40200933470238959 -0.21387896309265059 0 0.37470995629361792 -0.20993888997756871 0 0.37610529436994172 -0.19145745739780329 0 0.39095298304820941 -0.19915047188244919 0 0.37610529436994172 -0.19145745739780329 0 0.39095298304820941 -0.19915047188244919 0 0.39184404745865797 -0.18417939621955209 0 0.39095298304820941 -0.19915047188244919 0 0.40200933470238959 -0.21387896309265059 0 0.40962829707583481 -0.19241857142409191 0 0.39095298304820941 -0.19915047188244919 0 0.40962829707583481 -0.19241857142409191 0 0.39184404745865797 -0.18417939621955209 0 0.40200933470238959 -0.21387896309265059 0 0.42065001264883062 -0.20895564150869839 0 0.40962829707583481 -0.19241857142409191 0 0.40200933470238959 -0.21387896309265059 0 0.42065001264883062 -0.20895564150869839 0 0.4192457900325311 -0.22963700314154659 0 0.42065001264883062 -0.20895564150869839 0 0.40962829707583481 -0.19241857142409191 0 0.4333301534151634 -0.1916058397712925 0 0.42065001264883062 -0.20895564150869839 0 0.4192457900325311 -0.22963700314154659 0 0.43903648801823419 -0.21723783011391029 0 0.4333301534151634 -0.1916058397712925 0 0.43903648801823419 -0.21723783011391029 0 0.42065001264883062 -0.20895564150869839 0 0.4333301534151634 -0.1916058397712925 0 0.43903648801823419 -0.21723783011391029 0 0.4192457900325311 -0.22963700314154659 0 0.44474282262130499 -0.24286982045652811 0 0.43903648801823419 -0.21723783011391029 0 0.42570036879476142 -0.24729859014922589 0 0.4192457900325311 -0.22963700314154659 0 0.44474282262130499 -0.24286982045652811 0 0.4012380690170872 -0.24450755129420401 0 0.42570036879476142 -0.24729859014922589 0 0.4192457900325311 -0.22963700314154659 0 0.40108436707899769 -0.2289705765550982 0 0.40200933470238959 -0.21387896309265059 0 0.4192457900325311 -0.22963700314154659 0 0.4012380690170872 -0.24450755129420401 0 0.40108436707899769 -0.2289705765550982 0 0.4192457900325311 -0.22963700314154659 0 0.4193310385157204 -0.1249849977167619 0 0.40333775820725248 -0.1217211762340845 0 0.39550078127674648 -0.13249439928701459 0 0.4193310385157204 -0.1249849977167619 0 0.40169425104107348 -0.13918486522218271 0 0.39550078127674648 -0.13249439928701459 0 0.40169425104107348 -0.13918486522218271 0 0.39550078127674648 -0.13249439928701459 0 0.37711781380134252 -0.13972697074461701 0 0.39249470147230658 -0.1237956633273669 0 0.40333775820725248 -0.1217211762340845 0 0.39550078127674648 -0.13249439928701459 0 0.37167052403777251 -0.1400038008572673 0 0.39550078127674648 -0.13249439928701459 0 0.38264701268865892 -0.12740858735565361 0 0.37167052403777251 -0.1400038008572673 0 0.39550078127674648 -0.13249439928701459 0 0.39249470147230658 -0.1237956633273669 0 0.39550078127674648 -0.13249439928701459 0 0.38264701268865892 -0.12740858735565361 0 0.40169425104107348 -0.13918486522218271 0 0.37711781380134252 -0.13972697074461701 0 0.37167052403777251 -0.1400038008572673 0 0.39550078127674648 -0.13249439928701459 0 0.37711781380134252 -0.13972697074461701 0 0.37167052403777251 -0.1400038008572673 0 0.37264530279310082 -0.12848939238147181 0 0.38264701268865892 -0.12740858735565361 0 0.40169425104107348 -0.13918486522218271 0 0.37711781380134252 -0.13972697074461701 0 0.38266919660512899 -0.1467855760258259 0 0.37466000061608712 -0.14509625561303691 0 0.37711781380134252 -0.13972697074461701 0 0.38266919660512899 -0.1467855760258259 0 0.37498173825591657 -0.15142720760095379 0 0.37466000061608712 -0.14509625561303691 0 0.38266919660512899 -0.1467855760258259 0 0.37498173825591657 -0.15142720760095379 0 0.38266919660512899 -0.1467855760258259 0 0.38969118177958562 -0.15238320800370811 0 0.37498173825591657 -0.15142720760095379 0 0.38969118177958562 -0.15238320800370811 0 0.37614495713266233 -0.1624948639423652 0 0.40169425104107348 -0.13918486522218271 0 0.38266919660512899 -0.1467855760258259 0 0.38969118177958562 -0.15238320800370811 0 0.40169425104107348 -0.13918486522218271 0 0.38969118177958562 -0.15238320800370811 0 0.40106849720763288 -0.15445206812423171 0 0.40169425104107348 -0.13918486522218271 0 0.40106849720763288 -0.15445206812423171 0 0.41425272356684639 -0.1511658148524854 0 0.40106849720763288 -0.15445206812423171 0 0.390352823379089 -0.16645396763350831 0 0.40701819929237099 -0.16694301500797809 0 0.38969118177958562 -0.15238320800370811 0 0.40106849720763288 -0.15445206812423171 0 0.390352823379089 -0.16645396763350831 0 0.38969118177958562 -0.15238320800370811 0 0.37614495713266233 -0.1624948639423652 0 0.390352823379089 -0.16645396763350831 0 0.37614495713266233 -0.1624948639423652 0 0.390352823379089 -0.16645396763350831 0 0.37675001539297492 -0.17556881831659249 0 0.37610529436994172 -0.19145745739780329 0 0.37675001539297492 -0.17556881831659249 0 0.39184404745865797 -0.18417939621955209 0 0.390352823379089 -0.16645396763350831 0 0.37675001539297492 -0.17556881831659249 0 0.39184404745865797 -0.18417939621955209 0 0.40962829707583481 -0.19241857142409191 0 0.39184404745865797 -0.18417939621955209 0 0.40701819929237099 -0.16694301500797809 0 0.390352823379089 -0.16645396763350831 0 0.39184404745865797 -0.18417939621955209 0 0.40701819929237099 -0.16694301500797809 0 0.40962829707583481 -0.19241857142409191 0 0.42324470235522821 -0.1769272881844153 0 0.40701819929237099 -0.16694301500797809 0 0.40962829707583481 -0.19241857142409191 0 0.4333301534151634 -0.1916058397712925 0 0.42324470235522821 -0.1769272881844153 0 0.4333301534151634 -0.1916058397712925 0 0.42324470235522821 -0.1769272881844153 0 0.44526365379313138 -0.1769641980425205 0 0.42324470235522821 -0.1769272881844153 0 0.43026364946927842 -0.15999884207499651 0 0.44526365379313138 -0.1769641980425205 0 0.42324470235522821 -0.1769272881844153 0 0.43026364946927842 -0.15999884207499651 0 0.40701819929237099 -0.16694301500797809 0 0.40106849720763288 -0.15445206812423171 0 0.40701819929237099 -0.16694301500797809 0 0.41425272356684639 -0.1511658148524854 0 0.43026364946927842 -0.15999884207499651 0 0.40701819929237099 -0.16694301500797809 0 0.43026364946927842 -0.15999884207499651 0 0.40701819929237099 -0.16694301500797809 0 0.41425272356684639 -0.1511658148524854 0 0.40169425104107348 -0.13918486522218271 0 0.41425272356684639 -0.1511658148524854 0 0.4262706882808045 -0.1386427596997484 0 0.43026364946927842 -0.15999884207499651 0 0.41425272356684639 -0.1511658148524854 0 0.4262706882808045 -0.1386427596997484 0 0.43026364946927842 -0.15999884207499651 0 0.4262706882808045 -0.1386427596997484 0 0.43875715864793552 -0.14735948039353469 0 0.4262706882808045 -0.1386427596997484 0 0.43321649721482008 -0.12734116507156709 0 0.44616294079318658 -0.1295115982927616 0 0.4193310385157204 -0.1249849977167619 0 0.4262706882808045 -0.1386427596997484 0 0.43321649721482008 -0.12734116507156709 0 0.4193310385157204 -0.1249849977167619 0 0.39550078127674648 -0.13249439928701459 0 0.4193310385157204 -0.1249849977167619 0 0.40169425104107348 -0.13918486522218271 0 0.4262706882808045 -0.1386427596997484 0 0.40169425104107348 -0.13918486522218271 0 0.4262706882808045 -0.1386427596997484 0 0.45084712552053552 -0.13810065417731421 0 0.46340686510782347 -0.14380832223453061 0 0.47542356276026648 -0.1375585486548799 0 0.45969299685358589 -0.13050743009679749 0 0.45084712552053552 -0.13810065417731421 0 0.47542356276026648 -0.1375585486548799 0 0.46740508961049843 -0.1280090345356969 0 0.45969299685358589 -0.13050743009679749 0 0.47542356276026648 -0.1375585486548799 0 0.45084712552053552 -0.13810065417731421 0 0.47542356276026648 -0.1375585486548799 0 0.46157148455332969 -0.12517052751972901 0 0.46740508961049843 -0.1280090345356969 0 0.45969299685358589 -0.13050743009679749 0 0.45435526495467082 -0.1235771025221362 0 0.45969299685358589 -0.13050743009679749 0 0.44616294079318658 -0.1295115982927616 0 0.45435526495467082 -0.1235771025221362 0 0.46157148455332969 -0.12517052751972901 0 0.45969299685358589 -0.13050743009679749 0 0.4262706882808045 -0.1386427596997484 0 0.45084712552053552 -0.13810065417731421 0 0.45969299685358589 -0.13050743009679749 0 0.44616294079318658 -0.1295115982927616 0 0.45084712552053552 -0.13810065417731421 0 0.4262706882808045 -0.1386427596997484 0 0.44616294079318658 -0.1295115982927616 0 0.45084712552053552 -0.13810065417731421 0 0.44360952062101239 -0.12457731599425489 0 0.43321649721482008 -0.12734116507156709 0 0.44616294079318658 -0.1295115982927616 0 0.45084712552053552 -0.13810065417731421 0 0.43875715864793552 -0.14735948039353469 0 0.4535090996461858 -0.15305466914201499 0 0.4262706882808045 -0.1386427596997484 0 0.45084712552053552 -0.13810065417731421 0 0.43875715864793552 -0.14735948039353469 0 0.43026364946927842 -0.15999884207499651 0 0.43875715864793552 -0.14735948039353469 0 0.4535090996461858 -0.15305466914201499 0 0.4535090996461858 -0.15305466914201499 0 0.46340686510782347 -0.14380832223453061 0 0.47675454982309318 -0.14611049620903341 0 0.4535090996461858 -0.15305466914201499 0 0.47020721290558998 -0.1569112521868837 0 0.47675454982309318 -0.14611049620903341 0 0.4535090996461858 -0.15305466914201499 0 0.47675454982309318 -0.14611049620903341 0 0.45084712552053552 -0.13810065417731421 0 0.4535090996461858 -0.15305466914201499 0 0.46340686510782347 -0.14380832223453061 0 0.4535090996461858 -0.15305466914201499 0 0.44526365379313138 -0.1769641980425205 0 0.46938565306216989 -0.16781893176986071 0 0.4535090996461858 -0.15305466914201499 0 0.46938565306216989 -0.16781893176986071 0 0.47020721290558998 -0.1569112521868837 0 0.43026364946927842 -0.15999884207499651 0 0.4535090996461858 -0.15305466914201499 0 0.43026364946927842 -0.15999884207499651 0 0.4535090996461858 -0.15305466914201499 0 0.44526365379313138 -0.1769641980425205 0 0.44526365379313138 -0.1769641980425205 0 0.46938565306216989 -0.16781893176986071 0 0.46042013795253123 -0.18854279032322879 0 0.46938565306216989 -0.16781893176986071 0 0.47797456073759242 -0.18832157813941361 0 0.48570795257813471 -0.1762092958391264 0 0.46938565306216989 -0.16781893176986071 0 0.47797456073759242 -0.18832157813941361 0 0.46938565306216989 -0.16781893176986071 0 0.46042013795253123 -0.18854279032322879 0 0.47797456073759242 -0.18832157813941361 0 0.48570795257813471 -0.1762092958391264 0 0.5 -0.1678037936452613 0 0.5 -0.19644126401447071 0 0.48570795257813471 -0.1762092958391264 0 0.47797456073759242 -0.18832157813941361 0 0.5 -0.19644126401447071 0 0.48570795257813471 -0.1762092958391264 0 0.5 -0.1678037936452613 0 0.4811795490909111 -0.16066091162662571 0 0.5 -0.1678037936452613 0 0.4811795490909111 -0.16066091162662571 0 0.49031965766254909 -0.15326839856548979 0 0.48570795257813471 -0.1762092958391264 0 0.4811795490909111 -0.16066091162662571 0 0.46938565306216989 -0.16781893176986071 0 0.4811795490909111 -0.16066091162662571 0 0.46938565306216989 -0.16781893176986071 0 0.47020721290558998 -0.1569112521868837 0 0.47675454982309318 -0.14611049620903341 0 0.50000000000000067 -0.13916632327605161 0 0.47542356276026648 -0.1375585486548799 0 0.4811795490909111 -0.16066091162662571 0 0.47020721290558998 -0.1569112521868837 0 0.47675454982309318 -0.14611049620903341 0 0.46340686510782347 -0.14380832223453061 0 0.47675454982309318 -0.14611049620903341 0 0.47542356276026648 -0.1375585486548799 0 0.4811795490909111 -0.16066091162662571 0 0.47675454982309318 -0.14611049620903341 0 0.49031965766254909 -0.15326839856548979 0 0.47675454982309318 -0.14611049620903341 0 0.50000000000000067 -0.13916632327605161 0 0.47675454982309318 -0.14611049620903341 0 0.49031965766254909 -0.15326839856548979 0 0.50000000000000067 -0.13916632327605161 0 0.5 -0.1678037936452613 0 0.49031965766254909 -0.15326839856548979 0 0.50000000000000067 -0.13916632327605161 0 0.50000000000000067 -0.13916632327605161 0 0.4999999999999975 -0.13701644313244571 0 0.47542356276026648 -0.1375585486548799 0 0.4999999999999975 -0.13701644313244571 0 0.47542356276026648 -0.1375585486548799 0 0.48631863465428371 -0.1248194111880794 0 0.4999999999999975 -0.13701644313244571 0 0.47542356276026648 -0.1375585486548799 0 0.48631863465428371 -0.1248194111880794 0 0.47542356276026648 -0.1375585486548799 0 0.47508342966173922 -0.12530855750060921 0 0.46740508961049843 -0.1280090345356969 0 0.47542356276026648 -0.1375585486548799 0 0.47508342966173922 -0.12530855750060921 0 0.45538281532691471 -0.22646074686186801 0 0.47297531455605352 -0.2265668765552416 0 0.47280076665640752 -0.2489143408388326 0 0.45538281532691471 -0.22646074686186801 0 0.46923901700832088 -0.20887376025218959 0 0.47297531455605352 -0.2265668765552416 0 0.45538281532691471 -0.22646074686186801 0 0.44474282262130499 -0.24286982045652811 0 0.47280076665640752 -0.2489143408388326 0 0.45538281532691471 -0.22646074686186801 0 0.44474282262130499 -0.24286982045652811 0 0.43903648801823419 -0.21723783011391029 0 0.44474282262130499 -0.24286982045652811 0 0.43903648801823419 -0.21723783011391029 0 0.4333301534151634 -0.1916058397712925 0 0.43903648801823419 -0.21723783011391029 0 0.44881712264080142 -0.20125903174215859 0 0.45538281532691471 -0.22646074686186801 0 0.43903648801823419 -0.21723783011391029 0 0.44881712264080142 -0.20125903174215859 0 0.4333301534151634 -0.1916058397712925 0 0.44526365379313138 -0.1769641980425205 0 0.44881712264080142 -0.20125903174215859 0 0.44526365379313138 -0.1769641980425205 0 0.44881712264080142 -0.20125903174215859 0 0.46042013795253123 -0.18854279032322879 0 0.44881712264080142 -0.20125903174215859 0 0.46042013795253123 -0.18854279032322879 0 0.46923901700832088 -0.20887376025218959 0 0.45538281532691471 -0.22646074686186801 0 0.44881712264080142 -0.20125903174215859 0 0.46923901700832088 -0.20887376025218959 0 0.46923901700832088 -0.20887376025218959 0 0.48656346841301479 -0.20882422450896651 0 0.48384692194484702 -0.22075930075288289 0 0.46923901700832088 -0.20887376025218959 0 0.48384692194484702 -0.22075930075288289 0 0.47297531455605352 -0.2265668765552416 0 0.46042013795253123 -0.18854279032322879 0 0.46923901700832088 -0.20887376025218959 0 0.47797456073759242 -0.18832157813941361 0 0.46923901700832088 -0.20887376025218959 0 0.47797456073759242 -0.18832157813941361 0 0.48656346841301479 -0.20882422450896651 0 0.47797456073759242 -0.18832157813941361 0 0.48656346841301479 -0.20882422450896651 0 0.47797456073759242 -0.18832157813941361 0 0.5 -0.19644126401447071 0 0.48656346841301479 -0.20882422450896651 0 0.5 -0.19644126401447071 0 0.48656346841301479 -0.20882422450896651 0 0.49999999999999861 -0.22507873438368009 0 0.48656346841301479 -0.20882422450896651 0 0.4951523760884371 -0.22932687087851941 0 0.48384692194484702 -0.22075930075288289 0 0.48656346841301479 -0.20882422450896651 0 0.49999999999999861 -0.22507873438368009 0 0.4951523760884371 -0.22932687087851941 0 0.49999999999999861 -0.22507873438368009 0 0.4951523760884371 -0.22932687087851941 0 0.49999999999999839 -0.24089867052374109 0 0.48656346841301479 -0.20882422450896651 0 0.4951523760884371 -0.22932687087851941 0 0.49999999999999861 -0.22507873438368009 0 0.4951523760884371 -0.22932687087851941 0 0.4951523760884371 -0.22932687087851941 0 0.48384692194484702 -0.22075930075288289 0 0.47297531455605352 -0.2265668765552416 0 0.4951523760884371 -0.22932687087851941 0 0.47280076665640752 -0.2489143408388326 0 0.4951523760884371 -0.22932687087851941 0 0.47297531455605352 -0.2265668765552416 0 0.47280076665640752 -0.2489143408388326 0 0.4951523760884371 -0.22932687087851941 0 0.49999999999999839 -0.24089867052374109 0 0.48923455691713502 -0.25129100206982041 0 0.4951523760884371 -0.22932687087851941 0 0.47280076665640752 -0.2489143408388326 0 0.48923455691713502 -0.25129100206982041 0 0.4951523760884371 -0.22932687087851941 0 0.49999999999999839 -0.24089867052374109 0 0.49999999999999839 -0.24089867052374109 0 0.48923455691713502 -0.25129100206982041 0 0.5 -0.2680169238196034 0 0.48923455691713502 -0.25129100206982041 0 0.5 -0.2680169238196034 0 0.48107672123809131 -0.26239207312427693 0 0.5 -0.2680169238196034 0 0.47530539527662319 -0.27651806263839179 0 0.48584518453122499 -0.2882241891547454 0 0.5 -0.2680169238196034 0 0.47530539527662319 -0.27651806263839179 0 0.48107672123809131 -0.26239207312427693 0 0.47530539527662319 -0.27651806263839179 0 0.48107672123809131 -0.26239207312427693 0 0.46804288734029059 -0.26722003625473661 0 0.47530539527662319 -0.27651806263839179 0 0.46804288734029059 -0.26722003625473661 0 0.46340069923443289 -0.27920135291261139 0 0.47280076665640752 -0.2489143408388326 0 0.48923455691713502 -0.25129100206982041 0 0.48107672123809131 -0.26239207312427693 0 0.47280076665640752 -0.2489143408388326 0 0.48107672123809131 -0.26239207312427693 0 0.46804288734029059 -0.26722003625473661 0 0.44474282262130499 -0.24286982045652811 0 0.47280076665640752 -0.2489143408388326 0 0.45044915722437762 -0.26850181079914559 0 0.47280076665640752 -0.2489143408388326 0 0.45044915722437762 -0.26850181079914559 0 0.47280076665640752 -0.2489143408388326 0 0.46804288734029059 -0.26722003625473661 0 0.45044915722437762 -0.26850181079914559 0 0.46804288734029059 -0.26722003625473661 0 0.46340069923443289 -0.27920135291261139 0 0.45044915722437762 -0.26850181079914559 0 0.46340069923443289 -0.27920135291261139 0 0.45044915722437762 -0.26850181079914559 0 0.45619736340931982 -0.29432188194263809 0 0.45044915722437762 -0.26850181079914559 0 0.44520550316575902 -0.27309700188226788 0 0.44212973817522738 -0.26364726224876639 0 0.45044915722437762 -0.26850181079914559 0 0.44691560429357058 -0.27646306579045621 0 0.44520550316575902 -0.27309700188226788 0 0.45044915722437762 -0.26850181079914559 0 0.44520550316575902 -0.27309700188226788 0 0.45044915722437762 -0.26850181079914559 0 0.44691560429357058 -0.27646306579045621 0 0.44918938048374552 -0.28374871594965762 0 0.44691560429357058 -0.27646306579045621 0 0.44281837630040061 -0.28050473453075359 0 0.44918938048374552 -0.28374871594965762 0 0.44281837630040061 -0.28050473453075359 0 0.43939866828287732 -0.27185479433692672 0 0.44520550316575902 -0.27309700188226788 0 0.44281837630040061 -0.28050473453075359 0 0.43939866828287732 -0.27185479433692672 0 0.43368820201543401 -0.27925137586193 0 0.44691560429357058 -0.27646306579045621 0 0.44281837630040061 -0.28050473453075359 0 0.44520550316575902 -0.27309700188226788 0 0.43939866828287732 -0.27185479433692672 0 0.44212973817522738 -0.26364726224876639 0 0.43315152175756549 -0.26277359716091581 0 0.43939866828287732 -0.27185479433692672 0 0.44520550316575902 -0.27309700188226788 0 0.44212973817522738 -0.26364726224876639 0 0.44474282262130499 -0.24286982045652811 0 0.45044915722437762 -0.26850181079914559 0 0.44212973817522738 -0.26364726224876639 0 0.44474282262130499 -0.24286982045652811 0 0.45044915722437762 -0.26850181079914559 0 0.44474282262130499 -0.24286982045652811 0 0.44212973817522738 -0.26364726224876639 0 0.43315152175756549 -0.26277359716091581 0 0.44991326851460728 -0.29662328814579292 0 0.45705149851677751 -0.3028322136137459 0 0.44915899497211831 -0.31540627377660702 0 0.44991326851460728 -0.29662328814579292 0 0.44915899497211831 -0.31540627377660702 0 0.43199575209959251 -0.2974920255688015 0 0.44915899497211831 -0.31540627377660702 0 0.43199575209959251 -0.2974920255688015 0 0.44281837630040061 -0.28050473453075359 0 0.44991326851460728 -0.29662328814579292 0 0.43368820201543401 -0.27925137586193 0 0.44281837630040061 -0.28050473453075359 0 0.44918938048374552 -0.28374871594965762 0 0.44991326851460728 -0.29662328814579292 0 0.44991326851460728 -0.29662328814579292 0 0.43368820201543401 -0.27925137586193 0 0.44991326851460728 -0.29662328814579292 0 0.43368820201543401 -0.27925137586193 0 0.43199575209959251 -0.2974920255688015 0 0.45044915722437762 -0.26850181079914559 0 0.44918938048374552 -0.28374871594965762 0 0.45619736340931982 -0.29432188194263809 0 0.44918938048374552 -0.28374871594965762 0 0.44991326851460728 -0.29662328814579292 0 0.45619736340931982 -0.29432188194263809 0 0.45044915722437762 -0.26850181079914559 0 0.45619736340931982 -0.29432188194263809 0 0.46340069923443289 -0.27920135291261139 0 0.45619736340931982 -0.29432188194263809 0 0.47021973710646742 -0.29021565804087679 0 0.45619736340931982 -0.29432188194263809 0 0.46513399988034471 -0.29895676919306557 0 0.47021973710646742 -0.29021565804087679 0 0.45705149851677751 -0.3028322136137459 0 0.46490350566512251 -0.30913513788071512 0 0.44915899497211831 -0.31540627377660702 0 0.46513399988034471 -0.29895676919306557 0 0.45705149851677751 -0.3028322136137459 0 0.46490350566512251 -0.30913513788071512 0 0.44991326851460728 -0.29662328814579292 0 0.45619736340931982 -0.29432188194263809 0 0.45705149851677751 -0.3028322136137459 0 0.45619736340931982 -0.29432188194263809 0 0.46513399988034471 -0.29895676919306557 0 0.45705149851677751 -0.3028322136137459 0 0.46490350566512251 -0.30913513788071512 0 0.47800317780116569 -0.3022896295055793 0 0.47523249595466432 -0.31436487621184628 0 0.46513399988034471 -0.29895676919306557 0 0.46490350566512251 -0.30913513788071512 0 0.47800317780116569 -0.3022896295055793 0 0.46513399988034471 -0.29895676919306557 0 0.47800317780116569 -0.3022896295055793 0 0.47021973710646742 -0.29021565804087679 0 0.47800317780116569 -0.3022896295055793 0 0.48710516333862069 -0.31453355689682172 0 0.47523249595466432 -0.31436487621184628 0 0.47530539527662319 -0.27651806263839179 0 0.47021973710646742 -0.29021565804087679 0 0.48584518453122499 -0.2882241891547454 0 0.47800317780116569 -0.3022896295055793 0 0.47021973710646742 -0.29021565804087679 0 0.48584518453122499 -0.2882241891547454 0 0.47530539527662319 -0.27651806263839179 0 0.46340069923443289 -0.27920135291261139 0 0.47021973710646742 -0.29021565804087679 0 0.47800317780116569 -0.3022896295055793 0 0.48584518453122499 -0.2882241891547454 0 0.5 -0.29513517711546572 0 0.5 -0.2680169238196034 0 0.48584518453122499 -0.2882241891547454 0 0.5 -0.29513517711546572 0 0.5 -0.29513517711546572 0 0.5 -0.32225343041132792 0 0.48710516333862069 -0.31453355689682172 0 0.47800317780116569 -0.3022896295055793 0 0.5 -0.29513517711546572 0 0.48710516333862069 -0.31453355689682172 0 0.5 -0.32225343041132792 0 0.48710516333862069 -0.31453355689682172 0 0.48774687906170228 -0.33467443406128339 0 0.5 -0.32225343041132792 0 0.48774687906170228 -0.33467443406128339 0 0.5 -0.34937168370719018 0 0.48420746469406772 -0.35198834574086368 0 0.46632223784464472 -0.33332052198441198 0 0.48774687906170228 -0.33467443406128339 0 0.47725415643624342 -0.32588392793097443 0 0.46632223784464472 -0.33332052198441198 0 0.48774687906170228 -0.33467443406128339 0 0.48420746469406772 -0.35198834574086368 0 0.46632223784464472 -0.33332052198441198 0 0.47725415643624342 -0.32588392793097443 0 0.46632223784464472 -0.33332052198441198 0 0.47725415643624342 -0.32588392793097443 0 0.4666263454023078 -0.31963021888624338 0 0.46632223784464472 -0.33332052198441198 0 0.48710516333862069 -0.31453355689682172 0 0.48774687906170228 -0.33467443406128339 0 0.47725415643624342 -0.32588392793097443 0 0.46490350566512251 -0.30913513788071512 0 0.47523249595466432 -0.31436487621184628 0 0.4666263454023078 -0.31963021888624338 0 0.47523249595466432 -0.31436487621184628 0 0.47725415643624342 -0.32588392793097443 0 0.4666263454023078 -0.31963021888624338 0 0.48710516333862069 -0.31453355689682172 0 0.47523249595466432 -0.31436487621184628 0 0.47725415643624342 -0.32588392793097443 0 0.5 -0.34937168370719018 0 0.48295643063652732 -0.37013504762846833 0 0.5 -0.37648993700305239 0 0.48774687906170228 -0.33467443406128339 0 0.5 -0.34937168370719018 0 0.48420746469406772 -0.35198834574086368 0 0.5 -0.34937168370719018 0 0.48420746469406772 -0.35198834574086368 0 0.48295643063652732 -0.37013504762846833 0 0.48420746469406772 -0.35198834574086368 0 0.46713536672557793 -0.35433876519054119 0 0.46632223784464472 -0.33332052198441198 0 0.48420746469406772 -0.35198834574086368 0 0.48295643063652732 -0.37013504762846833 0 0.46713536672557793 -0.35433876519054119 0 0.48295643063652732 -0.37013504762846833 0 0.45921131556880629 -0.36746147544456992 0 0.46713536672557793 -0.35433876519054119 0 0.48295643063652732 -0.37013504762846833 0 0.45921131556880629 -0.36746147544456992 0 0.46574491250191019 -0.3832216328700182 0 0.45921131556880629 -0.36746147544456992 0 0.46713536672557793 -0.35433876519054119 0 0.44419582861972118 -0.34837232847995719 0 0.46713536672557793 -0.35433876519054119 0 0.44419582861972118 -0.34837232847995719 0 0.46632223784464472 -0.33332052198441198 0 0.4450227825017109 -0.36811244387186859 0 0.43352400282182291 -0.37047518658766998 0 0.45021257242739049 -0.38058863462656611 0 0.45921131556880629 -0.36746147544456992 0 0.44419582861972118 -0.34837232847995719 0 0.4450227825017109 -0.36811244387186859 0 0.44419582861972118 -0.34837232847995719 0 0.4450227825017109 -0.36811244387186859 0 0.43352400282182291 -0.37047518658766998 0 0.45921131556880629 -0.36746147544456992 0 0.4450227825017109 -0.36811244387186859 0 0.45021257242739049 -0.38058863462656611 0 0.46632223784464472 -0.33332052198441198 0 0.44915899497211831 -0.31540627377660702 0 0.46490350566512251 -0.30913513788071512 0 0.4666263454023078 -0.31963021888624338 0 0.44915899497211831 -0.31540627377660702 0 0.46632223784464472 -0.33332052198441198 0 0.44905928313476817 -0.33204860926801871 0 0.44915899497211831 -0.31540627377660702 0 0.4666263454023078 -0.31963021888624338 0 0.46632223784464472 -0.33332052198441198 0 0.44915899497211831 -0.31540627377660702 0 0.44419582861972118 -0.34837232847995719 0 0.46632223784464472 -0.33332052198441198 0 0.44905928313476817 -0.33204860926801871 0 0.44419582861972118 -0.34837232847995719 0 0.46632223784464472 -0.33332052198441198 0 0.44419582861972118 -0.34837232847995719 0 0.44905928313476817 -0.33204860926801871 0 0.43507319911074199 -0.33150836224624908 0 0.44905928313476817 -0.33204860926801871 0 0.44915899497211831 -0.31540627377660702 0 0.43507319911074199 -0.33150836224624908 0 0.44915899497211831 -0.31540627377660702 0 0.42984196566903138 -0.31583128146460671 0 0.43507319911074199 -0.33150836224624908 0 0.42984196566903138 -0.31583128146460671 0 0.43507319911074199 -0.33150836224624908 0 0.41480527445688969 -0.32820814696699091 0 0.44419582861972118 -0.34837232847995719 0 0.43507319911074199 -0.33150836224624908 0 0.42919706485388859 -0.34327222659587009 0 0.43507319911074199 -0.33150836224624908 0 0.42250436920626228 -0.33795672273453642 0 0.41480527445688969 -0.32820814696699091 0 0.43507319911074199 -0.33150836224624908 0 0.42250436920626228 -0.33795672273453642 0 0.42919706485388859 -0.34327222659587009 0 0.42250436920626228 -0.33795672273453642 0 0.42919706485388859 -0.34327222659587009 0 0.41936797908115242 -0.34633639245184489 0 0.41480527445688969 -0.32820814696699091 0 0.41407832852863868 -0.34045848541172702 0 0.40158494932840261 -0.34502702141403863 0 0.42250436920626228 -0.33795672273453642 0 0.41480527445688969 -0.32820814696699091 0 0.41407832852863868 -0.34045848541172702 0 0.41480527445688969 -0.32820814696699091 0 0.40158494932840261 -0.34502702141403863 0 0.42250436920626228 -0.33795672273453642 0 0.41407832852863868 -0.34045848541172702 0 0.41936797908115242 -0.34633639245184489 0 0.41480527445688969 -0.32820814696699091 0 0.40595155021468732 -0.31866949024157692 0 0.41518499018721527 -0.30825221519594143 0 0.41480527445688969 -0.32820814696699091 0 0.40595155021468732 -0.31866949024157692 0 0.39846696184768238 -0.3277482067391379 0 0.42984196566903138 -0.31583128146460671 0 0.41480527445688969 -0.32820814696699091 0 0.41518499018721527 -0.30825221519594143 0 0.44419582861972118 -0.34837232847995719 0 0.43352400282182291 -0.37047518658766998 0 0.42206941939479942 -0.36342413497550519 0 0.43352400282182291 -0.37047518658766998 0 0.42206941939479942 -0.36342413497550519 0 0.42160158510756701 -0.37451121410048088 0 0.44419582861972118 -0.34837232847995719 0 0.42206941939479942 -0.36342413497550519 0 0.44419582861972118 -0.34837232847995719 0 0.42206941939479942 -0.36342413497550519 0 0.42334498053078018 -0.35398976342873878 0 0.44419582861972118 -0.34837232847995719 0 0.42919706485388859 -0.34327222659587009 0 0.42334498053078018 -0.35398976342873878 0 0.42919706485388859 -0.34327222659587009 0 0.42334498053078018 -0.35398976342873878 0 0.41936797908115242 -0.34633639245184489 0 0.41331338853771582 -0.35769113729715352 0 0.41589883313060538 -0.36762176458041412 0 0.40280848111522949 -0.35180741393458681 0 0.41936797908115242 -0.34633639245184489 0 0.41437427896708978 -0.35043701824779189 0 0.41063010284970097 -0.34656657985320027 0 0.41407832852863868 -0.34045848541172702 0 0.41936797908115242 -0.34633639245184489 0 0.41063010284970097 -0.34656657985320027 0 0.42334498053078018 -0.35398976342873878 0 0.41936797908115242 -0.34633639245184489 0 0.41800162388073497 -0.35261513916719811 0 0.41936797908115242 -0.34633639245184489 0 0.41437427896708978 -0.35043701824779189 0 0.41800162388073497 -0.35261513916719811 0 0.41407832852863868 -0.34045848541172702 0 0.41063010284970097 -0.34656657985320027 0 0.40158494932840261 -0.34502702141403863 0 0.40638690274476469 -0.34880488858321967 0 0.41052407768572602 -0.35181853913105288 0 0.40280848111522949 -0.35180741393458681 0 0.41063010284970097 -0.34656657985320027 0 0.40638690274476469 -0.34880488858321967 0 0.41052407768572602 -0.35181853913105288 0 0.41437427896708978 -0.35043701824779189 0 0.41063010284970097 -0.34656657985320027 0 0.41052407768572602 -0.35181853913105288 0 0.41437427896708978 -0.35043701824779189 0 0.41052407768572602 -0.35181853913105288 0 0.41497866397787919 -0.35480094713670218 0 0.41052407768572602 -0.35181853913105288 0 0.41331338853771582 -0.35769113729715352 0 0.41497866397787919 -0.35480094713670218 0 0.41052407768572602 -0.35181853913105288 0 0.41331338853771582 -0.35769113729715352 0 0.40280848111522949 -0.35180741393458681 0 0.41331338853771582 -0.35769113729715352 0 0.41497866397787919 -0.35480094713670218 0 0.41801167048973231 -0.35769118616866458 0 0.41331338853771582 -0.35769113729715352 0 0.41801167048973231 -0.35769118616866458 0 0.41765860482712303 -0.36240697283149981 0 0.41437427896708978 -0.35043701824779189 0 0.41497866397787919 -0.35480094713670218 0 0.41800162388073497 -0.35261513916719811 0 0.41497866397787919 -0.35480094713670218 0 0.41800162388073497 -0.35261513916719811 0 0.41801167048973231 -0.35769118616866458 0 0.42334498053078018 -0.35398976342873878 0 0.41800162388073497 -0.35261513916719811 0 0.41801167048973231 -0.35769118616866458 0 0.42334498053078018 -0.35398976342873878 0 0.41801167048973231 -0.35769118616866458 0 0.41974518505096048 -0.36122522457484429 0 0.41589883313060538 -0.36762176458041412 0 0.40280848111522949 -0.35180741393458681 0 0.4094998651341224 -0.36629488882666189 0 0.41589883313060538 -0.36762176458041412 0 0.40280848111522949 -0.35180741393458681 0 0.41331338853771582 -0.35769113729715352 0 0.41765860482712303 -0.36240697283149981 0 0.41589883313060538 -0.36762176458041412 0 0.42206941939479942 -0.36342413497550519 0 0.42334498053078018 -0.35398976342873878 0 0.41974518505096048 -0.36122522457484429 0 0.42206941939479942 -0.36342413497550519 0 0.41974518505096048 -0.36122522457484429 0 0.41765860482712303 -0.36240697283149981 0 0.41801167048973231 -0.35769118616866458 0 0.41974518505096048 -0.36122522457484429 0 0.41765860482712303 -0.36240697283149981 0 0.42206941939479942 -0.36342413497550519 0 0.41765860482712303 -0.36240697283149981 0 0.41589883313060538 -0.36762176458041412 0 0.42206941939479942 -0.36342413497550519 0 0.41589883313060538 -0.36762176458041412 0 0.40904191692467662 -0.37228627994929392 0 0.41589883313060538 -0.36762176458041412 0 0.41411331673282109 -0.38022031233322517 0 0.4094998651341224 -0.36629488882666189 0 0.40904191692467662 -0.37228627994929392 0 0.41589883313060538 -0.36762176458041412 0 0.40904191692467662 -0.37228627994929392 0 0.41589883313060538 -0.36762176458041412 0 0.4094998651341224 -0.36629488882666189 0 0.40904191692467662 -0.37228627994929392 0 0.406107948598182 -0.37009192839024307 0 0.42206941939479942 -0.36342413497550519 0 0.42160158510756701 -0.37451121410048088 0 0.42206941939479942 -0.36342413497550519 0 0.41589883313060538 -0.36762176458041412 0 0.42160158510756701 -0.37451121410048088 0 0.41589883313060538 -0.36762176458041412 0 0.42160158510756701 -0.37451121410048088 0 0.41411331673282109 -0.38022031233322517 0 0.41589883313060538 -0.36762176458041412 0 0.42160158510756701 -0.37451121410048088 0 0.406107948598182 -0.37009192839024307 0 0.3979321310670989 -0.36164496709924232 0 0.40280848111522949 -0.35180741393458681 0 0.406107948598182 -0.37009192839024307 0 0.40280848111522949 -0.35180741393458681 0 0.4094998651341224 -0.36629488882666189 0 0.406107948598182 -0.37009192839024307 0 0.40280848111522949 -0.35180741393458681 0 0.39632431041278121 -0.37241775427887658 0 0.406107948598182 -0.37009192839024307 0 0.3979321310670989 -0.36164496709924232 0 0.39632431041278121 -0.37241775427887658 0 0.3979321310670989 -0.36164496709924232 0 0.3849727210417655 -0.36616106911129159 0 0.39944719416753621 -0.34774666978121332 0 0.3849727210417655 -0.36616106911129159 0 0.3979321310670989 -0.36164496709924232 0 0.39944719416753621 -0.34774666978121332 0 0.3849727210417655 -0.36616106911129159 0 0.3979321310670989 -0.36164496709924232 0 0.40280848111522949 -0.35180741393458681 0 0.39944719416753621 -0.34774666978121332 0 0.40280848111522949 -0.35180741393458681 0 0.39944719416753621 -0.34774666978121332 0 0.40280848111522949 -0.35180741393458681 0 0.40158494932840261 -0.34502702141403863 0 0.41063010284970097 -0.34656657985320027 0 0.40638690274476469 -0.34880488858321967 0 0.40158494932840261 -0.34502702141403863 0 0.40280848111522949 -0.35180741393458681 0 0.39944719416753621 -0.34774666978121332 0 0.40158494932840261 -0.34502702141403863 0 0.40638690274476469 -0.34880488858321967 0 0.40280848111522949 -0.35180741393458681 0 0.40158494932840261 -0.34502702141403863 0 0.39944719416753621 -0.34774666978121332 0 0.40158494932840261 -0.34502702141403863 0 0.37913080788941023 -0.34704742573611691 0 0.3849727210417655 -0.36616106911129159 0 0.36449801693046352 -0.35653353055336567 0 0.39944719416753621 -0.34774666978121332 0 0.37913080788941023 -0.34704742573611691 0 0.3849727210417655 -0.36616106911129159 0 0.39632431041278121 -0.37241775427887658 0 0.3849727210417655 -0.36616106911129159 0 0.38959988535118251 -0.38203856511228412 0 0.39846696184768238 -0.3277482067391379 0 0.39534897436696198 -0.31046939206423718 0 0.39846696184768238 -0.3277482067391379 0 0.38293690440463618 -0.3149226035927235 0 0.39534897436696198 -0.31046939206423718 0 0.40595155021468732 -0.31866949024157692 0 0.39846696184768238 -0.3277482067391379 0 0.39534897436696198 -0.31046939206423718 0 0.39944719416753621 -0.34774666978121332 0 0.38300785244658547 -0.32788643118286781 0 0.40158494932840261 -0.34502702141403863 0 0.39846696184768238 -0.3277482067391379 0 0.38300785244658547 -0.32788643118286781 0 0.39944719416753621 -0.34774666978121332 0 0.40158494932840261 -0.34502702141403863 0 0.38300785244658547 -0.32788643118286781 0 0.41480527445688969 -0.32820814696699091 0 0.40158494932840261 -0.34502702141403863 0 0.39846696184768238 -0.3277482067391379 0 0.40158494932840261 -0.34502702141403863 0 0.39846696184768238 -0.3277482067391379 0 0.39944719416753621 -0.34774666978121332 0 0.37913080788941023 -0.34704742573611691 0 0.38300785244658547 -0.32788643118286781 0 0.37913080788941023 -0.34704742573611691 0 0.38300785244658547 -0.32788643118286781 0 0.37001166429093729 -0.33495670932523292 0 0.38300785244658547 -0.32788643118286781 0 0.38293690440463618 -0.3149226035927235 0 0.37000821144581558 -0.32141789506041257 0 0.39846696184768238 -0.3277482067391379 0 0.38300785244658547 -0.32788643118286781 0 0.38293690440463618 -0.3149226035927235 0 0.38496401369691657 -0.30016428819033991 0 0.37362155735316249 -0.291527603103302 0 0.36766681071101831 -0.3060050769085817 0 0.38293690440463618 -0.3149226035927235 0 0.38496401369691657 -0.30016428819033991 0 0.36766681071101831 -0.3060050769085817 0 0.38293690440463618 -0.3149226035927235 0 0.38496401369691657 -0.30016428819033991 0 0.39534897436696198 -0.31046939206423718 0 0.38496401369691657 -0.30016428819033991 0 0.39534897436696198 -0.31046939206423718 0 0.40240473732237048 -0.29376157755385041 0 0.39534897436696198 -0.31046939206423718 0 0.40240473732237048 -0.29376157755385041 0 0.41518499018721527 -0.30825221519594143 0 0.40595155021468732 -0.31866949024157692 0 0.39534897436696198 -0.31046939206423718 0 0.41518499018721527 -0.30825221519594143 0 0.40240473732237048 -0.29376157755385041 0 0.38612387669044529 -0.28554177467531899 0 0.39710896403820739 -0.27811098799199852 0 0.38496401369691657 -0.30016428819033991 0 0.40240473732237048 -0.29376157755385041 0 0.38612387669044529 -0.28554177467531899 0 0.40240473732237048 -0.29376157755385041 0 0.39710896403820739 -0.27811098799199852 0 0.4148325092270666 -0.27957777736099609 0 0.38612387669044529 -0.28554177467531899 0 0.37039703338323082 -0.27845584177728089 0 0.37362155735316249 -0.291527603103302 0 0.38496401369691657 -0.30016428819033991 0 0.38612387669044529 -0.28554177467531899 0 0.37362155735316249 -0.291527603103302 0 0.38612387669044529 -0.28554177467531899 0 0.3834587817843747 -0.26928156361290018 0 0.37039703338323082 -0.27845584177728089 0 0.38612387669044529 -0.28554177467531899 0 0.3834587817843747 -0.26928156361290018 0 0.39710896403820739 -0.27811098799199852 0 0.37842677557578852 -0.2476989620572124 0 0.3834587817843747 -0.26928156361290018 0 0.39766926635454081 -0.26166352915319058 0 0.37842677557578852 -0.2476989620572124 0 0.3834587817843747 -0.26928156361290018 0 0.36968856660685873 -0.2639334702088682 0 0.37842677557578852 -0.2476989620572124 0 0.4012380690170872 -0.24450755129420401 0 0.39766926635454081 -0.26166352915319058 0 0.4012380690170872 -0.24450755129420401 0 0.39766926635454081 -0.26166352915319058 0 0.41746313551626058 -0.26187946357806702 0 0.39766926635454081 -0.26166352915319058 0 0.39710896403820739 -0.27811098799199852 0 0.4148325092270666 -0.27957777736099609 0 0.3834587817843747 -0.26928156361290018 0 0.39766926635454081 -0.26166352915319058 0 0.39710896403820739 -0.27811098799199852 0 0.39766926635454081 -0.26166352915319058 0 0.4148325092270666 -0.27957777736099609 0 0.41746313551626058 -0.26187946357806702 0 0.39766926635454081 -0.26166352915319058 0 0.4148325092270666 -0.27957777736099609 0 0.4012380690170872 -0.24450755129420401 0 0.42570036879476142 -0.24729859014922589 0 0.41746313551626058 -0.26187946357806702 0 0.4012380690170872 -0.24450755129420401 0 0.41746313551626058 -0.26187946357806702 0 0.42570036879476142 -0.24729859014922589 0 0.44474282262130499 -0.24286982045652811 0 0.43315152175756549 -0.26277359716091581 0 0.42570036879476142 -0.24729859014922589 0 0.41746313551626058 -0.26187946357806702 0 0.43315152175756549 -0.26277359716091581 0 0.4148325092270666 -0.27957777736099609 0 0.41746313551626058 -0.26187946357806702 0 0.43368820201543401 -0.27925137586193 0 0.41746313551626058 -0.26187946357806702 0 0.43368820201543401 -0.27925137586193 0 0.41746313551626058 -0.26187946357806702 0 0.43315152175756549 -0.26277359716091581 0 0.43368820201543401 -0.27925137586193 0 0.43939866828287732 -0.27185479433692672 0 0.43315152175756549 -0.26277359716091581 0 0.43368820201543401 -0.27925137586193 0 0.4148325092270666 -0.27957777736099609 0 0.43199575209959251 -0.2974920255688015 0 0.4148325092270666 -0.27957777736099609 0 0.43368820201543401 -0.27925137586193 0 0.43199575209959251 -0.2974920255688015 0 0.44915899497211831 -0.31540627377660702 0 0.42984196566903138 -0.31583128146460671 0 0.43199575209959251 -0.2974920255688015 0 0.42984196566903138 -0.31583128146460671 0 0.43199575209959251 -0.2974920255688015 0 0.41518499018721527 -0.30825221519594143 0 0.43199575209959251 -0.2974920255688015 0 0.41518499018721527 -0.30825221519594143 0 0.41610449720906117 -0.29477089891989727 0 0.40240473732237048 -0.29376157755385041 0 0.41518499018721527 -0.30825221519594143 0 0.41610449720906117 -0.29477089891989727 0 0.4148325092270666 -0.27957777736099609 0 0.43199575209959251 -0.2974920255688015 0 0.41610449720906117 -0.29477089891989727 0 0.40240473732237048 -0.29376157755385041 0 0.4148325092270666 -0.27957777736099609 0 0.41610449720906117 -0.29477089891989727 0 0.44743494495685809 -0.48019854275646462 0 0.47933494662464382 -0.47864198040378442 0 0.45842161788938501 -0.46056679151078628 0 0.44743494495685809 -0.48019854275646462 0 0.45811272235343942 -0.50000000000000167 0 0.47933494662464382 -0.47864198040378442 0 0.44743494495685809 -0.48019854275646462 0 0.45811272235343942 -0.50000000000000167 0 0.43290864349546432 -0.5 0 0.44743494495685809 -0.48019854275646462 0 0.45842161788938501 -0.46056679151078628 0 0.4280473361504199 -0.46678931888308839 0 0.45811272235343942 -0.50000000000000167 0 0.47933494662464382 -0.47864198040378442 0 0.45811272235343942 -0.50000000000000167 0 0.48760895668473242 -0.48579312772384398 0 0.47933494662464382 -0.47864198040378442 0 0.45811272235343942 -0.50000000000000167 0 0.5 -0.5 0 0.48760895668473242 -0.48579312772384398 0 0.5 -0.5 0 0.48760895668473242 -0.48579312772384398 0 0.49999999999999789 -0.457844696890639 0 0.48760895668473242 -0.48579312772384398 0 0.47933494662464382 -0.47864198040378442 0 0.49999999999999789 -0.457844696890639 0 0.47933494662464382 -0.47864198040378442 0 0.45842161788938501 -0.46056679151078628 0 0.48760895668473242 -0.48579312772384398 0 0.47933494662464382 -0.47864198040378442 0 0.47933494662464382 -0.47864198040378442 0 0.47533823150818688 -0.45612589162827472 0 0.4923874147236843 -0.46002701451518169 0 0.47933494662464382 -0.47864198040378442 0 0.47533823150818688 -0.45612589162827472 0 0.45842161788938501 -0.46056679151078628 0 0.47933494662464382 -0.47864198040378442 0 0.49999999999999789 -0.457844696890639 0 0.4923874147236843 -0.46002701451518169 0 0.49999999999999789 -0.457844696890639 0 0.49020417241121672 -0.44382058717293288 0 0.47933494662464382 -0.47864198040378442 0 0.4923874147236843 -0.46002701451518169 0 0.49999999999999789 -0.457844696890639 0 0.49999999999999789 -0.457844696890639 0 0.49020417241121672 -0.44382058717293288 0 0.5 -0.4307264435947768 0 0.4923874147236843 -0.46002701451518169 0 0.49020417241121672 -0.44382058717293288 0 0.47469095731965483 -0.43864806441150672 0 0.4923874147236843 -0.46002701451518169 0 0.47469095731965483 -0.43864806441150672 0 0.49020417241121672 -0.44382058717293288 0 0.47469095731965483 -0.43864806441150672 0 0.48629109420424282 -0.43230302816257471 0 0.47533823150818688 -0.45612589162827472 0 0.4923874147236843 -0.46002701451518169 0 0.47469095731965483 -0.43864806441150672 0 0.47533823150818688 -0.45612589162827472 0 0.46919075262325532 -0.44760265828852153 0 0.47469095731965483 -0.43864806441150672 0 0.46919075262325532 -0.44760265828852153 0 0.46164766646977129 -0.44028563331346099 0 0.45842161788938501 -0.46056679151078628 0 0.46919075262325532 -0.44760265828852153 0 0.47469095731965483 -0.43864806441150672 0 0.46164766646977129 -0.44028563331346099 0 0.47533823150818688 -0.45612589162827472 0 0.46919075262325532 -0.44760265828852153 0 0.45842161788938501 -0.46056679151078628 0 0.45842161788938501 -0.46056679151078628 0 0.43750828915412587 -0.44249160261778869 0 0.4280473361504199 -0.46678931888308839 0 0.46164766646977129 -0.44028563331346099 0 0.43750828915412587 -0.44249160261778869 0 0.46164766646977129 -0.44028563331346099 0 0.45842161788938501 -0.46056679151078628 0 0.43750828915412587 -0.44249160261778869 0 0.46164766646977129 -0.44028563331346099 0 0.43750828915412587 -0.44249160261778869 0 0.44858524283796403 -0.43098949677167703 0 0.45842161788938501 -0.46056679151078628 0 0.43750828915412587 -0.44249160261778869 0 0.44858524283796403 -0.43098949677167703 0 0.43819051581233359 -0.42391163684762628 0 0.45699449991562507 -0.41726911430783148 0 0.43750828915412587 -0.44249160261778869 0 0.44858524283796403 -0.43098949677167703 0 0.43819051581233359 -0.42391163684762628 0 0.43819051581233359 -0.42391163684762628 0 0.43822670101896027 -0.41006445112121281 0 0.45699449991562507 -0.41726911430783148 0 0.45699449991562507 -0.41726911430783148 0 0.43929804251159571 -0.39589016420415662 0 0.43822670101896027 -0.41006445112121281 0 0.45699449991562507 -0.41726911430783148 0 0.43929804251159571 -0.39589016420415662 0 0.45699449991562507 -0.41726911430783148 0 0.48026924708609992 -0.41601701747108238 0 0.45969082239437559 -0.3979547981066785 0 0.46164766646977129 -0.44028563331346099 0 0.44858524283796403 -0.43098949677167703 0 0.45699449991562507 -0.41726911430783148 0 0.47469095731965483 -0.43864806441150672 0 0.45699449991562507 -0.41726911430783148 0 0.47469095731965483 -0.43864806441150672 0 0.46164766646977129 -0.44028563331346099 0 0.45699449991562507 -0.41726911430783148 0 0.47469095731965483 -0.43864806441150672 0 0.45699449991562507 -0.41726911430783148 0 0.48026924708609992 -0.41601701747108238 0 0.47469095731965483 -0.43864806441150672 0 0.48629109420424282 -0.43230302816257471 0 0.48026924708609992 -0.41601701747108238 0 0.48629109420424282 -0.43230302816257471 0 0.5 -0.4307264435947768 0 0.48026924708609992 -0.41601701747108238 0 0.49020417241121672 -0.44382058717293288 0 0.48629109420424282 -0.43230302816257471 0 0.5 -0.4307264435947768 0 0.5 -0.4307264435947768 0 0.48026924708609992 -0.41601701747108238 0 0.5 -0.40360819029891459 0 0.48026924708609992 -0.41601701747108238 0 0.48144356876981892 -0.39123777056303571 0 0.45969082239437559 -0.3979547981066785 0 0.48144356876981892 -0.39123777056303571 0 0.46574491250191019 -0.3832216328700182 0 0.45969082239437559 -0.3979547981066785 0 0.48026924708609992 -0.41601701747108238 0 0.48144356876981892 -0.39123777056303571 0 0.5 -0.40360819029891459 0 0.48295643063652732 -0.37013504762846833 0 0.48144356876981892 -0.39123777056303571 0 0.5 -0.37648993700305239 0 0.48144356876981892 -0.39123777056303571 0 0.5 -0.40360819029891459 0 0.5 -0.37648993700305239 0 0.48295643063652732 -0.37013504762846833 0 0.48144356876981892 -0.39123777056303571 0 0.46574491250191019 -0.3832216328700182 0 0.46574491250191019 -0.3832216328700182 0 0.45969082239437559 -0.3979547981066785 0 0.45021257242739049 -0.38058863462656611 0 0.45921131556880629 -0.36746147544456992 0 0.46574491250191019 -0.3832216328700182 0 0.45021257242739049 -0.38058863462656611 0 0.45969082239437559 -0.3979547981066785 0 0.43929804251159571 -0.39589016420415662 0 0.45021257242739049 -0.38058863462656611 0 0.45699449991562507 -0.41726911430783148 0 0.45969082239437559 -0.3979547981066785 0 0.43929804251159571 -0.39589016420415662 0 0.43352400282182291 -0.37047518658766998 0 0.43929804251159571 -0.39589016420415662 0 0.45021257242739049 -0.38058863462656611 0 0.43352400282182291 -0.37047518658766998 0 0.42160158510756701 -0.37451121410048088 0 0.43929804251159571 -0.39589016420415662 0 0.42160158510756701 -0.37451121410048088 0 0.43929804251159571 -0.39589016420415662 0 0.42049764159413761 -0.40067327493484078 0 0.42160158510756701 -0.37451121410048088 0 0.43929804251159571 -0.39589016420415662 0 0.43822670101896027 -0.41006445112121281 0 0.43929804251159571 -0.39589016420415662 0 0.42049764159413761 -0.40067327493484078 0 0.42049764159413761 -0.40067327493484078 0 0.4094074160811339 -0.38837644284589962 0 0.40309521469247123 -0.41274871332659041 0 0.42049764159413761 -0.40067327493484078 0 0.4094074160811339 -0.38837644284589962 0 0.41411331673282109 -0.38022031233322517 0 0.42160158510756701 -0.37451121410048088 0 0.42049764159413761 -0.40067327493484078 0 0.41411331673282109 -0.38022031233322517 0 0.42160158510756701 -0.37451121410048088 0 0.42049764159413761 -0.40067327493484078 0 0.40904191692467662 -0.37228627994929392 0 0.406107948598182 -0.37009192839024307 0 0.4094074160811339 -0.38837644284589962 0 0.40904191692467662 -0.37228627994929392 0 0.4094074160811339 -0.38837644284589962 0 0.41411331673282109 -0.38022031233322517 0 0.406107948598182 -0.37009192839024307 0 0.4094074160811339 -0.38837644284589962 0 0.39632431041278121 -0.37241775427887658 0 0.406107948598182 -0.37009192839024307 0 0.4094074160811339 -0.38837644284589962 0 0.4094074160811339 -0.38837644284589962 0 0.38959988535118251 -0.38203856511228412 0 0.3867967313042347 -0.39866209088398069 0 0.39632431041278121 -0.37241775427887658 0 0.4094074160811339 -0.38837644284589962 0 0.38959988535118251 -0.38203856511228412 0 0.3849727210417655 -0.36616106911129159 0 0.3704982479159975 -0.38457546844137203 0 0.38959988535118251 -0.38203856511228412 0 0.3867967313042347 -0.39866209088398069 0 0.3704982479159975 -0.38457546844137203 0 0.3849727210417655 -0.36616106911129159 0 0.38959988535118251 -0.38203856511228412 0 0.3704982479159975 -0.38457546844137203 0 0.39593111894877647 -0.41129147081542211 0 0.37260289457872148 -0.39256356844412649 0 0.39593111894877647 -0.41129147081542211 0 0.37824964613223411 -0.40721598256057973 0 0.37260289457872148 -0.39256356844412649 0 0.3867967313042347 -0.39866209088398069 0 0.39593111894877647 -0.41129147081542211 0 0.37260289457872148 -0.39256356844412649 0 0.3867967313042347 -0.39866209088398069 0 0.3704982479159975 -0.38457546844137203 0 0.3867967313042347 -0.39866209088398069 0 0.37260289457872148 -0.39256356844412649 0 0.3704982479159975 -0.38457546844137203 0 0.4094074160811339 -0.38837644284589962 0 0.3867967313042347 -0.39866209088398069 0 0.40309521469247123 -0.41274871332659041 0 0.3867967313042347 -0.39866209088398069 0 0.40309521469247123 -0.41274871332659041 0 0.40309521469247123 -0.41274871332659041 0 0.39593111894877647 -0.41129147081542211 0 0.41925934331883102 -0.43001937318671812 0 0.3867967313042347 -0.39866209088398069 0 0.40309521469247123 -0.41274871332659041 0 0.39593111894877647 -0.41129147081542211 0 0.39742323409801311 -0.42183298033522748 0 0.39593111894877647 -0.41129147081542211 0 0.41925934331883102 -0.43001937318671812 0 0.39742323409801311 -0.42183298033522748 0 0.39593111894877647 -0.41129147081542211 0 0.38564828361652048 -0.41508976198804243 0 0.39593111894877647 -0.41129147081542211 0 0.38564828361652048 -0.41508976198804243 0 0.37824964613223411 -0.40721598256057973 0 0.39742323409801311 -0.42183298033522748 0 0.38564828361652048 -0.41508976198804243 0 0.38606601568649629 -0.42432343085859647 0 0.38564828361652048 -0.41508976198804243 0 0.38606601568649629 -0.42432343085859647 0 0.37110555012516089 -0.41483452963896411 0 0.38564828361652048 -0.41508976198804243 0 0.37824964613223411 -0.40721598256057973 0 0.37110555012516089 -0.41483452963896411 0 0.38606601568649629 -0.42432343085859647 0 0.37172660466160962 -0.43252602748886382 0 0.37110555012516089 -0.41483452963896411 0 0.38606601568649629 -0.42432343085859647 0 0.38599230701666332 -0.44719937423060141 0 0.37172660466160962 -0.43252602748886382 0 0.39742323409801311 -0.42183298033522748 0 0.40083832292686722 -0.43113476564834541 0 0.41925934331883102 -0.43001937318671812 0 0.38606601568649629 -0.42432343085859647 0 0.40083832292686722 -0.43113476564834541 0 0.38599230701666332 -0.44719937423060141 0 0.39742323409801311 -0.42183298033522748 0 0.38606601568649629 -0.42432343085859647 0 0.40083832292686722 -0.43113476564834541 0 0.40083832292686722 -0.43113476564834541 0 0.41183484046744301 -0.43595189509022642 0 0.41925934331883102 -0.43001937318671812 0 0.40083832292686722 -0.43113476564834541 0 0.41183484046744301 -0.43595189509022642 0 0.41175029808539459 -0.44484548842419519 0 0.40309521469247123 -0.41274871332659041 0 0.41925934331883102 -0.43001937318671812 0 0.41939369808070731 -0.42683533576920057 0 0.41183484046744301 -0.43595189509022642 0 0.41925934331883102 -0.43001937318671812 0 0.41879872786794109 -0.44093537504805108 0 0.41925934331883102 -0.43001937318671812 0 0.41879872786794109 -0.44093537504805108 0 0.41925934331883102 -0.43001937318671812 0 0.41939369808070731 -0.42683533576920057 0 0.40309521469247123 -0.41274871332659041 0 0.41939369808070731 -0.42683533576920057 0 0.42049764159413761 -0.40067327493484078 0 0.40309521469247123 -0.41274871332659041 0 0.41939369808070731 -0.42683533576920057 0 0.39593111894877647 -0.41129147081542211 0 0.41925934331883102 -0.43001937318671812 0 0.42049764159413761 -0.40067327493484078 0 0.41939369808070731 -0.42683533576920057 0 0.42049764159413761 -0.40067327493484078 0 0.41939369808070731 -0.42683533576920057 0 0.42942741962824621 -0.41523290192779377 0 0.43822670101896027 -0.41006445112121281 0 0.42049764159413761 -0.40067327493484078 0 0.42942741962824621 -0.41523290192779377 0 0.43819051581233359 -0.42391163684762628 0 0.43822670101896027 -0.41006445112121281 0 0.42942741962824621 -0.41523290192779377 0 0.43750828915412587 -0.44249160261778869 0 0.41939369808070731 -0.42683533576920057 0 0.43819051581233359 -0.42391163684762628 0 0.41939369808070731 -0.42683533576920057 0 0.42942741962824621 -0.41523290192779377 0 0.43750828915412587 -0.44249160261778869 0 0.43819051581233359 -0.42391163684762628 0 0.41939369808070731 -0.42683533576920057 0 0.43750828915412587 -0.44249160261778869 0 0.41939369808070731 -0.42683533576920057 0 0.43204561699859662 -0.44028419580539441 0 0.41925934331883102 -0.43001937318671812 0 0.41939369808070731 -0.42683533576920057 0 0.43204561699859662 -0.44028419580539441 0 0.41925934331883102 -0.43001937318671812 0 0.43204561699859662 -0.44028419580539441 0 0.41879872786794109 -0.44093537504805108 0 0.41925934331883102 -0.43001937318671812 0 0.43204561699859662 -0.44028419580539441 0 0.43750828915412587 -0.44249160261778869 0 0.41879872786794109 -0.44093537504805108 0 0.41175029808539459 -0.44484548842419519 0 0.43750828915412587 -0.44249160261778869 0 0.41175029808539459 -0.44484548842419519 0 0.43750828915412587 -0.44249160261778869 0 0.43204561699859662 -0.44028419580539441 0 0.41879872786794109 -0.44093537504805108 0 0.43750828915412587 -0.44249160261778869 0 0.4280473361504199 -0.46678931888308839 0 0.41175029808539459 -0.44484548842419519 0 0.4280473361504199 -0.46678931888308839 0 0.41175029808539459 -0.44484548842419519 0 0.40035086313170082 -0.46115656658412552 0 0.41183484046744301 -0.43595189509022642 0 0.41879872786794109 -0.44093537504805108 0 0.41175029808539459 -0.44484548842419519 0 0.41175029808539459 -0.44484548842419519 0 0.38599230701666332 -0.44719937423060141 0 0.41175029808539459 -0.44484548842419519 0 0.38599230701666332 -0.44719937423060141 0 0.40035086313170082 -0.46115656658412552 0 0.40083832292686722 -0.43113476564834541 0 0.41175029808539459 -0.44484548842419519 0 0.38599230701666332 -0.44719937423060141 0 0.38599230701666332 -0.44719937423060141 0 0.40035086313170082 -0.46115656658412552 0 0.37499402128373183 -0.4619101617447034 0 0.40035086313170082 -0.46115656658412552 0 0.38546661026729317 -0.47660854903505467 0 0.37499402128373183 -0.4619101617447034 0 0.40035086313170082 -0.46115656658412552 0 0.38546661026729317 -0.47660854903505467 0 0.40744926309725149 -0.47873955045079652 0 0.38546661026729317 -0.47660854903505467 0 0.38250048577951418 -0.50000000000000056 0 0.36177717572780671 -0.48279307087465823 0 0.38250048577951418 -0.50000000000000056 0 0.40770456463748928 -0.5 0 0.40744926309725149 -0.47873955045079652 0 0.38546661026729317 -0.47660854903505467 0 0.38250048577951418 -0.50000000000000056 0 0.40744926309725149 -0.47873955045079652 0 0.44743494495685809 -0.48019854275646462 0 0.4280473361504199 -0.46678931888308839 0 0.43290864349546432 -0.5 0 0.4280473361504199 -0.46678931888308839 0 0.40744926309725149 -0.47873955045079652 0 0.43290864349546432 -0.5 0 0.40770456463748928 -0.5 0 0.40744926309725149 -0.47873955045079652 0 0.43290864349546432 -0.5 0 0.4280473361504199 -0.46678931888308839 0 0.40035086313170082 -0.46115656658412552 0 0.40744926309725149 -0.47873955045079652 0 0.31906492150509752 -0.5 0 0.31922860177957618 -0.48417078574268468 0 0.30240395027898559 -0.49999999999999462 0 0.31906492150509752 -0.5 0 0.31922860177957618 -0.48417078574268468 0 0.33572589273120951 -0.49999999999999528 0 0.31922860177957618 -0.48417078574268468 0 0.32087640598761591 -0.46684443196558612 0 0.30463980851243888 -0.47210245990326438 0 0.31922860177957618 -0.48417078574268468 0 0.33510110880520538 -0.47595357292170581 0 0.32087640598761591 -0.46684443196558612 0 0.33510110880520538 -0.47595357292170581 0 0.34648327722654071 -0.48567433420923167 0 0.34105386567609941 -0.46558614174931551 0 0.31922860177957618 -0.48417078574268468 0 0.33510110880520538 -0.47595357292170581 0 0.33572589273120951 -0.49999999999999528 0 0.33510110880520538 -0.47595357292170581 0 0.33572589273120951 -0.49999999999999528 0 0.33510110880520538 -0.47595357292170581 0 0.33572589273120951 -0.49999999999999528 0 0.34648327722654071 -0.48567433420923167 0 0.33572589273120951 -0.49999999999999528 0 0.34648327722654071 -0.48567433420923167 0 0.35911318925536179 -0.5 0 0.34648327722654071 -0.48567433420923167 0 0.35911318925536179 -0.5 0 0.36177717572780671 -0.48279307087465823 0 0.38250048577951418 -0.50000000000000056 0 0.35911318925536179 -0.5 0 0.36177717572780671 -0.48279307087465823 0 0.38250048577951418 -0.50000000000000056 0 0.36177717572780671 -0.48279307087465823 0 0.38546661026729317 -0.47660854903505467 0 0.36177717572780671 -0.48279307087465823 0 0.37499402128373183 -0.4619101617447034 0 0.36177717572780671 -0.48279307087465823 0 0.35871899746378122 -0.46548574143433302 0 0.37499402128373183 -0.4619101617447034 0 0.36177717572780671 -0.48279307087465823 0 0.34105386567609941 -0.46558614174931551 0 0.34648327722654071 -0.48567433420923167 0 0.36177717572780671 -0.48279307087465823 0 0.34105386567609941 -0.46558614174931551 0 0.36177717572780671 -0.48279307087465823 0 0.35871899746378122 -0.46548574143433302 0 0.34105386567609941 -0.46558614174931551 0 0.36023431594793198 -0.44955326003700752 0 0.33447632487920098 -0.45190714584341629 0 0.34105386567609941 -0.46558614174931551 0 0.35871899746378122 -0.46548574143433302 0 0.36023431594793198 -0.44955326003700752 0 0.34105386567609941 -0.46558614174931551 0 0.35871899746378122 -0.46548574143433302 0 0.37499402128373183 -0.4619101617447034 0 0.36023431594793198 -0.44955326003700752 0 0.38599230701666332 -0.44719937423060141 0 0.36023431594793198 -0.44955326003700752 0 0.37172660466160962 -0.43252602748886382 0 0.38599230701666332 -0.44719937423060141 0 0.37499402128373183 -0.4619101617447034 0 0.36023431594793198 -0.44955326003700752 0 0.38599230701666332 -0.44719937423060141 0 0.36023431594793198 -0.44955326003700752 0 0.36023431594793198 -0.44955326003700752 0 0.33447632487920098 -0.45190714584341629 0 0.36023431594793198 -0.44955326003700752 0 0.34596223197073611 -0.43950965463418268 0 0.35523483453179538 -0.42671954267914908 0 0.36023431594793198 -0.44955326003700752 0 0.34596223197073611 -0.43950965463418268 0 0.33447632487920098 -0.45190714584341629 0 0.33447632487920098 -0.45190714584341629 0 0.32025437652030259 -0.45222050459520508 0 0.33390345252401582 -0.42985866997715783 0 0.33447632487920098 -0.45190714584341629 0 0.33390345252401582 -0.42985866997715783 0 0.34596223197073611 -0.43950965463418268 0 0.33447632487920098 -0.45190714584341629 0 0.33390345252401582 -0.42985866997715783 0 0.33510110880520538 -0.47595357292170581 0 0.33447632487920098 -0.45190714584341629 0 0.33510110880520538 -0.47595357292170581 0 0.33447632487920098 -0.45190714584341629 0 0.34105386567609941 -0.46558614174931551 0 0.33510110880520538 -0.47595357292170581 0 0.32886468645453182 -0.45978229866450637 0 0.32087640598761591 -0.46684443196558612 0 0.33510110880520538 -0.47595357292170581 0 0.33447632487920098 -0.45190714584341629 0 0.32886468645453182 -0.45978229866450637 0 0.32886468645453182 -0.45978229866450637 0 0.32087640598761591 -0.46684443196558612 0 0.32025437652030259 -0.45222050459520508 0 0.32087640598761591 -0.46684443196558612 0 0.32025437652030259 -0.45222050459520508 0 0.30463980851243888 -0.47210245990326438 0 0.33447632487920098 -0.45190714584341629 0 0.32886468645453182 -0.45978229866450637 0 0.32025437652030259 -0.45222050459520508 0 0.32025437652030259 -0.45222050459520508 0 0.33390345252401582 -0.42985866997715783 0 0.30687566674589251 -0.44420491980653409 0 0.33390345252401582 -0.42985866997715783 0 0.30911152497934619 -0.41630737970980403 0 0.30687566674589251 -0.44420491980653409 0 0.33333058016883038 -0.40781019411089919 0 0.33390345252401582 -0.42985866997715783 0 0.30911152497934619 -0.41630737970980403 0 0.33333058016883038 -0.40781019411089919 0 0.32163679904365572 -0.39957228291960462 0 0.30911152497934619 -0.41630737970980403 0 0.33333058016883038 -0.40781019411089919 0 0.33390345252401582 -0.42985866997715783 0 0.33333058016883038 -0.40781019411089919 0 0.33390345252401582 -0.42985866997715783 0 0.35523483453179538 -0.42671954267914908 0 0.34596223197073611 -0.43950965463418268 0 0.33390345252401582 -0.42985866997715783 0 0.35523483453179538 -0.42671954267914908 0 0.35523483453179538 -0.42671954267914908 0 0.37172660466160962 -0.43252602748886382 0 0.37110555012516089 -0.41483452963896411 0 0.36023431594793198 -0.44955326003700752 0 0.35523483453179538 -0.42671954267914908 0 0.37172660466160962 -0.43252602748886382 0 0.35523483453179538 -0.42671954267914908 0 0.37110555012516089 -0.41483452963896411 0 0.35447685990688182 -0.40495785017358182 0 0.37110555012516089 -0.41483452963896411 0 0.35447685990688182 -0.40495785017358182 0 0.36596038339199122 -0.40230058191634332 0 0.37824964613223411 -0.40721598256057973 0 0.37110555012516089 -0.41483452963896411 0 0.36596038339199122 -0.40230058191634332 0 0.33333058016883038 -0.40781019411089919 0 0.35523483453179538 -0.42671954267914908 0 0.35447685990688182 -0.40495785017358182 0 0.35447685990688182 -0.40495785017358182 0 0.3704982479159975 -0.38457546844137203 0 0.34974541639729961 -0.38842620805365979 0 0.33333058016883038 -0.40781019411089919 0 0.35447685990688182 -0.40495785017358182 0 0.34974541639729961 -0.38842620805365979 0 0.35447685990688182 -0.40495785017358182 0 0.3704982479159975 -0.38457546844137203 0 0.36596038339199122 -0.40230058191634332 0 0.37260289457872148 -0.39256356844412649 0 0.3704982479159975 -0.38457546844137203 0 0.35447685990688182 -0.40495785017358182 0 0.36596038339199122 -0.40230058191634332 0 0.3704982479159975 -0.38457546844137203 0 0.37824964613223411 -0.40721598256057973 0 0.36596038339199122 -0.40230058191634332 0 0.37260289457872148 -0.39256356844412649 0 0.3704982479159975 -0.38457546844137203 0 0.36919728637136667 -0.37000592409045602 0 0.35682015959724073 -0.37275362825579472 0 0.3704982479159975 -0.38457546844137203 0 0.35682015959724073 -0.37275362825579472 0 0.3704982479159975 -0.38457546844137203 0 0.34974541639729961 -0.38842620805365979 0 0.35682015959724073 -0.37275362825579472 0 0.34974541639729961 -0.38842620805365979 0 0.35682015959724073 -0.37275362825579472 0 0.33640781305987583 -0.3721848729580427 0 0.34974541639729961 -0.38842620805365979 0 0.33275770781364522 -0.38576171824464067 0 0.33640781305987583 -0.3721848729580427 0 0.33333058016883038 -0.40781019411089919 0 0.33275770781364522 -0.38576171824464067 0 0.32163679904365572 -0.39957228291960462 0 0.33333058016883038 -0.40781019411089919 0 0.33275770781364522 -0.38576171824464067 0 0.33333058016883038 -0.40781019411089919 0 0.34974541639729961 -0.38842620805365979 0 0.33275770781364522 -0.38576171824464067 0 0.32163679904365572 -0.39957228291960462 0 0.31134738321280092 -0.38840983961307379 0 0.30911152497934619 -0.41630737970980403 0 0.33275770781364522 -0.38576171824464067 0 0.32163679904365572 -0.39957228291960462 0 0.31134738321280092 -0.38840983961307379 0 0.31134738321280092 -0.38840983961307379 0 0.33640781305987583 -0.3721848729580427 0 0.31300234705635438 -0.36776031027645811 0 0.31134738321280092 -0.38840983961307379 0 0.33640781305987583 -0.3721848729580427 0 0.33275770781364522 -0.38576171824464067 0 0.31134738321280092 -0.38840983961307379 0 0.33640781305987583 -0.3721848729580427 0 0.31134738321280092 -0.38840983961307379 0 0.30406415113964969 -0.38337692439112248 0 0.29537418335312082 -0.39875142739424818 0 0.31134738321280092 -0.38840983961307379 0 0.30406415113964969 -0.38337692439112248 0 0.31300234705635438 -0.36776031027645811 0 0.31134738321280092 -0.38840983961307379 0 0.31300234705635438 -0.36776031027645811 0 0.30406415113964969 -0.38337692439112248 0 0.29207498217776079 -0.38700721792956722 0 0.29452487996116072 -0.37919551719903483 0 0.30406415113964969 -0.38337692439112248 0 0.29537418335312082 -0.39875142739424818 0 0.29207498217776079 -0.38700721792956722 0 0.30406415113964969 -0.38337692439112248 0 0.29452487996116072 -0.37919551719903483 0 0.29656497987040309 -0.36871855788078151 0 0.30406415113964969 -0.38337692439112248 0 0.31300234705635438 -0.36776031027645811 0 0.31134738321280092 -0.38840983961307379 0 0.29537418335312082 -0.39875142739424818 0 0.31134738321280092 -0.38840983961307379 0 0.29537418335312082 -0.39875142739424818 0 0.30911152497934619 -0.41630737970980403 0 0.31134738321280092 -0.38840983961307379 0 0.30911152497934619 -0.41630737970980403 0 0.29537418335312082 -0.39875142739424818 0 0.28218240458321731 -0.39471537075506391 0 0.29207498217776079 -0.38700721792956722 0 0.29537418335312082 -0.39875142739424818 0 0.27940098349343961 -0.40909301517542068 0 0.29537418335312082 -0.39875142739424818 0 0.28218240458321731 -0.39471537075506391 0 0.27940098349343961 -0.40909301517542068 0 0.28218240458321731 -0.39471537075506391 0 0.29207498217776079 -0.38700721792956722 0 0.28300907856763041 -0.37919747375382079 0 0.29207498217776079 -0.38700721792956722 0 0.29452487996116072 -0.37919551719903483 0 0.28300907856763041 -0.37919747375382079 0 0.29452487996116072 -0.37919551719903483 0 0.28300907856763041 -0.37919747375382079 0 0.29656497987040309 -0.36871855788078151 0 0.28300907856763041 -0.37919747375382079 0 0.26341802357356991 -0.39300348633723919 0 0.26624006255564892 -0.37167388564706239 0 0.28218240458321731 -0.39471537075506391 0 0.28300907856763041 -0.37919747375382079 0 0.26341802357356991 -0.39300348633723919 0 0.26341802357356991 -0.39300348633723919 0 0.24822324428336001 -0.39977759549644748 0 0.2474350636536945 -0.37691395749906331 0 0.26341802357356991 -0.39300348633723919 0 0.26624006255564892 -0.37167388564706239 0 0.2474350636536945 -0.37691395749906331 0 0.26341802357356991 -0.39300348633723919 0 0.2474350636536945 -0.37691395749906331 0 0.26341802357356991 -0.39300348633723919 0 0.26072118089039792 -0.42118694876739998 0 0.24822324428336001 -0.39977759549644748 0 0.28218240458321731 -0.39471537075506391 0 0.26341802357356991 -0.39300348633723919 0 0.27940098349343961 -0.40909301517542068 0 0.26341802357356991 -0.39300348633723919 0 0.27940098349343961 -0.40909301517542068 0 0.27940098349343961 -0.40909301517542068 0 0.26072118089039792 -0.42118694876739998 0 0.27069883005659301 -0.42637901337841388 0 0.27940098349343961 -0.40909301517542068 0 0.27069883005659301 -0.42637901337841388 0 0.2808447309487267 -0.42493635397353052 0 0.26341802357356991 -0.39300348633723919 0 0.27940098349343961 -0.40909301517542068 0 0.26072118089039792 -0.42118694876739998 0 0.27940098349343961 -0.40909301517542068 0 0.26072118089039792 -0.42118694876739998 0 0.26213132235319281 -0.42580991272637642 0 0.26517119207728318 -0.43531319684491088 0 0.2581056415248752 -0.4505399418175845 0 0.26072118089039792 -0.42118694876739998 0 0.26213132235319281 -0.42580991272637642 0 0.24204137828735611 -0.43328088235937928 0 0.26213132235319281 -0.42580991272637642 0 0.25227507479676847 -0.44145558259856998 0 0.24204137828735611 -0.43328088235937928 0 0.26072118089039792 -0.42118694876739998 0 0.24204137828735611 -0.43328088235937928 0 0.26072118089039792 -0.42118694876739998 0 0.26213132235319281 -0.42580991272637642 0 0.27069883005659301 -0.42637901337841388 0 0.27069883005659301 -0.42637901337841388 0 0.27731032625283231 -0.43312116778681942 0 0.26974897437447198 -0.43852391945726898 0 0.26517119207728318 -0.43531319684491088 0 0.27069883005659301 -0.42637901337841388 0 0.26974897437447198 -0.43852391945726898 0 0.26213132235319281 -0.42580991272637642 0 0.26517119207728318 -0.43531319684491088 0 0.27069883005659301 -0.42637901337841388 0 0.27069883005659301 -0.42637901337841388 0 0.2808447309487267 -0.42493635397353052 0 0.27731032625283231 -0.43312116778681942 0 0.27731032625283231 -0.43312116778681942 0 0.2862266809176488 -0.43267928038837128 0 0.2794947078178685 -0.44132908858565689 0 0.2808447309487267 -0.42493635397353052 0 0.27731032625283231 -0.43312116778681942 0 0.2862266809176488 -0.43267928038837128 0 0.2862266809176488 -0.43267928038837128 0 0.29375881555670202 -0.43240910582243047 0 0.29294255101416328 -0.44145991872626761 0 0.29375881555670202 -0.43240910582243047 0 0.29175567126281371 -0.42153007978349938 0 0.30411035903218209 -0.43396714439158379 0 0.2862266809176488 -0.43267928038837128 0 0.29375881555670202 -0.43240910582243047 0 0.29175567126281371 -0.42153007978349938 0 0.2808447309487267 -0.42493635397353052 0 0.2862266809176488 -0.43267928038837128 0 0.29175567126281371 -0.42153007978349938 0 0.27940098349343961 -0.40909301517542068 0 0.29175567126281371 -0.42153007978349938 0 0.27940098349343961 -0.40909301517542068 0 0.2808447309487267 -0.42493635397353052 0 0.29175567126281371 -0.42153007978349938 0 0.29537418335312082 -0.39875142739424818 0 0.27940098349343961 -0.40909301517542068 0 0.29175567126281371 -0.42153007978349938 0 0.29537418335312082 -0.39875142739424818 0 0.29175567126281371 -0.42153007978349938 0 0.30911152497934619 -0.41630737970980403 0 0.30911152497934619 -0.41630737970980403 0 0.30687566674589251 -0.44420491980653409 0 0.30911152497934619 -0.41630737970980403 0 0.30411035903218209 -0.43396714439158379 0 0.30687566674589251 -0.44420491980653409 0 0.29175567126281371 -0.42153007978349938 0 0.30911152497934619 -0.41630737970980403 0 0.30411035903218209 -0.43396714439158379 0 0.29375881555670202 -0.43240910582243047 0 0.30411035903218209 -0.43396714439158379 0 0.29294255101416328 -0.44145991872626761 0 0.29175567126281371 -0.42153007978349938 0 0.30411035903218209 -0.43396714439158379 0 0.30687566674589251 -0.44420491980653409 0 0.29191410887872732 -0.45486901675454261 0 0.29294255101416328 -0.44145991872626761 0 0.30411035903218209 -0.43396714439158379 0 0.30687566674589251 -0.44420491980653409 0 0.29294255101416328 -0.44145991872626761 0 0.32025437652030259 -0.45222050459520508 0 0.30687566674589251 -0.44420491980653409 0 0.30463980851243888 -0.47210245990326438 0 0.30687566674589251 -0.44420491980653409 0 0.30463980851243888 -0.47210245990326438 0 0.30687566674589251 -0.44420491980653409 0 0.29191410887872732 -0.45486901675454261 0 0.30463980851243888 -0.47210245990326438 0 0.29191410887872732 -0.45486901675454261 0 0.28360932927168242 -0.46772549431914279 0 0.30463980851243888 -0.47210245990326438 0 0.29191410887872732 -0.45486901675454261 0 0.28360932927168242 -0.46772549431914279 0 0.2794779514047479 -0.45381022521145908 0 0.29294255101416328 -0.44145991872626761 0 0.2794947078178685 -0.44132908858565689 0 0.2794779514047479 -0.45381022521145908 0 0.29191410887872732 -0.45486901675454261 0 0.29294255101416328 -0.44145991872626761 0 0.2794779514047479 -0.45381022521145908 0 0.2862266809176488 -0.43267928038837128 0 0.29294255101416328 -0.44145991872626761 0 0.2794947078178685 -0.44132908858565689 0 0.27731032625283231 -0.43312116778681942 0 0.2794947078178685 -0.44132908858565689 0 0.26974897437447198 -0.43852391945726898 0 0.2794947078178685 -0.44132908858565689 0 0.27081216221657722 -0.44868989680142701 0 0.2794779514047479 -0.45381022521145908 0 0.27081216221657722 -0.44868989680142701 0 0.26974897437447198 -0.43852391945726898 0 0.2581056415248752 -0.4505399418175845 0 0.2794947078178685 -0.44132908858565689 0 0.27081216221657722 -0.44868989680142701 0 0.26974897437447198 -0.43852391945726898 0 0.26517119207728318 -0.43531319684491088 0 0.26974897437447198 -0.43852391945726898 0 0.2581056415248752 -0.4505399418175845 0 0.26213132235319281 -0.42580991272637642 0 0.2581056415248752 -0.4505399418175845 0 0.26213132235319281 -0.42580991272637642 0 0.2581056415248752 -0.4505399418175845 0 0.25227507479676847 -0.44145558259856998 0 0.2581056415248752 -0.4505399418175845 0 0.25227507479676847 -0.44145558259856998 0 0.2468219570216508 -0.45619159349094113 0 0.2581056415248752 -0.4505399418175845 0 0.26939723382367931 -0.46311576446515651 0 0.25407996069655758 -0.47526997090879253 0 0.2581056415248752 -0.4505399418175845 0 0.25407996069655758 -0.47526997090879253 0 0.2468219570216508 -0.45619159349094113 0 0.2581056415248752 -0.4505399418175845 0 0.25407996069655758 -0.47526997090879253 0 0.27081216221657722 -0.44868989680142701 0 0.26939723382367931 -0.46311576446515651 0 0.2794779514047479 -0.45381022521145908 0 0.27081216221657722 -0.44868989680142701 0 0.2581056415248752 -0.4505399418175845 0 0.26939723382367931 -0.46311576446515651 0 0.28360932927168242 -0.46772549431914279 0 0.26939723382367931 -0.46311576446515651 0 0.2794779514047479 -0.45381022521145908 0 0.28360932927168242 -0.46772549431914279 0 0.27029835782763573 -0.48265905773253331 0 0.28775746771258598 -0.48409013462947192 0 0.28360932927168242 -0.46772549431914279 0 0.26939723382367931 -0.46311576446515651 0 0.27029835782763573 -0.48265905773253331 0 0.26939723382367931 -0.46311576446515651 0 0.27029835782763573 -0.48265905773253331 0 0.25407996069655758 -0.47526997090879253 0 0.27029835782763573 -0.48265905773253331 0 0.25407996069655758 -0.47526997090879253 0 0.25005427986824003 -0.50000000000000044 0 0.25407996069655758 -0.47526997090879253 0 0.25005427986824003 -0.50000000000000044 0 0.27029835782763573 -0.48265905773253331 0 0.25005427986824003 -0.50000000000000044 0 0.27622911507361281 -0.5 0 0.27029835782763573 -0.48265905773253331 0 0.27622911507361281 -0.5 0 0.28775746771258598 -0.48409013462947192 0 0.27622911507361281 -0.5 0 0.28775746771258598 -0.48409013462947192 0 0.30240395027898559 -0.49999999999999462 0 0.28360932927168242 -0.46772549431914279 0 0.28775746771258598 -0.48409013462947192 0 0.30463980851243888 -0.47210245990326438 0 0.31922860177957618 -0.48417078574268468 0 0.30463980851243888 -0.47210245990326438 0 0.30240395027898559 -0.49999999999999462 0 0.28775746771258598 -0.48409013462947192 0 0.30463980851243888 -0.47210245990326438 0 0.30240395027898559 -0.49999999999999462 0 0.30463980851243888 -0.47210245990326438 0 0.30240395027898559 -0.49999999999999462 0 0.3382143260025221 -0.28456222046687851 0 0.33286239474884338 -0.3015294812119198 0 0.31732406148756409 -0.29948451852150271 0 0.32823195099078328 -0.28304974410517192 0 0.3382143260025221 -0.28456222046687851 0 0.32218868927368288 -0.28852010720826249 0 0.3382143260025221 -0.28456222046687851 0 0.33286239474884338 -0.3015294812119198 0 0.34437509975320157 -0.29527652217166062 0 0.33286239474884338 -0.3015294812119198 0 0.34746762597723962 -0.30754335304285579 0 0.3303133105587811 -0.31359230452648967 0 0.33286239474884338 -0.3015294812119198 0 0.34437509975320157 -0.29527652217166062 0 0.34746762597723962 -0.30754335304285579 0 0.33286239474884338 -0.3015294812119198 0 0.32012120039462222 -0.3093142959158931 0 0.31732406148756409 -0.29948451852150271 0 0.33286239474884338 -0.3015294812119198 0 0.32012120039462222 -0.3093142959158931 0 0.3303133105587811 -0.31359230452648967 0 0.32012120039462222 -0.3093142959158931 0 0.31732406148756409 -0.29948451852150271 0 0.31073241274671881 -0.31234029843420669 0 0.3382143260025221 -0.28456222046687851 0 0.31732406148756409 -0.29948451852150271 0 0.32218868927368288 -0.28852010720826249 0 0.31732406148756409 -0.29948451852150271 0 0.32218868927368288 -0.28852010720826249 0 0.30796172774240832 -0.29429123510677752 0 0.3382143260025221 -0.28456222046687851 0 0.31732406148756409 -0.29948451852150271 0 0.32823195099078328 -0.28304974410517192 0 0.32218868927368288 -0.28852010720826249 0 0.31921138014513672 -0.28121281784098218 0 0.32218868927368288 -0.28852010720826249 0 0.31921138014513672 -0.28121281784098218 0 0.30796172774240832 -0.29429123510677752 0 0.31921138014513672 -0.28121281784098218 0 0.30796172774240832 -0.29429123510677752 0 0.31921138014513672 -0.28121281784098218 0 0.31815475575169561 -0.27168383983498318 0 0.30784180279287432 -0.27453030597483841 0 0.31815475575169561 -0.27168383983498318 0 0.31510480752090642 -0.26285783494892517 0 0.30784180279287432 -0.27453030597483841 0 0.31815475575169561 -0.27168383983498318 0 0.31510480752090642 -0.26285783494892517 0 0.33046103254786519 -0.268134400575187 0 0.31921138014513672 -0.28121281784098218 0 0.33390018348634237 -0.27573087475268682 0 0.33046103254786519 -0.268134400575187 0 0.32823195099078328 -0.28304974410517192 0 0.31921138014513672 -0.28121281784098218 0 0.33390018348634237 -0.27573087475268682 0 0.31921138014513672 -0.28121281784098218 0 0.31815475575169561 -0.27168383983498318 0 0.33046103254786519 -0.268134400575187 0 0.31921138014513672 -0.28121281784098218 0 0.33046103254786519 -0.268134400575187 0 0.32161987820511828 -0.2486058594133092 0 0.31510480752090642 -0.26285783494892517 0 0.33046103254786519 -0.268134400575187 0 0.32161987820511828 -0.2486058594133092 0 0.33046103254786519 -0.268134400575187 0 0.30801466226233248 -0.24862884665689089 0 0.32161987820511828 -0.2486058594133092 0 0.31510480752090642 -0.26285783494892517 0 0.32161987820511828 -0.2486058594133092 0 0.33229988997940452 -0.25553629683876838 0 0.33046103254786519 -0.268134400575187 0 0.33229988997940452 -0.25553629683876838 0 0.33046103254786519 -0.268134400575187 0 0.34448151405886818 -0.25183472295814407 0 0.33046103254786519 -0.268134400575187 0 0.34111783622301878 -0.26788648729817982 0 0.34448151405886818 -0.25183472295814407 0 0.33046103254786519 -0.268134400575187 0 0.34448151405886818 -0.25183472295814407 0 0.33204157105202359 -0.2428835663714094 0 0.33229988997940452 -0.25553629683876838 0 0.34448151405886818 -0.25183472295814407 0 0.33390018348634237 -0.27573087475268682 0 0.34111783622301878 -0.26788648729817982 0 0.35135832095009822 -0.27162582486279502 0 0.3382143260025221 -0.28456222046687851 0 0.33390018348634237 -0.27573087475268682 0 0.35135832095009822 -0.27162582486279502 0 0.32823195099078328 -0.28304974410517192 0 0.3382143260025221 -0.28456222046687851 0 0.33390018348634237 -0.27573087475268682 0 0.33390018348634237 -0.27573087475268682 0 0.33046103254786519 -0.268134400575187 0 0.34111783622301878 -0.26788648729817982 0 0.33390018348634237 -0.27573087475268682 0 0.33046103254786519 -0.268134400575187 0 0.3382143260025221 -0.28456222046687851 0 0.35135832095009822 -0.27162582486279502 0 0.35895605228420141 -0.28747103396498841 0 0.34111783622301878 -0.26788648729817982 0 0.35135832095009822 -0.27162582486279502 0 0.34448151405886818 -0.25183472295814407 0 0.35135832095009822 -0.27162582486279502 0 0.34448151405886818 -0.25183472295814407 0 0.36028104451921888 -0.25194785591280983 0 0.35135832095009822 -0.27162582486279502 0 0.36028104451921888 -0.25194785591280983 0 0.36968856660685873 -0.2639334702088682 0 0.37842677557578852 -0.2476989620572124 0 0.36028104451921888 -0.25194785591280983 0 0.36968856660685873 -0.2639334702088682 0 0.35135832095009822 -0.27162582486279502 0 0.36968856660685873 -0.2639334702088682 0 0.37039703338323082 -0.27845584177728089 0 0.35135832095009822 -0.27162582486279502 0 0.37039703338323082 -0.27845584177728089 0 0.35895605228420141 -0.28747103396498841 0 0.3834587817843747 -0.26928156361290018 0 0.36968856660685873 -0.2639334702088682 0 0.37039703338323082 -0.27845584177728089 0 0.37039703338323082 -0.27845584177728089 0 0.37362155735316249 -0.291527603103302 0 0.35895605228420141 -0.28747103396498841 0 0.37362155735316249 -0.291527603103302 0 0.35895605228420141 -0.28747103396498841 0 0.36766681071101831 -0.3060050769085817 0 0.3382143260025221 -0.28456222046687851 0 0.35895605228420141 -0.28747103396498841 0 0.34437509975320157 -0.29527652217166062 0 0.35895605228420141 -0.28747103396498841 0 0.34437509975320157 -0.29527652217166062 0 0.34746762597723962 -0.30754335304285579 0 0.35895605228420141 -0.28747103396498841 0 0.34746762597723962 -0.30754335304285579 0 0.36766681071101831 -0.3060050769085817 0 0.34746762597723962 -0.30754335304285579 0 0.36766681071101831 -0.3060050769085817 0 0.3552433671018787 -0.31882772283118682 0 0.35895605228420141 -0.28747103396498841 0 0.34746762597723962 -0.30754335304285579 0 0.38293690440463618 -0.3149226035927235 0 0.36766681071101831 -0.3060050769085817 0 0.37000821144581558 -0.32141789506041257 0 0.36766681071101831 -0.3060050769085817 0 0.37000821144581558 -0.32141789506041257 0 0.3552433671018787 -0.31882772283118682 0 0.37000821144581558 -0.32141789506041257 0 0.35509498770504272 -0.33155661702336081 0 0.3552433671018787 -0.31882772283118682 0 0.38300785244658547 -0.32788643118286781 0 0.37000821144581558 -0.32141789506041257 0 0.37001166429093729 -0.33495670932523292 0 0.37913080788941023 -0.34704742573611691 0 0.37001166429093729 -0.33495670932523292 0 0.35844159241251772 -0.34468030991543108 0 0.37001166429093729 -0.33495670932523292 0 0.35509498770504272 -0.33155661702336081 0 0.35844159241251772 -0.34468030991543108 0 0.37000821144581558 -0.32141789506041257 0 0.37001166429093729 -0.33495670932523292 0 0.35509498770504272 -0.33155661702336081 0 0.35509498770504272 -0.33155661702336081 0 0.35844159241251772 -0.34468030991543108 0 0.34006091074366018 -0.34227504368340922 0 0.34746762597723962 -0.30754335304285579 0 0.3552433671018787 -0.31882772283118682 0 0.33597919967027767 -0.32761567212072318 0 0.35509498770504272 -0.33155661702336081 0 0.3552433671018787 -0.31882772283118682 0 0.33597919967027767 -0.32761567212072318 0 0.36919728637136667 -0.37000592409045602 0 0.36449801693046352 -0.35653353055336567 0 0.35682015959724073 -0.37275362825579472 0 0.3849727210417655 -0.36616106911129159 0 0.3704982479159975 -0.38457546844137203 0 0.36919728637136667 -0.37000592409045602 0 0.3849727210417655 -0.36616106911129159 0 0.36919728637136667 -0.37000592409045602 0 0.36449801693046352 -0.35653353055336567 0 0.37913080788941023 -0.34704742573611691 0 0.36449801693046352 -0.35653353055336567 0 0.35844159241251772 -0.34468030991543108 0 0.36449801693046352 -0.35653353055336567 0 0.3471901088218971 -0.35179249906105509 0 0.34723104312780267 -0.36395776905290339 0 0.36449801693046352 -0.35653353055336567 0 0.35844159241251772 -0.34468030991543108 0 0.3471901088218971 -0.35179249906105509 0 0.35844159241251772 -0.34468030991543108 0 0.3471901088218971 -0.35179249906105509 0 0.34006091074366018 -0.34227504368340922 0 0.3471901088218971 -0.35179249906105509 0 0.34723104312780267 -0.36395776905290339 0 0.33691067862406471 -0.35669207852317042 0 0.34723104312780267 -0.36395776905290339 0 0.35682015959724073 -0.37275362825579472 0 0.33640781305987583 -0.3721848729580427 0 0.36449801693046352 -0.35653353055336567 0 0.34723104312780267 -0.36395776905290339 0 0.35682015959724073 -0.37275362825579472 0 0.34723104312780267 -0.36395776905290339 0 0.33640781305987583 -0.3721848729580427 0 0.33691067862406471 -0.35669207852317042 0 0.33640781305987583 -0.3721848729580427 0 0.33691067862406471 -0.35669207852317042 0 0.32648260346923069 -0.36156227407627389 0 0.33691067862406471 -0.35669207852317042 0 0.32449077336331589 -0.34768799119859062 0 0.32648260346923069 -0.36156227407627389 0 0.3471901088218971 -0.35179249906105509 0 0.33691067862406471 -0.35669207852317042 0 0.34006091074366018 -0.34227504368340922 0 0.33691067862406471 -0.35669207852317042 0 0.32449077336331589 -0.34768799119859062 0 0.34006091074366018 -0.34227504368340922 0 0.3146902750374469 -0.34669947653112232 0 0.31300234705635438 -0.36776031027645811 0 0.32449077336331589 -0.34768799119859062 0 0.31300234705635438 -0.36776031027645811 0 0.32449077336331589 -0.34768799119859062 0 0.32648260346923069 -0.36156227407627389 0 0.31300234705635438 -0.36776031027645811 0 0.32449077336331589 -0.34768799119859062 0 0.3146902750374469 -0.34669947653112232 0 0.31300234705635438 -0.36776031027645811 0 0.33640781305987583 -0.3721848729580427 0 0.32648260346923069 -0.36156227407627389 0 0.31300234705635438 -0.36776031027645811 0 0.34746762597723962 -0.30754335304285579 0 0.33597919967027767 -0.32761567212072318 0 0.3303133105587811 -0.31359230452648967 0 0.34746762597723962 -0.30754335304285579 0 0.33597919967027767 -0.32761567212072318 0 0.32449077336331589 -0.34768799119859062 0 0.33597919967027767 -0.32761567212072318 0 0.32449077336331589 -0.34768799119859062 0 0.33597919967027767 -0.32761567212072318 0 0.34006091074366018 -0.34227504368340922 0 0.35509498770504272 -0.33155661702336081 0 0.33597919967027767 -0.32761567212072318 0 0.34006091074366018 -0.34227504368340922 0 0.32449077336331589 -0.34768799119859062 0 0.33597919967027767 -0.32761567212072318 0 0.31637820301853892 -0.32563864278578653 0 0.32449077336331589 -0.34768799119859062 0 0.3146902750374469 -0.34669947653112232 0 0.31637820301853892 -0.32563864278578653 0 0.3146902750374469 -0.34669947653112232 0 0.31637820301853892 -0.32563864278578653 0 0.33597919967027767 -0.32761567212072318 0 0.3303133105587811 -0.31359230452648967 0 0.31637820301853892 -0.32563864278578653 0 0.32012120039462222 -0.3093142959158931 0 0.3303133105587811 -0.31359230452648967 0 0.31637820301853892 -0.32563864278578653 0 0.32012120039462222 -0.3093142959158931 0 0.31637820301853892 -0.32563864278578653 0 0.31073241274671881 -0.31234029843420669 0 0.31637820301853892 -0.32563864278578653 0 0.30455727762739099 -0.31838294690052971 0 0.31073241274671881 -0.31234029843420669 0 0.30455727762739099 -0.31838294690052971 0 0.29643379697260719 -0.31440681657612812 0 0.29679520923164909 -0.31977326909285941 0 0.30455727762739099 -0.31838294690052971 0 0.29643379697260719 -0.31440681657612812 0 0.31073241274671881 -0.31234029843420669 0 0.30455727762739099 -0.31838294690052971 0 0.30433692089583531 -0.32781716694103641 0 0.29679520923164909 -0.31977326909285941 0 0.30433692089583531 -0.32781716694103641 0 0.29431791696653897 -0.33206579635275563 0 0.29679520923164909 -0.31977326909285941 0 0.31637820301853892 -0.32563864278578653 0 0.30455727762739099 -0.31838294690052971 0 0.30433692089583531 -0.32781716694103641 0 0.31637820301853892 -0.32563864278578653 0 0.30433692089583531 -0.32781716694103641 0 0.30430773408687428 -0.33912850954392781 0 0.3146902750374469 -0.34669947653112232 0 0.31637820301853892 -0.32563864278578653 0 0.30430773408687428 -0.33912850954392781 0 0.30433692089583531 -0.32781716694103641 0 0.30430773408687428 -0.33912850954392781 0 0.29431791696653897 -0.33206579635275563 0 0.29431791696653897 -0.33206579635275563 0 0.29064808635585843 -0.34278605905790233 0 0.27477323255967773 -0.32987935393771289 0 0.30430773408687428 -0.33912850954392781 0 0.29431791696653897 -0.33206579635275563 0 0.29064808635585843 -0.34278605905790233 0 0.29643379697260719 -0.31440681657612812 0 0.2790393778912772 -0.31336159352709292 0 0.27477323255967773 -0.32987935393771289 0 0.29643379697260719 -0.31440681657612812 0 0.27477323255967773 -0.32987935393771289 0 0.29643379697260719 -0.31440681657612812 0 0.29679520923164909 -0.31977326909285941 0 0.27477323255967773 -0.32987935393771289 0 0.29431791696653897 -0.33206579635275563 0 0.29679520923164909 -0.31977326909285941 0 0.27477323255967773 -0.32987935393771289 0 0.29643379697260719 -0.31440681657612812 0 0.29679520923164909 -0.31977326909285941 0 0.31300234705635438 -0.36776031027645811 0 0.30127940843889878 -0.35432288601861128 0 0.29656497987040309 -0.36871855788078151 0 0.30406415113964969 -0.38337692439112248 0 0.31300234705635438 -0.36776031027645811 0 0.29656497987040309 -0.36871855788078151 0 0.3146902750374469 -0.34669947653112232 0 0.31300234705635438 -0.36776031027645811 0 0.30127940843889878 -0.35432288601861128 0 0.3146902750374469 -0.34669947653112232 0 0.30430773408687428 -0.33912850954392781 0 0.30127940843889878 -0.35432288601861128 0 0.30430773408687428 -0.33912850954392781 0 0.29064808635585843 -0.34278605905790233 0 0.30127940843889878 -0.35432288601861128 0 0.29064808635585843 -0.34278605905790233 0 0.28376747019409021 -0.35992750183235572 0 0.2770243762075984 -0.34571785972456792 0 0.29064808635585843 -0.34278605905790233 0 0.30127940843889878 -0.35432288601861128 0 0.28376747019409021 -0.35992750183235572 0 0.28300907856763041 -0.37919747375382079 0 0.28376747019409021 -0.35992750183235572 0 0.29656497987040309 -0.36871855788078151 0 0.30127940843889878 -0.35432288601861128 0 0.28376747019409021 -0.35992750183235572 0 0.29656497987040309 -0.36871855788078151 0 0.28376747019409021 -0.35992750183235572 0 0.26624006255564892 -0.37167388564706239 0 0.26665917642406373 -0.35698076104499799 0 0.28300907856763041 -0.37919747375382079 0 0.28376747019409021 -0.35992750183235572 0 0.26624006255564892 -0.37167388564706239 0 0.28376747019409021 -0.35992750183235572 0 0.2770243762075984 -0.34571785972456792 0 0.26665917642406373 -0.35698076104499799 0 0.2770243762075984 -0.34571785972456792 0 0.26665917642406373 -0.35698076104499799 0 0.25311266814674921 -0.34535189129929911 0 0.26665917642406373 -0.35698076104499799 0 0.25311266814674921 -0.34535189129929911 0 0.25315130501623168 -0.36223266672170501 0 0.26624006255564892 -0.37167388564706239 0 0.25315130501623168 -0.36223266672170501 0 0.2474350636536945 -0.37691395749906331 0 0.26624006255564892 -0.37167388564706239 0 0.26665917642406373 -0.35698076104499799 0 0.25315130501623168 -0.36223266672170501 0 0.26689999923313668 -0.31677090734091801 0 0.2790393778912772 -0.31336159352709292 0 0.27477323255967773 -0.32987935393771289 0 0.2770243762075984 -0.34571785972456792 0 0.25311266814674921 -0.34535189129929911 0 0.27477323255967773 -0.32987935393771289 0 0.29064808635585843 -0.34278605905790233 0 0.2770243762075984 -0.34571785972456792 0 0.27477323255967773 -0.32987935393771289 0 0.25311266814674921 -0.34535189129929911 0 0.27477323255967773 -0.32987935393771289 0 0.25311266814674921 -0.34535189129929911 0 0.27477323255967773 -0.32987935393771289 0 0.25249252294720631 -0.31820689639820671 0 0.26689999923313668 -0.31677090734091801 0 0.25249252294720631 -0.31820689639820671 0 0.27211978491251387 -0.30326672437339802 0 0.26689999923313668 -0.31677090734091801 0 0.27477323255967773 -0.32987935393771289 0 0.25249252294720631 -0.31820689639820671 0 0.25249252294720631 -0.31820689639820671 0 0.25793101245844691 -0.28938793590824102 0 0.27211978491251387 -0.30326672437339802 0 0.25793101245844691 -0.28938793590824102 0 0.27784295032526429 -0.28944228508889452 0 0.27211978491251387 -0.30326672437339802 0 0.25793101245844691 -0.28938793590824102 0 0.27784295032526429 -0.28944228508889452 0 0.27107827509037541 -0.27618214222382409 0 0.26689999923313668 -0.31677090734091801 0 0.2790393778912772 -0.31336159352709292 0 0.27211978491251387 -0.30326672437339802 0 0.27784295032526429 -0.28944228508889452 0 0.27211978491251387 -0.30326672437339802 0 0.28497007577845052 -0.30248416540730738 0 0.2790393778912772 -0.31336159352709292 0 0.27211978491251387 -0.30326672437339802 0 0.28497007577845052 -0.30248416540730738 0 0.29643379697260719 -0.31440681657612812 0 0.28497007577845052 -0.30248416540730738 0 0.29472051783601338 -0.28896708423581607 0 0.29643379697260719 -0.31440681657612812 0 0.29472051783601338 -0.28896708423581607 0 0.29643379697260719 -0.31440681657612812 0 0.2790393778912772 -0.31336159352709292 0 0.28497007577845052 -0.30248416540730738 0 0.27784295032526429 -0.28944228508889452 0 0.28497007577845052 -0.30248416540730738 0 0.29472051783601338 -0.28896708423581607 0 0.27784295032526429 -0.28944228508889452 0 0.29472051783601338 -0.28896708423581607 0 0.28247826798901537 -0.27585148004491178 0 0.31921138014513672 -0.28121281784098218 0 0.30796172774240832 -0.29429123510677752 0 0.30784180279287432 -0.27453030597483841 0 0.29472051783601338 -0.28896708423581607 0 0.30796172774240832 -0.29429123510677752 0 0.30784180279287432 -0.27453030597483841 0 0.31732406148756409 -0.29948451852150271 0 0.29643379697260719 -0.31440681657612812 0 0.30796172774240832 -0.29429123510677752 0 0.29643379697260719 -0.31440681657612812 0 0.29472051783601338 -0.28896708423581607 0 0.30796172774240832 -0.29429123510677752 0 0.31732406148756409 -0.29948451852150271 0 0.29643379697260719 -0.31440681657612812 0 0.31732406148756409 -0.29948451852150271 0 0.29643379697260719 -0.31440681657612812 0 0.31073241274671881 -0.31234029843420669 0 0.31510480752090642 -0.26285783494892517 0 0.30347191818050478 -0.25849345267182122 0 0.30784180279287432 -0.27453030597483841 0 0.30347191818050478 -0.25849345267182122 0 0.30784180279287432 -0.27453030597483841 0 0.29300723869941647 -0.26352735189550441 0 0.30801466226233248 -0.24862884665689089 0 0.31510480752090642 -0.26285783494892517 0 0.30347191818050478 -0.25849345267182122 0 0.29472051783601338 -0.28896708423581607 0 0.30784180279287432 -0.27453030597483841 0 0.29300723869941647 -0.26352735189550441 0 0.28247826798901537 -0.27585148004491178 0 0.29300723869941647 -0.26352735189550441 0 0.27574235799400748 -0.2611385367805199 0 0.29472051783601338 -0.28896708423581607 0 0.29300723869941647 -0.26352735189550441 0 0.29472051783601338 -0.28896708423581607 0 0.28247826798901537 -0.27585148004491178 0 0.29300723869941647 -0.26352735189550441 0 0.27958677495974732 -0.2447848115143455 0 0.29300723869941647 -0.26352735189550441 0 0.27574235799400748 -0.2611385367805199 0 0.29129395956281962 -0.23808761955519239 0 0.30347191818050478 -0.25849345267182122 0 0.29300723869941647 -0.26352735189550441 0 0.29129395956281962 -0.23808761955519239 0 0.29300723869941647 -0.26352735189550441 0 0.27574235799400748 -0.2611385367805199 0 0.27107827509037541 -0.27618214222382409 0 0.25794956935717778 -0.26644078272895039 0 0.27784295032526429 -0.28944228508889452 0 0.28247826798901537 -0.27585148004491178 0 0.27107827509037541 -0.27618214222382409 0 0.28247826798901537 -0.27585148004491178 0 0.27574235799400748 -0.2611385367805199 0 0.27107827509037541 -0.27618214222382409 0 0.25793101245844691 -0.28938793590824102 0 0.27107827509037541 -0.27618214222382409 0 0.25794956935717778 -0.26644078272895039 0 0.25793101245844691 -0.28938793590824102 0 0.25794956935717778 -0.26644078272895039 0 0.23769946165141601 -0.27613198628230889 0 0.26265931117148639 -0.24279301432387981 0 0.25794956935717778 -0.26644078272895039 0 0.2425869977773347 -0.2530110808549289 0 0.26265931117148639 -0.24279301432387981 0 0.27574235799400748 -0.2611385367805199 0 0.25794956935717778 -0.26644078272895039 0 0.2425869977773347 -0.2530110808549289 0 0.23769946165141601 -0.27613198628230889 0 0.22625439958297691 -0.25656269544022259 0 0.2425869977773347 -0.2530110808549289 0 0.23769946165141601 -0.27613198628230889 0 0.25794956935717778 -0.26644078272895039 0 0.2425869977773347 -0.2530110808549289 0 0.23769946165141601 -0.27613198628230889 0 0.23769946165141601 -0.27613198628230889 0 0.21960131809693381 -0.2709340603189419 0 0.2226683307413439 -0.28496936778224419 0 0.23769946165141601 -0.27613198628230889 0 0.21960131809693381 -0.2709340603189419 0 0.22625439958297691 -0.25656269544022259 0 0.2425869977773347 -0.2530110808549289 0 0.22625439958297691 -0.25656269544022259 0 0.2267389340957664 -0.2418178955646223 0 0.21960131809693381 -0.2709340603189419 0 0.22625439958297691 -0.25656269544022259 0 0.21227572241766829 -0.25850278331779308 0 0.22625439958297691 -0.25656269544022259 0 0.21227572241766829 -0.25850278331779308 0 0.2097396511237111 -0.24274520029346891 0 0.21227572241766829 -0.25850278331779308 0 0.200656609462492 -0.25555746859197959 0 0.2097396511237111 -0.24274520029346891 0 0.21227572241766829 -0.25850278331779308 0 0.20525101989627681 -0.26734860860117943 0 0.200656609462492 -0.25555746859197959 0 0.21960131809693381 -0.2709340603189419 0 0.21227572241766829 -0.25850278331779308 0 0.20525101989627681 -0.26734860860117943 0 0.21960131809693381 -0.2709340603189419 0 0.20601689970842041 -0.27922114497236739 0 0.2226683307413439 -0.28496936778224419 0 0.21960131809693381 -0.2709340603189419 0 0.20601689970842041 -0.27922114497236739 0 0.20525101989627681 -0.26734860860117943 0 0.20525101989627681 -0.26734860860117943 0 0.19534272504378691 -0.27395527126544272 0 0.194513200700524 -0.26496155301393198 0 0.20601689970842041 -0.27922114497236739 0 0.19534272504378691 -0.27395527126544272 0 0.19370759516997821 -0.28264986126682629 0 0.20601689970842041 -0.27922114497236739 0 0.20525101989627681 -0.26734860860117943 0 0.19534272504378691 -0.27395527126544272 0 0.18950050390669221 -0.27797132419462778 0 0.19370759516997821 -0.28264986126682629 0 0.1829857302742823 -0.27845877574827638 0 0.19534272504378691 -0.27395527126544272 0 0.18950050390669221 -0.27797132419462778 0 0.19370759516997821 -0.28264986126682629 0 0.19534272504378691 -0.27395527126544272 0 0.18950050390669221 -0.27797132419462778 0 0.18987558617673181 -0.27178168099994943 0 0.18950050390669221 -0.27797132419462778 0 0.18987558617673181 -0.27178168099994943 0 0.1841788455821608 -0.2761902547805129 0 0.19534272504378691 -0.27395527126544272 0 0.18987558617673181 -0.27178168099994943 0 0.194513200700524 -0.26496155301393198 0 0.18987558617673181 -0.27178168099994943 0 0.194513200700524 -0.26496155301393198 0 0.18574327239553159 -0.26534993580265498 0 0.194513200700524 -0.26496155301393198 0 0.18993780220987239 -0.25497306796996289 0 0.200656609462492 -0.25555746859197959 0 0.194513200700524 -0.26496155301393198 0 0.18993780220987239 -0.25497306796996289 0 0.18574327239553159 -0.26534993580265498 0 0.18993780220987239 -0.25497306796996289 0 0.200656609462492 -0.25555746859197959 0 0.19479421355439899 -0.24532330472355049 0 0.20525101989627681 -0.26734860860117943 0 0.194513200700524 -0.26496155301393198 0 0.200656609462492 -0.25555746859197959 0 0.19790363792798099 -0.30892052975445838 0 0.19044468410113161 -0.29368965275136738 0 0.2018071753388255 -0.2914663427559715 0 0.19790363792798099 -0.30892052975445838 0 0.19206157470846941 -0.31929228883287231 0 0.18380711209504921 -0.30734929959056789 0 0.19790363792798099 -0.30892052975445838 0 0.19044468410113161 -0.29368965275136738 0 0.18380711209504921 -0.30734929959056789 0 0.19790363792798099 -0.30892052975445838 0 0.19044468410113161 -0.29368965275136738 0 0.19044468410113161 -0.29368965275136738 0 0.19370759516997821 -0.28264986126682629 0 0.1829857302742823 -0.27845877574827638 0 0.20601689970842041 -0.27922114497236739 0 0.19370759516997821 -0.28264986126682629 0 0.2018071753388255 -0.2914663427559715 0 0.19044468410113161 -0.29368965275136738 0 0.19370759516997821 -0.28264986126682629 0 0.2018071753388255 -0.2914663427559715 0 0.20601689970842041 -0.27922114497236739 0 0.2132709102913013 -0.29655135329420168 0 0.2226683307413439 -0.28496936778224419 0 0.20601689970842041 -0.27922114497236739 0 0.2018071753388255 -0.2914663427559715 0 0.2132709102913013 -0.29655135329420168 0 0.19790363792798099 -0.30892052975445838 0 0.2132709102913013 -0.29655135329420168 0 0.2145745296791968 -0.31374051859651442 0 0.19790363792798099 -0.30892052975445838 0 0.2018071753388255 -0.2914663427559715 0 0.2132709102913013 -0.29655135329420168 0 0.23281192552549729 -0.29925289170968888 0 0.22792438939957871 -0.32237379713706887 0 0.23281192552549729 -0.29925289170968888 0 0.22792438939957871 -0.32237379713706887 0 0.2145745296791968 -0.31374051859651442 0 0.2132709102913013 -0.29655135329420168 0 0.23281192552549729 -0.29925289170968888 0 0.2145745296791968 -0.31374051859651442 0 0.23769946165141601 -0.27613198628230889 0 0.23281192552549729 -0.29925289170968888 0 0.2226683307413439 -0.28496936778224419 0 0.2132709102913013 -0.29655135329420168 0 0.23281192552549729 -0.29925289170968888 0 0.2226683307413439 -0.28496936778224419 0 0.23769946165141601 -0.27613198628230889 0 0.23281192552549729 -0.29925289170968888 0 0.25793101245844691 -0.28938793590824102 0 0.23769946165141601 -0.27613198628230889 0 0.23281192552549729 -0.29925289170968888 0 0.25249252294720631 -0.31820689639820671 0 0.25793101245844691 -0.28938793590824102 0 0.23281192552549729 -0.29925289170968888 0 0.25249252294720631 -0.31820689639820671 0 0.23834404993825381 -0.33604900472355692 0 0.22792438939957871 -0.32237379713706887 0 0.25249252294720631 -0.31820689639820671 0 0.23281192552549729 -0.29925289170968888 0 0.22792438939957871 -0.32237379713706887 0 0.25311266814674921 -0.34535189129929911 0 0.23834404993825381 -0.33604900472355692 0 0.2364864187731209 -0.34693000681204761 0 0.25311266814674921 -0.34535189129929911 0 0.25249252294720631 -0.31820689639820671 0 0.23834404993825381 -0.33604900472355692 0 0.22792438939957871 -0.32237379713706887 0 0.22303685327365999 -0.34549470256444897 0 0.21398526684424021 -0.32983146951939463 0 0.23834404993825381 -0.33604900472355692 0 0.22792438939957871 -0.32237379713706887 0 0.22303685327365999 -0.34549470256444897 0 0.22792438939957871 -0.32237379713706887 0 0.22303685327365999 -0.34549470256444897 0 0.23834404993825381 -0.33604900472355692 0 0.2364864187731209 -0.34693000681204761 0 0.22303685327365999 -0.34549470256444897 0 0.22792438939957871 -0.32237379713706887 0 0.2145745296791968 -0.31374051859651442 0 0.21398526684424021 -0.32983146951939463 0 0.23145210373382091 -0.36082442866088549 0 0.2474350636536945 -0.37691395749906331 0 0.25315130501623168 -0.36223266672170501 0 0.23145210373382091 -0.36082442866088549 0 0.2474350636536945 -0.37691395749906331 0 0.23145210373382091 -0.36082442866088549 0 0.22915890759396679 -0.3715422140680717 0 0.2474350636536945 -0.37691395749906331 0 0.25311266814674921 -0.34535189129929911 0 0.25315130501623168 -0.36223266672170501 0 0.23145210373382091 -0.36082442866088549 0 0.25311266814674921 -0.34535189129929911 0 0.23145210373382091 -0.36082442866088549 0 0.25311266814674921 -0.34535189129929911 0 0.2364864187731209 -0.34693000681204761 0 0.23145210373382091 -0.36082442866088549 0 0.23145210373382091 -0.36082442866088549 0 0.21796592809160209 -0.35527358154705041 0 0.21221489731587481 -0.34145895512037239 0 0.22303685327365999 -0.34549470256444897 0 0.23145210373382091 -0.36082442866088549 0 0.21221489731587481 -0.34145895512037239 0 0.23145210373382091 -0.36082442866088549 0 0.21221489731587481 -0.34145895512037239 0 0.2364864187731209 -0.34693000681204761 0 0.22303685327365999 -0.34549470256444897 0 0.23145210373382091 -0.36082442866088549 0 0.23145210373382091 -0.36082442866088549 0 0.22088124833207709 -0.36172543937038742 0 0.21796592809160209 -0.35527358154705041 0 0.23145210373382091 -0.36082442866088549 0 0.2206957243839538 -0.36850790717942622 0 0.22915890759396679 -0.3715422140680717 0 0.23145210373382091 -0.36082442866088549 0 0.2206957243839538 -0.36850790717942622 0 0.23145210373382091 -0.36082442866088549 0 0.22088124833207709 -0.36172543937038742 0 0.2206957243839538 -0.36850790717942622 0 0.2206957243839538 -0.36850790717942622 0 0.22915890759396679 -0.3715422140680717 0 0.21554831839594449 -0.37610859260574109 0 0.2206957243839538 -0.36850790717942622 0 0.20851399690228051 -0.36932361920029161 0 0.21554831839594449 -0.37610859260574109 0 0.2206957243839538 -0.36850790717942622 0 0.20851399690228051 -0.36932361920029161 0 0.21341123711893151 -0.36229584009418753 0 0.22088124833207709 -0.36172543937038742 0 0.2206957243839538 -0.36850790717942622 0 0.21341123711893151 -0.36229584009418753 0 0.22088124833207709 -0.36172543937038742 0 0.21341123711893151 -0.36229584009418753 0 0.21796592809160209 -0.35527358154705041 0 0.20851399690228051 -0.36932361920029161 0 0.21341123711893151 -0.36229584009418753 0 0.20255986903729889 -0.35934015590544832 0 0.21341123711893151 -0.36229584009418753 0 0.2093872315528213 -0.35091598357873749 0 0.20255986903729889 -0.35934015590544832 0 0.2093872315528213 -0.35091598357873749 0 0.20086784600726859 -0.34719569334940442 0 0.20255986903729889 -0.35934015590544832 0 0.21341123711893151 -0.36229584009418753 0 0.21796592809160209 -0.35527358154705041 0 0.2093872315528213 -0.35091598357873749 0 0.21796592809160209 -0.35527358154705041 0 0.2093872315528213 -0.35091598357873749 0 0.21221489731587481 -0.34145895512037239 0 0.2093872315528213 -0.35091598357873749 0 0.20086784600726859 -0.34719569334940442 0 0.21221489731587481 -0.34145895512037239 0 0.20086784600726859 -0.34719569334940442 0 0.18865592318124619 -0.35730826722282422 0 0.18924170893530329 -0.33729412965925021 0 0.20086784600726859 -0.34719569334940442 0 0.18865592318124619 -0.35730826722282422 0 0.20255986903729889 -0.35934015590544832 0 0.18865592318124619 -0.35730826722282422 0 0.1875839088044752 -0.37307614977852482 0 0.1976630734353515 -0.36845318744210948 0 0.18865592318124619 -0.35730826722282422 0 0.20255986903729889 -0.35934015590544832 0 0.1976630734353515 -0.36845318744210948 0 0.20851399690228051 -0.36932361920029161 0 0.20255986903729889 -0.35934015590544832 0 0.1976630734353515 -0.36845318744210948 0 0.20851399690228051 -0.36932361920029161 0 0.1976630734353515 -0.36845318744210948 0 0.2012594668818723 -0.38071452851993648 0 0.1875839088044752 -0.37307614977852482 0 0.1976630734353515 -0.36845318744210948 0 0.2012594668818723 -0.38071452851993648 0 0.2145745296791968 -0.31374051859651442 0 0.21398526684424021 -0.32983146951939463 0 0.2012438133619017 -0.32686788005421241 0 0.19790363792798099 -0.30892052975445838 0 0.2145745296791968 -0.31374051859651442 0 0.2012438133619017 -0.32686788005421241 0 0.22303685327365999 -0.34549470256444897 0 0.21398526684424021 -0.32983146951939463 0 0.21221489731587481 -0.34145895512037239 0 0.20086784600726859 -0.34719569334940442 0 0.21221489731587481 -0.34145895512037239 0 0.2031474460210671 -0.33685666860979407 0 0.21398526684424021 -0.32983146951939463 0 0.21221489731587481 -0.34145895512037239 0 0.2031474460210671 -0.33685666860979407 0 0.21398526684424021 -0.32983146951939463 0 0.2031474460210671 -0.33685666860979407 0 0.2012438133619017 -0.32686788005421241 0 0.2031474460210671 -0.33685666860979407 0 0.18924170893530329 -0.33729412965925021 0 0.2012438133619017 -0.32686788005421241 0 0.20086784600726859 -0.34719569334940442 0 0.2031474460210671 -0.33685666860979407 0 0.18924170893530329 -0.33729412965925021 0 0.18924170893530329 -0.33729412965925021 0 0.2012438133619017 -0.32686788005421241 0 0.19206157470846941 -0.31929228883287231 0 0.19790363792798099 -0.30892052975445838 0 0.2012438133619017 -0.32686788005421241 0 0.19206157470846941 -0.31929228883287231 0 0.19206157470846941 -0.31929228883287231 0 0.1789613131607477 -0.32057304737956732 0 0.18380711209504921 -0.30734929959056789 0 0.18924170893530329 -0.33729412965925021 0 0.19206157470846941 -0.31929228883287231 0 0.1789613131607477 -0.32057304737956732 0 0.17087197906324439 -0.33140950207718639 0 0.1788165110853355 -0.34803927565410292 0 0.166492226154004 -0.34467847124706552 0 0.18924170893530329 -0.33729412965925021 0 0.1789613131607477 -0.32057304737956732 0 0.17087197906324439 -0.33140950207718639 0 0.18924170893530329 -0.33729412965925021 0 0.17087197906324439 -0.33140950207718639 0 0.1788165110853355 -0.34803927565410292 0 0.1590761015809298 -0.3239191714570181 0 0.166492226154004 -0.34467847124706552 0 0.15477501628563681 -0.33984610609241561 0 0.1590761015809298 -0.3239191714570181 0 0.166492226154004 -0.34467847124706552 0 0.17087197906324439 -0.33140950207718639 0 0.1590761015809298 -0.3239191714570181 0 0.166492226154004 -0.34467847124706552 0 0.1789613131607477 -0.32057304737956732 0 0.17087197906324439 -0.33140950207718639 0 0.1590761015809298 -0.3239191714570181 0 0.1789613131607477 -0.32057304737956732 0 0.1590761015809298 -0.3239191714570181 0 0.17103091592760611 -0.30118897360264718 0 0.1590761015809298 -0.3239191714570181 0 0.17103091592760611 -0.30118897360264718 0 0.18865592318124619 -0.35730826722282422 0 0.1875839088044752 -0.37307614977852482 0 0.17390835072707811 -0.36543777103711289 0 0.1875839088044752 -0.37307614977852482 0 0.17390835072707811 -0.36543777103711289 0 0.1807421569595361 -0.38456703874140152 0 0.1875839088044752 -0.37307614977852482 0 0.17390835072707811 -0.36543777103711289 0 0.17390835072707811 -0.36543777103711289 0 0.1788165110853355 -0.34803927565410292 0 0.166492226154004 -0.34467847124706552 0 0.18865592318124619 -0.35730826722282422 0 0.17390835072707811 -0.36543777103711289 0 0.1788165110853355 -0.34803927565410292 0 0.18865592318124619 -0.35730826722282422 0 0.18924170893530329 -0.33729412965925021 0 0.1788165110853355 -0.34803927565410292 0 0.17390835072707811 -0.36543777103711289 0 0.166492226154004 -0.34467847124706552 0 0.15453815590006861 -0.35461869633855492 0 0.17390835072707811 -0.36543777103711289 0 0.166492226154004 -0.34467847124706552 0 0.166492226154004 -0.34467847124706552 0 0.15453815590006861 -0.35461869633855492 0 0.15477501628563681 -0.33984610609241561 0 0.15453815590006861 -0.35461869633855492 0 0.1585300372540005 -0.3751883429839174 0 0.17390835072707811 -0.36543777103711289 0 0.15453815590006861 -0.35461869633855492 0 0.1585300372540005 -0.3751883429839174 0 0.17390835072707811 -0.36543777103711289 0 0.15453815590006861 -0.35461869633855492 0 0.17390835072707811 -0.36543777103711289 0 0.17023397662116421 -0.37811741904559648 0 0.1585300372540005 -0.3751883429839174 0 0.14743232748717289 -0.36685659144869631 0 0.14556564882705211 -0.34960717089325738 0 0.132799474710939 -0.37388004164538879 0 0.14743232748717289 -0.36685659144869631 0 0.15453815590006861 -0.35461869633855492 0 0.1585300372540005 -0.3751883429839174 0 0.14743232748717289 -0.36685659144869631 0 0.132799474710939 -0.37388004164538879 0 0.1461663820260804 -0.38245668122592008 0 0.14743232748717289 -0.36685659144869631 0 0.1585300372540005 -0.3751883429839174 0 0.1461663820260804 -0.38245668122592008 0 0.14743232748717289 -0.36685659144869631 0 0.15453815590006861 -0.35461869633855492 0 0.14556564882705211 -0.34960717089325738 0 0.15453815590006861 -0.35461869633855492 0 0.14556564882705211 -0.34960717089325738 0 0.15453815590006861 -0.35461869633855492 0 0.14797419842488571 -0.34502769292620372 0 0.14556564882705211 -0.34960717089325738 0 0.15453815590006861 -0.35461869633855492 0 0.15477501628563681 -0.33984610609241561 0 0.15207109321799769 -0.34190624245448947 0 0.15453815590006861 -0.35461869633855492 0 0.14797419842488571 -0.34502769292620372 0 0.15207109321799769 -0.34190624245448947 0 0.15453815590006861 -0.35461869633855492 0 0.15207109321799769 -0.34190624245448947 0 0.14797419842488571 -0.34502769292620372 0 0.1434872732485836 -0.3484463100534016 0 0.14797419842488571 -0.34502769292620372 0 0.1434872732485836 -0.3484463100534016 0 0.14152333340150641 -0.33850872435638218 0 0.14797419842488571 -0.34502769292620372 0 0.14556564882705211 -0.34960717089325738 0 0.14797419842488571 -0.34502769292620372 0 0.14556564882705211 -0.34960717089325738 0 0.1434872732485836 -0.3484463100534016 0 0.14556564882705211 -0.34960717089325738 0 0.1434872732485836 -0.3484463100534016 0 0.1434872732485836 -0.3484463100534016 0 0.12797710395461731 -0.33978322319872029 0 0.12115745367068601 -0.36545954309312878 0 0.1434872732485836 -0.3484463100534016 0 0.12115745367068601 -0.36545954309312878 0 0.14556564882705211 -0.34960717089325738 0 0.1434872732485836 -0.3484463100534016 0 0.132799474710939 -0.37388004164538879 0 0.1434872732485836 -0.3484463100534016 0 0.12797710395461731 -0.33978322319872029 0 0.14556564882705211 -0.34960717089325738 0 0.132799474710939 -0.37388004164538879 0 0.1434872732485836 -0.3484463100534016 0 0.132799474710939 -0.37388004164538879 0 0.12115745367068601 -0.36545954309312878 0 0.15140933970313369 -0.33849631245905609 0 0.13902555336870079 -0.32698277490121519 0 0.14620381090882609 -0.31167289803168091 0 0.1590761015809298 -0.3239191714570181 0 0.15140933970313369 -0.33849631245905609 0 0.14620381090882609 -0.31167289803168091 0 0.15140933970313369 -0.33849631245905609 0 0.14620381090882609 -0.31167289803168091 0 0.1590761015809298 -0.3239191714570181 0 0.15140933970313369 -0.33849631245905609 0 0.1590761015809298 -0.3239191714570181 0 0.15477501628563681 -0.33984610609241561 0 0.15140933970313369 -0.33849631245905609 0 0.15477501628563681 -0.33984610609241561 0 0.15207109321799769 -0.34190624245448947 0 0.15477501628563681 -0.33984610609241561 0 0.15140933970313369 -0.33849631245905609 0 0.15207109321799769 -0.34190624245448947 0 0.14797419842488571 -0.34502769292620372 0 0.15207109321799769 -0.34190624245448947 0 0.14797419842488571 -0.34502769292620372 0 0.15140933970313369 -0.33849631245905609 0 0.15207109321799769 -0.34190624245448947 0 0.14797419842488571 -0.34502769292620372 0 0.15140933970313369 -0.33849631245905609 0 0.15140933970313369 -0.33849631245905609 0 0.15207109321799769 -0.34190624245448947 0 0.14797419842488571 -0.34502769292620372 0 0.15140933970313369 -0.33849631245905609 0 0.14152333340150641 -0.33850872435638218 0 0.15140933970313369 -0.33849631245905609 0 0.14152333340150641 -0.33850872435638218 0 0.13902555336870079 -0.32698277490121519 0 0.12797710395461731 -0.33978322319872029 0 0.13902555336870079 -0.32698277490121519 0 0.1244969324359799 -0.32062488420160112 0 0.14152333340150641 -0.33850872435638218 0 0.12797710395461731 -0.33978322319872029 0 0.13902555336870079 -0.32698277490121519 0 0.1434872732485836 -0.3484463100534016 0 0.14152333340150641 -0.33850872435638218 0 0.12797710395461731 -0.33978322319872029 0 0.13902555336870079 -0.32698277490121519 0 0.13358260259598639 -0.31268548294998388 0 0.14620381090882609 -0.31167289803168091 0 0.13902555336870079 -0.32698277490121519 0 0.13358260259598639 -0.31268548294998388 0 0.1244969324359799 -0.32062488420160112 0 0.13358260259598639 -0.31268548294998388 0 0.13420294691316101 -0.30014474709490468 0 0.12398376935326461 -0.30400211052051751 0 0.13420294691316101 -0.30014474709490468 0 0.14620381090882609 -0.31167289803168091 0 0.1409982821145167 -0.28484948360430618 0 0.13358260259598639 -0.31268548294998388 0 0.12398376935326461 -0.30400211052051751 0 0.1244969324359799 -0.32062488420160112 0 0.13420294691316101 -0.30014474709490468 0 0.12595864474843599 -0.28875554883283161 0 0.12398376935326461 -0.30400211052051751 0 0.13358260259598639 -0.31268548294998388 0 0.13420294691316101 -0.30014474709490468 0 0.14620381090882609 -0.31167289803168091 0 0.1590761015809298 -0.3239191714570181 0 0.14620381090882609 -0.31167289803168091 0 0.1489429507255578 -0.29555434096479699 0 0.14620381090882609 -0.31167289803168091 0 0.1489429507255578 -0.29555434096479699 0 0.1409982821145167 -0.28484948360430618 0 0.14620381090882609 -0.31167289803168091 0 0.1409982821145167 -0.28484948360430618 0 0.1590761015809298 -0.3239191714570181 0 0.1489429507255578 -0.29555434096479699 0 0.1590761015809298 -0.3239191714570181 0 0.1489429507255578 -0.29555434096479699 0 0.16025524532335941 -0.29960659183167532 0 0.1489429507255578 -0.29555434096479699 0 0.13880979987018571 -0.26718951047257589 0 0.1489429507255578 -0.29555434096479699 0 0.1409982821145167 -0.28484948360430618 0 0.13880979987018571 -0.26718951047257589 0 0.1489429507255578 -0.29555434096479699 0 0.15112906794183761 -0.27967948229526318 0 0.1569228649662576 -0.28894622334021092 0 0.15112906794183761 -0.27967948229526318 0 0.15947059337709141 -0.28122283122845759 0 0.1569228649662576 -0.28894622334021092 0 0.1489429507255578 -0.29555434096479699 0 0.16025524532335941 -0.29960659183167532 0 0.1569228649662576 -0.28894622334021092 0 0.13420294691316101 -0.30014474709490468 0 0.1409982821145167 -0.28484948360430618 0 0.12595864474843599 -0.28875554883283161 0 0.1409982821145167 -0.28484948360430618 0 0.12595864474843599 -0.28875554883283161 0 0.12726001490913411 -0.2735988055416349 0 0.1409982821145167 -0.28484948360430618 0 0.12726001490913411 -0.2735988055416349 0 0.13579275332020729 -0.25802606917693138 0 0.1409982821145167 -0.28484948360430618 0 0.13579275332020729 -0.25802606917693138 0 0.1409982821145167 -0.28484948360430618 0 0.13880979987018571 -0.26718951047257589 0 0.13579275332020729 -0.25802606917693138 0 0.13579275332020729 -0.25802606917693138 0 0.12383087915321001 -0.26110690826341221 0 0.1248312630638693 -0.25185872287740718 0 0.12726001490913411 -0.2735988055416349 0 0.13579275332020729 -0.25802606917693138 0 0.12383087915321001 -0.26110690826341221 0 0.13880979987018571 -0.26718951047257589 0 0.13579275332020729 -0.25802606917693138 0 0.14474575970412451 -0.2609047833448272 0 0.13579275332020729 -0.25802606917693138 0 0.14586321943159419 -0.25281070489990048 0 0.14326640903758939 -0.2423350284972916 0 0.13579275332020729 -0.25802606917693138 0 0.14586321943159419 -0.25281070489990048 0 0.14474575970412451 -0.2609047833448272 0 0.14586321943159419 -0.25281070489990048 0 0.14474575970412451 -0.2609047833448272 0 0.15283459505208991 -0.25749347268689371 0 0.14474575970412451 -0.2609047833448272 0 0.15283459505208991 -0.25749347268689371 0 0.15042843084654511 -0.26900415948783452 0 0.15283459505208991 -0.25749347268689371 0 0.15042843084654511 -0.26900415948783452 0 0.1600907895199298 -0.26672848182476327 0 0.14586321943159419 -0.25281070489990048 0 0.15283459505208991 -0.25749347268689371 0 0.15382594782826181 -0.2456638197013967 0 0.1489429507255578 -0.29555434096479699 0 0.13880979987018571 -0.26718951047257589 0 0.15112906794183761 -0.27967948229526318 0 0.13880979987018571 -0.26718951047257589 0 0.14474575970412451 -0.2609047833448272 0 0.15042843084654511 -0.26900415948783452 0 0.13880979987018571 -0.26718951047257589 0 0.15042843084654511 -0.26900415948783452 0 0.15112906794183761 -0.27967948229526318 0 0.15042843084654511 -0.26900415948783452 0 0.15591144022513401 -0.27454102124018931 0 0.1600907895199298 -0.26672848182476327 0 0.15042843084654511 -0.26900415948783452 0 0.15112906794183761 -0.27967948229526318 0 0.15591144022513401 -0.27454102124018931 0 0.15112906794183761 -0.27967948229526318 0 0.15591144022513401 -0.27454102124018931 0 0.15947059337709141 -0.28122283122845759 0 0.15947059337709141 -0.28122283122845759 0 0.16185392716696309 -0.27531229770694798 0 0.16570286654591021 -0.28043371299443082 0 0.15591144022513401 -0.27454102124018931 0 0.15947059337709141 -0.28122283122845759 0 0.16185392716696309 -0.27531229770694798 0 0.16185392716696309 -0.27531229770694798 0 0.1600907895199298 -0.26672848182476327 0 0.16983156124434731 -0.27255291471445131 0 0.15591144022513401 -0.27454102124018931 0 0.16185392716696309 -0.27531229770694798 0 0.1600907895199298 -0.26672848182476327 0 0.16983156124434731 -0.27255291471445131 0 0.16570286654591021 -0.28043371299443082 0 0.17110550860696189 -0.28411083260312042 0 0.16185392716696309 -0.27531229770694798 0 0.16983156124434731 -0.27255291471445131 0 0.16570286654591021 -0.28043371299443082 0 0.1600907895199298 -0.26672848182476327 0 0.16983156124434731 -0.27255291471445131 0 0.17171055168490701 -0.25543532470283709 0 0.15283459505208991 -0.25749347268689371 0 0.1600907895199298 -0.26672848182476327 0 0.17171055168490701 -0.25543532470283709 0 0.15283459505208991 -0.25749347268689371 0 0.17171055168490701 -0.25543532470283709 0 0.15382594782826181 -0.2456638197013967 0 0.18993780220987239 -0.25497306796996289 0 0.17171055168490701 -0.25543532470283709 0 0.18108999837583681 -0.24278436805804121 0 0.18993780220987239 -0.25497306796996289 0 0.17171055168490701 -0.25543532470283709 0 0.18574327239553159 -0.26534993580265498 0 0.16983156124434731 -0.27255291471445131 0 0.17171055168490701 -0.25543532470283709 0 0.1829857302742823 -0.27845877574827638 0 0.17171055168490701 -0.25543532470283709 0 0.1841788455821608 -0.2761902547805129 0 0.1829857302742823 -0.27845877574827638 0 0.17171055168490701 -0.25543532470283709 0 0.18574327239553159 -0.26534993580265498 0 0.1841788455821608 -0.2761902547805129 0 0.17171055168490701 -0.25543532470283709 0 0.1829857302742823 -0.27845877574827638 0 0.16983156124434731 -0.27255291471445131 0 0.1829857302742823 -0.27845877574827638 0 0.17110550860696189 -0.28411083260312042 0 0.18987558617673181 -0.27178168099994943 0 0.18574327239553159 -0.26534993580265498 0 0.1841788455821608 -0.2761902547805129 0 0.1841788455821608 -0.2761902547805129 0 0.1829857302742823 -0.27845877574827638 0 0.18950050390669221 -0.27797132419462778 0 0.1841788455821608 -0.2761902547805129 0 0.1829857302742823 -0.27845877574827638 0 0.19044468410113161 -0.29368965275136738 0 0.1829857302742823 -0.27845877574827638 0 0.17103091592760611 -0.30118897360264718 0 0.1829857302742823 -0.27845877574827638 0 0.17103091592760611 -0.30118897360264718 0 0.17110550860696189 -0.28411083260312042 0 0.19044468410113161 -0.29368965275136738 0 0.1829857302742823 -0.27845877574827638 0 0.1829857302742823 -0.27845877574827638 0 0.17103091592760611 -0.30118897360264718 0 0.1789613131607477 -0.32057304737956732 0 0.18380711209504921 -0.30734929959056789 0 0.17103091592760611 -0.30118897360264718 0 0.19044468410113161 -0.29368965275136738 0 0.18380711209504921 -0.30734929959056789 0 0.17103091592760611 -0.30118897360264718 0 0.1590761015809298 -0.3239191714570181 0 0.17103091592760611 -0.30118897360264718 0 0.16025524532335941 -0.29960659183167532 0 0.17103091592760611 -0.30118897360264718 0 0.17110550860696189 -0.28411083260312042 0 0.16530339341644609 -0.28842424979370329 0 0.16025524532335941 -0.29960659183167532 0 0.1569228649662576 -0.28894622334021092 0 0.16530339341644609 -0.28842424979370329 0 0.15947059337709141 -0.28122283122845759 0 0.1569228649662576 -0.28894622334021092 0 0.16530339341644609 -0.28842424979370329 0 0.15947059337709141 -0.28122283122845759 0 0.16570286654591021 -0.28043371299443082 0 0.16530339341644609 -0.28842424979370329 0 0.16570286654591021 -0.28043371299443082 0 0.17110550860696189 -0.28411083260312042 0 0.16530339341644609 -0.28842424979370329 0 0.17103091592760611 -0.30118897360264718 0 0.16025524532335941 -0.29960659183167532 0 0.16530339341644609 -0.28842424979370329 0 0.19108684639935519 -0.48926961883470788 0 0.20386539219474639 -0.5 0 0.1807709483579997 -0.5 0 0.19108684639935519 -0.48926961883470788 0 0.20386539219474639 -0.5 0 0.2093080992096541 -0.48696917955497138 0 0.19475283014634129 -0.47484327503182672 0 0.19756244094196809 -0.46207804504509292 0 0.17532297226927401 -0.47647662638794952 0 0.19108684639935519 -0.48926961883470788 0 0.19475283014634129 -0.47484327503182672 0 0.2093080992096541 -0.48696917955497138 0 0.19475283014634129 -0.47484327503182672 0 0.21418268802340851 -0.47320992367570469 0 0.19756244094196809 -0.46207804504509292 0 0.19475283014634129 -0.47484327503182672 0 0.21418268802340851 -0.47320992367570469 0 0.2093080992096541 -0.48696917955497138 0 0.19475283014634129 -0.47484327503182672 0 0.21418268802340851 -0.47320992367570469 0 0.21418268802340851 -0.47320992367570469 0 0.2093080992096541 -0.48696917955497138 0 0.22497164443521619 -0.48428926519060889 0 0.20386539219474639 -0.5 0 0.2093080992096541 -0.48696917955497138 0 0.22695983603149331 -0.5 0 0.22695983603149331 -0.5 0 0.23834759318626811 -0.48635755103080891 0 0.22497164443521619 -0.48428926519060889 0 0.2093080992096541 -0.48696917955497138 0 0.22695983603149331 -0.5 0 0.22497164443521619 -0.48428926519060889 0 0.25005427986824003 -0.50000000000000044 0 0.22695983603149331 -0.5 0 0.23834759318626811 -0.48635755103080891 0 0.25407996069655758 -0.47526997090879253 0 0.25005427986824003 -0.50000000000000044 0 0.23834759318626811 -0.48635755103080891 0 0.25407996069655758 -0.47526997090879253 0 0.23834759318626811 -0.48635755103080891 0 0.23564288687246929 -0.47202552445766238 0 0.21418268802340851 -0.47320992367570469 0 0.23564288687246929 -0.47202552445766238 0 0.22497164443521619 -0.48428926519060889 0 0.23834759318626811 -0.48635755103080891 0 0.23564288687246929 -0.47202552445766238 0 0.22497164443521619 -0.48428926519060889 0 0.21418268802340851 -0.47320992367570469 0 0.231721207234104 -0.456984969250049 0 0.2198019096146617 -0.44767946370223538 0 0.21418268802340851 -0.47320992367570469 0 0.23564288687246929 -0.47202552445766238 0 0.231721207234104 -0.456984969250049 0 0.25407996069655758 -0.47526997090879253 0 0.23564288687246929 -0.47202552445766238 0 0.2468219570216508 -0.45619159349094113 0 0.23564288687246929 -0.47202552445766238 0 0.231721207234104 -0.456984969250049 0 0.2468219570216508 -0.45619159349094113 0 0.231721207234104 -0.456984969250049 0 0.2468219570216508 -0.45619159349094113 0 0.24204137828735611 -0.43328088235937928 0 0.25227507479676847 -0.44145558259856998 0 0.2468219570216508 -0.45619159349094113 0 0.24204137828735611 -0.43328088235937928 0 0.2468219570216508 -0.45619159349094113 0 0.24204137828735611 -0.43328088235937928 0 0.231721207234104 -0.456984969250049 0 0.2198019096146617 -0.44767946370223538 0 0.24204137828735611 -0.43328088235937928 0 0.2198019096146617 -0.44767946370223538 0 0.24204137828735611 -0.43328088235937928 0 0.2198019096146617 -0.44767946370223538 0 0.20726279492628361 -0.44147934200615729 0 0.2207581992447393 -0.4274067527118226 0 0.2198019096146617 -0.44767946370223538 0 0.20726279492628361 -0.44147934200615729 0 0.2043733609862973 -0.45476793614026628 0 0.2198019096146617 -0.44767946370223538 0 0.19756244094196809 -0.46207804504509292 0 0.2198019096146617 -0.44767946370223538 0 0.2043733609862973 -0.45476793614026628 0 0.19756244094196809 -0.46207804504509292 0 0.21418268802340851 -0.47320992367570469 0 0.2198019096146617 -0.44767946370223538 0 0.19756244094196809 -0.46207804504509292 0 0.20726279492628361 -0.44147934200615729 0 0.2043733609862973 -0.45476793614026628 0 0.1811929633294368 -0.4392076109802171 0 0.2043733609862973 -0.45476793614026628 0 0.1811929633294368 -0.4392076109802171 0 0.2043733609862973 -0.45476793614026628 0 0.19756244094196809 -0.46207804504509292 0 0.1811929633294368 -0.4392076109802171 0 0.20726279492628361 -0.44147934200615729 0 0.20393069554981291 -0.42835124025161542 0 0.1811929633294368 -0.4392076109802171 0 0.19646838587688931 -0.41175943690699462 0 0.20393069554981291 -0.42835124025161542 0 0.1811929633294368 -0.4392076109802171 0 0.19646838587688931 -0.41175943690699462 0 0.20986606414065931 -0.41845546084068591 0 0.20393069554981291 -0.42835124025161542 0 0.19646838587688931 -0.41175943690699462 0 0.20986606414065931 -0.41845546084068591 0 0.21830697589119569 -0.40630441349231089 0 0.20986606414065931 -0.41845546084068591 0 0.21830697589119569 -0.40630441349231089 0 0.2207581992447393 -0.4274067527118226 0 0.20726279492628361 -0.44147934200615729 0 0.20393069554981291 -0.42835124025161542 0 0.2207581992447393 -0.4274067527118226 0 0.20986606414065931 -0.41845546084068591 0 0.20393069554981291 -0.42835124025161542 0 0.2207581992447393 -0.4274067527118226 0 0.2198019096146617 -0.44767946370223538 0 0.2207581992447393 -0.4274067527118226 0 0.24204137828735611 -0.43328088235937928 0 0.2207581992447393 -0.4274067527118226 0 0.24204137828735611 -0.43328088235937928 0 0.23774722138956 -0.41270132626227668 0 0.26072118089039792 -0.42118694876739998 0 0.24204137828735611 -0.43328088235937928 0 0.23774722138956 -0.41270132626227668 0 0.24204137828735611 -0.43328088235937928 0 0.23774722138956 -0.41270132626227668 0 0.26072118089039792 -0.42118694876739998 0 0.23774722138956 -0.41270132626227668 0 0.24822324428336001 -0.39977759549644748 0 0.21830697589119569 -0.40630441349231089 0 0.2207581992447393 -0.4274067527118226 0 0.23774722138956 -0.41270132626227668 0 0.21830697589119569 -0.40630441349231089 0 0.2334530644917634 -0.39212177016517419 0 0.22067797363707339 -0.38766974112338809 0 0.21830697589119569 -0.40630441349231089 0 0.23774722138956 -0.41270132626227668 0 0.2334530644917634 -0.39212177016517419 0 0.23774722138956 -0.41270132626227668 0 0.2334530644917634 -0.39212177016517419 0 0.23774722138956 -0.41270132626227668 0 0.2334530644917634 -0.39212177016517419 0 0.24822324428336001 -0.39977759549644748 0 0.22915890759396679 -0.3715422140680717 0 0.2334530644917634 -0.39212177016517419 0 0.2474350636536945 -0.37691395749906331 0 0.2334530644917634 -0.39212177016517419 0 0.24822324428336001 -0.39977759549644748 0 0.2474350636536945 -0.37691395749906331 0 0.22915890759396679 -0.3715422140680717 0 0.2334530644917634 -0.39212177016517419 0 0.22067797363707339 -0.38766974112338809 0 0.22915890759396679 -0.3715422140680717 0 0.22067797363707339 -0.38766974112338809 0 0.21554831839594449 -0.37610859260574109 0 0.22915890759396679 -0.3715422140680717 0 0.2334530644917634 -0.39212177016517419 0 0.21554831839594449 -0.37610859260574109 0 0.208500167616191 -0.39330446541816849 0 0.2012594668818723 -0.38071452851993648 0 0.22067797363707339 -0.38766974112338809 0 0.21554831839594449 -0.37610859260574109 0 0.208500167616191 -0.39330446541816849 0 0.20851399690228051 -0.36932361920029161 0 0.21554831839594449 -0.37610859260574109 0 0.2012594668818723 -0.38071452851993648 0 0.21830697589119569 -0.40630441349231089 0 0.22067797363707339 -0.38766974112338809 0 0.208500167616191 -0.39330446541816849 0 0.19646838587688931 -0.41175943690699462 0 0.21830697589119569 -0.40630441349231089 0 0.208500167616191 -0.39330446541816849 0 0.19646838587688931 -0.41175943690699462 0 0.19307383237251091 -0.3929604016943215 0 0.18009993260996901 -0.39891508860316133 0 0.19646838587688931 -0.41175943690699462 0 0.208500167616191 -0.39330446541816849 0 0.19307383237251091 -0.3929604016943215 0 0.19307383237251091 -0.3929604016943215 0 0.19105410034464701 -0.38292458173799448 0 0.2012594668818723 -0.38071452851993648 0 0.19307383237251091 -0.3929604016943215 0 0.19105410034464701 -0.38292458173799448 0 0.1807421569595361 -0.38456703874140152 0 0.1875839088044752 -0.37307614977852482 0 0.19105410034464701 -0.38292458173799448 0 0.2012594668818723 -0.38071452851993648 0 0.1875839088044752 -0.37307614977852482 0 0.2012594668818723 -0.38071452851993648 0 0.208500167616191 -0.39330446541816849 0 0.19307383237251091 -0.3929604016943215 0 0.2012594668818723 -0.38071452851993648 0 0.17390835072707811 -0.36543777103711289 0 0.1807421569595361 -0.38456703874140152 0 0.17023397662116421 -0.37811741904559648 0 0.17390835072707811 -0.36543777103711289 0 0.1807421569595361 -0.38456703874140152 0 0.1875839088044752 -0.37307614977852482 0 0.19105410034464701 -0.38292458173799448 0 0.1807421569595361 -0.38456703874140152 0 0.19307383237251091 -0.3929604016943215 0 0.1807421569595361 -0.38456703874140152 0 0.18009993260996901 -0.39891508860316133 0 0.18009993260996901 -0.39891508860316133 0 0.16252191860792439 -0.39575798962928138 0 0.1741253298145406 -0.41323909864311648 0 0.1807421569595361 -0.38456703874140152 0 0.18009993260996901 -0.39891508860316133 0 0.16252191860792439 -0.39575798962928138 0 0.16252191860792439 -0.39575798962928138 0 0.15171074973176851 -0.41082951719754057 0 0.16214831383066389 -0.41146975278128489 0 0.1807421569595361 -0.38456703874140152 0 0.16252191860792439 -0.39575798962928138 0 0.17023397662116421 -0.37811741904559648 0 0.16252191860792439 -0.39575798962928138 0 0.1585300372540005 -0.3751883429839174 0 0.16252191860792439 -0.39575798962928138 0 0.17023397662116421 -0.37811741904559648 0 0.1585300372540005 -0.3751883429839174 0 0.16252191860792439 -0.39575798962928138 0 0.1585300372540005 -0.3751883429839174 0 0.1461663820260804 -0.38245668122592008 0 0.1461663820260804 -0.38245668122592008 0 0.13588016811784859 -0.39175374667390961 0 0.14556951524167841 -0.396192137440599 0 0.132799474710939 -0.37388004164538879 0 0.1461663820260804 -0.38245668122592008 0 0.13588016811784859 -0.39175374667390961 0 0.132799474710939 -0.37388004164538879 0 0.120033300594829 -0.3981529123975216 0 0.132799474710939 -0.37388004164538879 0 0.13588016811784859 -0.39175374667390961 0 0.120033300594829 -0.3981529123975216 0 0.13588016811784859 -0.39175374667390961 0 0.13483216801571579 -0.40808696066011851 0 0.120033300594829 -0.3981529123975216 0 0.13588016811784859 -0.39175374667390961 0 0.14556951524167841 -0.396192137440599 0 0.13483216801571579 -0.40808696066011851 0 0.13483216801571579 -0.40808696066011851 0 0.120033300594829 -0.3981529123975216 0 0.16252191860792439 -0.39575798962928138 0 0.14556951524167841 -0.396192137440599 0 0.15171074973176851 -0.41082951719754057 0 0.14556951524167841 -0.396192137440599 0 0.15171074973176851 -0.41082951719754057 0 0.13483216801571579 -0.40808696066011851 0 0.16252191860792439 -0.39575798962928138 0 0.1461663820260804 -0.38245668122592008 0 0.14556951524167841 -0.396192137440599 0 0.15171074973176851 -0.41082951719754057 0 0.13483216801571579 -0.40808696066011851 0 0.13483216801571579 -0.40808696066011851 0 0.1434497207123375 -0.42247695391963741 0 0.15801256567257621 -0.42364728582016792 0 0.15171074973176851 -0.41082951719754057 0 0.13483216801571579 -0.40808696066011851 0 0.15801256567257621 -0.42364728582016792 0 0.13483216801571579 -0.40808696066011851 0 0.15801256567257621 -0.42364728582016792 0 0.12574661367947601 -0.4154995545671244 0 0.1330549079819319 -0.42476894690306749 0 0.11742886150221241 -0.42353132176743741 0 0.13483216801571579 -0.40808696066011851 0 0.12574661367947601 -0.4154995545671244 0 0.11638502573463951 -0.40508953282460403 0 0.13483216801571579 -0.40808696066011851 0 0.1330549079819319 -0.42476894690306749 0 0.1434497207123375 -0.42247695391963741 0 0.13483216801571579 -0.40808696066011851 0 0.11638502573463951 -0.40508953282460403 0 0.13483216801571579 -0.40808696066011851 0 0.12574661367947601 -0.4154995545671244 0 0.1330549079819319 -0.42476894690306749 0 0.1330549079819319 -0.42476894690306749 0 0.1478992411791262 -0.4334046222951955 0 0.14185566341414471 -0.4516595710815835 0 0.1478992411791262 -0.4334046222951955 0 0.15801256567257621 -0.42364728582016792 0 0.16110021160725421 -0.44409380049428038 0 0.1330549079819319 -0.42476894690306749 0 0.1478992411791262 -0.4334046222951955 0 0.1434497207123375 -0.42247695391963741 0 0.1478992411791262 -0.4334046222951955 0 0.1434497207123375 -0.42247695391963741 0 0.15801256567257621 -0.42364728582016792 0 0.15801256567257621 -0.42364728582016792 0 0.1811929633294368 -0.4392076109802171 0 0.15801256567257621 -0.42364728582016792 0 0.1741253298145406 -0.41323909864311648 0 0.1811929633294368 -0.4392076109802171 0 0.15801256567257621 -0.42364728582016792 0 0.1811929633294368 -0.4392076109802171 0 0.16110021160725421 -0.44409380049428038 0 0.16252191860792439 -0.39575798962928138 0 0.16214831383066389 -0.41146975278128489 0 0.1741253298145406 -0.41323909864311648 0 0.15801256567257621 -0.42364728582016792 0 0.16214831383066389 -0.41146975278128489 0 0.1741253298145406 -0.41323909864311648 0 0.15171074973176851 -0.41082951719754057 0 0.15801256567257621 -0.42364728582016792 0 0.16214831383066389 -0.41146975278128489 0 0.19646838587688931 -0.41175943690699462 0 0.1741253298145406 -0.41323909864311648 0 0.1811929633294368 -0.4392076109802171 0 0.19646838587688931 -0.41175943690699462 0 0.18009993260996901 -0.39891508860316133 0 0.1741253298145406 -0.41323909864311648 0 0.19756244094196809 -0.46207804504509292 0 0.1811929633294368 -0.4392076109802171 0 0.17540758679683741 -0.45718463848898372 0 0.1811929633294368 -0.4392076109802171 0 0.17540758679683741 -0.45718463848898372 0 0.16110021160725421 -0.44409380049428038 0 0.19756244094196809 -0.46207804504509292 0 0.17540758679683741 -0.45718463848898372 0 0.17532297226927401 -0.47647662638794952 0 0.17540758679683741 -0.45718463848898372 0 0.1608685705867737 -0.46159296634257913 0 0.17532297226927401 -0.47647662638794952 0 0.17540758679683741 -0.45718463848898372 0 0.1608685705867737 -0.46159296634257913 0 0.16110021160725421 -0.44409380049428038 0 0.1608685705867737 -0.46159296634257913 0 0.16110021160725421 -0.44409380049428038 0 0.14185566341414471 -0.4516595710815835 0 0.1478992411791262 -0.4334046222951955 0 0.16110021160725421 -0.44409380049428038 0 0.14185566341414471 -0.4516595710815835 0 0.1330549079819319 -0.42476894690306749 0 0.14185566341414471 -0.4516595710815835 0 0.1203966273334699 -0.44008063856667368 0 0.1330549079819319 -0.42476894690306749 0 0.14185566341414471 -0.4516595710815835 0 0.14185566341414471 -0.4516595710815835 0 0.12601670775743901 -0.4618830355857485 0 0.1203966273334699 -0.44008063856667368 0 0.14185566341414471 -0.4516595710815835 0 0.12601670775743901 -0.4618830355857485 0 0.1506564188463578 -0.4785501952600994 0 0.14185566341414471 -0.4516595710815835 0 0.1506564188463578 -0.4785501952600994 0 0.1608685705867737 -0.46159296634257913 0 0.14185566341414471 -0.4516595710815835 0 0.1506564188463578 -0.4785501952600994 0 0.1506564188463578 -0.4785501952600994 0 0.15440923375031601 -0.49001688536087262 0 0.1506564188463578 -0.4785501952600994 0 0.1249966723593048 -0.48070725590292462 0 0.12601670775743901 -0.4618830355857485 0 0.1506564188463578 -0.4785501952600994 0 0.1249966723593048 -0.48070725590292462 0 0.1506564188463578 -0.4785501952600994 0 0.14140872874001101 -0.48985486730477928 0 0.1249966723593048 -0.48070725590292462 0 0.13799160167987001 -0.49999999999999728 0 0.14140872874001101 -0.48985486730477928 0 0.1249966723593048 -0.48070725590292462 0 0.13799160167987001 -0.49999999999999728 0 0.1249966723593048 -0.48070725590292462 0 0.13799160167987001 -0.49999999999999728 0 0.15440923375031601 -0.49001688536087262 0 0.13799160167987001 -0.49999999999999728 0 0.14140872874001101 -0.48985486730477928 0 0.15440923375031601 -0.49001688536087262 0 0.13799160167987001 -0.49999999999999728 0 0.15440923375031601 -0.49001688536087262 0 0.15767650452125281 -0.50000000000000067 0 0.1506564188463578 -0.4785501952600994 0 0.14140872874001101 -0.48985486730477928 0 0.15440923375031601 -0.49001688536087262 0 0.15440923375031601 -0.49001688536087262 0 0.15767650452125281 -0.50000000000000067 0 0.17018202622826081 -0.49086152908370029 0 0.15767650452125281 -0.50000000000000067 0 0.1807709483579997 -0.5 0 0.15440923375031601 -0.49001688536087262 0 0.17018202622826081 -0.49086152908370029 0 0.15767650452125281 -0.50000000000000067 0 0.15440923375031601 -0.49001688536087262 0 0.17018202622826081 -0.49086152908370029 0 0.17532297226927401 -0.47647662638794952 0 0.1506564188463578 -0.4785501952600994 0 0.15440923375031601 -0.49001688536087262 0 0.17532297226927401 -0.47647662638794952 0 0.1608685705867737 -0.46159296634257913 0 0.1506564188463578 -0.4785501952600994 0 0.17532297226927401 -0.47647662638794952 0 0.1506564188463578 -0.4785501952600994 0 0.17532297226927401 -0.47647662638794952 0 0.15440923375031601 -0.49001688536087262 0 0.17532297226927401 -0.47647662638794952 0 0.19108684639935519 -0.48926961883470788 0 0.19475283014634129 -0.47484327503182672 0 0.17532297226927401 -0.47647662638794952 0 0.19756244094196809 -0.46207804504509292 0 0.17532297226927401 -0.47647662638794952 0 0.19475283014634129 -0.47484327503182672 0 0.17532297226927401 -0.47647662638794952 0 0.19108684639935519 -0.48926961883470788 0 0.17018202622826081 -0.49086152908370029 0 0.17532297226927401 -0.47647662638794952 0 0.19108684639935519 -0.48926961883470788 0 0.17018202622826081 -0.49086152908370029 0 0.1807709483579997 -0.5 0 0.06361055174583391 -0.48011988098768221 0 0.080084708726003831 -0.49502660554649902 0 0.054061429018413043 -0.5 0 0.082038153238898737 -0.5 0 0.080084708726003831 -0.49502660554649902 0 0.054061429018413043 -0.5 0 0.06361055174583391 -0.48011988098768221 0 0.083850258327285959 -0.47361798318585158 0 0.080084708726003831 -0.49502660554649902 0 0.06361055174583391 -0.48011988098768221 0 0.083850258327285959 -0.47361798318585158 0 0.065640867496588096 -0.45572759305845523 0 0.083850258327285959 -0.47361798318585158 0 0.080084708726003831 -0.49502660554649902 0 0.083850258327285959 -0.47361798318585158 0 0.095348381901719528 -0.49190168959030639 0 0.097216568561943134 -0.47044879225803637 0 0.083850258327285959 -0.47361798318585158 0 0.080084708726003831 -0.49502660554649902 0 0.095348381901719528 -0.49190168959030639 0 0.082038153238898737 -0.5 0 0.080084708726003831 -0.49502660554649902 0 0.095348381901719528 -0.49190168959030639 0 0.082038153238898737 -0.5 0 0.095348381901719528 -0.49190168959030639 0 0.11001487745938431 -0.5 0 0.095348381901719528 -0.49190168959030639 0 0.11001487745938431 -0.5 0 0.10752059893145161 -0.48217636434487537 0 0.11001487745938431 -0.5 0 0.1249966723593048 -0.48070725590292462 0 0.10752059893145161 -0.48217636434487537 0 0.13799160167987001 -0.49999999999999728 0 0.11001487745938431 -0.5 0 0.1249966723593048 -0.48070725590292462 0 0.1249966723593048 -0.48070725590292462 0 0.10752059893145161 -0.48217636434487537 0 0.1081890149445786 -0.45575399718374021 0 0.1249966723593048 -0.48070725590292462 0 0.10752059893145161 -0.48217636434487537 0 0.097216568561943134 -0.47044879225803637 0 0.10752059893145161 -0.48217636434487537 0 0.1081890149445786 -0.45575399718374021 0 0.095348381901719528 -0.49190168959030639 0 0.097216568561943134 -0.47044879225803637 0 0.10752059893145161 -0.48217636434487537 0 0.097216568561943134 -0.47044879225803637 0 0.1081890149445786 -0.45575399718374021 0 0.087615807928568074 -0.45220936082520419 0 0.12601670775743901 -0.4618830355857485 0 0.1249966723593048 -0.48070725590292462 0 0.1081890149445786 -0.45575399718374021 0 0.1249966723593048 -0.48070725590292462 0 0.1081890149445786 -0.45575399718374021 0 0.12601670775743901 -0.4618830355857485 0 0.1081890149445786 -0.45575399718374021 0 0.1203966273334699 -0.44008063856667368 0 0.1081890149445786 -0.45575399718374021 0 0.1203966273334699 -0.44008063856667368 0 0.10756772139041899 -0.44056045500808738 0 0.1203966273334699 -0.44008063856667368 0 0.10756772139041899 -0.44056045500808738 0 0.1126421547474498 -0.43290646570082081 0 0.1081890149445786 -0.45575399718374021 0 0.087615807928568074 -0.45220936082520419 0 0.091381357529850965 -0.43080073846455691 0 0.1081890149445786 -0.45575399718374021 0 0.10756772139041899 -0.44056045500808738 0 0.091381357529850965 -0.43080073846455691 0 0.1081890149445786 -0.45575399718374021 0 0.091381357529850965 -0.43080073846455691 0 0.087615807928568074 -0.45220936082520419 0 0.075519439466956426 -0.44414390698556622 0 0.083867785047200091 -0.43549234044607821 0 0.087615807928568074 -0.45220936082520419 0 0.091381357529850965 -0.43080073846455691 0 0.087615807928568074 -0.45220936082520419 0 0.083867785047200091 -0.43549234044607821 0 0.091381357529850965 -0.43080073846455691 0 0.083850258327285959 -0.47361798318585158 0 0.087615807928568074 -0.45220936082520419 0 0.065640867496588096 -0.45572759305845523 0 0.083850258327285959 -0.47361798318585158 0 0.097216568561943134 -0.47044879225803637 0 0.087615807928568074 -0.45220936082520419 0 0.083850258327285959 -0.47361798318585158 0 0.087615807928568074 -0.45220936082520419 0 0.087615807928568074 -0.45220936082520419 0 0.065640867496588096 -0.45572759305845523 0 0.075519439466956426 -0.44414390698556622 0 0.065640867496588096 -0.45572759305845523 0 0.075519439466956426 -0.44414390698556622 0 0.068430265658369363 -0.43364829907220642 0 0.076258270757399521 -0.42301510720026297 0 0.078115980389577927 -0.430319001157145 0 0.068430265658369363 -0.43364829907220642 0 0.076258270757399521 -0.42301510720026297 0 0.068430265658369363 -0.43364829907220642 0 0.068116849210106439 -0.42075607456835118 0 0.075519439466956426 -0.44414390698556622 0 0.078115980389577927 -0.430319001157145 0 0.068430265658369363 -0.43364829907220642 0 0.068430265658369363 -0.43364829907220642 0 0.068116849210106439 -0.42075607456835118 0 0.056522483661813137 -0.42810296826997479 0 0.068116849210106439 -0.42075607456835118 0 0.072902369868226319 -0.41035980402799371 0 0.05914768460240976 -0.41270518465408812 0 0.072902369868226319 -0.41035980402799371 0 0.07576374078453077 -0.40004530466529381 0 0.05914768460240976 -0.41270518465408812 0 0.07576374078453077 -0.40004530466529381 0 0.05914768460240976 -0.41270518465408812 0 0.072902369868226319 -0.41035980402799371 0 0.077521347857375328 -0.41208538320752042 0 0.078113197714817006 -0.40839448033305731 0 0.072902369868226319 -0.41035980402799371 0 0.077521347857375328 -0.41208538320752042 0 0.076228645492525879 -0.41609213320588723 0 0.072902369868226319 -0.41035980402799371 0 0.078113197714817006 -0.40839448033305731 0 0.077510451371998371 -0.40380438143930852 0 0.076258270757399521 -0.42301510720026297 0 0.068116849210106439 -0.42075607456835118 0 0.076228645492525879 -0.41609213320588723 0 0.068116849210106439 -0.42075607456835118 0 0.072902369868226319 -0.41035980402799371 0 0.076228645492525879 -0.41609213320588723 0 0.077521347857375328 -0.41208538320752042 0 0.076228645492525879 -0.41609213320588723 0 0.079793979718542601 -0.41474778589886502 0 0.076258270757399521 -0.42301510720026297 0 0.076228645492525879 -0.41609213320588723 0 0.080480458542330033 -0.41885226190152802 0 0.093602156408125026 -0.41194159376164502 0 0.091381357529850965 -0.43080073846455691 0 0.095836739094833687 -0.4054701515656764 0 0.091381357529850965 -0.43080073846455691 0 0.095836739094833687 -0.4054701515656764 0 0.076258270757399521 -0.42301510720026297 0 0.080480458542330033 -0.41885226190152802 0 0.082072273976905211 -0.42333019606279598 0 0.093602156408125026 -0.41194159376164502 0 0.092286151016206908 -0.41545865958332112 0 0.091381357529850965 -0.43080073846455691 0 0.080480458542330033 -0.41885226190152802 0 0.083250832205795683 -0.42040325731733857 0 0.082072273976905211 -0.42333019606279598 0 0.080480458542330033 -0.41885226190152802 0 0.079793979718542601 -0.41474778589886502 0 0.082628473226765531 -0.41585839065232078 0 0.076228645492525879 -0.41609213320588723 0 0.080480458542330033 -0.41885226190152802 0 0.079793979718542601 -0.41474778589886502 0 0.079793979718542601 -0.41474778589886502 0 0.082628473226765531 -0.41585839065232078 0 0.082737644433641871 -0.41344044189385742 0 0.082628473226765531 -0.41585839065232078 0 0.085022712191758526 -0.41629541839523942 0 0.083473758400547826 -0.41809832301262401 0 0.080480458542330033 -0.41885226190152802 0 0.082628473226765531 -0.41585839065232078 0 0.083473758400547826 -0.41809832301262401 0 0.082628473226765531 -0.41585839065232078 0 0.082737644433641871 -0.41344044189385742 0 0.084812810302905731 -0.41390049925826522 0 0.082628473226765531 -0.41585839065232078 0 0.085022712191758526 -0.41629541839523942 0 0.084812810302905731 -0.41390049925826522 0 0.085022712191758526 -0.41629541839523942 0 0.084812810302905731 -0.41390049925826522 0 0.086888938761794904 -0.41551248042372591 0 0.085022712191758526 -0.41629541839523942 0 0.08516887540335745 -0.41794153409450813 0 0.083473758400547826 -0.41809832301262401 0 0.085022712191758526 -0.41629541839523942 0 0.08516887540335745 -0.41794153409450813 0 0.086799121281380454 -0.41732006174837721 0 0.08516887540335745 -0.41794153409450813 0 0.085361677048514356 -0.41964711051188303 0 0.086890231727602643 -0.41891963598489401 0 0.085361677048514356 -0.41964711051188303 0 0.083250832205795683 -0.42040325731733857 0 0.083473758400547826 -0.41809832301262401 0 0.08516887540335745 -0.41794153409450813 0 0.085361677048514356 -0.41964711051188303 0 0.083473758400547826 -0.41809832301262401 0 0.085361677048514356 -0.41964711051188303 0 0.08530127616983979 -0.42168611697045649 0 0.083250832205795683 -0.42040325731733857 0 0.08530127616983979 -0.42168611697045649 0 0.083250832205795683 -0.42040325731733857 0 0.082072273976905211 -0.42333019606279598 0 0.080480458542330033 -0.41885226190152802 0 0.083250832205795683 -0.42040325731733857 0 0.083473758400547826 -0.41809832301262401 0 0.080740834154632735 -0.40790532549245251 0 0.082843901300202666 -0.40857164684883068 0 0.082311882548445348 -0.40627984796582051 0 0.080740834154632735 -0.40790532549245251 0 0.082311882548445348 -0.40627984796582051 0 0.079866642716933778 -0.40544793974275489 0 0.078113197714817006 -0.40839448033305731 0 0.080740834154632735 -0.40790532549245251 0 0.079866642716933778 -0.40544793974275489 0 0.078113197714817006 -0.40839448033305731 0 0.080740834154632735 -0.40790532549245251 0 0.080568546492764889 -0.41083271257179882 0 0.080740834154632735 -0.40790532549245251 0 0.080568546492764889 -0.41083271257179882 0 0.082843901300202666 -0.40857164684883068 0 0.077521347857375328 -0.41208538320752042 0 0.079793979718542601 -0.41474778589886502 0 0.080568546492764889 -0.41083271257179882 0 0.079793979718542601 -0.41474778589886502 0 0.080568546492764889 -0.41083271257179882 0 0.082737644433641871 -0.41344044189385742 0 0.077521347857375328 -0.41208538320752042 0 0.078113197714817006 -0.40839448033305731 0 0.080568546492764889 -0.41083271257179882 0 0.082737644433641871 -0.41344044189385742 0 0.084812810302905731 -0.41390049925826522 0 0.083317497254351669 -0.41100918873865638 0 0.084812810302905731 -0.41390049925826522 0 0.083317497254351669 -0.41100918873865638 0 0.086501991900628086 -0.41366637718621663 0 0.085805338894548611 -0.41112787900343878 0 0.083317497254351669 -0.41100918873865638 0 0.086501991900628086 -0.41366637718621663 0 0.085805338894548611 -0.41112787900343878 0 0.083317497254351669 -0.41100918873865638 0 0.084656044845450848 -0.40946169690719908 0 0.080568546492764889 -0.41083271257179882 0 0.082737644433641871 -0.41344044189385742 0 0.083317497254351669 -0.41100918873865638 0 0.083317497254351669 -0.41100918873865638 0 0.082843901300202666 -0.40857164684883068 0 0.084656044845450848 -0.40946169690719908 0 0.080568546492764889 -0.41083271257179882 0 0.083317497254351669 -0.41100918873865638 0 0.082843901300202666 -0.40857164684883068 0 0.085805338894548611 -0.41112787900343878 0 0.084656044845450848 -0.40946169690719908 0 0.086397645968795136 -0.40866304716104362 0 0.084656044845450848 -0.40946169690719908 0 0.08461276317797746 -0.40756507625797012 0 0.086397645968795136 -0.40866304716104362 0 0.082843901300202666 -0.40857164684883068 0 0.084656044845450848 -0.40946169690719908 0 0.08461276317797746 -0.40756507625797012 0 0.08461276317797746 -0.40756507625797012 0 0.086699966868620096 -0.40686809837984872 0 0.084767137536350734 -0.40554612028507808 0 0.08461276317797746 -0.40756507625797012 0 0.086699966868620096 -0.40686809837984872 0 0.086397645968795136 -0.40866304716104362 0 0.082843901300202666 -0.40857164684883068 0 0.08461276317797746 -0.40756507625797012 0 0.082311882548445348 -0.40627984796582051 0 0.08461276317797746 -0.40756507625797012 0 0.082311882548445348 -0.40627984796582051 0 0.084767137536350734 -0.40554612028507808 0 0.089103199848941467 -0.40835623014820149 0 0.091199903534709983 -0.40760962196606237 0 0.087612219294723404 -0.40475882107017891 0 0.086699966868620096 -0.40686809837984872 0 0.086397645968795136 -0.40866304716104362 0 0.089103199848941467 -0.40835623014820149 0 0.086699966868620096 -0.40686809837984872 0 0.089103199848941467 -0.40835623014820149 0 0.087612219294723404 -0.40475882107017891 0 0.085805338894548611 -0.41112787900343878 0 0.086397645968795136 -0.40866304716104362 0 0.087734339571614833 -0.41028203929692753 0 0.086397645968795136 -0.40866304716104362 0 0.089103199848941467 -0.40835623014820149 0 0.087734339571614833 -0.41028203929692753 0 0.089103199848941467 -0.40835623014820149 0 0.087734339571614833 -0.41028203929692753 0 0.088027538659603694 -0.41236139515943121 0 0.089103199848941467 -0.40835623014820149 0 0.088027538659603694 -0.41236139515943121 0 0.091093184437251631 -0.41003885288065561 0 0.088027538659603694 -0.41236139515943121 0 0.090410494275046743 -0.4128354507231104 0 0.091093184437251631 -0.41003885288065561 0 0.085805338894548611 -0.41112787900343878 0 0.087734339571614833 -0.41028203929692753 0 0.088027538659603694 -0.41236139515943121 0 0.085805338894548611 -0.41112787900343878 0 0.086501991900628086 -0.41366637718621663 0 0.088027538659603694 -0.41236139515943121 0 0.086501991900628086 -0.41366637718621663 0 0.088027538659603694 -0.41236139515943121 0 0.088442337402436094 -0.41436356337755031 0 0.088027538659603694 -0.41236139515943121 0 0.090410494275046743 -0.4128354507231104 0 0.088442337402436094 -0.41436356337755031 0 0.090410494275046743 -0.4128354507231104 0 0.093602156408125026 -0.41194159376164502 0 0.092286151016206908 -0.41545865958332112 0 0.090410494275046743 -0.4128354507231104 0 0.093602156408125026 -0.41194159376164502 0 0.091093184437251631 -0.41003885288065561 0 0.091093184437251631 -0.41003885288065561 0 0.092729050361527218 -0.40809912053911013 0 0.091199903534709983 -0.40760962196606237 0 0.089103199848941467 -0.40835623014820149 0 0.091093184437251631 -0.41003885288065561 0 0.091199903534709983 -0.40760962196606237 0 0.093602156408125026 -0.41194159376164502 0 0.091093184437251631 -0.41003885288065561 0 0.092729050361527218 -0.40809912053911013 0 0.092729050361527218 -0.40809912053911013 0 0.091199903534709983 -0.40760962196606237 0 0.093087119392458728 -0.40567073664114689 0 0.091373591728677442 -0.41778198150174228 0 0.092286151016206908 -0.41545865958332112 0 0.091381357529850965 -0.43080073846455691 0 0.088500512658632388 -0.41838964904736381 0 0.089111299858046972 -0.41990860291365778 0 0.087537840524712113 -0.42051421029047797 0 0.088500512658632388 -0.41838964904736381 0 0.089111299858046972 -0.41990860291365778 0 0.090639192636554219 -0.41932053360798799 0 0.089111299858046972 -0.41990860291365778 0 0.089397161181125173 -0.42169375067955889 0 0.090639192636554219 -0.41932053360798799 0 0.089397161181125173 -0.42169375067955889 0 0.087537840524712113 -0.42051421029047797 0 0.087463608161770873 -0.42228048372420252 0 0.089111299858046972 -0.41990860291365778 0 0.089397161181125173 -0.42169375067955889 0 0.087537840524712113 -0.42051421029047797 0 0.08530127616983979 -0.42168611697045649 0 0.087537840524712113 -0.42051421029047797 0 0.087463608161770873 -0.42228048372420252 0 0.085361677048514356 -0.41964711051188303 0 0.08530127616983979 -0.42168611697045649 0 0.087537840524712113 -0.42051421029047797 0 0.088500512658632388 -0.41838964904736381 0 0.087537840524712113 -0.42051421029047797 0 0.086890231727602643 -0.41891963598489401 0 0.085361677048514356 -0.41964711051188303 0 0.087537840524712113 -0.42051421029047797 0 0.086890231727602643 -0.41891963598489401 0 0.088500512658632388 -0.41838964904736381 0 0.086890231727602643 -0.41891963598489401 0 0.086799121281380454 -0.41732006174837721 0 0.08516887540335745 -0.41794153409450813 0 0.086890231727602643 -0.41891963598489401 0 0.086799121281380454 -0.41732006174837721 0 0.085022712191758526 -0.41629541839523942 0 0.086799121281380454 -0.41732006174837721 0 0.086888938761794904 -0.41551248042372591 0 0.086799121281380454 -0.41732006174837721 0 0.086888938761794904 -0.41551248042372591 0 0.088550254302883324 -0.416494571268619 0 0.084812810302905731 -0.41390049925826522 0 0.086501991900628086 -0.41366637718621663 0 0.086888938761794904 -0.41551248042372591 0 0.086501991900628086 -0.41366637718621663 0 0.086888938761794904 -0.41551248042372591 0 0.088442337402436094 -0.41436356337755031 0 0.086888938761794904 -0.41551248042372591 0 0.088442337402436094 -0.41436356337755031 0 0.088550254302883324 -0.416494571268619 0 0.090410494275046743 -0.4128354507231104 0 0.088442337402436094 -0.41436356337755031 0 0.090260593453162466 -0.41563509228501527 0 0.088442337402436094 -0.41436356337755031 0 0.088550254302883324 -0.416494571268619 0 0.090260593453162466 -0.41563509228501527 0 0.088500512658632388 -0.41838964904736381 0 0.088550254302883324 -0.416494571268619 0 0.090260593453162466 -0.41563509228501527 0 0.088500512658632388 -0.41838964904736381 0 0.086799121281380454 -0.41732006174837721 0 0.088550254302883324 -0.416494571268619 0 0.088500512658632388 -0.41838964904736381 0 0.091373591728677442 -0.41778198150174228 0 0.090260593453162466 -0.41563509228501527 0 0.091373591728677442 -0.41778198150174228 0 0.090260593453162466 -0.41563509228501527 0 0.092286151016206908 -0.41545865958332112 0 0.090410494275046743 -0.4128354507231104 0 0.090260593453162466 -0.41563509228501527 0 0.092286151016206908 -0.41545865958332112 0 0.088500512658632388 -0.41838964904736381 0 0.091373591728677442 -0.41778198150174228 0 0.090639192636554219 -0.41932053360798799 0 0.091373591728677442 -0.41778198150174228 0 0.090639192636554219 -0.41932053360798799 0 0.091381357529850965 -0.43080073846455691 0 0.089397161181125173 -0.42169375067955889 0 0.089552810058654467 -0.42590832554836239 0 0.091381357529850965 -0.43080073846455691 0 0.089397161181125173 -0.42169375067955889 0 0.090639192636554219 -0.41932053360798799 0 0.091381357529850965 -0.43080073846455691 0 0.089552810058654467 -0.42590832554836239 0 0.087759173652759009 -0.42709084405742459 0 0.091381357529850965 -0.43080073846455691 0 0.087759173652759009 -0.42709084405742459 0 0.088112940383161156 -0.42976667527517037 0 0.091381357529850965 -0.43080073846455691 0 0.089552810058654467 -0.42590832554836239 0 0.087759173652759009 -0.42709084405742459 0 0.08762166470244559 -0.4252567740453369 0 0.087759173652759009 -0.42709084405742459 0 0.08762166470244559 -0.4252567740453369 0 0.084953947867752663 -0.42670114309120638 0 0.087759173652759009 -0.42709084405742459 0 0.084953947867752663 -0.42670114309120638 0 0.088112940383161156 -0.42976667527517037 0 0.089397161181125173 -0.42169375067955889 0 0.089552810058654467 -0.42590832554836239 0 0.088246154304914365 -0.42373104276908108 0 0.089397161181125173 -0.42169375067955889 0 0.088246154304914365 -0.42373104276908108 0 0.087463608161770873 -0.42228048372420252 0 0.089552810058654467 -0.42590832554836239 0 0.088246154304914365 -0.42373104276908108 0 0.08762166470244559 -0.4252567740453369 0 0.08762166470244559 -0.4252567740453369 0 0.086339066655919852 -0.42374030485233832 0 0.084953947867752663 -0.42670114309120638 0 0.088246154304914365 -0.42373104276908108 0 0.08762166470244559 -0.4252567740453369 0 0.086339066655919852 -0.42374030485233832 0 0.08530127616983979 -0.42168611697045649 0 0.086339066655919852 -0.42374030485233832 0 0.087463608161770873 -0.42228048372420252 0 0.088246154304914365 -0.42373104276908108 0 0.086339066655919852 -0.42374030485233832 0 0.087463608161770873 -0.42228048372420252 0 0.086339066655919852 -0.42374030485233832 0 0.082072273976905211 -0.42333019606279598 0 0.084953947867752663 -0.42670114309120638 0 0.08530127616983979 -0.42168611697045649 0 0.086339066655919852 -0.42374030485233832 0 0.082072273976905211 -0.42333019606279598 0 0.078115980389577927 -0.430319001157145 0 0.082072273976905211 -0.42333019606279598 0 0.084953947867752663 -0.42670114309120638 0 0.076258270757399521 -0.42301510720026297 0 0.078115980389577927 -0.430319001157145 0 0.082072273976905211 -0.42333019606279598 0 0.075519439466956426 -0.44414390698556622 0 0.078115980389577927 -0.430319001157145 0 0.083867785047200091 -0.43549234044607821 0 0.084953947867752663 -0.42670114309120638 0 0.083867785047200091 -0.43549234044607821 0 0.088112940383161156 -0.42976667527517037 0 0.078115980389577927 -0.430319001157145 0 0.084953947867752663 -0.42670114309120638 0 0.083867785047200091 -0.43549234044607821 0 0.083867785047200091 -0.43549234044607821 0 0.088112940383161156 -0.42976667527517037 0 0.091381357529850965 -0.43080073846455691 0 0.10756772139041899 -0.44056045500808738 0 0.091381357529850965 -0.43080073846455691 0 0.1023468305347968 -0.43178095145792039 0 0.091381357529850965 -0.43080073846455691 0 0.1023468305347968 -0.43178095145792039 0 0.098944085842015903 -0.41968978869295293 0 0.10756772139041899 -0.44056045500808738 0 0.1023468305347968 -0.43178095145792039 0 0.1126421547474498 -0.43290646570082081 0 0.1330549079819319 -0.42476894690306749 0 0.1203966273334699 -0.44008063856667368 0 0.11742886150221241 -0.42353132176743741 0 0.1203966273334699 -0.44008063856667368 0 0.1126421547474498 -0.43290646570082081 0 0.11742886150221241 -0.42353132176743741 0 0.1023468305347968 -0.43178095145792039 0 0.1126421547474498 -0.43290646570082081 0 0.11742886150221241 -0.42353132176743741 0 0.1023468305347968 -0.43178095145792039 0 0.11742886150221241 -0.42353132176743741 0 0.11638502573463951 -0.40508953282460403 0 0.12574661367947601 -0.4154995545671244 0 0.11742886150221241 -0.42353132176743741 0 0.11638502573463951 -0.40508953282460403 0 0.091381357529850965 -0.43080073846455691 0 0.098944085842015903 -0.41968978869295293 0 0.095836739094833687 -0.4054701515656764 0 0.1023468305347968 -0.43178095145792039 0 0.1051374748300425 -0.41124979254713429 0 0.11638502573463951 -0.40508953282460403 0 0.1023468305347968 -0.43178095145792039 0 0.1051374748300425 -0.41124979254713429 0 0.098944085842015903 -0.41968978869295293 0 0.1023468305347968 -0.43178095145792039 0 0.11638502573463951 -0.40508953282460403 0 0.1051374748300425 -0.41124979254713429 0 0.098944085842015903 -0.41968978869295293 0 0.095836739094833687 -0.4054701515656764 0 0.093602156408125026 -0.41194159376164502 0 0.092729050361527218 -0.40809912053911013 0 0.095836739094833687 -0.4054701515656764 0 0.092729050361527218 -0.40809912053911013 0 0.095836739094833687 -0.4054701515656764 0 0.093087119392458728 -0.40567073664114689 0 0.095836739094833687 -0.4054701515656764 0 0.096916133837634935 -0.40192608356999349 0 0.093087119392458728 -0.40567073664114689 0 0.096916133837634935 -0.40192608356999349 0 0.1050722245985022 -0.39915304096526649 0 0.098827634092790342 -0.38247277613285868 0 0.096916133837634935 -0.40192608356999349 0 0.11638502573463951 -0.40508953282460403 0 0.1050722245985022 -0.39915304096526649 0 0.098827634092790342 -0.38247277613285868 0 0.1051374748300425 -0.41124979254713429 0 0.096916133837634935 -0.40192608356999349 0 0.11638502573463951 -0.40508953282460403 0 0.096916133837634935 -0.40192608356999349 0 0.1050722245985022 -0.39915304096526649 0 0.11638502573463951 -0.40508953282460403 0 0.1051374748300425 -0.41124979254713429 0 0.095836739094833687 -0.4054701515656764 0 0.096916133837634935 -0.40192608356999349 0 0.1050722245985022 -0.39915304096526649 0 0.11204456165019119 -0.39279030484274863 0 0.098827634092790342 -0.38247277613285868 0 0.11638502573463951 -0.40508953282460403 0 0.11204456165019119 -0.39279030484274863 0 0.120033300594829 -0.3981529123975216 0 0.1050722245985022 -0.39915304096526649 0 0.11638502573463951 -0.40508953282460403 0 0.11204456165019119 -0.39279030484274863 0 0.13483216801571579 -0.40808696066011851 0 0.11638502573463951 -0.40508953282460403 0 0.120033300594829 -0.3981529123975216 0 0.11204456165019119 -0.39279030484274863 0 0.120033300594829 -0.3981529123975216 0 0.11638502573463951 -0.40508953282460403 0 0.120033300594829 -0.3981529123975216 0 0.11204456165019119 -0.39279030484274863 0 0.120033300594829 -0.3981529123975216 0 0.11945212154730631 -0.38007557046755591 0 0.11287044274024299 -0.38019954863407229 0 0.098827634092790342 -0.38247277613285868 0 0.12115745367068601 -0.36545954309312878 0 0.132799474710939 -0.37388004164538879 0 0.120033300594829 -0.3981529123975216 0 0.11945212154730631 -0.38007557046755591 0 0.11945212154730631 -0.38007557046755591 0 0.11287044274024299 -0.38019954863407229 0 0.12115745367068601 -0.36545954309312878 0 0.11204456165019119 -0.39279030484274863 0 0.11945212154730631 -0.38007557046755591 0 0.11287044274024299 -0.38019954863407229 0 0.11204456165019119 -0.39279030484274863 0 0.11287044274024299 -0.38019954863407229 0 0.098827634092790342 -0.38247277613285868 0 0.098827634092790342 -0.38247277613285868 0 0.077447241940630199 -0.39876263431538489 0 0.098827634092790342 -0.38247277613285868 0 0.077447241940630199 -0.39876263431538489 0 0.072777507770734634 -0.38495136682711062 0 0.098827634092790342 -0.38247277613285868 0 0.072777507770734634 -0.38495136682711062 0 0.08003454978569044 -0.37307578383754669 0 0.096916133837634935 -0.40192608356999349 0 0.077447241940630199 -0.39876263431538489 0 0.096916133837634935 -0.40192608356999349 0 0.098827634092790342 -0.38247277613285868 0 0.077447241940630199 -0.39876263431538489 0 0.096916133837634935 -0.40192608356999349 0 0.087612219294723404 -0.40475882107017891 0 0.077447241940630199 -0.39876263431538489 0 0.096916133837634935 -0.40192608356999349 0 0.093087119392458728 -0.40567073664114689 0 0.087612219294723404 -0.40475882107017891 0 0.091199903534709983 -0.40760962196606237 0 0.093087119392458728 -0.40567073664114689 0 0.087612219294723404 -0.40475882107017891 0 0.086699966868620096 -0.40686809837984872 0 0.087612219294723404 -0.40475882107017891 0 0.084767137536350734 -0.40554612028507808 0 0.087612219294723404 -0.40475882107017891 0 0.081003421934798023 -0.40348020451073119 0 0.077447241940630199 -0.39876263431538489 0 0.087612219294723404 -0.40475882107017891 0 0.084767137536350734 -0.40554612028507808 0 0.081003421934798023 -0.40348020451073119 0 0.082311882548445348 -0.40627984796582051 0 0.084767137536350734 -0.40554612028507808 0 0.081003421934798023 -0.40348020451073119 0 0.078113197714817006 -0.40839448033305731 0 0.079866642716933778 -0.40544793974275489 0 0.077510451371998371 -0.40380438143930852 0 0.081003421934798023 -0.40348020451073119 0 0.079866642716933778 -0.40544793974275489 0 0.077510451371998371 -0.40380438143930852 0 0.082311882548445348 -0.40627984796582051 0 0.081003421934798023 -0.40348020451073119 0 0.079866642716933778 -0.40544793974275489 0 0.077447241940630199 -0.39876263431538489 0 0.068283923690796944 -0.39727371073203349 0 0.072777507770734634 -0.38495136682711062 0 0.07576374078453077 -0.40004530466529381 0 0.068283923690796944 -0.39727371073203349 0 0.05914768460240976 -0.41270518465408812 0 0.077447241940630199 -0.39876263431538489 0 0.068283923690796944 -0.39727371073203349 0 0.072902369868226319 -0.41035980402799371 0 0.077510451371998371 -0.40380438143930852 0 0.07576374078453077 -0.40004530466529381 0 0.077447241940630199 -0.39876263431538489 0 0.07576374078453077 -0.40004530466529381 0 0.068283923690796944 -0.39727371073203349 0 0.081003421934798023 -0.40348020451073119 0 0.077510451371998371 -0.40380438143930852 0 0.07576374078453077 -0.40004530466529381 0 0.081003421934798023 -0.40348020451073119 0 0.077447241940630199 -0.39876263431538489 0 0.07576374078453077 -0.40004530466529381 0 0.077447241940630199 -0.39876263431538489 0 0.07576374078453077 -0.40004530466529381 0 0.07576374078453077 -0.40004530466529381 0 0.068283923690796944 -0.39727371073203349 0 0.072777507770734634 -0.38495136682711062 0 0.08003454978569044 -0.37307578383754669 0 0.052758871425075148 -0.37248631831859091 0 0.068283923690796944 -0.39727371073203349 0 0.072777507770734634 -0.38495136682711062 0 0.05931282568942705 -0.38563697762625182 0 0.05931282568942705 -0.38563697762625182 0 0.04492512069514603 -0.38861826958158219 0 0.052758871425075148 -0.37248631831859091 0 0.072777507770734634 -0.38495136682711062 0 0.05931282568942705 -0.38563697762625182 0 0.052758871425075148 -0.37248631831859091 0 0.068283923690796944 -0.39727371073203349 0 0.05931282568942705 -0.38563697762625182 0 0.04492512069514603 -0.38861826958158219 0 0.068283923690796944 -0.39727371073203349 0 0.058008363885065917 -0.40204999877755909 0 0.0521459646542662 -0.39465149603408839 0 0.068283923690796944 -0.39727371073203349 0 0.04492512069514603 -0.38861826958158219 0 0.068283923690796944 -0.39727371073203349 0 0.0521459646542662 -0.39465149603408839 0 0.04492512069514603 -0.38861826958158219 0 0.068283923690796944 -0.39727371073203349 0 0.0521459646542662 -0.39465149603408839 0 0.068283923690796944 -0.39727371073203349 0 0.058008363885065917 -0.40204999877755909 0 0.05914768460240976 -0.41270518465408812 0 0.058008363885065917 -0.40204999877755909 0 0.050303793291460723 -0.40377838680893607 0 0.05914768460240976 -0.41270518465408812 0 0.050303793291460723 -0.40377838680893607 0 0.0521459646542662 -0.39465149603408839 0 0.041826118435083173 -0.40009467798681658 0 0.058008363885065917 -0.40204999877755909 0 0.050303793291460723 -0.40377838680893607 0 0.0521459646542662 -0.39465149603408839 0 0.0521459646542662 -0.39465149603408839 0 0.041826118435083173 -0.40009467798681658 0 0.036008005617735338 -0.39202928133614379 0 0.0521459646542662 -0.39465149603408839 0 0.036008005617735338 -0.39202928133614379 0 0.04492512069514603 -0.38861826958158219 0 0.0521459646542662 -0.39465149603408839 0 0.036008005617735338 -0.39202928133614379 0 0.050303793291460723 -0.40377838680893607 0 0.041826118435083173 -0.40009467798681658 0 0.039849159124468993 -0.41062884830204438 0 0.041826118435083173 -0.40009467798681658 0 0.03055283160947983 -0.40000451330782882 0 0.039849159124468993 -0.41062884830204438 0 0.041826118435083173 -0.40009467798681658 0 0.036008005617735338 -0.39202928133614379 0 0.03055283160947983 -0.40000451330782882 0 0.04492512069514603 -0.38861826958158219 0 0.052758871425075148 -0.37248631831859091 0 0.025483193064459741 -0.37189685279963502 0 0.036008005617735338 -0.39202928133614379 0 0.04492512069514603 -0.38861826958158219 0 0.026678801760061939 -0.38851943734855282 0 0.04492512069514603 -0.38861826958158219 0 0.021566317699495349 -0.37996282843113038 0 0.04492512069514603 -0.38861826958158219 0 0.026678801760061939 -0.38851943734855282 0 0.021566317699495349 -0.37996282843113038 0 0.04492512069514603 -0.38861826958158219 0 0.021566317699495349 -0.37996282843113038 0 0.025483193064459741 -0.37189685279963502 0 0.026678801760061939 -0.38851943734855282 0 0.021566317699495349 -0.37996282843113038 0 0.014832114194533671 -0.38870987531625301 0 0.021566317699495349 -0.37996282843113038 0 0.0075129132930262217 -0.38366991209639822 0 0.0030301478643253899 -0.37674626274827772 0 -0.0017924852961554659 -0.3713073872806788 0 0.021566317699495349 -0.37996282843113038 0 -0.0017924852961554659 -0.3713073872806788 0 0.021566317699495349 -0.37996282843113038 0 0.0030301478643253899 -0.37674626274827772 0 0.014832114194533671 -0.38870987531625301 0 0.0075129132930262217 -0.38366991209639822 0 0.0019270013280409299 -0.39265068081603111 0 0.021566317699495349 -0.37996282843113038 0 0.014832114194533671 -0.38870987531625301 0 0.0075129132930262217 -0.38366991209639822 0 -0.0033287973072917208 -0.38217907348461538 0 0.0075129132930262217 -0.38366991209639822 0 0.0019270013280409299 -0.39265068081603111 0 -0.0033287973072917208 -0.38217907348461538 0 0.0075129132930262217 -0.38366991209639822 0 0.0030301478643253899 -0.37674626274827772 0 0.0019270013280409299 -0.39265068081603111 0 0.0164755368920439 -0.39874651788915261 0 0.0040838551649926324 -0.40920466907649111 0 0.014832114194533671 -0.38870987531625301 0 0.0019270013280409299 -0.39265068081603111 0 0.0164755368920439 -0.39874651788915261 0 0.0164755368920439 -0.39874651788915261 0 0.03055283160947983 -0.40000451330782882 0 0.021082919024718941 -0.41150424164814858 0 0.026678801760061939 -0.38851943734855282 0 0.014832114194533671 -0.38870987531625301 0 0.0164755368920439 -0.39874651788915261 0 0.026678801760061939 -0.38851943734855282 0 0.0164755368920439 -0.39874651788915261 0 0.03055283160947983 -0.40000451330782882 0 0.036008005617735338 -0.39202928133614379 0 0.026678801760061939 -0.38851943734855282 0 0.03055283160947983 -0.40000451330782882 0 0.03055283160947983 -0.40000451330782882 0 0.021082919024718941 -0.41150424164814858 0 0.039849159124468993 -0.41062884830204438 0 0.021082919024718941 -0.41150424164814858 0 0.025650146043074289 -0.42709727339568643 0 0.039849159124468993 -0.41062884830204438 0 0.021082919024718941 -0.41150424164814858 0 0.003915753597516153 -0.42503506544684971 0 0.025650146043074289 -0.42709727339568643 0 0.021082919024718941 -0.41150424164814858 0 0.0040838551649926324 -0.40920466907649111 0 0.003915753597516153 -0.42503506544684971 0 0.0164755368920439 -0.39874651788915261 0 0.021082919024718941 -0.41150424164814858 0 0.0040838551649926324 -0.40920466907649111 0 -0.01293810596702415 -0.44003758409305638 0 0.003915753597516153 -0.42503506544684971 0 0.011944570912173821 -0.44136906130943487 0 0.003915753597516153 -0.42503506544684971 0 0.025650146043074289 -0.42709727339568643 0 0.011944570912173821 -0.44136906130943487 0 0.025650146043074289 -0.42709727339568643 0 0.042531628420288951 -0.4253650646428826 0 0.03457684517927892 -0.44868135902475881 0 0.025650146043074289 -0.42709727339568643 0 0.042531628420288951 -0.4253650646428826 0 0.039849159124468993 -0.41062884830204438 0 0.042531628420288951 -0.4253650646428826 0 0.039849159124468993 -0.41062884830204438 0 0.05914768460240976 -0.41270518465408812 0 0.050303793291460723 -0.40377838680893607 0 0.039849159124468993 -0.41062884830204438 0 0.05914768460240976 -0.41270518465408812 0 0.042531628420288951 -0.4253650646428826 0 0.05914768460240976 -0.41270518465408812 0 0.068116849210106439 -0.42075607456835118 0 0.05914768460240976 -0.41270518465408812 0 0.056522483661813137 -0.42810296826997479 0 0.042531628420288951 -0.4253650646428826 0 0.05914768460240976 -0.41270518465408812 0 0.056522483661813137 -0.42810296826997479 0 0.042531628420288951 -0.4253650646428826 0 0.056522483661813137 -0.42810296826997479 0 0.051262798500409747 -0.44269528586941198 0 0.068430265658369363 -0.43364829907220642 0 0.056522483661813137 -0.42810296826997479 0 0.051262798500409747 -0.44269528586941198 0 0.065640867496588096 -0.45572759305845523 0 0.068430265658369363 -0.43364829907220642 0 0.051262798500409747 -0.44269528586941198 0 0.06361055174583391 -0.48011988098768221 0 0.065640867496588096 -0.45572759305845523 0 0.048359916439712797 -0.46456733066729111 0 0.065640867496588096 -0.45572759305845523 0 0.051262798500409747 -0.44269528586941198 0 0.048359916439712797 -0.46456733066729111 0 0.048359916439712797 -0.46456733066729111 0 0.03457684517927892 -0.44868135902475881 0 0.027967662466811209 -0.47762195774886729 0 0.042531628420288951 -0.4253650646428826 0 0.051262798500409747 -0.44269528586941198 0 0.03457684517927892 -0.44868135902475881 0 0.051262798500409747 -0.44269528586941198 0 0.048359916439712797 -0.46456733066729111 0 0.03457684517927892 -0.44868135902475881 0 0.03457684517927892 -0.44868135902475881 0 0.011944570912173821 -0.44136906130943487 0 0.0081167468260517003 -0.46573914569044872 0 0.025650146043074289 -0.42709727339568643 0 0.03457684517927892 -0.44868135902475881 0 0.011944570912173821 -0.44136906130943487 0 -0.01293810596702415 -0.44003758409305638 0 0.011944570912173821 -0.44136906130943487 0 0.0081167468260517003 -0.46573914569044872 0 0.03457684517927892 -0.44868135902475881 0 0.0081167468260517003 -0.46573914569044872 0 0.027967662466811209 -0.47762195774886729 0 -0.0018920194225578999 -0.5 0 0.0081167468260517003 -0.46573914569044872 0 0.027967662466811209 -0.47762195774886729 0 -0.0018920194225578999 -0.5 0 0.027967662466811209 -0.47762195774886729 0 0.02608470479792746 -0.5 0 0.027967662466811209 -0.47762195774886729 0 0.02608470479792746 -0.5 0 0.045374339602385273 -0.48224495045183469 0 0.02608470479792746 -0.5 0 0.045374339602385273 -0.48224495045183469 0 0.054061429018413043 -0.5 0 0.048359916439712797 -0.46456733066729111 0 0.027967662466811209 -0.47762195774886729 0 0.045374339602385273 -0.48224495045183469 0 0.06361055174583391 -0.48011988098768221 0 0.048359916439712797 -0.46456733066729111 0 0.045374339602385273 -0.48224495045183469 0 0.06361055174583391 -0.48011988098768221 0 0.045374339602385273 -0.48224495045183469 0 0.054061429018413043 -0.5 0 0.093138978170622971 -0.28944385698231861 0 0.070701180784352391 -0.30734267920303371 0 0.076573250625266598 -0.27625448338923569 0 0.093138978170622971 -0.28944385698231861 0 0.070701180784352391 -0.30734267920303371 0 0.095885214313533598 -0.31167630856763118 0 0.070701180784352391 -0.30734267920303371 0 0.076573250625266598 -0.27625448338923569 0 0.055649339470710088 -0.2848634083949021 0 0.076573250625266598 -0.27625448338923569 0 0.055649339470710088 -0.2848634083949021 0 0.061730009144552823 -0.2705233096305853 0 0.076573250625266598 -0.27625448338923569 0 0.066421065785325237 -0.25772010029347731 0 0.061730009144552823 -0.2705233096305853 0 0.066421065785325237 -0.25772010029347731 0 0.082439202585018273 -0.25868810411015081 0 0.07586306690326379 -0.24921320223831089 0 0.076573250625266598 -0.27625448338923569 0 0.066421065785325237 -0.25772010029347731 0 0.082439202585018273 -0.25868810411015081 0 0.066421065785325237 -0.25772010029347731 0 0.066425357970760601 -0.24621353634943091 0 0.07586306690326379 -0.24921320223831089 0 0.082439202585018273 -0.25868810411015081 0 0.07586306690326379 -0.24921320223831089 0 0.09382556341197687 -0.24909979239876801 0 0.082439202585018273 -0.25868810411015081 0 0.093506005481896984 -0.2688720168871781 0 0.09382556341197687 -0.24909979239876801 0 0.093138978170622971 -0.28944385698231861 0 0.076573250625266598 -0.27625448338923569 0 0.093506005481896984 -0.2688720168871781 0 0.076573250625266598 -0.27625448338923569 0 0.082439202585018273 -0.25868810411015081 0 0.093506005481896984 -0.2688720168871781 0 0.093506005481896984 -0.2688720168871781 0 0.10518475520876611 -0.26203290361229581 0 0.110038551082093 -0.27715198891164111 0 0.093138978170622971 -0.28944385698231861 0 0.093506005481896984 -0.2688720168871781 0 0.110038551082093 -0.27715198891164111 0 0.093506005481896984 -0.2688720168871781 0 0.10518475520876611 -0.26203290361229581 0 0.09382556341197687 -0.24909979239876801 0 0.10518475520876611 -0.26203290361229581 0 0.1051166633252886 -0.25055568461537481 0 0.09382556341197687 -0.24909979239876801 0 0.10518475520876611 -0.26203290361229581 0 0.1051166633252886 -0.25055568461537481 0 0.1155298858098245 -0.25445834015236868 0 0.10518475520876611 -0.26203290361229581 0 0.1155298858098245 -0.25445834015236868 0 0.11600937460861289 -0.26670640986472938 0 0.1155298858098245 -0.25445834015236868 0 0.12383087915321001 -0.26110690826341221 0 0.11600937460861289 -0.26670640986472938 0 0.1155298858098245 -0.25445834015236868 0 0.12383087915321001 -0.26110690826341221 0 0.1248312630638693 -0.25185872287740718 0 0.1155298858098245 -0.25445834015236868 0 0.1248312630638693 -0.25185872287740718 0 0.1200052660768718 -0.2446973661781649 0 0.12726001490913411 -0.2735988055416349 0 0.110038551082093 -0.27715198891164111 0 0.11600937460861289 -0.26670640986472938 0 0.12595864474843599 -0.28875554883283161 0 0.12726001490913411 -0.2735988055416349 0 0.110038551082093 -0.27715198891164111 0 0.10518475520876611 -0.26203290361229581 0 0.110038551082093 -0.27715198891164111 0 0.11600937460861289 -0.26670640986472938 0 0.12726001490913411 -0.2735988055416349 0 0.12383087915321001 -0.26110690826341221 0 0.11600937460861289 -0.26670640986472938 0 0.12595864474843599 -0.28875554883283161 0 0.1098977770311549 -0.29751912438599348 0 0.12398376935326461 -0.30400211052051751 0 0.12595864474843599 -0.28875554883283161 0 0.110038551082093 -0.27715198891164111 0 0.1098977770311549 -0.29751912438599348 0 0.093138978170622971 -0.28944385698231861 0 0.110038551082093 -0.27715198891164111 0 0.1098977770311549 -0.29751912438599348 0 0.095885214313533598 -0.31167630856763118 0 0.1098977770311549 -0.29751912438599348 0 0.11334612555891679 -0.31298851280395651 0 0.093138978170622971 -0.28944385698231861 0 0.095885214313533598 -0.31167630856763118 0 0.1098977770311549 -0.29751912438599348 0 0.1098977770311549 -0.29751912438599348 0 0.12398376935326461 -0.30400211052051751 0 0.11334612555891679 -0.31298851280395651 0 0.12398376935326461 -0.30400211052051751 0 0.11334612555891679 -0.31298851280395651 0 0.1244969324359799 -0.32062488420160112 0 0.11334612555891679 -0.31298851280395651 0 0.1244969324359799 -0.32062488420160112 0 0.11246693466065109 -0.33112013634403897 0 0.12797710395461731 -0.33978322319872029 0 0.1244969324359799 -0.32062488420160112 0 0.11246693466065109 -0.33112013634403897 0 0.12797710395461731 -0.33978322319872029 0 0.11246693466065109 -0.33112013634403897 0 0.1084961277756965 -0.34966016430617242 0 0.12797710395461731 -0.33978322319872029 0 0.11246693466065109 -0.33112013634403897 0 0.11246693466065109 -0.33112013634403897 0 0.096503890205183976 -0.3376914867680742 0 0.1084961277756965 -0.34966016430617242 0 0.095885214313533598 -0.31167630856763118 0 0.11246693466065109 -0.33112013634403897 0 0.096503890205183976 -0.3376914867680742 0 0.095885214313533598 -0.31167630856763118 0 0.11334612555891679 -0.31298851280395651 0 0.11246693466065109 -0.33112013634403897 0 0.098827634092790342 -0.38247277613285868 0 0.12115745367068601 -0.36545954309312878 0 0.12115745367068601 -0.36545954309312878 0 0.1084961277756965 -0.34966016430617242 0 0.10380702852700741 -0.36548530823282782 0 0.132799474710939 -0.37388004164538879 0 0.11945212154730631 -0.38007557046755591 0 0.12115745367068601 -0.36545954309312878 0 0.12797710395461731 -0.33978322319872029 0 0.12115745367068601 -0.36545954309312878 0 0.1084961277756965 -0.34966016430617242 0 0.1084961277756965 -0.34966016430617242 0 0.10380702852700741 -0.36548530823282782 0 0.089452149656644983 -0.35742941048958338 0 0.096503890205183976 -0.3376914867680742 0 0.1084961277756965 -0.34966016430617242 0 0.089452149656644983 -0.35742941048958338 0 0.098827634092790342 -0.38247277613285868 0 0.089452149656644983 -0.35742941048958338 0 0.098827634092790342 -0.38247277613285868 0 0.12115745367068601 -0.36545954309312878 0 0.10380702852700741 -0.36548530823282782 0 0.098827634092790342 -0.38247277613285868 0 0.10380702852700741 -0.36548530823282782 0 0.089452149656644983 -0.35742941048958338 0 0.098827634092790342 -0.38247277613285868 0 0.08003454978569044 -0.37307578383754669 0 0.089452149656644983 -0.35742941048958338 0 0.08003454978569044 -0.37307578383754669 0 0.089452149656644983 -0.35742941048958338 0 0.066792909725180843 -0.35444817254514199 0 0.089452149656644983 -0.35742941048958338 0 0.066792909725180843 -0.35444817254514199 0 0.080076665220498722 -0.33238604484630863 0 0.089452149656644983 -0.35742941048958338 0 0.080076665220498722 -0.33238604484630863 0 0.08003454978569044 -0.37307578383754669 0 0.066792909725180843 -0.35444817254514199 0 0.052758871425075148 -0.37248631831859091 0 0.08003454978569044 -0.37307578383754669 0 0.052758871425075148 -0.37248631831859091 0 0.095885214313533598 -0.31167630856763118 0 0.096503890205183976 -0.3376914867680742 0 0.080076665220498722 -0.33238604484630863 0 0.070701180784352391 -0.30734267920303371 0 0.095885214313533598 -0.31167630856763118 0 0.080076665220498722 -0.33238604484630863 0 0.096503890205183976 -0.3376914867680742 0 0.089452149656644983 -0.35742941048958338 0 0.080076665220498722 -0.33238604484630863 0 0.066792909725180843 -0.35444817254514199 0 0.080076665220498722 -0.33238604484630863 0 0.05544296160846466 -0.33918943645429478 0 0.080076665220498722 -0.33238604484630863 0 0.057550849561043053 -0.32135606229706398 0 0.05544296160846466 -0.33918943645429478 0 0.070701180784352391 -0.30734267920303371 0 0.080076665220498722 -0.33238604484630863 0 0.057550849561043053 -0.32135606229706398 0 0.070701180784352391 -0.30734267920303371 0 0.080076665220498722 -0.33238604484630863 0 0.057550849561043053 -0.32135606229706398 0 0.05544296160846466 -0.33918943645429478 0 0.039219197549870938 -0.32411067671099258 0 0.039219197549870938 -0.32411067671099258 0 0.039598742097582379 -0.35008705208587432 0 0.02707152060370821 -0.33964362513049767 0 0.05544296160846466 -0.33918943645429478 0 0.039219197549870938 -0.32411067671099258 0 0.039598742097582379 -0.35008705208587432 0 0.057550849561043053 -0.32135606229706398 0 0.039219197549870938 -0.32411067671099258 0 0.042314242642028529 -0.30375147427069049 0 0.066792909725180843 -0.35444817254514199 0 0.052758871425075148 -0.37248631831859091 0 0.051324778933081072 -0.35697714397232821 0 0.052758871425075148 -0.37248631831859091 0 0.051324778933081072 -0.35697714397232821 0 0.03974837795902416 -0.36384195288086268 0 0.066792909725180843 -0.35444817254514199 0 0.05544296160846466 -0.33918943645429478 0 0.051324778933081072 -0.35697714397232821 0 0.05544296160846466 -0.33918943645429478 0 0.051324778933081072 -0.35697714397232821 0 0.039598742097582379 -0.35008705208587432 0 0.039598742097582379 -0.35008705208587432 0 0.03974837795902416 -0.36384195288086268 0 0.030032525077826219 -0.3611819451573749 0 0.051324778933081072 -0.35697714397232821 0 0.039598742097582379 -0.35008705208587432 0 0.03974837795902416 -0.36384195288086268 0 0.052758871425075148 -0.37248631831859091 0 0.025483193064459741 -0.37189685279963502 0 0.052758871425075148 -0.37248631831859091 0 0.03974837795902416 -0.36384195288086268 0 0.025483193064459741 -0.37189685279963502 0 0.03974837795902416 -0.36384195288086268 0 0.025483193064459741 -0.37189685279963502 0 0.030032525077826219 -0.3611819451573749 0 0.025483193064459741 -0.37189685279963502 0 0.01414940015819326 -0.36442825155316638 0 0.0074257077828567804 -0.36672408181223271 0 0.025483193064459741 -0.37189685279963502 0 0.030032525077826219 -0.3611819451573749 0 0.021340437409558891 -0.36198256911594179 0 0.021340437409558891 -0.36198256911594179 0 0.013072372698965291 -0.35686924578234641 0 0.01414940015819326 -0.36442825155316638 0 0.025483193064459741 -0.37189685279963502 0 0.021340437409558891 -0.36198256911594179 0 0.01414940015819326 -0.36442825155316638 0 0.039598742097582379 -0.35008705208587432 0 0.02393751723819398 -0.35297180166981212 0 0.02707152060370821 -0.33964362513049767 0 0.039598742097582379 -0.35008705208587432 0 0.030032525077826219 -0.3611819451573749 0 0.02393751723819398 -0.35297180166981212 0 0.021340437409558891 -0.36198256911594179 0 0.02393751723819398 -0.35297180166981212 0 0.013072372698965291 -0.35686924578234641 0 0.030032525077826219 -0.3611819451573749 0 0.021340437409558891 -0.36198256911594179 0 0.02393751723819398 -0.35297180166981212 0 0.02393751723819398 -0.35297180166981212 0 0.013072372698965291 -0.35686924578234641 0 0.012455359075845079 -0.34337603238640962 0 0.02393751723819398 -0.35297180166981212 0 0.02707152060370821 -0.33964362513049767 0 0.012455359075845079 -0.34337603238640962 0 -0.0040002244658034706 -0.3400820810183236 0 0.00073220869437371828 -0.3547654393227937 0 0.012455359075845079 -0.34337603238640962 0 0.00073220869437371828 -0.3547654393227937 0 0.013072372698965291 -0.35686924578234641 0 0.0066494843994886321 -0.36149140179456007 0 0.00073220869437371828 -0.3547654393227937 0 0.013072372698965291 -0.35686924578234641 0 0.012455359075845079 -0.34337603238640962 0 -0.0017924852961554659 -0.3713073872806788 0 0.021566317699495349 -0.37996282843113038 0 0.025483193064459741 -0.37189685279963502 0 -0.0017924852961554659 -0.3713073872806788 0 0.025483193064459741 -0.37189685279963502 0 0.0074257077828567804 -0.36672408181223271 0 -0.0017924852961554659 -0.3713073872806788 0 0.025483193064459741 -0.37189685279963502 0 0.01414940015819326 -0.36442825155316638 0 0.0066494843994886321 -0.36149140179456007 0 0.0074257077828567804 -0.36672408181223271 0 0.013072372698965291 -0.35686924578234641 0 0.01414940015819326 -0.36442825155316638 0 0.0066494843994886321 -0.36149140179456007 0 -0.00032887885909539032 -0.36340970159860808 0 0.00073220869437371828 -0.3547654393227937 0 0.0066494843994886321 -0.36149140179456007 0 -0.00032887885909539032 -0.36340970159860808 0 0.0074257077828567804 -0.36672408181223271 0 0.00077806585478472975 -0.36746979302991051 0 -0.00032887885909539032 -0.36340970159860808 0 0.0066494843994886321 -0.36149140179456007 0 0.0074257077828567804 -0.36672408181223271 0 -0.0017924852961554659 -0.3713073872806788 0 0.0074257077828567804 -0.36672408181223271 0 0.00077806585478472975 -0.36746979302991051 0 0.039219197549870938 -0.32411067671099258 0 0.02014678705704866 -0.32767256279939988 0 0.018588825439092939 -0.3056458956970588 0 0.039219197549870938 -0.32411067671099258 0 0.018588825439092939 -0.3056458956970588 0 0.02014678705704866 -0.32767256279939988 0 0.02707152060370821 -0.33964362513049767 0 0.012455359075845079 -0.34337603238640962 0 0.039219197549870938 -0.32411067671099258 0 0.02014678705704866 -0.32767256279939988 0 0.02707152060370821 -0.33964362513049767 0 0.02014678705704866 -0.32767256279939988 0 0.012455359075845079 -0.34337603238640962 0 0.0028960786952263351 -0.32475737615524147 0 -0.0040002244658034706 -0.3400820810183236 0 0.012455359075845079 -0.34337603238640962 0 0.0028960786952263351 -0.32475737615524147 0 -0.0036628431567857921 -0.30790438005404319 0 0.0028960786952263351 -0.32475737615524147 0 0.018588825439092939 -0.3056458956970588 0 0.02014678705704866 -0.32767256279939988 0 0.0028960786952263351 -0.32475737615524147 0 0.018588825439092939 -0.3056458956970588 0 -0.0036628431567857921 -0.30790438005404319 0 -0.0020415466716850409 -0.28718111468312502 0 0.018588825439092939 -0.3056458956970588 0 0.023031434734173298 -0.28898267336212191 0 0.003748626826318064 -0.27421387245355328 0 -0.0020415466716850409 -0.28718111468312502 0 0.023031434734173298 -0.28898267336212191 0 0.018588825439092939 -0.3056458956970588 0 -0.0020415466716850409 -0.28718111468312502 0 0.023031434734173298 -0.28898267336212191 0 0.003748626826318064 -0.27421387245355328 0 -0.0020415466716850409 -0.28718111468312502 0 0.018588825439092939 -0.3056458956970588 0 0.023031434734173298 -0.28898267336212191 0 0.018588825439092939 -0.3056458956970588 0 0.042314242642028529 -0.30375147427069049 0 0.039219197549870938 -0.32411067671099258 0 0.018588825439092939 -0.3056458956970588 0 0.042314242642028529 -0.30375147427069049 0 0.023031434734173298 -0.28898267336212191 0 0.040424812781492361 -0.28901816834153982 0 0.036433012935091887 -0.27666282194708081 0 0.042314242642028529 -0.30375147427069049 0 0.040424812781492361 -0.28901816834153982 0 0.055649339470710088 -0.2848634083949021 0 0.040424812781492361 -0.28901816834153982 0 0.055649339470710088 -0.2848634083949021 0 0.036433012935091887 -0.27666282194708081 0 0.023031434734173298 -0.28898267336212191 0 0.042314242642028529 -0.30375147427069049 0 0.040424812781492361 -0.28901816834153982 0 0.023031434734173298 -0.28898267336212191 0 0.042314242642028529 -0.30375147427069049 0 0.070701180784352391 -0.30734267920303371 0 0.042314242642028529 -0.30375147427069049 0 0.055649339470710088 -0.2848634083949021 0 0.070701180784352391 -0.30734267920303371 0 0.057550849561043053 -0.32135606229706398 0 0.042314242642028529 -0.30375147427069049 0 0.066421065785325237 -0.25772010029347731 0 0.048082828149872851 -0.26301548523524942 0 0.061730009144552823 -0.2705233096305853 0 0.066421065785325237 -0.25772010029347731 0 0.048082828149872851 -0.26301548523524942 0 0.053739637151281869 -0.24409807423520441 0 0.055649339470710088 -0.2848634083949021 0 0.048082828149872851 -0.26301548523524942 0 0.061730009144552823 -0.2705233096305853 0 0.055649339470710088 -0.2848634083949021 0 0.048082828149872851 -0.26301548523524942 0 0.036433012935091887 -0.27666282194708081 0 0.048082828149872851 -0.26301548523524942 0 0.036433012935091887 -0.27666282194708081 0 0.036325322236390338 -0.26135161377547561 0 0.036433012935091887 -0.27666282194708081 0 0.036325322236390338 -0.26135161377547561 0 0.024884371821047031 -0.26453156143760409 0 0.036325322236390338 -0.26135161377547561 0 0.024884371821047031 -0.26453156143760409 0 0.035550936280495569 -0.24950223657954079 0 0.048082828149872851 -0.26301548523524942 0 0.035550936280495569 -0.24950223657954079 0 0.053739637151281869 -0.24409807423520441 0 0.048082828149872851 -0.26301548523524942 0 0.036325322236390338 -0.26135161377547561 0 0.035550936280495569 -0.24950223657954079 0 0.024884371821047031 -0.26453156143760409 0 0.016658201389616701 -0.25336290922023108 0 0.035550936280495569 -0.24950223657954079 0 0.024884371821047031 -0.26453156143760409 0 0.016658201389616701 -0.25336290922023108 0 0.01206301648672764 -0.26445353613085171 0 0.036433012935091887 -0.27666282194708081 0 0.024884371821047031 -0.26453156143760409 0 0.019301271230151639 -0.27448228798536251 0 0.023031434734173298 -0.28898267336212191 0 0.036433012935091887 -0.27666282194708081 0 0.019301271230151639 -0.27448228798536251 0 0.024884371821047031 -0.26453156143760409 0 0.019301271230151639 -0.27448228798536251 0 0.01206301648672764 -0.26445353613085171 0 0.023031434734173298 -0.28898267336212191 0 0.019301271230151639 -0.27448228798536251 0 0.003748626826318064 -0.27421387245355328 0 0.019301271230151639 -0.27448228798536251 0 0.003748626826318064 -0.27421387245355328 0 0.01206301648672764 -0.26445353613085171 0 0.003748626826318064 -0.27421387245355328 0 0.01206301648672764 -0.26445353613085171 0 0.00156694213917784 -0.257089728430478 0 0.016658201389616701 -0.25336290922023108 0 0.00156694213917784 -0.257089728430478 0 0.0056956609450451471 -0.2455021219393467 0 0.016658201389616701 -0.25336290922023108 0 0.01206301648672764 -0.26445353613085171 0 0.00156694213917784 -0.257089728430478 0 -0.0056769124435055267 -0.2498402483549487 0 0.00156694213917784 -0.257089728430478 0 0.0056956609450451471 -0.2455021219393467 0 0.0056956609450451471 -0.2455021219393467 0 0.0011048952862743721 -0.2301488496309107 0 0.020188280665207031 -0.23909827080356549 0 0.016658201389616701 -0.25336290922023108 0 0.0056956609450451471 -0.2455021219393467 0 0.020188280665207031 -0.23909827080356549 0 -0.0051559884870187138 -0.2407307696715815 0 0.0056956609450451471 -0.2455021219393467 0 0.0011048952862743721 -0.2301488496309107 0 0.0011048952862743721 -0.2301488496309107 0 0.01270465227956703 -0.22202949956774429 0 0.020188280665207031 -0.23909827080356549 0 -0.0059761213381229446 -0.2188067746504132 0 0.0011048952862743721 -0.2301488496309107 0 0.01270465227956703 -0.22202949956774429 0 0.03001467872053588 -0.2263163548150661 0 0.020188280665207031 -0.23909827080356549 0 0.039324224753687041 -0.23631051779401679 0 0.01270465227956703 -0.22202949956774429 0 0.03001467872053588 -0.2263163548150661 0 0.020188280665207031 -0.23909827080356549 0 0.016658201389616701 -0.25336290922023108 0 0.020188280665207031 -0.23909827080356549 0 0.035550936280495569 -0.24950223657954079 0 0.0057136835058208182 -0.19152004318334401 0 0.01804900831253092 -0.19300775811554979 0 0.0080086473810049609 -0.17968149299165809 0 -0.0036762998895434121 -0.19595119679920611 0 0.0057136835058208182 -0.19152004318334401 0 0.00624130957561369 -0.20495453016200471 0 0.0057136835058208182 -0.19152004318334401 0 0.00624130957561369 -0.20495453016200471 0 0.01804900831253092 -0.19300775811554979 0 0.01270465227956703 -0.22202949956774429 0 0.00624130957561369 -0.20495453016200471 0 0.0255937210660915 -0.20744239636662981 0 -0.0059761213381229446 -0.2188067746504132 0 0.01270465227956703 -0.22202949956774429 0 0.00624130957561369 -0.20495453016200471 0 0.01270465227956703 -0.22202949956774429 0 0.03001467872053588 -0.2263163548150661 0 0.0255937210660915 -0.20744239636662981 0 0.00624130957561369 -0.20495453016200471 0 0.0255937210660915 -0.20744239636662981 0 0.01804900831253092 -0.19300775811554979 0 0.0255937210660915 -0.20744239636662981 0 0.03082963319012565 -0.19427700566890399 0 0.01804900831253092 -0.19300775811554979 0 0.03082963319012565 -0.19427700566890399 0 0.01804900831253092 -0.19300775811554979 0 0.03078592753196982 -0.18180353024477111 0 0.0255937210660915 -0.20744239636662981 0 0.03082963319012565 -0.19427700566890399 0 0.048889875849910377 -0.19485433794866519 0 0.03082963319012565 -0.19427700566890399 0 0.048889875849910377 -0.19485433794866519 0 0.03078592753196982 -0.18180353024477111 0 0.0255937210660915 -0.20744239636662981 0 0.048889875849910377 -0.19485433794866519 0 0.048337668514720003 -0.22132819504400919 0 0.03001467872053588 -0.2263163548150661 0 0.0255937210660915 -0.20744239636662981 0 0.048337668514720003 -0.22132819504400919 0 0.0255937210660915 -0.20744239636662981 0 0.048337668514720003 -0.22132819504400919 0 0.048337668514720003 -0.22132819504400919 0 0.069488195190435059 -0.22052463214119589 0 0.064485075730433411 -0.20596370521464261 0 0.048889875849910377 -0.19485433794866519 0 0.048337668514720003 -0.22132819504400919 0 0.064485075730433411 -0.20596370521464261 0 0.020188280665207031 -0.23909827080356549 0 0.039324224753687041 -0.23631051779401679 0 0.035550936280495569 -0.24950223657954079 0 0.039324224753687041 -0.23631051779401679 0 0.035550936280495569 -0.24950223657954079 0 0.053739637151281869 -0.24409807423520441 0 0.03001467872053588 -0.2263163548150661 0 0.039324224753687041 -0.23631051779401679 0 0.048337668514720003 -0.22132819504400919 0 0.048337668514720003 -0.22132819504400919 0 0.053739637151281869 -0.24409807423520441 0 0.071081615963348485 -0.2352139937213886 0 0.048337668514720003 -0.22132819504400919 0 0.071081615963348485 -0.2352139937213886 0 0.039324224753687041 -0.23631051779401679 0 0.048337668514720003 -0.22132819504400919 0 0.053739637151281869 -0.24409807423520441 0 0.066421065785325237 -0.25772010029347731 0 0.053739637151281869 -0.24409807423520441 0 0.066425357970760601 -0.24621353634943091 0 0.053739637151281869 -0.24409807423520441 0 0.066425357970760601 -0.24621353634943091 0 0.071081615963348485 -0.2352139937213886 0 0.066425357970760601 -0.24621353634943091 0 0.071081615963348485 -0.2352139937213886 0 0.07586306690326379 -0.24921320223831089 0 0.071081615963348485 -0.2352139937213886 0 0.09382556341197687 -0.24909979239876801 0 0.084132892389972652 -0.2316588821370523 0 0.09382556341197687 -0.24909979239876801 0 0.099623246078296146 -0.23642935744378149 0 0.071081615963348485 -0.2352139937213886 0 0.084132892389972652 -0.2316588821370523 0 0.09382556341197687 -0.24909979239876801 0 0.071081615963348485 -0.2352139937213886 0 0.07586306690326379 -0.24921320223831089 0 0.09382556341197687 -0.24909979239876801 0 0.084132892389972652 -0.2316588821370523 0 0.069488195190435059 -0.22052463214119589 0 0.08103508477967282 -0.2078534738986216 0 0.084132892389972652 -0.2316588821370523 0 0.08103508477967282 -0.2078534738986216 0 0.09667332885664949 -0.2201664528031704 0 0.084132892389972652 -0.2316588821370523 0 0.08103508477967282 -0.2078534738986216 0 0.084132892389972652 -0.2316588821370523 0 0.099623246078296146 -0.23642935744378149 0 0.09667332885664949 -0.2201664528031704 0 0.048337668514720003 -0.22132819504400919 0 0.071081615963348485 -0.2352139937213886 0 0.069488195190435059 -0.22052463214119589 0 0.071081615963348485 -0.2352139937213886 0 0.084132892389972652 -0.2316588821370523 0 0.069488195190435059 -0.22052463214119589 0 0.069488195190435059 -0.22052463214119589 0 0.064485075730433411 -0.20596370521464261 0 0.08103508477967282 -0.2078534738986216 0 0.048889875849910377 -0.19485433794866519 0 0.064485075730433411 -0.20596370521464261 0 0.077937277169373001 -0.184048065660191 0 0.064485075730433411 -0.20596370521464261 0 0.08103508477967282 -0.2078534738986216 0 0.077937277169373001 -0.184048065660191 0 0.08103508477967282 -0.2078534738986216 0 0.100579454953428 -0.20446134909981081 0 0.098646552287984468 -0.1871449832760296 0 0.08103508477967282 -0.2078534738986216 0 0.077937277169373001 -0.184048065660191 0 0.08103508477967282 -0.2078534738986216 0 0.098646552287984468 -0.1871449832760296 0 0.077937277169373001 -0.184048065660191 0 0.08103508477967282 -0.2078534738986216 0 0.100579454953428 -0.20446134909981081 0 0.09667332885664949 -0.2201664528031704 0 0.100579454953428 -0.20446134909981081 0 0.110574087556307 -0.21210728566887979 0 0.09667332885664949 -0.2201664528031704 0 0.100579454953428 -0.20446134909981081 0 0.1111973242424532 -0.1977776213940331 0 0.110574087556307 -0.21210728566887979 0 0.100579454953428 -0.20446134909981081 0 0.1111973242424532 -0.1977776213940331 0 0.098646552287984468 -0.1871449832760296 0 0.1205952761010651 -0.17971544103377821 0 0.12559125031348151 -0.2054590478916673 0 0.1111973242424532 -0.1977776213940331 0 0.1205952761010651 -0.17971544103377821 0 0.098646552287984468 -0.1871449832760296 0 0.1111973242424532 -0.1977776213940331 0 0.1205952761010651 -0.17971544103377821 0 0.12559125031348151 -0.2054590478916673 0 0.110574087556307 -0.21210728566887979 0 0.1184344571780005 -0.221831843401089 0 0.12559125031348151 -0.2054590478916673 0 0.1111973242424532 -0.1977776213940331 0 0.110574087556307 -0.21210728566887979 0 0.12559125031348151 -0.2054590478916673 0 0.1184344571780005 -0.221831843401089 0 0.13058722452589869 -0.2312026547495564 0 0.12559125031348151 -0.2054590478916673 0 0.110574087556307 -0.21210728566887979 0 0.1184344571780005 -0.221831843401089 0 0.10731201464071 -0.22653881433522649 0 0.1189971638902782 -0.23326468930093289 0 0.11067901384517929 -0.24055651837309741 0 0.10731201464071 -0.22653881433522649 0 0.1184344571780005 -0.221831843401089 0 0.1189971638902782 -0.23326468930093289 0 0.10731201464071 -0.22653881433522649 0 0.1184344571780005 -0.221831843401089 0 0.1189971638902782 -0.23326468930093289 0 0.13058722452589869 -0.2312026547495564 0 0.1189971638902782 -0.23326468930093289 0 0.1200052660768718 -0.2446973661781649 0 0.12718437250906139 -0.2395225039249424 0 0.1248312630638693 -0.25185872287740718 0 0.1200052660768718 -0.2446973661781649 0 0.12718437250906139 -0.2395225039249424 0 0.1155298858098245 -0.25445834015236868 0 0.1200052660768718 -0.2446973661781649 0 0.11067901384517929 -0.24055651837309741 0 0.1051166633252886 -0.25055568461537481 0 0.1155298858098245 -0.25445834015236868 0 0.11067901384517929 -0.24055651837309741 0 0.1189971638902782 -0.23326468930093289 0 0.1200052660768718 -0.2446973661781649 0 0.11067901384517929 -0.24055651837309741 0 0.11067901384517929 -0.24055651837309741 0 0.099623246078296146 -0.23642935744378149 0 0.10731201464071 -0.22653881433522649 0 0.1051166633252886 -0.25055568461537481 0 0.11067901384517929 -0.24055651837309741 0 0.099623246078296146 -0.23642935744378149 0 0.1051166633252886 -0.25055568461537481 0 0.09382556341197687 -0.24909979239876801 0 0.099623246078296146 -0.23642935744378149 0 0.099623246078296146 -0.23642935744378149 0 0.09667332885664949 -0.2201664528031704 0 0.10731201464071 -0.22653881433522649 0 0.110574087556307 -0.21210728566887979 0 0.09667332885664949 -0.2201664528031704 0 0.10731201464071 -0.22653881433522649 0 0.10575589752173049 -0.14252553088826189 0 0.1109357018492097 -0.1575702320050939 0 0.091338681898991747 -0.14700374059421151 0 0.1109357018492097 -0.1575702320050939 0 0.096290168617584021 -0.15977041220972049 0 0.091338681898991747 -0.14700374059421151 0 0.1109357018492097 -0.1575702320050939 0 0.091338681898991747 -0.14700374059421151 0 0.10575589752173049 -0.14252553088826189 0 0.091338681898991747 -0.14700374059421151 0 0.091654332423878201 -0.12963424345288041 0 0.10575589752173049 -0.14252553088826189 0 0.11060332767623229 -0.12822822731799971 0 0.091654332423878201 -0.12963424345288041 0 0.11060332767623229 -0.12822822731799971 0 0.12502682387673331 -0.14148298094118911 0 0.12907740542747331 -0.1295625291261383 0 0.11060332767623229 -0.12822822731799971 0 0.1155993018886487 -0.15397183417588889 0 0.11060332767623229 -0.12822822731799971 0 0.1155993018886487 -0.15397183417588889 0 0.12502682387673331 -0.14148298094118911 0 0.10575589752173049 -0.14252553088826189 0 0.11060332767623229 -0.12822822731799971 0 0.1155993018886487 -0.15397183417588889 0 0.10575589752173049 -0.14252553088826189 0 0.1155993018886487 -0.15397183417588889 0 0.1109357018492097 -0.1575702320050939 0 0.1155993018886487 -0.15397183417588889 0 0.12591696316659029 -0.1624906702203526 0 0.1291580076185154 -0.15190862650104869 0 0.1155993018886487 -0.15397183417588889 0 0.1291580076185154 -0.15190862650104869 0 0.12502682387673331 -0.14148298094118911 0 0.1155993018886487 -0.15397183417588889 0 0.1205952761010651 -0.17971544103377821 0 0.1155993018886487 -0.15397183417588889 0 0.1205952761010651 -0.17971544103377821 0 0.12591696316659029 -0.1624906702203526 0 0.1109357018492097 -0.1575702320050939 0 0.1205952761010651 -0.17971544103377821 0 0.1039706447104199 -0.17091006827324809 0 0.1155993018886487 -0.15397183417588889 0 0.1109357018492097 -0.1575702320050939 0 0.1205952761010651 -0.17971544103377821 0 0.098646552287984468 -0.1871449832760296 0 0.1039706447104199 -0.17091006827324809 0 0.091548466703106554 -0.17225030181196829 0 0.1205952761010651 -0.17971544103377821 0 0.098646552287984468 -0.1871449832760296 0 0.1039706447104199 -0.17091006827324809 0 0.1109357018492097 -0.1575702320050939 0 0.1039706447104199 -0.17091006827324809 0 0.096290168617584021 -0.15977041220972049 0 0.1039706447104199 -0.17091006827324809 0 0.096290168617584021 -0.15977041220972049 0 0.091548466703106554 -0.17225030181196829 0 0.096290168617584021 -0.15977041220972049 0 0.091548466703106554 -0.17225030181196829 0 0.074839469559073168 -0.1602426574217603 0 0.098646552287984468 -0.1871449832760296 0 0.091548466703106554 -0.17225030181196829 0 0.077937277169373001 -0.184048065660191 0 0.091548466703106554 -0.17225030181196829 0 0.077937277169373001 -0.184048065660191 0 0.074839469559073168 -0.1602426574217603 0 0.048889875849910377 -0.19485433794866519 0 0.077937277169373001 -0.184048065660191 0 0.060697534869351033 -0.17419066888397941 0 0.077937277169373001 -0.184048065660191 0 0.074839469559073168 -0.1602426574217603 0 0.077937277169373001 -0.184048065660191 0 0.074839469559073168 -0.1602426574217603 0 0.060697534869351033 -0.17419066888397941 0 0.074839469559073168 -0.1602426574217603 0 0.060697534869351033 -0.17419066888397941 0 0.054151063715936032 -0.16198838436728469 0 0.074839469559073168 -0.1602426574217603 0 0.071741661948773627 -0.1364372491833297 0 0.053973449323654381 -0.14877178477940289 0 0.074839469559073168 -0.1602426574217603 0 0.071741661948773627 -0.1364372491833297 0 0.074839469559073168 -0.1602426574217603 0 0.091338681898991747 -0.14700374059421151 0 0.071741661948773627 -0.1364372491833297 0 0.091338681898991747 -0.14700374059421151 0 0.071741661948773627 -0.1364372491833297 0 0.096290168617584021 -0.15977041220972049 0 0.074839469559073168 -0.1602426574217603 0 0.091338681898991747 -0.14700374059421151 0 0.091338681898991747 -0.14700374059421151 0 0.091654332423878201 -0.12963424345288041 0 0.071741661948773627 -0.1364372491833297 0 0.091654332423878201 -0.12963424345288041 0 0.071741661948773627 -0.1364372491833297 0 0.081314192721475609 -0.1213420062060075 0 0.071741661948773627 -0.1364372491833297 0 0.069173629841333045 -0.1167029530689571 0 0.071741661948773627 -0.1364372491833297 0 0.047697664500285522 -0.13793480044497361 0 0.046491140040491152 -0.1228224534877623 0 0.071741661948773627 -0.1364372491833297 0 0.046491140040491152 -0.1228224534877623 0 0.069173629841333045 -0.1167029530689571 0 0.071741661948773627 -0.1364372491833297 0 0.046491140040491152 -0.1228224534877623 0 0.053973449323654381 -0.14877178477940289 0 0.034817011568570991 -0.15152394239063741 0 0.054151063715936032 -0.16198838436728469 0 0.071741661948773627 -0.1364372491833297 0 0.047697664500285522 -0.13793480044497361 0 0.053973449323654381 -0.14877178477940289 0 0.047697664500285522 -0.13793480044497361 0 0.053973449323654381 -0.14877178477940289 0 0.034817011568570991 -0.15152394239063741 0 0.047697664500285522 -0.13793480044497361 0 0.034817011568570991 -0.15152394239063741 0 0.033591810338202938 -0.13391885344244481 0 0.047697664500285522 -0.13793480044497361 0 0.033591810338202938 -0.13391885344244481 0 0.046491140040491152 -0.1228224534877623 0 0.048889875849910377 -0.19485433794866519 0 0.060697534869351033 -0.17419066888397941 0 0.041969727003717101 -0.1706107230216686 0 0.074839469559073168 -0.1602426574217603 0 0.053973449323654381 -0.14877178477940289 0 0.054151063715936032 -0.16198838436728469 0 0.060697534869351033 -0.17419066888397941 0 0.054151063715936032 -0.16198838436728469 0 0.041969727003717101 -0.1706107230216686 0 0.034817011568570991 -0.15152394239063741 0 0.041969727003717101 -0.1706107230216686 0 0.02292403062392194 -0.1668062279374902 0 0.034817011568570991 -0.15152394239063741 0 0.054151063715936032 -0.16198838436728469 0 0.041969727003717101 -0.1706107230216686 0 0.048889875849910377 -0.19485433794866519 0 0.041969727003717101 -0.1706107230216686 0 0.03078592753196982 -0.18180353024477111 0 0.041969727003717101 -0.1706107230216686 0 0.03078592753196982 -0.18180353024477111 0 0.02292403062392194 -0.1668062279374902 0 0.03078592753196982 -0.18180353024477111 0 0.02292403062392194 -0.1668062279374902 0 0.0080086473810049609 -0.17968149299165809 0 0.01804900831253092 -0.19300775811554979 0 0.03078592753196982 -0.18180353024477111 0 0.0080086473810049609 -0.17968149299165809 0 0.02292403062392194 -0.1668062279374902 0 0.01100858143369484 -0.16542279744287169 0 0.015133361280372881 -0.14884824097457261 0 -0.0020317135505204132 -0.1663552278677661 0 0.015133361280372881 -0.14884824097457261 0 -0.0020317135505204132 -0.1663552278677661 0 0.01100858143369484 -0.16542279744287169 0 0.015133361280372881 -0.14884824097457261 0 -0.0020317135505204132 -0.1663552278677661 0 -0.0093425470342544496 -0.15665178135371241 0 0.015133361280372881 -0.14884824097457261 0 -0.0020317135505204132 -0.1663552278677661 0 0.01100858143369484 -0.16542279744287169 0 0.0080086473810049609 -0.17968149299165809 0 0.02292403062392194 -0.1668062279374902 0 0.01100858143369484 -0.16542279744287169 0 0.0080086473810049609 -0.17968149299165809 0 -0.0020317135505204132 -0.1663552278677661 0 -0.0046190280866550953 -0.18583163642080541 0 0.0080086473810049609 -0.17968149299165809 0 -0.0020317135505204132 -0.1663552278677661 0 0.0080086473810049609 -0.17968149299165809 0 -0.0046190280866550953 -0.18583163642080541 0 0.0057136835058208182 -0.19152004318334401 0 0.0080086473810049609 -0.17968149299165809 0 0.01804900831253092 -0.19300775811554979 0 0.0080086473810049609 -0.17968149299165809 0 0.033591810338202938 -0.13391885344244481 0 0.016354383869269219 -0.1342441131405421 0 0.01410020702646618 -0.1177317224203961 0 0.033591810338202938 -0.13391885344244481 0 0.016354383869269219 -0.1342441131405421 0 0.024904981642401191 -0.1420541564905812 0 0.033591810338202938 -0.13391885344244481 0 0.01410020702646618 -0.1177317224203961 0 0.034817011568570991 -0.15152394239063741 0 0.033591810338202938 -0.13391885344244481 0 0.024904981642401191 -0.1420541564905812 0 0.034817011568570991 -0.15152394239063741 0 0.024904981642401191 -0.1420541564905812 0 0.015133361280372881 -0.14884824097457261 0 0.034817011568570991 -0.15152394239063741 0 0.02292403062392194 -0.1668062279374902 0 0.015133361280372881 -0.14884824097457261 0 0.016354383869269219 -0.1342441131405421 0 0.024904981642401191 -0.1420541564905812 0 0.015133361280372881 -0.14884824097457261 0 -0.0093425470342544496 -0.15665178135371241 0 0.015133361280372881 -0.14884824097457261 0 0.005150969619539144 -0.13736195048391431 0 0.016354383869269219 -0.1342441131405421 0 0.0058983520323871962 -0.12805413721014969 0 0.01410020702646618 -0.1177317224203961 0 0.016354383869269219 -0.1342441131405421 0 0.005150969619539144 -0.13736195048391431 0 0.0058983520323871962 -0.12805413721014969 0 0.016354383869269219 -0.1342441131405421 0 0.015133361280372881 -0.14884824097457261 0 0.005150969619539144 -0.13736195048391431 0 -0.0052513643059792347 -0.13137269496406631 0 0.005150969619539144 -0.13736195048391431 0 0.0058983520323871962 -0.12805413721014969 0 -0.0053913962852711796 -0.101544591398348 0 -0.00086243604735932301 -0.1195602050418297 0 0.01410020702646618 -0.1177317224203961 0 -0.00086243604735932301 -0.1195602050418297 0 0.0058983520323871962 -0.12805413721014969 0 0.01410020702646618 -0.1177317224203961 0 -0.0053913962852711796 -0.101544591398348 0 0.01410020702646618 -0.1177317224203961 0 0.01410020702646618 -0.1177317224203961 0 0.021240618132208611 -0.1092076577921955 0 0.01109832212582604 -0.1053549280280956 0 0.033591810338202938 -0.13391885344244481 0 0.01410020702646618 -0.1177317224203961 0 0.021240618132208611 -0.1092076577921955 0 0.027948326588398579 -0.09809463805416832 0 0.021240618132208611 -0.1092076577921955 0 0.036586673784428293 -0.1070476346197187 0 0.021240618132208611 -0.1092076577921955 0 0.017000895981454139 -0.098883473709876504 0 0.01109832212582604 -0.1053549280280956 0 0.027948326588398579 -0.09809463805416832 0 0.021240618132208611 -0.1092076577921955 0 0.017000895981454139 -0.098883473709876504 0 0.027948326588398579 -0.09809463805416832 0 0.017000895981454139 -0.098883473709876504 0 0.020079534027638079 -0.088260772500432086 0 0.017000895981454139 -0.098883473709876504 0 0.01109832212582604 -0.1053549280280956 0 0.0068631438924836143 -0.09802575688397823 0 -0.0053913962852711796 -0.101544591398348 0 0.01410020702646618 -0.1177317224203961 0 0.01109832212582604 -0.1053549280280956 0 0.017000895981454139 -0.098883473709876504 0 0.0068631438924836143 -0.09802575688397823 0 0.01074789060587805 -0.091041637954746568 0 -0.0053913962852711796 -0.101544591398348 0 0.01109832212582604 -0.1053549280280956 0 0.0068631438924836143 -0.09802575688397823 0 -0.00085598893660233238 -0.0896113271783123 0 -0.0053913962852711796 -0.101544591398348 0 0.0068631438924836143 -0.09802575688397823 0 -0.00085598893660233238 -0.0896113271783123 0 0.0089737261826284814 -0.079045421565449248 0 0.01074789060587805 -0.091041637954746568 0 -0.00085598893660233238 -0.0896113271783123 0 0.0068631438924836143 -0.09802575688397823 0 0.01074789060587805 -0.091041637954746568 0 0.0089737261826284814 -0.079045421565449248 0 0.01074789060587805 -0.091041637954746568 0 0.020079534027638079 -0.088260772500432086 0 -0.0096631587059269278 -0.072401477112145576 0 0.0089737261826284814 -0.079045421565449248 0 0.008044693004705103 -0.064644082804782468 0 0.0089737261826284814 -0.079045421565449248 0 0.008044693004705103 -0.064644082804782468 0 0.024306168680990451 -0.071215569827560748 0 0.024306168680990451 -0.071215569827560748 0 0.040416584136413268 -0.066092035543420136 0 0.022868359227832692 -0.052357636544413673 0 0.008044693004705103 -0.064644082804782468 0 0.024306168680990451 -0.071215569827560748 0 0.022868359227832692 -0.052357636544413673 0 0.0089737261826284814 -0.079045421565449248 0 0.024306168680990451 -0.071215569827560748 0 0.020079534027638079 -0.088260772500432086 0 0.024306168680990451 -0.071215569827560748 0 0.020079534027638079 -0.088260772500432086 0 0.033299539652290322 -0.083082826192702575 0 0.017000895981454139 -0.098883473709876504 0 0.01074789060587805 -0.091041637954746568 0 0.020079534027638079 -0.088260772500432086 0 0.027948326588398579 -0.09809463805416832 0 0.020079534027638079 -0.088260772500432086 0 0.033299539652290322 -0.083082826192702575 0 0.027948326588398579 -0.09809463805416832 0 0.033299539652290322 -0.083082826192702575 0 0.040935765947773997 -0.097068406043750791 0 0.033299539652290322 -0.083082826192702575 0 0.048937259655501948 -0.083911979953538898 0 0.040935765947773997 -0.097068406043750791 0 0.024306168680990451 -0.071215569827560748 0 0.033299539652290322 -0.083082826192702575 0 0.040416584136413268 -0.066092035543420136 0 0.033299539652290322 -0.083082826192702575 0 0.040416584136413268 -0.066092035543420136 0 0.048937259655501948 -0.083911979953538898 0 0.040416584136413268 -0.066092035543420136 0 0.059841780919460699 -0.070443624430956878 0 0.05226921997622698 -0.056304689717245782 0 0.040416584136413268 -0.066092035543420136 0 0.059841780919460699 -0.070443624430956878 0 0.048937259655501948 -0.083911979953538898 0 0.048937259655501948 -0.083911979953538898 0 0.052998218113266257 -0.09939925504561449 0 0.066131669163807194 -0.087385732464788604 0 0.059841780919460699 -0.070443624430956878 0 0.048937259655501948 -0.083911979953538898 0 0.066131669163807194 -0.087385732464788604 0 0.048937259655501948 -0.083911979953538898 0 0.052998218113266257 -0.09939925504561449 0 0.040935765947773997 -0.097068406043750791 0 0.052998218113266257 -0.09939925504561449 0 0.065834408464996066 -0.10120102896755891 0 0.066131669163807194 -0.087385732464788604 0 0.052998218113266257 -0.09939925504561449 0 0.054647353049548208 -0.11336481163595349 0 0.046485849959418603 -0.1078000971317037 0 0.052998218113266257 -0.09939925504561449 0 0.054647353049548208 -0.11336481163595349 0 0.065834408464996066 -0.10120102896755891 0 0.054647353049548208 -0.11336481163595349 0 0.046491140040491152 -0.1228224534877623 0 0.069173629841333045 -0.1167029530689571 0 0.054647353049548208 -0.11336481163595349 0 0.046491140040491152 -0.1228224534877623 0 0.046485849959418603 -0.1078000971317037 0 0.021240618132208611 -0.1092076577921955 0 0.046491140040491152 -0.1228224534877623 0 0.033591810338202938 -0.13391885344244481 0 0.021240618132208611 -0.1092076577921955 0 0.046491140040491152 -0.1228224534877623 0 0.021240618132208611 -0.1092076577921955 0 0.046491140040491152 -0.1228224534877623 0 0.036586673784428293 -0.1070476346197187 0 0.046491140040491152 -0.1228224534877623 0 0.036586673784428293 -0.1070476346197187 0 0.046485849959418603 -0.1078000971317037 0 0.027948326588398579 -0.09809463805416832 0 0.036586673784428293 -0.1070476346197187 0 0.040935765947773997 -0.097068406043750791 0 0.052998218113266257 -0.09939925504561449 0 0.040935765947773997 -0.097068406043750791 0 0.046485849959418603 -0.1078000971317037 0 0.036586673784428293 -0.1070476346197187 0 0.040935765947773997 -0.097068406043750791 0 0.046485849959418603 -0.1078000971317037 0 0.013560617637746009 -0.010546814510073379 0 0.029083891214417481 -0.02772314882666372 0 0.036730620827910967 -0.0085450903031558736 0 0.02842268352822833 0.0042313109911599374 0 0.013560617637746009 -0.010546814510073379 0 0.036730620827910967 -0.0085450903031558736 0 -0.01129150054699473 -0.0013760759300521341 0 0.0034452991329774578 0.0051537710705144932 0 0.013560617637746009 -0.010546814510073379 0 -0.015846618624544149 -0.02523918063224059 0 0.013560617637746009 -0.010546814510073379 0 0.01152460235589255 -0.038367179228915853 0 0.013560617637746009 -0.010546814510073379 0 0.01152460235589255 -0.038367179228915853 0 0.013560617637746009 -0.010546814510073379 0 0.029083891214417481 -0.02772314882666372 0 0.01152460235589255 -0.038367179228915853 0 0.029083891214417481 -0.02772314882666372 0 0.022868359227832692 -0.052357636544413673 0 0.040125762515575397 -0.04503502586498196 0 0.029083891214417481 -0.02772314882666372 0 0.01152460235589255 -0.038367179228915853 0 0.022868359227832692 -0.052357636544413673 0 -0.0020087529434394289 -0.049943804487541543 0 0.008044693004705103 -0.064644082804782468 0 0.022868359227832692 -0.052357636544413673 0 -0.0020087529434394289 -0.049943804487541543 0 0.01152460235589255 -0.038367179228915853 0 0.022868359227832692 -0.052357636544413673 0 0.040416584136413268 -0.066092035543420136 0 0.022868359227832692 -0.052357636544413673 0 0.040125762515575397 -0.04503502586498196 0 0.040416584136413268 -0.066092035543420136 0 0.05226921997622698 -0.056304689717245782 0 0.040125762515575397 -0.04503502586498196 0 0.059841780919460699 -0.070443624430956878 0 0.05226921997622698 -0.056304689717245782 0 0.065903159925837132 -0.050625763080663633 0 0.05226921997622698 -0.056304689717245782 0 0.055234485932000553 -0.040098650930135142 0 0.065903159925837132 -0.050625763080663633 0 0.05226921997622698 -0.056304689717245782 0 0.055234485932000553 -0.040098650930135142 0 0.040125762515575397 -0.04503502586498196 0 0.055234485932000553 -0.040098650930135142 0 0.040125762515575397 -0.04503502586498196 0 0.048560449234672627 -0.021220249772793961 0 0.029083891214417481 -0.02772314882666372 0 0.040125762515575397 -0.04503502586498196 0 0.048560449234672627 -0.021220249772793961 0 0.029083891214417481 -0.02772314882666372 0 0.048560449234672627 -0.021220249772793961 0 0.036730620827910967 -0.0085450903031558736 0 0.055234485932000553 -0.040098650930135142 0 0.048560449234672627 -0.021220249772793961 0 0.069313838007690559 -0.02730752621499034 0 0.048560449234672627 -0.021220249772793961 0 0.061894708431368711 -0.01268121364353801 0 0.069313838007690559 -0.02730752621499034 0 0.065069697678856273 0.0043599765667019456 0 0.061894708431368711 -0.01268121364353801 0 0.051971399160469382 -0.001712778288651375 0 0.048560449234672627 -0.021220249772793961 0 0.061894708431368711 -0.01268121364353801 0 0.051971399160469382 -0.001712778288651375 0 0.048560449234672627 -0.021220249772793961 0 0.051971399160469382 -0.001712778288651375 0 0.048560449234672627 -0.021220249772793961 0 0.051971399160469382 -0.001712778288651375 0 0.036730620827910967 -0.0085450903031558736 0 0.044516681068846077 0.0085253256890689064 0 0.051971399160469382 -0.001712778288651375 0 0.036730620827910967 -0.0085450903031558736 0 0.092790705774556365 0.007637089620086213 0 0.076769895714656561 -0.0062810663660294828 0 0.1014456400804002 -0.009727969571319571 0 0.076769895714656561 -0.0062810663660294828 0 0.091380854119256547 -0.029177315314270869 0 0.1014456400804002 -0.009727969571319571 0 0.065069697678856273 0.0043599765667019456 0 0.061894708431368711 -0.01268121364353801 0 0.076769895714656561 -0.0062810663660294828 0 0.061894708431368711 -0.01268121364353801 0 0.076769895714656561 -0.0062810663660294828 0 0.069313838007690559 -0.02730752621499034 0 0.076769895714656561 -0.0062810663660294828 0 0.069313838007690559 -0.02730752621499034 0 0.091380854119256547 -0.029177315314270869 0 0.091380854119256547 -0.029177315314270869 0 0.081542594750818542 -0.044209486922296051 0 0.096123020567443013 -0.053613083696217492 0 0.069313838007690559 -0.02730752621499034 0 0.091380854119256547 -0.029177315314270869 0 0.081542594750818542 -0.044209486922296051 0 0.055234485932000553 -0.040098650930135142 0 0.069313838007690559 -0.02730752621499034 0 0.065903159925837132 -0.050625763080663633 0 0.069313838007690559 -0.02730752621499034 0 0.081542594750818542 -0.044209486922296051 0 0.065903159925837132 -0.050625763080663633 0 0.081542594750818542 -0.044209486922296051 0 0.065903159925837132 -0.050625763080663633 0 0.078594255548835298 -0.067885951342672252 0 0.081542594750818542 -0.044209486922296051 0 0.096123020567443013 -0.053613083696217492 0 0.078594255548835298 -0.067885951342672252 0 0.096123020567443013 -0.053613083696217492 0 0.1160194853611181 -0.046293273440479447 0 0.112813277950965 -0.065733908131412278 0 0.1160194853611181 -0.046293273440479447 0 0.112813277950965 -0.065733908131412278 0 0.13031128571248901 -0.063730079363301106 0 0.1160194853611181 -0.046293273440479447 0 0.1147093503048433 -0.02490081752715104 0 0.13902995669558471 -0.033841648077852962 0 0.091380854119256547 -0.029177315314270869 0 0.1160194853611181 -0.046293273440479447 0 0.1147093503048433 -0.02490081752715104 0 0.091380854119256547 -0.029177315314270869 0 0.096123020567443013 -0.053613083696217492 0 0.091380854119256547 -0.029177315314270869 0 0.096123020567443013 -0.053613083696217492 0 0.1160194853611181 -0.046293273440479447 0 0.091380854119256547 -0.029177315314270869 0 0.1147093503048433 -0.02490081752715104 0 0.1014456400804002 -0.009727969571319571 0 0.1147093503048433 -0.02490081752715104 0 0.1014456400804002 -0.009727969571319571 0 0.1253528781060689 -0.0035925746653820922 0 0.1118443090855482 0.01244278967355154 0 0.1014456400804002 -0.009727969571319571 0 0.1253528781060689 -0.0035925746653820922 0 0.080127353256681494 -0.1079247160480321 0 0.1056073534638149 -0.1024846204601106 0 0.093873986136711635 -0.1160108692768383 0 0.080127353256681494 -0.1079247160480321 0 0.088451760580886996 -0.095435820424731449 0 0.1056073534638149 -0.1024846204601106 0 0.080127353256681494 -0.1079247160480321 0 0.1056073534638149 -0.1024846204601106 0 0.080127353256681494 -0.1079247160480321 0 0.088451760580886996 -0.095435820424731449 0 0.076225052457102649 -0.096226955720249557 0 0.091654332423878201 -0.12963424345288041 0 0.081314192721475609 -0.1213420062060075 0 0.093873986136711635 -0.1160108692768383 0 0.080127353256681494 -0.1079247160480321 0 0.081314192721475609 -0.1213420062060075 0 0.093873986136711635 -0.1160108692768383 0 0.071741661948773627 -0.1364372491833297 0 0.081314192721475609 -0.1213420062060075 0 0.069173629841333045 -0.1167029530689571 0 0.054647353049548208 -0.11336481163595349 0 0.080127353256681494 -0.1079247160480321 0 0.069173629841333045 -0.1167029530689571 0 0.054647353049548208 -0.11336481163595349 0 0.080127353256681494 -0.1079247160480321 0 0.080127353256681494 -0.1079247160480321 0 0.081314192721475609 -0.1213420062060075 0 0.069173629841333045 -0.1167029530689571 0 0.054647353049548208 -0.11336481163595349 0 0.080127353256681494 -0.1079247160480321 0 0.065834408464996066 -0.10120102896755891 0 0.080127353256681494 -0.1079247160480321 0 0.076225052457102649 -0.096226955720249557 0 0.065834408464996066 -0.10120102896755891 0 0.076225052457102649 -0.096226955720249557 0 0.065834408464996066 -0.10120102896755891 0 0.066131669163807194 -0.087385732464788604 0 0.066131669163807194 -0.087385732464788604 0 0.078594255548835298 -0.067885951342672252 0 0.081726284927076509 -0.085881003575172574 0 0.076225052457102649 -0.096226955720249557 0 0.066131669163807194 -0.087385732464788604 0 0.081726284927076509 -0.085881003575172574 0 0.059841780919460699 -0.070443624430956878 0 0.066131669163807194 -0.087385732464788604 0 0.078594255548835298 -0.067885951342672252 0 0.059841780919460699 -0.070443624430956878 0 0.065903159925837132 -0.050625763080663633 0 0.078594255548835298 -0.067885951342672252 0 0.096123020567443013 -0.053613083696217492 0 0.078594255548835298 -0.067885951342672252 0 0.10086518701562951 -0.078048852078163949 0 0.078594255548835298 -0.067885951342672252 0 0.081726284927076509 -0.085881003575172574 0 0.10086518701562951 -0.078048852078163949 0 0.088451760580886996 -0.095435820424731449 0 0.081726284927076509 -0.085881003575172574 0 0.10086518701562951 -0.078048852078163949 0 0.088451760580886996 -0.095435820424731449 0 0.076225052457102649 -0.096226955720249557 0 0.081726284927076509 -0.085881003575172574 0 0.088451760580886996 -0.095435820424731449 0 0.10086518701562951 -0.078048852078163949 0 0.1056073534638149 -0.1024846204601106 0 0.10086518701562951 -0.078048852078163949 0 0.1056073534638149 -0.1024846204601106 0 0.10086518701562951 -0.078048852078163949 0 0.1133687160559943 -0.085316860340329481 0 0.1056073534638149 -0.1024846204601106 0 0.096123020567443013 -0.053613083696217492 0 0.10086518701562951 -0.078048852078163949 0 0.112813277950965 -0.065733908131412278 0 0.10086518701562951 -0.078048852078163949 0 0.112813277950965 -0.065733908131412278 0 0.1133687160559943 -0.085316860340329481 0 0.096123020567443013 -0.053613083696217492 0 0.10086518701562951 -0.078048852078163949 0 0.112813277950965 -0.065733908131412278 0 0.1133687160559943 -0.085316860340329481 0 0.12628821811977251 -0.081176249216687868 0 0.112813277950965 -0.065733908131412278 0 0.12628821811977251 -0.081176249216687868 0 0.13031128571248901 -0.063730079363301106 0 0.1133687160559943 -0.085316860340329481 0 0.1212695437297895 -0.099140671815272668 0 0.12628821811977251 -0.081176249216687868 0 0.1212695437297895 -0.099140671815272668 0 0.1056073534638149 -0.1024846204601106 0 0.12229217821838879 -0.114365139258049 0 0.1133687160559943 -0.085316860340329481 0 0.1212695437297895 -0.099140671815272668 0 0.1056073534638149 -0.1024846204601106 0 0.1212695437297895 -0.099140671815272668 0 0.1056073534638149 -0.1024846204601106 0 0.1212695437297895 -0.099140671815272668 0 0.12229217821838879 -0.114365139258049 0 0.13120309480453859 -0.1074240985221952 0 0.11060332767623229 -0.12822822731799971 0 0.1056073534638149 -0.1024846204601106 0 0.11060332767623229 -0.12822822731799971 0 0.1056073534638149 -0.1024846204601106 0 0.093873986136711635 -0.1160108692768383 0 0.11060332767623229 -0.12822822731799971 0 0.091654332423878201 -0.12963424345288041 0 0.093873986136711635 -0.1160108692768383 0 0.11060332767623229 -0.12822822731799971 0 0.1056073534638149 -0.1024846204601106 0 0.12229217821838879 -0.114365139258049 0 0.11060332767623229 -0.12822822731799971 0 0.12229217821838879 -0.114365139258049 0 0.12907740542747331 -0.1295625291261383 0 0.12229217821838879 -0.114365139258049 0 0.1353253269056639 -0.1189354891747306 0 0.12907740542747331 -0.1295625291261383 0 0.12229217821838879 -0.114365139258049 0 0.1353253269056639 -0.1189354891747306 0 0.13120309480453859 -0.1074240985221952 0 0.1353253269056639 -0.1189354891747306 0 0.14528740180249061 -0.1090992799783964 0 0.13120309480453859 -0.1074240985221952 0 0.1353253269056639 -0.1189354891747306 0 0.14667408107618121 -0.1203417034652623 0 0.1407751965703094 -0.13061285813672649 0 0.1353253269056639 -0.1189354891747306 0 0.14667408107618121 -0.1203417034652623 0 0.14528740180249061 -0.1090992799783964 0 0.14667408107618121 -0.1203417034652623 0 0.14528740180249061 -0.1090992799783964 0 0.1593373482653975 -0.1153796185376879 0 0.14667408107618121 -0.1203417034652623 0 0.1593373482653975 -0.1153796185376879 0 0.15264513183704451 -0.12768127149877009 0 0.14528740180249061 -0.1090992799783964 0 0.15431378502070689 -0.093378350342309457 0 0.1593373482653975 -0.1153796185376879 0 0.14528740180249061 -0.1090992799783964 0 0.136931733995764 -0.095796723170434708 0 0.15431378502070689 -0.093378350342309457 0 0.1212695437297895 -0.099140671815272668 0 0.136931733995764 -0.095796723170434708 0 0.1212695437297895 -0.099140671815272668 0 0.136931733995764 -0.095796723170434708 0 0.13120309480453859 -0.1074240985221952 0 0.14528740180249061 -0.1090992799783964 0 0.136931733995764 -0.095796723170434708 0 0.13120309480453859 -0.1074240985221952 0 0.136931733995764 -0.095796723170434708 0 0.12628821811977251 -0.081176249216687868 0 0.14465714835351609 -0.07669868465352489 0 0.1212695437297895 -0.099140671815272668 0 0.136931733995764 -0.095796723170434708 0 0.12628821811977251 -0.081176249216687868 0 0.12628821811977251 -0.081176249216687868 0 0.13031128571248901 -0.063730079363301106 0 0.14465714835351609 -0.07669868465352489 0 0.14465714835351609 -0.07669868465352489 0 0.17166096945557779 -0.070339931242238057 0 0.14942290776855099 -0.055798198503494677 0 0.13031128571248901 -0.063730079363301106 0 0.14465714835351609 -0.07669868465352489 0 0.14942290776855099 -0.055798198503494677 0 0.136931733995764 -0.095796723170434708 0 0.14465714835351609 -0.07669868465352489 0 0.15431378502070689 -0.093378350342309457 0 0.15431378502070689 -0.093378350342309457 0 0.17166096945557779 -0.070339931242238057 0 0.17270266594603981 -0.096047101998707918 0 0.14465714835351609 -0.07669868465352489 0 0.15431378502070689 -0.093378350342309457 0 0.17166096945557779 -0.070339931242238057 0 0.17166096945557779 -0.070339931242238057 0 0.18113134422928071 -0.053715810521056277 0 0.1942983247448026 -0.06578196438765975 0 0.17166096945557779 -0.070339931242238057 0 0.19176427562024589 -0.08605420768081827 0 0.1942983247448026 -0.06578196438765975 0 0.17166096945557779 -0.070339931242238057 0 0.17270266594603981 -0.096047101998707918 0 0.17166096945557779 -0.070339931242238057 0 0.17270266594603981 -0.096047101998707918 0 0.19176427562024589 -0.08605420768081827 0 0.17270266594603981 -0.096047101998707918 0 0.17374436243650171 -0.1217542727551779 0 0.17270266594603981 -0.096047101998707918 0 0.18673773143744901 -0.1056403381826083 0 0.19176427562024589 -0.08605420768081827 0 0.17270266594603981 -0.096047101998707918 0 0.18673773143744901 -0.1056403381826083 0 0.17374436243650171 -0.1217542727551779 0 0.18673773143744901 -0.1056403381826083 0 0.17374436243650171 -0.1217542727551779 0 0.19230394039212739 -0.1190040137305175 0 0.17374436243650171 -0.1217542727551779 0 0.19230394039212739 -0.1190040137305175 0 0.18690088777785041 -0.13169298809281629 0 0.17270266594603981 -0.096047101998707918 0 0.17374436243650171 -0.1217542727551779 0 0.1593373482653975 -0.1153796185376879 0 0.17374436243650171 -0.1217542727551779 0 0.1593373482653975 -0.1153796185376879 0 0.1616500134161791 -0.12977646666149911 0 0.1593373482653975 -0.1153796185376879 0 0.15264513183704451 -0.12768127149877009 0 0.1616500134161791 -0.12977646666149911 0 0.15431378502070689 -0.093378350342309457 0 0.17270266594603981 -0.096047101998707918 0 0.1593373482653975 -0.1153796185376879 0 0.14911197860261319 -0.0064425923122114707 0 0.1253528781060689 -0.0035925746653820922 0 0.13902995669558471 -0.033841648077852962 0 0.1147093503048433 -0.02490081752715104 0 0.1253528781060689 -0.0035925746653820922 0 0.13902995669558471 -0.033841648077852962 0 0.14911197860261319 -0.0064425923122114707 0 0.13902995669558471 -0.033841648077852962 0 0.16155965392210431 -0.024478940327194051 0 0.13902995669558471 -0.033841648077852962 0 0.1650162427414596 -0.043380706741798628 0 0.16155965392210431 -0.024478940327194051 0 0.13902995669558471 -0.033841648077852962 0 0.14942290776855099 -0.055798198503494677 0 0.1650162427414596 -0.043380706741798628 0 0.13031128571248901 -0.063730079363301106 0 0.13902995669558471 -0.033841648077852962 0 0.14942290776855099 -0.055798198503494677 0 0.1160194853611181 -0.046293273440479447 0 0.13031128571248901 -0.063730079363301106 0 0.13902995669558471 -0.033841648077852962 0 0.17166096945557779 -0.070339931242238057 0 0.14942290776855099 -0.055798198503494677 0 0.1650162427414596 -0.043380706741798628 0 0.17166096945557779 -0.070339931242238057 0 0.18113134422928071 -0.053715810521056277 0 0.1650162427414596 -0.043380706741798628 0 0.18113134422928071 -0.053715810521056277 0 0.1650162427414596 -0.043380706741798628 0 0.1791202841616365 -0.030530847851912641 0 0.18113134422928071 -0.053715810521056277 0 0.1791202841616365 -0.030530847851912641 0 0.1974180517293441 -0.042196548870349182 0 0.1650162427414596 -0.043380706741798628 0 0.16155965392210431 -0.024478940327194051 0 0.1791202841616365 -0.030530847851912641 0 0.14911197860261319 -0.0064425923122114707 0 0.16155965392210431 -0.024478940327194051 0 0.1809045251758529 -0.0061777897114907443 0 0.1791202841616365 -0.030530847851912641 0 0.1809045251758529 -0.0061777897114907443 0 0.19402948544216589 -0.0220493542343011 0 0.16155965392210431 -0.024478940327194051 0 0.1791202841616365 -0.030530847851912641 0 0.1809045251758529 -0.0061777897114907443 0 0.20327883938983121 -0.0069456637936660091 0 0.20942572675416449 -0.024395920944086921 0 0.22332785412054751 -0.0047917593234988306 0 0.1809045251758529 -0.0061777897114907443 0 0.20327883938983121 -0.0069456637936660091 0 0.19402948544216589 -0.0220493542343011 0 0.20327883938983121 -0.0069456637936660091 0 0.19402948544216589 -0.0220493542343011 0 0.20942572675416449 -0.024395920944086921 0 0.19402948544216589 -0.0220493542343011 0 0.20942572675416449 -0.024395920944086921 0 0.1974180517293441 -0.042196548870349182 0 0.20942572675416449 -0.024395920944086921 0 0.21200058478462289 -0.045733028061670122 0 0.22468262319242441 -0.027822565117598601 0 0.20942572675416449 -0.024395920944086921 0 0.21200058478462289 -0.045733028061670122 0 0.1974180517293441 -0.042196548870349182 0 0.1791202841616365 -0.030530847851912641 0 0.19402948544216589 -0.0220493542343011 0 0.1974180517293441 -0.042196548870349182 0 0.1974180517293441 -0.042196548870349182 0 0.2084992274919584 -0.058262776296756212 0 0.1942983247448026 -0.06578196438765975 0 0.18113134422928071 -0.053715810521056277 0 0.1974180517293441 -0.042196548870349182 0 0.1942983247448026 -0.06578196438765975 0 0.21200058478462289 -0.045733028061670122 0 0.1974180517293441 -0.042196548870349182 0 0.2084992274919584 -0.058262776296756212 0 0.21200058478462289 -0.045733028061670122 0 0.2084992274919584 -0.058262776296756212 0 0.22042908193859931 -0.062946919186833247 0 0.2290569165117339 -0.041749331406339879 0 0.22042908193859931 -0.062946919186833247 0 0.21200058478462289 -0.045733028061670122 0 0.2290569165117339 -0.041749331406339879 0 0.22042908193859931 -0.062946919186833247 0 0.23176051573990211 -0.060090179544963013 0 0.2290569165117339 -0.041749331406339879 0 0.22042908193859931 -0.062946919186833247 0 0.23176051573990211 -0.060090179544963013 0 0.24541873300142519 -0.054290412664607282 0 0.2438609853148884 -0.067640948374130455 0 0.23176051573990211 -0.060090179544963013 0 0.24541873300142519 -0.054290412664607282 0 0.24547466515520511 -0.039451913204634308 0 0.23176051573990211 -0.060090179544963013 0 0.24547466515520511 -0.039451913204634308 0 0.2290569165117339 -0.041749331406339879 0 0.23176051573990211 -0.060090179544963013 0 0.24547466515520511 -0.039451913204634308 0 0.25813908861264689 -0.061930880435202097 0 0.24541873300142519 -0.054290412664607282 0 0.2438609853148884 -0.067640948374130455 0 0.24547466515520511 -0.039451913204634308 0 0.2290569165117339 -0.041749331406339879 0 0.2376847510848685 -0.020551743625846521 0 0.21200058478462289 -0.045733028061670122 0 0.2290569165117339 -0.041749331406339879 0 0.22468262319242441 -0.027822565117598601 0 0.20942572675416449 -0.024395920944086921 0 0.22468262319242441 -0.027822565117598601 0 0.22332785412054751 -0.0047917593234988306 0 0.2290569165117339 -0.041749331406339879 0 0.22468262319242441 -0.027822565117598601 0 0.2376847510848685 -0.020551743625846521 0 0.2290569165117339 -0.041749331406339879 0 0.2376847510848685 -0.020551743625846521 0 0.22468262319242441 -0.027822565117598601 0 0.2376847510848685 -0.020551743625846521 0 0.22332785412054751 -0.0047917593234988306 0 0.25918881457050802 -0.01881364686430571 0 0.24547466515520511 -0.039451913204634308 0 0.2376847510848685 -0.020551743625846521 0 0.25918881457050802 -0.01881364686430571 0 0.2376847510848685 -0.020551743625846521 0 0.2485653326959707 -0.01183239388210067 0 0.24063459591653041 0.0074870902855560884 0 0.24154719768573521 -0.0062511183016129646 0 0.22332785412054751 -0.0047917593234988306 0 0.2376847510848685 -0.020551743625846521 0 0.2485653326959707 -0.01183239388210067 0 0.24154719768573521 -0.0062511183016129646 0 0.25584056744277112 -0.0017130667366374939 0 0.2485653326959707 -0.01183239388210067 0 0.24154719768573521 -0.0062511183016129646 0 0.24063459591653041 0.0074870902855560884 0 0.25584056744277112 -0.0017130667366374939 0 0.24154719768573521 -0.0062511183016129646 0 0.2376847510848685 -0.020551743625846521 0 0.24154719768573521 -0.0062511183016129646 0 0.22332785412054751 -0.0047917593234988306 0 0.20317341279233009 -0.10534209474782 0 0.21180124736546471 -0.084144506967326615 0 0.22018342784753381 -0.092051924760452652 0 0.20317341279233009 -0.10534209474782 0 0.21180124736546471 -0.084144506967326615 0 0.20317341279233009 -0.10534209474782 0 0.2181960674465668 -0.1147187987922746 0 0.22571343520910281 -0.1021616836284979 0 0.20317341279233009 -0.10534209474782 0 0.22018342784753381 -0.092051924760452652 0 0.22571343520910281 -0.1021616836284979 0 0.20317341279233009 -0.10534209474782 0 0.2181960674465668 -0.1147187987922746 0 0.20801658061820411 -0.1231501390478832 0 0.2181960674465668 -0.1147187987922746 0 0.20801658061820411 -0.1231501390478832 0 0.2225359133420553 -0.12837575015092739 0 0.20317341279233009 -0.10534209474782 0 0.20801658061820411 -0.1231501390478832 0 0.19230394039212739 -0.1190040137305175 0 0.18673773143744901 -0.1056403381826083 0 0.20317341279233009 -0.10534209474782 0 0.19230394039212739 -0.1190040137305175 0 0.18673773143744901 -0.1056403381826083 0 0.20317341279233009 -0.10534209474782 0 0.19176427562024589 -0.08605420768081827 0 0.19176427562024589 -0.08605420768081827 0 0.20120431709183309 -0.077367859445654774 0 0.21180124736546471 -0.084144506967326615 0 0.20317341279233009 -0.10534209474782 0 0.19176427562024589 -0.08605420768081827 0 0.21180124736546471 -0.084144506967326615 0 0.19176427562024589 -0.08605420768081827 0 0.1942983247448026 -0.06578196438765975 0 0.20120431709183309 -0.077367859445654774 0 0.1942983247448026 -0.06578196438765975 0 0.20120431709183309 -0.077367859445654774 0 0.20735150207229591 -0.070177935789611096 0 0.20735150207229591 -0.070177935789611096 0 0.21180124736546471 -0.084144506967326615 0 0.22042908193859931 -0.062946919186833247 0 0.21180124736546471 -0.084144506967326615 0 0.22042908193859931 -0.062946919186833247 0 0.21180124736546471 -0.084144506967326615 0 0.21804636632459909 -0.080728445885291669 0 0.22042908193859931 -0.062946919186833247 0 0.2084992274919584 -0.058262776296756212 0 0.1942983247448026 -0.06578196438765975 0 0.20735150207229591 -0.070177935789611096 0 0.20120431709183309 -0.077367859445654774 0 0.20735150207229591 -0.070177935789611096 0 0.21180124736546471 -0.084144506967326615 0 0.2084992274919584 -0.058262776296756212 0 0.20735150207229591 -0.070177935789611096 0 0.22042908193859931 -0.062946919186833247 0 0.21180124736546471 -0.084144506967326615 0 0.21804636632459909 -0.080728445885291669 0 0.22018342784753381 -0.092051924760452652 0 0.21804636632459909 -0.080728445885291669 0 0.22802555599593621 -0.088239049549012266 0 0.23662918355679449 -0.078201080799481168 0 0.22802555599593621 -0.088239049549012266 0 0.23662918355679449 -0.078201080799481168 0 0.23778976004888691 -0.096648422815295287 0 0.21804636632459909 -0.080728445885291669 0 0.22018342784753381 -0.092051924760452652 0 0.22802555599593621 -0.088239049549012266 0 0.23176051573990211 -0.060090179544963013 0 0.21804636632459909 -0.080728445885291669 0 0.23662918355679449 -0.078201080799481168 0 0.23176051573990211 -0.060090179544963013 0 0.21804636632459909 -0.080728445885291669 0 0.23176051573990211 -0.060090179544963013 0 0.21804636632459909 -0.080728445885291669 0 0.22042908193859931 -0.062946919186833247 0 0.25294995541228588 -0.08743910421378126 0 0.2438609853148884 -0.067640948374130455 0 0.23662918355679449 -0.078201080799481168 0 0.23176051573990211 -0.060090179544963013 0 0.2438609853148884 -0.067640948374130455 0 0.23662918355679449 -0.078201080799481168 0 0.25294995541228588 -0.08743910421378126 0 0.23662918355679449 -0.078201080799481168 0 0.23778976004888691 -0.096648422815295287 0 0.25294995541228588 -0.08743910421378126 0 0.23778976004888691 -0.096648422815295287 0 0.24776082221192491 -0.1129473279923605 0 0.23778976004888691 -0.096648422815295287 0 0.23154099527114161 -0.1145643263862446 0 0.24776082221192491 -0.1129473279923605 0 0.23778976004888691 -0.096648422815295287 0 0.22571343520910281 -0.1021616836284979 0 0.23154099527114161 -0.1145643263862446 0 0.22802555599593621 -0.088239049549012266 0 0.23778976004888691 -0.096648422815295287 0 0.22571343520910281 -0.1021616836284979 0 0.22018342784753381 -0.092051924760452652 0 0.22802555599593621 -0.088239049549012266 0 0.22571343520910281 -0.1021616836284979 0 0.23154099527114161 -0.1145643263862446 0 0.2351269573115036 -0.13077989469631829 0 0.2225359133420553 -0.12837575015092739 0 0.2181960674465668 -0.1147187987922746 0 0.23154099527114161 -0.1145643263862446 0 0.2225359133420553 -0.12837575015092739 0 0.2181960674465668 -0.1147187987922746 0 0.22571343520910281 -0.1021616836284979 0 0.23154099527114161 -0.1145643263862446 0 0.23154099527114161 -0.1145643263862446 0 0.24776082221192491 -0.1129473279923605 0 0.2351269573115036 -0.13077989469631829 0 0.24776082221192491 -0.1129473279923605 0 0.24954864782920069 -0.1339614403992159 0 0.2351269573115036 -0.13077989469631829 0 0.24954864782920069 -0.1339614403992159 0 0.2351269573115036 -0.13077989469631829 0 0.23556748537143521 -0.1449002901197271 0 0.24954864782920069 -0.1339614403992159 0 0.24580873852321239 -0.15139799092491929 0 0.23556748537143521 -0.1449002901197271 0 0.24580873852321239 -0.15139799092491929 0 0.23556748537143521 -0.1449002901197271 0 0.2340135689188455 -0.15520440163206459 0 0.2340135689188455 -0.15520440163206459 0 0.2277092775845081 -0.15061707382528061 0 0.2257842085614781 -0.1589049495117798 0 0.23556748537143521 -0.1449002901197271 0 0.2340135689188455 -0.15520440163206459 0 0.2277092775845081 -0.15061707382528061 0 0.23556748537143521 -0.1449002901197271 0 0.2277092775845081 -0.15061707382528061 0 0.22504990657023979 -0.1420882294638264 0 0.2277092775845081 -0.15061707382528061 0 0.22504990657023979 -0.1420882294638264 0 0.21813121850054179 -0.15198749839900499 0 0.22504990657023979 -0.1420882294638264 0 0.21332876944025281 -0.1383061699982939 0 0.21813121850054179 -0.15198749839900499 0 0.2277092775845081 -0.15061707382528061 0 0.21813121850054179 -0.15198749839900499 0 0.2257842085614781 -0.1589049495117798 0 0.2351269573115036 -0.13077989469631829 0 0.23556748537143521 -0.1449002901197271 0 0.22504990657023979 -0.1420882294638264 0 0.2351269573115036 -0.13077989469631829 0 0.22504990657023979 -0.1420882294638264 0 0.2225359133420553 -0.12837575015092739 0 0.22504990657023979 -0.1420882294638264 0 0.2225359133420553 -0.12837575015092739 0 0.21332876944025281 -0.1383061699982939 0 0.20801658061820411 -0.1231501390478832 0 0.2225359133420553 -0.12837575015092739 0 0.21332876944025281 -0.1383061699982939 0 0.20801658061820411 -0.1231501390478832 0 0.21332876944025281 -0.1383061699982939 0 0.1990061789554857 -0.1341579687035335 0 0.21332876944025281 -0.1383061699982939 0 0.20411402318923141 -0.1477748308854667 0 0.1990061789554857 -0.1341579687035335 0 0.21332876944025281 -0.1383061699982939 0 0.21813121850054179 -0.15198749839900499 0 0.20411402318923141 -0.1477748308854667 0 0.21813121850054179 -0.15198749839900499 0 0.20411402318923141 -0.1477748308854667 0 0.2091047959714033 -0.16022922183871621 0 0.20411402318923141 -0.1477748308854667 0 0.18902586800178781 -0.14422410044399481 0 0.1990061789554857 -0.1341579687035335 0 0.20411402318923141 -0.1477748308854667 0 0.196087308265917 -0.15774402592925671 0 0.2091047959714033 -0.16022922183871621 0 0.20411402318923141 -0.1477748308854667 0 0.18902586800178781 -0.14422410044399481 0 0.196087308265917 -0.15774402592925671 0 0.18902586800178781 -0.14422410044399481 0 0.196087308265917 -0.15774402592925671 0 0.1849194570976064 -0.1579497596047906 0 0.18902586800178781 -0.14422410044399481 0 0.1990061789554857 -0.1341579687035335 0 0.18690088777785041 -0.13169298809281629 0 0.20801658061820411 -0.1231501390478832 0 0.19230394039212739 -0.1190040137305175 0 0.1990061789554857 -0.1341579687035335 0 0.19230394039212739 -0.1190040137305175 0 0.1990061789554857 -0.1341579687035335 0 0.18690088777785041 -0.13169298809281629 0 0.19947717539053569 -0.18596992250038319 0 0.18990218793477581 -0.17048346133235701 0 0.18385105217801731 -0.18561139683218569 0 0.19947717539053569 -0.18596992250038319 0 0.18990218793477581 -0.17048346133235701 0 0.2028251528999892 -0.17059051926084251 0 0.18990218793477581 -0.17048346133235701 0 0.196087308265917 -0.15774402592925671 0 0.1849194570976064 -0.1579497596047906 0 0.196087308265917 -0.15774402592925671 0 0.2028251528999892 -0.17059051926084251 0 0.2091047959714033 -0.16022922183871621 0 0.18990218793477581 -0.17048346133235701 0 0.196087308265917 -0.15774402592925671 0 0.2028251528999892 -0.17059051926084251 0 0.2028251528999892 -0.17059051926084251 0 0.2091047959714033 -0.16022922183871621 0 0.21425029966587689 -0.17040619026259651 0 0.21813121850054179 -0.15198749839900499 0 0.2091047959714033 -0.16022922183871621 0 0.2182448621791313 -0.16259331046090941 0 0.2091047959714033 -0.16022922183871621 0 0.2182448621791313 -0.16259331046090941 0 0.21425029966587689 -0.17040619026259651 0 0.21425029966587689 -0.17040619026259651 0 0.21226941986921269 -0.1810625799440638 0 0.22361473729946879 -0.1781149134234073 0 0.19947717539053569 -0.18596992250038319 0 0.2028251528999892 -0.17059051926084251 0 0.21226941986921269 -0.1810625799440638 0 0.2028251528999892 -0.17059051926084251 0 0.21425029966587689 -0.17040619026259651 0 0.21226941986921269 -0.1810625799440638 0 0.19947717539053569 -0.18596992250038319 0 0.21226941986921269 -0.1810625799440638 0 0.21240243776051199 -0.1916727753860096 0 0.21226941986921269 -0.1810625799440638 0 0.2212578730489688 -0.1888614350105631 0 0.21240243776051199 -0.1916727753860096 0 0.22361473729946879 -0.1781149134234073 0 0.22880917533686509 -0.1859602445359568 0 0.2212578730489688 -0.1888614350105631 0 0.21226941986921269 -0.1810625799440638 0 0.22361473729946879 -0.1781149134234073 0 0.2212578730489688 -0.1888614350105631 0 0.21425029966587689 -0.17040619026259651 0 0.22361473729946879 -0.1781149134234073 0 0.22561373428249901 -0.16794658525115741 0 0.22361473729946879 -0.1781149134234073 0 0.23045373284152851 -0.17404563013137689 0 0.22561373428249901 -0.16794658525115741 0 0.22361473729946879 -0.1781149134234073 0 0.23045373284152851 -0.17404563013137689 0 0.23346732389910821 -0.18001571083645751 0 0.23045373284152851 -0.17404563013137689 0 0.2346192801875791 -0.16958074084712679 0 0.23536841848986539 -0.1751026676649885 0 0.23045373284152851 -0.17404563013137689 0 0.23346732389910821 -0.18001571083645751 0 0.23536841848986539 -0.1751026676649885 0 0.22361473729946879 -0.1781149134234073 0 0.23346732389910821 -0.18001571083645751 0 0.22880917533686509 -0.1859602445359568 0 0.23346732389910821 -0.18001571083645751 0 0.22880917533686509 -0.1859602445359568 0 0.23644750965400521 -0.1878082281836109 0 0.2182448621791313 -0.16259331046090941 0 0.2257842085614781 -0.1589049495117798 0 0.22561373428249901 -0.16794658525115741 0 0.21813121850054179 -0.15198749839900499 0 0.2182448621791313 -0.16259331046090941 0 0.2257842085614781 -0.1589049495117798 0 0.2182448621791313 -0.16259331046090941 0 0.21425029966587689 -0.17040619026259651 0 0.22561373428249901 -0.16794658525115741 0 0.22561373428249901 -0.16794658525115741 0 0.23203269497871681 -0.16257989640547449 0 0.2346192801875791 -0.16958074084712679 0 0.23045373284152851 -0.17404563013137689 0 0.22561373428249901 -0.16794658525115741 0 0.2346192801875791 -0.16958074084712679 0 0.2257842085614781 -0.1589049495117798 0 0.22561373428249901 -0.16794658525115741 0 0.23203269497871681 -0.16257989640547449 0 0.2340135689188455 -0.15520440163206459 0 0.2257842085614781 -0.1589049495117798 0 0.23203269497871681 -0.16257989640547449 0 0.2340135689188455 -0.15520440163206459 0 0.23203269497871681 -0.16257989640547449 0 0.23935432925636371 -0.16317305589830761 0 0.24580873852321239 -0.15139799092491929 0 0.2340135689188455 -0.15520440163206459 0 0.23935432925636371 -0.16317305589830761 0 0.23935432925636371 -0.16317305589830761 0 0.2398355912407443 -0.1699996922189535 0 0.24413068339179531 -0.1685166429868013 0 0.23935432925636371 -0.16317305589830761 0 0.2346192801875791 -0.16958074084712679 0 0.2398355912407443 -0.1699996922189535 0 0.23203269497871681 -0.16257989640547449 0 0.23935432925636371 -0.16317305589830761 0 0.2346192801875791 -0.16958074084712679 0 0.2346192801875791 -0.16958074084712679 0 0.2398355912407443 -0.1699996922189535 0 0.23947196236381879 -0.17396879967433701 0 0.23935432925636371 -0.16317305589830761 0 0.24413068339179531 -0.1685166429868013 0 0.24827657619030499 -0.16329531176010531 0 0.24413068339179531 -0.1685166429868013 0 0.2429022544564835 -0.17272561178668969 0 0.24553772461356671 -0.1721258789287913 0 0.2398355912407443 -0.1699996922189535 0 0.24413068339179531 -0.1685166429868013 0 0.2429022544564835 -0.17272561178668969 0 0.24413068339179531 -0.1685166429868013 0 0.24887762459330839 -0.16978030732796051 0 0.24553772461356671 -0.1721258789287913 0 0.24413068339179531 -0.1685166429868013 0 0.24887762459330839 -0.16978030732796051 0 0.24827657619030499 -0.16329531176010531 0 0.25505816379881491 -0.15574787727149389 0 0.24580873852321239 -0.15139799092491929 0 0.24827657619030499 -0.16329531176010531 0 0.24580873852321239 -0.15139799092491929 0 0.23935432925636371 -0.16317305589830761 0 0.24827657619030499 -0.16329531176010531 0 0.23852670449137431 -0.1824320985573713 0 0.2426158349828248 -0.17987938399190589 0 0.2427620466801233 -0.1845862220753974 0 0.23852670449137431 -0.1824320985573713 0 0.2388297931572928 -0.17790245683564429 0 0.2426158349828248 -0.17987938399190589 0 0.23852670449137431 -0.1824320985573713 0 0.2427620466801233 -0.1845862220753974 0 0.23644750965400521 -0.1878082281836109 0 0.23346732389910821 -0.18001571083645751 0 0.23852670449137431 -0.1824320985573713 0 0.23644750965400521 -0.1878082281836109 0 0.23346732389910821 -0.18001571083645751 0 0.23852670449137431 -0.1824320985573713 0 0.2388297931572928 -0.17790245683564429 0 0.23346732389910821 -0.18001571083645751 0 0.23536841848986539 -0.1751026676649885 0 0.2388297931572928 -0.17790245683564429 0 0.23536841848986539 -0.1751026676649885 0 0.23947196236381879 -0.17396879967433701 0 0.2388297931572928 -0.17790245683564429 0 0.2346192801875791 -0.16958074084712679 0 0.23536841848986539 -0.1751026676649885 0 0.23947196236381879 -0.17396879967433701 0 0.2398355912407443 -0.1699996922189535 0 0.23947196236381879 -0.17396879967433701 0 0.2429022544564835 -0.17272561178668969 0 0.23947196236381879 -0.17396879967433701 0 0.24242861830812351 -0.17593256168321739 0 0.2429022544564835 -0.17272561178668969 0 0.23947196236381879 -0.17396879967433701 0 0.2388297931572928 -0.17790245683564429 0 0.24242861830812351 -0.17593256168321739 0 0.2388297931572928 -0.17790245683564429 0 0.24242861830812351 -0.17593256168321739 0 0.2426158349828248 -0.17987938399190589 0 0.24242861830812351 -0.17593256168321739 0 0.2454608018927206 -0.17695123780916461 0 0.2426158349828248 -0.17987938399190589 0 0.2454608018927206 -0.17695123780916461 0 0.2465031377955956 -0.1822102860530769 0 0.2426158349828248 -0.17987938399190589 0 0.24242861830812351 -0.17593256168321739 0 0.2429022544564835 -0.17272561178668969 0 0.24491315331098179 -0.17440963378015359 0 0.24242861830812351 -0.17593256168321739 0 0.2454608018927206 -0.17695123780916461 0 0.24491315331098179 -0.17440963378015359 0 0.2429022544564835 -0.17272561178668969 0 0.24491315331098179 -0.17440963378015359 0 0.24553772461356671 -0.1721258789287913 0 0.24887762459330839 -0.16978030732796051 0 0.24553772461356671 -0.1721258789287913 0 0.24860364772782129 -0.17552991977987151 0 0.2454608018927206 -0.17695123780916461 0 0.24491315331098179 -0.17440963378015359 0 0.24860364772782129 -0.17552991977987151 0 0.24491315331098179 -0.17440963378015359 0 0.24553772461356671 -0.1721258789287913 0 0.24860364772782129 -0.17552991977987151 0 0.2454608018927206 -0.17695123780916461 0 0.24860364772782129 -0.17552991977987151 0 0.2465031377955956 -0.1822102860530769 0 0.2454608018927206 -0.17695123780916461 0 0.24860364772782129 -0.17552991977987151 0 0.25148260257237132 -0.1893326623892739 0 0.24860364772782129 -0.17552991977987151 0 0.2465031377955956 -0.1822102860530769 0 0.2465031377955956 -0.1822102860530769 0 0.2426158349828248 -0.17987938399190589 0 0.2427620466801233 -0.1845862220753974 0 0.2465031377955956 -0.1822102860530769 0 0.2427620466801233 -0.1845862220753974 0 0.24600794887555399 -0.186679164828674 0 0.2427620466801233 -0.1845862220753974 0 0.24600794887555399 -0.186679164828674 0 0.24328400845412579 -0.1905874887969477 0 0.25148260257237132 -0.1893326623892739 0 0.2465031377955956 -0.1822102860530769 0 0.24600794887555399 -0.186679164828674 0 0.25148260257237132 -0.1893326623892739 0 0.24328400845412579 -0.1905874887969477 0 0.24268963472839261 -0.20343292269963939 0 0.25148260257237132 -0.1893326623892739 0 0.24600794887555399 -0.186679164828674 0 0.24328400845412579 -0.1905874887969477 0 0.2427620466801233 -0.1845862220753974 0 0.24328400845412579 -0.1905874887969477 0 0.23644750965400521 -0.1878082281836109 0 0.24328400845412579 -0.1905874887969477 0 0.23644750965400521 -0.1878082281836109 0 0.23672052152502551 -0.195523237285226 0 0.24328400845412579 -0.1905874887969477 0 0.23672052152502551 -0.195523237285226 0 0.24268963472839261 -0.20343292269963939 0 0.23672052152502551 -0.195523237285226 0 0.24268963472839261 -0.20343292269963939 0 0.231273793991539 -0.20192922319356391 0 0.25071913866524609 -0.2088259921999813 0 0.24268963472839261 -0.20343292269963939 0 0.24014694916641691 -0.21487500446011959 0 0.24268963472839261 -0.20343292269963939 0 0.24014694916641691 -0.21487500446011959 0 0.22349142216324569 -0.21499113264991079 0 0.25071913866524609 -0.2088259921999813 0 0.24014694916641691 -0.21487500446011959 0 0.24991292453773681 -0.2209327593510462 0 0.24268963472839261 -0.20343292269963939 0 0.22349142216324569 -0.21499113264991079 0 0.24268963472839261 -0.20343292269963939 0 0.22349142216324569 -0.21499113264991079 0 0.231273793991539 -0.20192922319356391 0 0.24014694916641691 -0.21487500446011959 0 0.22349142216324569 -0.21499113264991079 0 0.22349142216324569 -0.21499113264991079 0 0.22157999034247239 -0.20071753397181211 0 0.231273793991539 -0.20192922319356391 0 0.22157999034247239 -0.20071753397181211 0 0.2212578730489688 -0.1888614350105631 0 0.22990766079706509 -0.19385832355236809 0 0.22880917533686509 -0.1859602445359568 0 0.23644750965400521 -0.1878082281836109 0 0.22990766079706509 -0.19385832355236809 0 0.22880917533686509 -0.1859602445359568 0 0.2212578730489688 -0.1888614350105631 0 0.22990766079706509 -0.19385832355236809 0 0.23644750965400521 -0.1878082281836109 0 0.23672052152502551 -0.195523237285226 0 0.22990766079706509 -0.19385832355236809 0 0.23672052152502551 -0.195523237285226 0 0.22990766079706509 -0.19385832355236809 0 0.231273793991539 -0.20192922319356391 0 0.22157999034247239 -0.20071753397181211 0 0.22990766079706509 -0.19385832355236809 0 0.231273793991539 -0.20192922319356391 0 0.25130844721976531 -0.23249202155761681 0 0.2425869977773347 -0.2530110808549289 0 0.23611300862143469 -0.22932560238954899 0 0.2425869977773347 -0.2530110808549289 0 0.23611300862143469 -0.22932560238954899 0 0.2267389340957664 -0.2418178955646223 0 0.25130844721976531 -0.23249202155761681 0 0.23611300862143469 -0.22932560238954899 0 0.24991292453773681 -0.2209327593510462 0 0.24014694916641691 -0.21487500446011959 0 0.23611300862143469 -0.22932560238954899 0 0.24991292453773681 -0.2209327593510462 0 0.24014694916641691 -0.21487500446011959 0 0.22349142216324569 -0.21499113264991079 0 0.23611300862143469 -0.22932560238954899 0 0.22349142216324569 -0.21499113264991079 0 0.23611300862143469 -0.22932560238954899 0 0.22025625292974249 -0.23097685964495079 0 0.23611300862143469 -0.22932560238954899 0 0.22025625292974249 -0.23097685964495079 0 0.2267389340957664 -0.2418178955646223 0 0.22625439958297691 -0.25656269544022259 0 0.2267389340957664 -0.2418178955646223 0 0.2097396511237111 -0.24274520029346891 0 0.22025625292974249 -0.23097685964495079 0 0.2267389340957664 -0.2418178955646223 0 0.2097396511237111 -0.24274520029346891 0 0.22349142216324569 -0.21499113264991079 0 0.2051982486445548 -0.22600446732720331 0 0.22349142216324569 -0.21499113264991079 0 0.22025625292974249 -0.23097685964495079 0 0.2051982486445548 -0.22600446732720331 0 0.22025625292974249 -0.23097685964495079 0 0.2097396511237111 -0.24274520029346891 0 0.2051982486445548 -0.22600446732720331 0 0.2097396511237111 -0.24274520029346891 0 0.2051982486445548 -0.22600446732720331 0 0.19362850567749271 -0.23236121979251051 0 0.19362850567749271 -0.23236121979251051 0 0.1937284392785848 -0.21519865063025079 0 0.17897791021978951 -0.2284252563611264 0 0.2051982486445548 -0.22600446732720331 0 0.19362850567749271 -0.23236121979251051 0 0.1937284392785848 -0.21519865063025079 0 0.2097396511237111 -0.24274520029346891 0 0.19362850567749271 -0.23236121979251051 0 0.19479421355439899 -0.24532330472355049 0 0.19362850567749271 -0.23236121979251051 0 0.19479421355439899 -0.24532330472355049 0 0.18108999837583681 -0.24278436805804121 0 0.18993780220987239 -0.25497306796996289 0 0.19479421355439899 -0.24532330472355049 0 0.18108999837583681 -0.24278436805804121 0 0.200656609462492 -0.25555746859197959 0 0.2097396511237111 -0.24274520029346891 0 0.19479421355439899 -0.24532330472355049 0 0.19947717539053569 -0.18596992250038319 0 0.20742773015137031 -0.2017524055032256 0 0.21240243776051199 -0.1916727753860096 0 0.22157999034247239 -0.20071753397181211 0 0.2212578730489688 -0.1888614350105631 0 0.21240243776051199 -0.1916727753860096 0 0.22157999034247239 -0.20071753397181211 0 0.20742773015137031 -0.2017524055032256 0 0.21240243776051199 -0.1916727753860096 0 0.22349142216324569 -0.21499113264991079 0 0.22157999034247239 -0.20071753397181211 0 0.20742773015137031 -0.2017524055032256 0 0.22349142216324569 -0.21499113264991079 0 0.20742773015137031 -0.2017524055032256 0 0.1937284392785848 -0.21519865063025079 0 0.22349142216324569 -0.21499113264991079 0 0.2051982486445548 -0.22600446732720331 0 0.1937284392785848 -0.21519865063025079 0 0.22349142216324569 -0.21499113264991079 0 0.1937284392785848 -0.21519865063025079 0 0.1937284392785848 -0.21519865063025079 0 0.19352960038064629 -0.19983219310372269 0 0.17873338815061521 -0.1990152668170318 0 0.20742773015137031 -0.2017524055032256 0 0.1937284392785848 -0.21519865063025079 0 0.19352960038064629 -0.19983219310372269 0 0.19947717539053569 -0.18596992250038319 0 0.20742773015137031 -0.2017524055032256 0 0.19352960038064629 -0.19983219310372269 0 0.19947717539053569 -0.18596992250038319 0 0.19352960038064629 -0.19983219310372269 0 0.18385105217801731 -0.18561139683218569 0 0.19352960038064629 -0.19983219310372269 0 0.17873338815061521 -0.1990152668170318 0 0.18385105217801731 -0.18561139683218569 0 0.17873338815061521 -0.1990152668170318 0 0.18385105217801731 -0.18561139683218569 0 0.16731844536073831 -0.18493806316087849 0 0.1937284392785848 -0.21519865063025079 0 0.16396545639392379 -0.21540616861059059 0 0.1937284392785848 -0.21519865063025079 0 0.17873338815061521 -0.1990152668170318 0 0.16396545639392379 -0.21540616861059059 0 0.17873338815061521 -0.1990152668170318 0 0.16396545639392379 -0.21540616861059059 0 0.15853181387168669 -0.20138808479676529 0 0.16396545639392379 -0.21540616861059059 0 0.15853181387168669 -0.20138808479676529 0 0.15157030302364541 -0.21315588924546541 0 0.15853181387168669 -0.20138808479676529 0 0.14890410992385389 -0.1864185374503794 0 0.16731844536073831 -0.18493806316087849 0 0.17873338815061521 -0.1990152668170318 0 0.15853181387168669 -0.20138808479676529 0 0.16731844536073831 -0.18493806316087849 0 0.18108999837583681 -0.24278436805804121 0 0.17897791021978951 -0.2284252563611264 0 0.16043537309553171 -0.2324118736573979 0 0.19362850567749271 -0.23236121979251051 0 0.18108999837583681 -0.24278436805804121 0 0.17897791021978951 -0.2284252563611264 0 0.1937284392785848 -0.21519865063025079 0 0.16396545639392379 -0.21540616861059059 0 0.17897791021978951 -0.2284252563611264 0 0.16396545639392379 -0.21540616861059059 0 0.16043537309553171 -0.2324118736573979 0 0.14581296076521941 -0.22436109314424249 0 0.16396545639392379 -0.21540616861059059 0 0.17897791021978951 -0.2284252563611264 0 0.16043537309553171 -0.2324118736573979 0 0.17171055168490701 -0.25543532470283709 0 0.16043537309553171 -0.2324118736573979 0 0.15382594782826181 -0.2456638197013967 0 0.17171055168490701 -0.25543532470283709 0 0.18108999837583681 -0.24278436805804121 0 0.16043537309553171 -0.2324118736573979 0 0.17171055168490701 -0.25543532470283709 0 0.16043537309553171 -0.2324118736573979 0 0.14586321943159419 -0.25281070489990048 0 0.14326640903758939 -0.2423350284972916 0 0.15382594782826181 -0.2456638197013967 0 0.14326640903758939 -0.2423350284972916 0 0.15382594782826181 -0.2456638197013967 0 0.14957517560554151 -0.23509083052070109 0 0.16043537309553171 -0.2324118736573979 0 0.15382594782826181 -0.2456638197013967 0 0.14957517560554151 -0.23509083052070109 0 0.14326640903758939 -0.2423350284972916 0 0.14957517560554151 -0.23509083052070109 0 0.14255763635217811 -0.2329623946029733 0 0.14957517560554151 -0.23509083052070109 0 0.14255763635217811 -0.2329623946029733 0 0.14581296076521941 -0.22436109314424249 0 0.16043537309553171 -0.2324118736573979 0 0.14957517560554151 -0.23509083052070109 0 0.14581296076521941 -0.22436109314424249 0 0.14581296076521941 -0.22436109314424249 0 0.13058722452589869 -0.2312026547495564 0 0.13974566722487661 -0.20881059609996799 0 0.13058722452589869 -0.2312026547495564 0 0.13974566722487661 -0.20881059609996799 0 0.14255763635217811 -0.2329623946029733 0 0.14581296076521941 -0.22436109314424249 0 0.13058722452589869 -0.2312026547495564 0 0.13579275332020729 -0.25802606917693138 0 0.1248312630638693 -0.25185872287740718 0 0.12718437250906139 -0.2395225039249424 0 0.13579275332020729 -0.25802606917693138 0 0.14326640903758939 -0.2423350284972916 0 0.13058722452589869 -0.2312026547495564 0 0.13579275332020729 -0.25802606917693138 0 0.13058722452589869 -0.2312026547495564 0 0.12718437250906139 -0.2395225039249424 0 0.13579275332020729 -0.25802606917693138 0 0.13058722452589869 -0.2312026547495564 0 0.14326640903758939 -0.2423350284972916 0 0.14255763635217811 -0.2329623946029733 0 0.13058722452589869 -0.2312026547495564 0 0.1189971638902782 -0.23326468930093289 0 0.13058722452589869 -0.2312026547495564 0 0.12718437250906139 -0.2395225039249424 0 0.13058722452589869 -0.2312026547495564 0 0.12718437250906139 -0.2395225039249424 0 0.13974566722487661 -0.20881059609996799 0 0.13471011939963179 -0.19461486745552789 0 0.14890410992385389 -0.1864185374503794 0 0.13974566722487661 -0.20881059609996799 0 0.14890410992385389 -0.1864185374503794 0 0.15853181387168669 -0.20138808479676529 0 0.13974566722487661 -0.20881059609996799 0 0.14890410992385389 -0.1864185374503794 0 0.16396545639392379 -0.21540616861059059 0 0.14581296076521941 -0.22436109314424249 0 0.15157030302364541 -0.21315588924546541 0 0.15853181387168669 -0.20138808479676529 0 0.15157030302364541 -0.21315588924546541 0 0.13974566722487661 -0.20881059609996799 0 0.14581296076521941 -0.22436109314424249 0 0.15157030302364541 -0.21315588924546541 0 0.13974566722487661 -0.20881059609996799 0 0.13058722452589869 -0.2312026547495564 0 0.12559125031348151 -0.2054590478916673 0 0.13058722452589869 -0.2312026547495564 0 0.13974566722487661 -0.20881059609996799 0 0.12559125031348151 -0.2054590478916673 0 0.1205952761010651 -0.17971544103377821 0 0.12559125031348151 -0.2054590478916673 0 0.13471011939963179 -0.19461486745552789 0 0.13974566722487661 -0.20881059609996799 0 0.12559125031348151 -0.2054590478916673 0 0.13471011939963179 -0.19461486745552789 0 0.1205952761010651 -0.17971544103377821 0 0.14890410992385389 -0.1864185374503794 0 0.13831526705813191 -0.16436677917069459 0 0.1205952761010651 -0.17971544103377821 0 0.13471011939963179 -0.19461486745552789 0 0.14890410992385389 -0.1864185374503794 0 0.14890410992385389 -0.1864185374503794 0 0.15806255262283131 -0.1640264788007908 0 0.13831526705813191 -0.16436677917069459 0 0.1493360391655458 -0.15323560870747799 0 0.15806255262283131 -0.1640264788007908 0 0.14890410992385389 -0.1864185374503794 0 0.13831526705813191 -0.16436677917069459 0 0.15806255262283131 -0.1640264788007908 0 0.13831526705813191 -0.16436677917069459 0 0.1390919372741333 -0.15368590146124189 0 0.1493360391655458 -0.15323560870747799 0 0.13831526705813191 -0.16436677917069459 0 0.1291580076185154 -0.15190862650104869 0 0.1390919372741333 -0.15368590146124189 0 0.1205952761010651 -0.17971544103377821 0 0.13831526705813191 -0.16436677917069459 0 0.12591696316659029 -0.1624906702203526 0 0.13831526705813191 -0.16436677917069459 0 0.12591696316659029 -0.1624906702203526 0 0.1291580076185154 -0.15190862650104869 0 0.1291580076185154 -0.15190862650104869 0 0.12502682387673331 -0.14148298094118911 0 0.14044157931751239 -0.14375047992813481 0 0.1291580076185154 -0.15190862650104869 0 0.14044157931751239 -0.14375047992813481 0 0.1390919372741333 -0.15368590146124189 0 0.12502682387673331 -0.14148298094118911 0 0.14044157931751239 -0.14375047992813481 0 0.12907740542747331 -0.1295625291261383 0 0.14044157931751239 -0.14375047992813481 0 0.12907740542747331 -0.1295625291261383 0 0.1407751965703094 -0.13061285813672649 0 0.1353253269056639 -0.1189354891747306 0 0.12907740542747331 -0.1295625291261383 0 0.1407751965703094 -0.13061285813672649 0 0.1407751965703094 -0.13061285813672649 0 0.1464973314016132 -0.13657585301362191 0 0.15264513183704451 -0.12768127149877009 0 0.14667408107618121 -0.1203417034652623 0 0.1407751965703094 -0.13061285813672649 0 0.15264513183704451 -0.12768127149877009 0 0.14044157931751239 -0.14375047992813481 0 0.1464973314016132 -0.13657585301362191 0 0.15371008163108679 -0.14115855312816111 0 0.14044157931751239 -0.14375047992813481 0 0.1407751965703094 -0.13061285813672649 0 0.1464973314016132 -0.13657585301362191 0 0.15264513183704451 -0.12768127149877009 0 0.15371008163108679 -0.14115855312816111 0 0.1616500134161791 -0.12977646666149911 0 0.1464973314016132 -0.13657585301362191 0 0.15264513183704451 -0.12768127149877009 0 0.15371008163108679 -0.14115855312816111 0 0.14044157931751239 -0.14375047992813481 0 0.1390919372741333 -0.15368590146124189 0 0.1493360391655458 -0.15323560870747799 0 0.14044157931751239 -0.14375047992813481 0 0.15371008163108679 -0.14115855312816111 0 0.1493360391655458 -0.15323560870747799 0 0.15371008163108679 -0.14115855312816111 0 0.1493360391655458 -0.15323560870747799 0 0.16722099532180859 -0.14163442015120209 0 0.16722099532180859 -0.14163442015120209 0 0.15806255262283131 -0.1640264788007908 0 0.16722099532180859 -0.14163442015120209 0 0.17478605892696361 -0.14746144351164789 0 0.15806255262283131 -0.1640264788007908 0 0.1493360391655458 -0.15323560870747799 0 0.16722099532180859 -0.14163442015120209 0 0.15806255262283131 -0.1640264788007908 0 0.17374436243650171 -0.1217542727551779 0 0.16722099532180859 -0.14163442015120209 0 0.1616500134161791 -0.12977646666149911 0 0.15371008163108679 -0.14115855312816111 0 0.16722099532180859 -0.14163442015120209 0 0.1616500134161791 -0.12977646666149911 0 0.17374436243650171 -0.1217542727551779 0 0.16722099532180859 -0.14163442015120209 0 0.17478605892696361 -0.14746144351164789 0 0.17374436243650171 -0.1217542727551779 0 0.18111429428577591 -0.1362832012009092 0 0.17478605892696361 -0.14746144351164789 0 0.17374436243650171 -0.1217542727551779 0 0.17478605892696361 -0.14746144351164789 0 0.18902586800178781 -0.14422410044399481 0 0.18111429428577591 -0.1362832012009092 0 0.18690088777785041 -0.13169298809281629 0 0.17374436243650171 -0.1217542727551779 0 0.18111429428577591 -0.1362832012009092 0 0.18690088777785041 -0.13169298809281629 0 0.18902586800178781 -0.14422410044399481 0 0.18111429428577591 -0.1362832012009092 0 0.17478605892696361 -0.14746144351164789 0 0.18902586800178781 -0.14422410044399481 0 0.17478605892696361 -0.14746144351164789 0 0.1849194570976064 -0.1579497596047906 0 0.17478605892696361 -0.14746144351164789 0 0.1758277554174256 -0.173168614268118 0 0.17478605892696361 -0.14746144351164789 0 0.1849194570976064 -0.1579497596047906 0 0.1758277554174256 -0.173168614268118 0 0.18990218793477581 -0.17048346133235701 0 0.1849194570976064 -0.1579497596047906 0 0.1758277554174256 -0.173168614268118 0 0.18990218793477581 -0.17048346133235701 0 0.18385105217801731 -0.18561139683218569 0 0.1758277554174256 -0.173168614268118 0 0.18385105217801731 -0.18561139683218569 0 0.1758277554174256 -0.173168614268118 0 0.16731844536073831 -0.18493806316087849 0 0.14890410992385389 -0.1864185374503794 0 0.16731844536073831 -0.18493806316087849 0 0.15806255262283131 -0.1640264788007908 0 0.1758277554174256 -0.173168614268118 0 0.16731844536073831 -0.18493806316087849 0 0.15806255262283131 -0.1640264788007908 0 0.17478605892696361 -0.14746144351164789 0 0.1758277554174256 -0.173168614268118 0 0.15806255262283131 -0.1640264788007908 0 
</DataArray>
</Points>
<Cells>
<DataArray type="UInt32" Name="connectivity" format="ascii">
0 1 2 3 4 5 6 7 8 9 10 11 12 13 14 15 16 17 18 19 20 21 22 23 24 25 26 27 28 29 30 31 32 33 34 35 36 37 38 39 40 41 42 43 44 45 46 47 48 49 50 51 52 53 54 55 56 57 58 59 60 61 62 63 64 65 66 67 68 69 70 71 72 73 74 75 76 77 78 79 80 81 82 83 84 85 86 87 88 89 90 91 92 93 94 95 96 97 98 99 100 101 102 103 104 105 106 107 108 109 110 111 112 113 114 115 116 117 118 119 120 121 122 123 124 125 126 127 128 129 130 131 132 133 134 135 136 137 138 139 140 141 142 143 144 145 146 147 148 149 150 151 152 153 154 155 156 157 158 159 160 161 162 163 164 165 166 167 168 169 170 171 172 173 174 175 176 177 178 179 180 181 182 183 184 185 186 187 188 189 190 191 192 193 194 195 196 197 198 199 200 201 202 203 204 205 206 207 208 209 210 211 212 213 214 215 216 217 218 219 220 221 222 223 224 225 226 227 228 229 230 231 232 233 234 235 236 237 238 239 240 241 242 243 244 245 246 247 248 249 250 251 252 253 254 255 256 257 258 259 260 261 262 263 264 265 266 267 268 269 270 271 272 273 274 275 276 277 278 279 280 281 282 283 284 285 286 287 288 289 290 291 292 293 294 295 296 297 298 299 300 301 302 303 304 305 306 307 308 309 310 311 312 313 314 315 316 317 318 319 320 321 322 323 324 325 326 327 328 329 330 331 332 333 334 335 336 337 338 339 340 341 342 343 344 345 346 347 348 349 350 351 352 353 354 355 356 357 358 359 360 361 362 363 364 365 366 367 368 369 370 371 372 373 374 375 376 377 378 379 380 381 382 383 384 385 386 387 388 389 390 391 392 393 394 395 396 397 398 399 400 401 402 403 404 405 406 407 408 409 410 411 412 413 414 415 416 417 418 419 420 421 422 423 424 425 426 427 428 429 430 431 432 433 434 435 436 437 438 439 440 441 442 443 444 445 446 447 448 449 450 451 452 453 454 455 456 457 458 459 460 461 462 463 464 465 466 467 468 469 470 471 472 473 474 475 476 477 478 479 480 481 482 483 484 485 486 487 488 489 490 491 492 493 494 495 496 497 498 499 500 501 502 503 504 505 506 507 508 509 510 511 512 513 514 515 516 517 518 519 520 521 522 523 524 525 526 527 528 529 530 531 532 533 534 535 536 537 538 539 540 541 542 543 544 545 546 547 548 549 550 551 552 553 554 555 556 557 558 559 560 561 562 563 564 565 566 567 568 569 570 571 572 573 574 575 576 577 578 579 580 581 582 583 584 585 586 587 588 589 590 591 592 593 594 595 596 597 598 599 600 601 602 603 604 605 606 607 608 609 610 611 612 613 614 615 616 617 618 619 620 621 622 623 624 625 626 627 628 629 630 631 632 633 634 635 636 637 638 639 640 641 642 643 644 645 646 647 648 649 650 651 652 653 654 655 656 657 658 659 660 661 662 663 664 665 666 667 668 669 670 671 672 673 674 675 676 677 678 679 680 681 682 683 684 685 686 687 688 689 690 691 692 693 694 695 696 697 698 699 700 701 702 703 704 705 706 707 708 709 710 711 712 713 714 715 716 717 718 719 720 721 722 723 724 725 726 727 728 729 730 731 732 733 734 735 736 737 738 739 740 741 742 743 744 745 746 747 748 749 750 751 752 753 754 755 756 757 758 759 760 761 762 763 764 765 766 767 768 769 770 771 772 773 774 775 776 777 778 779 780 781 782 783 784 785 786 787 788 789 790 791 792 793 794 795 796 797 798 799 800 801 802 803 804 805 806 807 808 809 810 811 812 813 814 815 816 817 818 819 820 821 822 823 824 825 826 827 828 829 830 831 832 833 834 835 836 837 838 839 840 841 842 843 844 845 846 847 848 849 850 851 852 853 854 855 856 857 858 859 860 861 862 863 864 865 866 867 868 869 870 871 872 873 874 875 876 877 878 879 880 881 882 883 884 885 886 887 888 889 890 891 892 893 894 895 896 897 898 899 900 901 902 903 904 905 906 907 908 909 910 911 912 913 914 915 916 917 918 919 920 921 922 923 924 925 926 927 928 929 930 931 932 933 934 935 936 937 938 939 940 941 942 943 944 945 946 947 948 949 950 951 952 953 954 955 956 957 958 959 960 961 962 963 964 965 966 967 968 969 970 971 972 973 974 975 976 977 978 979 980 981 982 983 984 985 986 987 988 989 990 991 992 993 994 995 996 997 998 999 1000 1001 1002 1003 1004 1005 1006 1007 1008 1009 1010 1011 1012 1013 1014 1015 1016 1017 1018 1019 1020 1021 1022 1023 1024 1025 1026 1027 1028 1029 1030 1031 1032 1033 1034 1035 1036 1037 1038 1039 1040 1041 1042 1043 1044 1045 1046 1047 1048 1049 1050 1051 1052 1053 1054 1055 1056 1057 1058 1059 1060 1061 1062 1063 1064 1065 1066 1067 1068 1069 1070 1071 1072 1073 1074 1075 1076 1077 1078 1079 1080 1081 1082 1083 1084 1085 1086 1087 1088 1089 1090 1091 1092 1093 1094 1095 1096 1097 1098 1099 1100 1101 1102 1103 1104 1105 1106 1107 1108 1109 1110 1111 1112 1113 1114 1115 1116 1117 1118 1119 1120 1121 1122 1123 1124 1125 1126 1127 1128 1129 1130 1131 1132 1133 1134 1135 1136 1137 1138 1139 1140 1141 1142 1143 1144 1145 1146 1147 1148 1149 1150 1151 1152 1153 1154 1155 1156 1157 1158 1159 1160 1161 1162 1163 1164 1165 1166 1167 1168 1169 1170 1171 1172 1173 1174 1175 1176 1177 1178 1179 1180 1181 1182 1183 1184 1185 1186 1187 1188 1189 1190 1191 1192 1193 1194 1195 1196 1197 1198 1199 1200 1201 1202 1203 1204 1205 1206 1207 1208 1209 1210 1211 1212 1213 1214 1215 1216 1217 1218 1219 1220 1221 1222 1223 1224 1225 1226 1227 1228 1229 1230 1231 1232 1233 1234 1235 1236 1237 1238 1239 1240 1241 1242 1243 1244 1245 1246 1247 1248 1249 1250 1251 1252 1253 1254 1255 1256 1257 1258 1259 1260 1261 1262 1263 1264 1265 1266 1267 1268 1269 1270 1271 1272 1273 1274 1275 1276 1277 1278 1279 1280 1281 1282 1283 1284 1285 1286 1287 1288 1289 1290 1291 1292 1293 1294 1295 1296 1297 1298 1299 1300 1301 1302 1303 1304 1305 1306 1307 1308 1309 1310 1311 1312 1313 1314 1315 1316 1317 1318 1319 1320 1321 1322 1323 1324 1325 1326 1327 1328 1329 1330 1331 1332 1333 1334 1335 1336 1337 1338 1339 1340 1341 1342 1343 1344 1345 1346 1347 1348 1349 1350 1351 1352 1353 1354 1355 1356 1357 1358 1359 1360 1361 1362 1363 1364 1365 1366 1367 1368 1369 1370 1371 1372 1373 1374 1375 1376 1377 1378 1379 1380 1381 1382 1383 1384 1385 1386 1387 1388 1389 1390 1391 1392 1393 1394 1395 1396 1397 1398 1399 1400 1401 1402 1403 1404 1405 1406 1407 1408 1409 1410 1411 1412 1413 1414 1415 1416 1417 1418 1419 1420 1421 1422 1423 1424 1425 1426 1427 1428 1429 1430 1431 1432 1433 1434 1435 1436 1437 1438 1439 1440 1441 1442 1443 1444 1445 1446 1447 1448 1449 1450 1451 1452 1453 1454 1455 1456 1457 1458 1459 1460 1461 1462 1463 1464 1465 1466 1467 1468 1469 1470 1471 1472 1473 1474 1475 1476 1477 1478 1479 1480 1481 1482 1483 1484 1485 1486 1487 1488 1489 1490 1491 1492 1493 1494 1495 1496 1497 1498 1499 1500 1501 1502 1503 1504 1505 1506 1507 1508 1509 1510 1511 1512 1513 1514 1515 1516 1517 1518 1519 1520 1521 1522 1523 1524 1525 1526 1527 1528 1529 1530 1531 1532 1533 1534 1535 1536 1537 1538 1539 1540 1541 1542 1543 1544 1545 1546 1547 1548 1549 1550 1551 1552 1553 1554 1555 1556 1557 1558 1559 1560 1561 1562 1563 1564 1565 1566 1567 1568 1569 1570 1571 1572 1573 1574 1575 1576 1577 1578 1579 1580 1581 1582 1583 1584 1585 1586 1587 1588 1589 1590 1591 1592 1593 1594 1595 1596 1597 1598 1599 1600 1601 1602 1603 1604 1605 1606 1607 1608 1609 1610 1611 1612 1613 1614 1615 1616 1617 1618 1619 1620 1621 1622 1623 1624 1625 1626 1627 1628 1629 1630 1631 1632 1633 1634 1635 1636 1637 1638 1639 1640 1641 1642 1643 1644 1645 1646 1647 1648 1649 1650 1651 1652 1653 1654 1655 1656 1657 1658 1659 1660 1661 1662 1663 1664 1665 1666 1667 1668 1669 1670 1671 1672 1673 1674 1675 1676 1677 1678 1679 1680 1681 1682 1683 1684 1685 1686 1687 1688 1689 1690 1691 1692 1693 1694 1695 1696 1697 1698 1699 1700 1701 1702 1703 1704 1705 1706 1707 1708 1709 1710 1711 1712 1713 1714 1715 1716 1717 1718 1719 1720 1721 1722 1723 1724 1725 1726 1727 1728 1729 1730 1731 1732 1733 1734 1735 1736 1737 1738 1739 1740 1741 1742 1743 1744 1745 1746 1747 1748 1749 1750 1751 1752 1753 1754 1755 1756 1757 1758 1759 1760 1761 1762 1763 1764 1765 1766 1767 1768 1769 1770 1771 1772 1773 1774 1775 1776 1777 1778 1779 1780 1781 1782 1783 1784 1785 1786 1787 1788 1789 1790 1791 1792 1793 1794 1795 1796 1797 1798 1799 1800 1801 1802 1803 1804 1805 1806 1807 1808 1809 1810 1811 1812 1813 1814 1815 1816 1817 1818 1819 1820 1821 1822 1823 1824 1825 1826 1827 1828 1829 1830 1831 1832 1833 1834 1835 1836 1837 1838 1839 1840 1841 1842 1843 1844 1845 1846 1847 1848 1849 1850 1851 1852 1853 1854 1855 1856 1857 1858 1859 1860 1861 1862 1863 1864 1865 1866 1867 1868 1869 1870 1871 1872 1873 1874 1875 1876 1877 1878 1879 1880 1881 1882 1883 1884 1885 1886 1887 1888 1889 1890 1891 1892 1893 1894 1895 1896 1897 1898 1899 1900 1901 1902 1903 1904 1905 1906 1907 1908 1909 1910 1911 1912 1913 1914 1915 1916 1917 1918 1919 1920 1921 1922 1923 1924 1925 1926 1927 1928 1929 1930 1931 1932 1933 1934 1935 1936 1937 1938 1939 1940 1941 1942 1943 1944 1945 1946 1947 1948 1949 1950 1951 1952 1953 1954 1955 1956 1957 1958 1959 1960 1961 1962 1963 1964 1965 1966 1967 1968 1969 1970 1971 1972 1973 1974 1975 1976 1977 1978 1979 1980 1981 1982 1983 1984 1985 1986 1987 1988 1989 1990 1991 1992 1993 1994 1995 1996 1997 1998 1999 2000 2001 2002 2003 2004 2005 2006 2007 2008 2009 2010 2011 2012 2013 2014 2015 2016 2017 2018 2019 2020 2021 2022 2023 2024 2025 2026 2027 2028 2029 2030 2031 2032 2033 2034 2035 2036 2037 2038 2039 2040 2041 2042 2043 2044 2045 2046 2047 2048 2049 2050 2051 2052 2053 2054 2055 2056 2057 2058 2059 2060 2061 2062 2063 2064 2065 2066 2067 2068 2069 2070 2071 2072 2073 2074 2075 2076 2077 2078 2079 2080 2081 2082 2083 2084 2085 2086 2087 2088 2089 2090 2091 2092 2093 2094 2095 2096 2097 2098 2099 2100 2101 2102 2103 2104 2105 2106 2107 2108 2109 2110 2111 2112 2113 2114 2115 2116 2117 2118 2119 2120 2121 2122 2123 2124 2125 2126 2127 2128 2129 2130 2131 2132 2133 2134 2135 2136 2137 2138 2139 2140 2141 2142 2143 2144 2145 2146 2147 2148 2149 2150 2151 2152 2153 2154 2155 2156 2157 2158 2159 2160 2161 2162 2163 2164 2165 2166 2167 2168 2169 2170 2171 2172 2173 2174 2175 2176 2177 2178 2179 2180 2181 2182 2183 2184 2185 2186 2187 2188 2189 2190 2191 2192 2193 2194 2195 2196 2197 2198 2199 2200 2201 2202 2203 2204 2205 2206 2207 2208 2209 2210 2211 2212 2213 2214 2215 2216 2217 2218 2219 2220 2221 2222 2223 2224 2225 2226 2227 2228 2229 2230 2231 2232 2233 2234 2235 2236 2237 2238 2239 2240 2241 2242 2243 2244 2245 2246 2247 2248 2249 2250 2251 2252 2253 2254 2255 2256 2257 2258 2259 2260 2261 2262 2263 2264 2265 2266 2267 2268 2269 2270 2271 2272 2273 2274 2275 2276 2277 2278 2279 2280 2281 2282 2283 2284 2285 2286 2287 2288 2289 2290 2291 2292 2293 2294 2295 2296 2297 2298 2299 2300 2301 2302 2303 2304 2305 2306 2307 2308 2309 2310 2311 2312 2313 2314 2315 2316 2317 2318 2319 2320 2321 2322 2323 2324 2325 2326 2327 2328 2329 2330 2331 2332 2333 2334 2335 2336 2337 2338 2339 2340 2341 2342 2343 2344 2345 2346 2347 2348 2349 2350 2351 2352 2353 2354 2355 2356 2357 2358 2359 2360 2361 2362 2363 2364 2365 2366 2367 2368 2369 2370 2371 2372 2373 2374 2375 2376 2377 2378 2379 2380 2381 2382 2383 2384 2385 2386 2387 2388 2389 2390 2391 2392 2393 2394 2395 2396 2397 2398 2399 2400 2401 2402 2403 2404 2405 2406 2407 2408 2409 2410 2411 2412 2413 2414 2415 2416 2417 2418 2419 2420 2421 2422 2423 2424 2425 2426 2427 2428 2429 2430 2431 2432 2433 2434 2435 2436 2437 2438 2439 2440 2441 2442 2443 2444 2445 2446 2447 2448 2449 2450 2451 2452 2453 2454 2455 2456 2457 2458 2459 2460 2461 2462 2463 2464 2465 2466 2467 2468 2469 2470 2471 2472 2473 2474 2475 2476 2477 2478 2479 2480 2481 2482 2483 2484 2485 2486 2487 2488 2489 2490 2491 2492 2493 2494 2495 2496 2497 2498 2499 2500 2501 2502 2503 2504 2505 2506 2507 2508 2509 2510 2511 2512 2513 2514 2515 2516 2517 2518 2519 2520 2521 2522 2523 2524 2525 2526 2527 2528 2529 2530 2531 2532 2533 2534 2535 2536 2537 2538 2539 2540 2541 2542 2543 2544 2545 2546 2547 2548 2549 2550 2551 2552 2553 2554 2555 2556 2557 2558 2559 2560 2561 2562 2563 2564 2565 2566 2567 2568 2569 2570 2571 2572 2573 2574 2575 2576 2577 2578 2579 2580 2581 2582 2583 2584 2585 2586 2587 2588 2589 2590 2591 2592 2593 2594 2595 2596 2597 2598 2599 2600 2601 2602 2603 2604 2605 2606 2607 2608 2609 2610 2611 2612 2613 2614 2615 2616 2617 2618 2619 2620 2621 2622 2623 2624 2625 2626 2627 2628 2629 2630 2631 2632 2633 2634 2635 2636 2637 2638 2639 2640 2641 2642 2643 2644 2645 2646 2647 2648 2649 2650 2651 2652 2653 2654 2655 2656 2657 2658 2659 2660 2661 2662 2663 2664 2665 2666 2667 2668 2669 2670 2671 2672 2673 2674 2675 2676 2677 2678 2679 2680 2681 2682 2683 2684 2685 2686 2687 2688 2689 2690 2691 2692 2693 2694 2695 2696 2697 2698 2699 2700 2701 2702 2703 2704 2705 2706 2707 2708 2709 2710 2711 2712 2713 2714 2715 2716 2717 2718 2719 2720 2721 2722 2723 2724 2725 2726 2727 2728 2729 2730 2731 2732 2733 2734 2735 2736 2737 2738 2739 2740 2741 2742 2743 2744 2745 2746 2747 2748 2749 2750 2751 2752 2753 2754 2755 2756 2757 2758 2759 2760 2761 2762 2763 2764 2765 2766 2767 2768 2769 2770 2771 2772 2773 2774 2775 2776 2777 2778 2779 2780 2781 2782 2783 2784 2785 2786 2787 2788 2789 2790 2791 2792 2793 2794 2795 2796 2797 2798 2799 2800 2801 2802 2803 2804 2805 2806 2807 2808 2809 2810 2811 2812 2813 2814 2815 2816 2817 2818 2819 2820 2821 2822 2823 2824 2825 2826 2827 2828 2829 2830 2831 2832 2833 2834 2835 2836 2837 2838 2839 2840 2841 2842 2843 2844 2845 2846 2847 2848 2849 2850 2851 2852 2853 2854 2855 2856 2857 2858 2859 2860 2861 2862 2863 2864 2865 2866 2867 2868 2869 2870 2871 2872 2873 2874 2875 2876 2877 2878 2879 2880 2881 2882 2883 2884 2885 2886 2887 2888 2889 2890 2891 2892 2893 2894 2895 2896 2897 2898 2899 2900 2901 2902 2903 2904 2905 2906 2907 2908 2909 2910 2911 2912 2913 2914 2915 2916 2917 2918 2919 2920 2921 2922 2923 2924 2925 2926 2927 2928 2929 2930 2931 2932 2933 2934 2935 2936 2937 2938 2939 2940 2941 2942 2943 2944 2945 2946 2947 2948 2949 2950 2951 2952 2953 2954 2955 2956 2957 2958 2959 2960 2961 2962 2963 2964 2965 2966 2967 2968 2969 2970 2971 2972 2973 2974 2975 2976 2977 2978 2979 2980 2981 2982 2983 2984 2985 2986 2987 2988 2989 2990 2991 2992 2993 2994 2995 2996 2997 2998 2999 3000 3001 3002 3003 3004 3005 3006 3007 3008 3009 3010 3011 3012 3013 3014 3015 3016 3017 3018 3019 3020 3021 3022 3023 3024 3025 3026 3027 3028 3029 3030 3031 3032 3033 3034 3035 3036 3037 3038 3039 3040 3041 3042 3043 3044 3045 3046 3047 3048 3049 3050 3051 3052 3053 3054 3055 3056 3057 3058 3059 3060 3061 3062 3063 3064 3065 3066 3067 3068 3069 3070 3071 3072 3073 3074 3075 3076 3077 3078 3079 3080 3081 3082 3083 3084 3085 3086 3087 3088 3089 3090 3091 3092 3093 3094 3095 3096 3097 3098 3099 3100 3101 3102 3103 3104 3105 3106 3107 3108 3109 3110 3111 3112 3113 3114 3115 3116 3117 3118 3119 3120 3121 3122 3123 3124 3125 3126 3127 3128 3129 3130 3131 3132 3133 3134 3135 3136 3137 3138 3139 3140 3141 3142 3143 3144 3145 3146 3147 3148 3149 3150 3151 3152 3153 3154 3155 3156 3157 3158 3159 3160 3161 3162 3163 3164 3165 3166 3167 3168 3169 3170 3171 3172 3173 3174 3175 3176 3177 3178 3179 3180 3181 3182 3183 3184 3185 3186 3187 3188 3189 3190 3191 3192 3193 3194 3195 3196 3197 3198 3199 3200 3201 3202 3203 3204 3205 3206 3207 3208 3209 3210 3211 3212 3213 3214 3215 3216 3217 3218 3219 3220 3221 3222 3223 3224 3225 3226 3227 3228 3229 3230 3231 3232 3233 3234 3235 3236 3237 3238 3239 3240 3241 3242 3243 3244 3245 3246 3247 3248 3249 3250 3251 3252 3253 3254 3255 3256 3257 3258 3259 3260 3261 3262 3263 3264 3265 3266 3267 3268 3269 3270 3271 3272 3273 3274 3275 3276 3277 3278 3279 3280 3281 3282 3283 3284 3285 3286 3287 3288 3289 3290 3291 3292 3293 3294 3295 3296 3297 3298 3299 3300 3301 3302 3303 3304 3305 3306 3307 3308 3309 3310 3311 3312 3313 3314 3315 3316 3317 3318 3319 3320 3321 3322 3323 3324 3325 3326 3327 3328 3329 3330 3331 3332 3333 3334 3335 3336 3337 3338 3339 3340 3341 3342 3343 3344 3345 3346 3347 3348 3349 3350 3351 3352 3353 3354 3355 3356 3357 3358 3359 3360 3361 3362 3363 3364 3365 3366 3367 3368 3369 3370 3371 3372 3373 3374 3375 3376 3377 3378 3379 3380 3381 3382 3383 3384 3385 3386 3387 3388 3389 3390 3391 3392 3393 3394 3395 3396 3397 3398 3399 3400 3401 3402 3403 3404 3405 3406 3407 3408 3409 3410 3411 3412 3413 3414 3415 3416 3417 3418 3419 3420 3421 3422 3423 3424 3425 3426 3427 3428 3429 3430 3431 3432 3433 3434 3435 3436 3437 3438 3439 3440 3441 3442 3443 3444 3445 3446 3447 3448 3449 3450 3451 3452 3453 3454 3455 3456 3457 3458 3459 3460 3461 3462 3463 3464 3465 3466 3467 3468 3469 3470 3471 3472 3473 3474 3475 3476 3477 3478 3479 3480 3481 3482 3483 3484 3485 3486 3487 3488 3489 3490 3491 3492 3493 3494 3495 3496 3497 3498 3499 3500 3501 3502 3503 3504 3505 3506 3507 3508 3509 3510 3511 3512 3513 3514 3515 3516 3517 3518 3519 3520 3521 3522 3523 3524 3525 3526 3527 3528 3529 3530 3531 3532 3533 3534 3535 3536 3537 3538 3539 3540 3541 3542 3543 3544 3545 3546 3547 3548 3549 3550 3551 3552 3553 3554 3555 3556 3557 3558 3559 3560 3561 3562 3563 3564 3565 3566 3567 3568 3569 3570 3571 3572 3573 3574 3575 3576 3577 3578 3579 3580 3581 3582 3583 3584 3585 3586 3587 3588 3589 3590 3591 3592 3593 3594 3595 3596 3597 3598 3599 3600 3601 3602 3603 3604 3605 3606 3607 3608 3609 3610 3611 3612 3613 3614 3615 3616 3617 3618 3619 3620 3621 3622 3623 3624 3625 3626 3627 3628 3629 3630 3631 3632 3633 3634 3635 3636 3637 3638 3639 3640 3641 3642 3643 3644 3645 3646 3647 3648 3649 3650 3651 3652 3653 3654 3655 3656 3657 3658 3659 3660 3661 3662 3663 3664 3665 3666 3667 3668 3669 3670 3671 3672 3673 3674 3675 3676 3677 3678 3679 3680 3681 3682 3683 3684 3685 3686 3687 3688 3689 3690 3691 3692 3693 3694 3695 3696 3697 3698 3699 3700 3701 3702 3703 3704 3705 3706 3707 3708 3709 3710 3711 3712 3713 3714 3715 3716 3717 3718 3719 3720 3721 3722 3723 3724 3725 3726 3727 3728 3729 3730 3731 3732 3733 3734 3735 3736 3737 3738 3739 3740 3741 3742 3743 3744 3745 3746 3747 3748 3749 3750 3751 3752 3753 3754 3755 3756 3757 3758 3759 3760 3761 3762 3763 3764 3765 3766 3767 3768 3769 3770 3771 3772 3773 3774 3775 3776 3777 3778 3779 3780 3781 3782 3783 3784 3785 3786 3787 3788 3789 3790 3791 3792 3793 3794 3795 3796 3797 3798 3799 3800 3801 3802 3803 3804 3805 3806 3807 3808 3809 3810 3811 3812 3813 3814 3815 3816 3817 3818 3819 3820 3821 3822 3823 3824 3825 3826 3827 3828 3829 3830 3831 3832 3833 3834 3835 3836 3837 3838 3839 3840 3841 3842 3843 3844 3845 3846 3847 3848 3849 3850 3851 3852 3853 3854 3855 3856 3857 3858 3859 3860 3861 3862 3863 3864 3865 3866 3867 3868 3869 3870 3871 3872 3873 3874 3875 3876 3877 3878 3879 3880 3881 3882 3883 3884 3885 3886 3887 3888 3889 3890 3891 3892 3893 3894 3895 3896 3897 3898 3899 3900 3901 3902 3903 3904 3905 3906 3907 3908 3909 3910 3911 3912 3913 3914 3915 3916 3917 3918 3919 3920 3921 3922 3923 3924 3925 3926 3927 3928 3929 3930 3931 3932 3933 3934 3935 3936 3937 3938 3939 3940 3941 3942 3943 3944 3945 3946 3947 3948 3949 3950 3951 3952 3953 3954 3955 3956 3957 3958 3959 3960 3961 3962 3963 3964 3965 3966 3967 3968 3969 3970 3971 3972 3973 3974 3975 3976 3977 3978 3979 3980 3981 3982 3983 3984 3985 3986 3987 3988 3989 3990 3991 3992 3993 3994 3995 3996 3997 3998 3999 4000 4001 4002 4003 4004 4005 4006 4007 4008 4009 4010 4011 4012 4013 4014 4015 4016 4017 4018 4019 4020 4021 4022 4023 4024 4025 4026 4027 4028 4029 4030 4031 4032 4033 4034 4035 4036 4037 4038 4039 4040 4041 4042 4043 4044 4045 4046 4047 4048 4049 4050 4051 4052 4053 4054 4055 4056 4057 4058 4059 4060 4061 4062 4063 4064 4065 4066 4067 4068 4069 4070 4071 4072 4073 4074 4075 4076 4077 4078 4079 4080 4081 4082 4083 4084 4085 4086 4087 4088 4089 4090 4091 4092 4093 4094 4095 4096 4097 4098 4099 4100 4101 4102 4103 4104 4105 4106 4107 4108 4109 4110 4111 4112 4113 4114 4115 4116 4117 4118 4119 4120 4121 4122 4123 4124 4125 4126 4127 4128 4129 4130 4131 4132 4133 4134 4135 4136 4137 4138 4139 4140 4141 4142 4143 4144 4145 4146 4147 4148 4149 4150 4151 4152 4153 4154 4155 4156 4157 4158 4159 4160 4161 4162 4163 4164 4165 4166 4167 4168 4169 4170 4171 4172 4173 4174 4175 4176 4177 4178 4179 4180 4181 4182 4183 4184 4185 4186 4187 4188 4189 4190 4191 4192 4193 4194 4195 4196 4197 4198 4199 4200 4201 4202 4203 4204 4205 4206 4207 4208 4209 4210 4211 4212 4213 4214 4215 4216 4217 4218 4219 4220 4221 4222 4223 4224 4225 4226 4227 4228 4229 4230 4231 4232 4233 4234 4235 4236 4237 4238 4239 4240 4241 4242 4243 4244 4245 4246 4247 4248 4249 4250 4251 4252 4253 4254 4255 4256 4257 4258 4259 4260 4261 4262 4263 4264 4265 4266 4267 4268 4269 4270 4271 4272 4273 4274 4275 4276 4277 4278 4279 4280 4281 4282 4283 4284 4285 4286 4287 4288 4289 4290 4291 4292 4293 4294 4295 4296 4297 4298 4299 4300 4301 4302 4303 4304 4305 4306 4307 4308 4309 4310 4311 4312 4313 4314 4315 4316 4317 4318 4319 4320 4321 4322 4323 4324 4325 4326 4327 4328 4329 4330 4331 4332 4333 4334 4335 4336 4337 4338 4339 4340 4341 4342 4343 4344 4345 4346 4347 4348 4349 4350 4351 4352 4353 4354 4355 4356 4357 4358 4359 4360 4361 4362 4363 4364 4365 4366 4367 4368 4369 4370 4371 4372 4373 4374 4375 4376 4377 4378 4379 4380 4381 4382 4383 4384 4385 4386 4387 4388 4389 4390 4391 4392 4393 4394 4395 4396 4397 4398 4399 4400 4401 4402 4403 4404 4405 4406 4407 4408 4409 4410 4411 4412 4413 4414 4415 4416 4417 4418 4419 4420 4421 4422 4423 4424 4425 4426 4427 4428 4429 4430 4431 4432 4433 4434 4435 4436 4437 4438 4439 4440 4441 4442 4443 4444 4445 4446 4447 4448 4449 4450 4451 4452 4453 4454 4455 4456 4457 4458 4459 4460 4461 4462 4463 4464 4465 4466 4467 4468 4469 4470 4471 4472 4473 4474 4475 4476 4477 4478 4479 4480 4481 4482 4483 4484 4485 4486 4487 4488 4489 4490 4491 4492 4493 4494 4495 4496 4497 4498 4499 4500 4501 4502 4503 4504 4505 4506 4507 4508 4509 4510 4511 4512 4513 4514 4515 4516 4517 4518 4519 4520 4521 4522 4523 4524 4525 4526 4527 4528 4529 4530 4531 4532 4533 4534 4535 4536 4537 4538 4539 4540 4541 4542 4543 4544 4545 4546 4547 4548 4549 4550 4551 4552 4553 4554 4555 4556 4557 4558 4559 4560 4561 4562 4563 4564 4565 4566 4567 4568 4569 4570 4571 4572 4573 4574 4575 4576 4577 4578 4579 4580 4581 4582 4583 4584 4585 4586 4587 4588 4589 4590 4591 4592 4593 4594 4595 4596 4597 4598 4599 4600 4601 4602 4603 4604 4605 4606 4607 4608 4609 4610 4611 4612 4613 4614 4615 4616 4617 4618 4619 4620 4621 4622 4623 4624 4625 4626 4627 4628 4629 4630 4631 4632 4633 4634 4635 4636 4637 4638 4639 4640 4641 4642 4643 4644 4645 4646 4647 4648 4649 4650 4651 4652 4653 4654 4655 4656 4657 4658 4659 4660 4661 4662 4663 4664 4665 4666 4667 4668 4669 4670 4671 4672 4673 4674 4675 4676 4677 4678 4679 4680 4681 4682 4683 4684 4685 4686 4687 4688 4689 4690 4691 4692 4693 4694 4695 4696 4697 4698 4699 4700 4701 4702 4703 4704 4705 4706 4707 4708 4709 4710 4711 4712 4713 4714 4715 4716 4717 4718 4719 4720 4721 4722 4723 4724 4725 4726 4727 4728 4729 4730 4731 4732 4733 4734 4735 4736 4737 4738 4739 4740 4741 4742 4743 4744 4745 4746 4747 4748 4749 4750 4751 4752 4753 4754 4755 4756 4757 4758 4759 4760 4761 4762 4763 4764 4765 4766 4767 4768 4769 4770 4771 4772 4773 4774 4775 4776 4777 4778 4779 4780 4781 4782 4783 4784 4785 4786 4787 4788 4789 4790 4791 4792 4793 4794 4795 4796 4797 4798 4799 4800 4801 4802 4803 4804 4805 4806 4807 4808 4809 4810 4811 4812 4813 4814 4815 4816 4817 4818 4819 4820 4821 4822 4823 4824 4825 4826 4827 4828 4829 4830 4831 4832 4833 4834 4835 4836 4837 4838 4839 4840 4841 4842 4843 4844 4845 4846 4847 4848 4849 4850 4851 4852 4853 4854 4855 4856 4857 4858 4859 4860 4861 4862 4863 4864 4865 4866 4867 4868 4869 4870 4871 4872 4873 4874 4875 4876 4877 4878 4879 4880 4881 4882 4883 4884 4885 4886 4887 4888 4889 4890 4891 4892 4893 4894 4895 4896 4897 4898 4899 4900 4901 4902 4903 4904 4905 4906 4907 4908 4909 4910 4911 4912 4913 4914 4915 4916 4917 4918 4919 4920 4921 4922 4923 4924 4925 4926 4927 4928 4929 4930 4931 4932 4933 4934 4935 4936 4937 4938 4939 4940 4941 4942 4943 4944 4945 4946 4947 4948 4949 4950 4951 4952 4953 4954 4955 4956 4957 4958 4959 4960 4961 4962 4963 4964 4965 4966 4967 4968 4969 4970 4971 4972 4973 4974 4975 4976 4977 4978 4979 4980 4981 4982 4983 4984 4985 4986 4987 4988 4989 4990 4991 4992 4993 4994 4995 4996 4997 4998 4999 5000 5001 5002 5003 5004 5005 5006 5007 5008 5009 5010 5011 5012 5013 5014 5015 5016 5017 5018 5019 5020 5021 5022 5023 5024 5025 5026 5027 5028 5029 5030 5031 5032 5033 5034 5035 5036 5037 5038 5039 5040 5041 5042 5043 5044 5045 5046 5047 5048 5049 5050 5051 5052 5053 5054 5055 5056 5057 5058 5059 5060 5061 5062 5063 5064 5065 5066 5067 5068 5069 5070 5071 5072 5073 5074 5075 5076 5077 5078 5079 5080 5081 5082 5083 5084 5085 5086 5087 5088 5089 5090 5091 5092 5093 5094 5095 5096 5097 5098 5099 5100 5101 5102 5103 5104 5105 5106 5107 5108 5109 5110 5111 5112 5113 5114 5115 5116 5117 5118 5119 5120 5121 5122 5123 5124 5125 5126 5127 5128 5129 5130 5131 5132 5133 5134 5135 5136 5137 5138 5139 5140 5141 5142 5143 5144 5145 5146 5147 5148 5149 5150 5151 5152 5153 5154 5155 5156 5157 5158 5159 5160 5161 5162 5163 5164 5165 5166 5167 5168 5169 5170 5171 5172 5173 5174 5175 5176 5177 5178 5179 5180 5181 5182 5183 5184 5185 5186 5187 5188 5189 5190 5191 5192 5193 5194 5195 5196 5197 5198 5199 5200 5201 5202 5203 5204 5205 5206 5207 5208 5209 5210 5211 5212 5213 5214 5215 5216 5217 5218 5219 5220 5221 5222 5223 5224 5225 5226 5227 5228 5229 5230 5231 5232 5233 5234 5235 5236 5237 5238 5239 5240 5241 5242 5243 5244 5245 5246 5247 5248 5249 5250 5251 5252 5253 5254 5255 5256 5257 5258 5259 5260 5261 5262 5263 5264 5265 5266 5267 5268 5269 5270 5271 5272 5273 5274 5275 5276 5277 5278 5279 5280 5281 5282 5283 5284 5285 5286 5287 5288 5289 5290 5291 5292 5293 5294 5295 5296 5297 5298 5299 5300 5301 5302 5303 5304 5305 5306 5307 5308 5309 5310 5311 5312 5313 5314 5315 5316 5317 5318 5319 5320 5321 5322 5323 5324 5325 5326 5327 5328 5329 5330 5331 5332 5333 5334 5335 5336 5337 5338 5339 5340 5341 5342 5343 5344 5345 5346 5347 5348 5349 5350 5351 5352 5353 5354 5355 5356 5357 5358 5359 5360 5361 5362 5363 5364 5365 5366 5367 5368 5369 5370 5371 5372 5373 5374 5375 5376 5377 5378 5379 5380 5381 5382 5383 5384 5385 5386 5387 5388 5389 5390 5391 5392 5393 5394 5395 5396 5397 5398 5399 5400 5401 5402 5403 5404 5405 5406 5407 5408 5409 5410 5411 5412 5413 5414 5415 5416 5417 5418 5419 5420 5421 5422 5423 5424 5425 5426 5427 5428 5429 5430 5431 5432 5433 5434 5435 5436 5437 5438 5439 5440 5441 5442 5443 5444 5445 5446 5447 5448 5449 5450 5451 5452 5453 5454 5455 5456 5457 5458 5459 5460 5461 5462 5463 5464 5465 5466 5467 5468 5469 5470 5471 5472 5473 5474 5475 5476 5477 5478 5479 5480 5481 5482 5483 5484 5485 5486 5487 5488 5489 5490 5491 5492 5493 5494 5495 5496 5497 5498 5499 5500 5501 5502 5503 5504 5505 5506 5507 5508 5509 5510 5511 5512 5513 5514 5515 5516 5517 5518 5519 5520 5521 5522 5523 5524 5525 5526 5527 5528 5529 5530 5531 5532 5533 5534 5535 5536 5537 5538 5539 5540 5541 5542 5543 5544 5545 5546 5547 5548 5549 5550 5551 5552 5553 5554 5555 5556 5557 5558 5559 5560 5561 5562 5563 5564 5565 5566 5567 5568 5569 5570 5571 5572 5573 5574 5575 5576 5577 5578 5579 5580 5581 5582 5583 5584 5585 5586 5587 5588 5589 5590 5591 5592 5593 5594 5595 5596 5597 5598 5599 5600 5601 5602 5603 5604 5605 5606 5607 5608 5609 5610 5611 5612 5613 5614 5615 5616 5617 5618 5619 5620 5621 5622 5623 5624 5625 5626 5627 5628 5629 5630 5631 5632 5633 5634 5635 5636 5637 5638 5639 5640 5641 5642 5643 5644 5645 5646 5647 5648 5649 5650 5651 5652 5653 5654 5655 5656 5657 5658 5659 5660 5661 5662 5663 5664 5665 5666 5667 5668 5669 5670 5671 5672 5673 5674 5675 5676 5677 5678 5679 5680 5681 5682 5683 5684 5685 5686 5687 5688 5689 5690 5691 5692 5693 5694 5695 5696 5697 5698 5699 5700 5701 5702 5703 5704 5705 5706 5707 5708 5709 5710 5711 5712 5713 5714 5715 5716 5717 5718 5719 5720 5721 5722 5723 5724 5725 5726 5727 5728 5729 5730 5731 5732 5733 5734 5735 5736 5737 5738 5739 5740 5741 5742 5743 5744 5745 5746 5747 5748 5749 5750 5751 5752 5753 5754 5755 5756 5757 5758 5759 5760 5761 5762 5763 5764 5765 5766 5767 5768 5769 5770 5771 5772 5773 5774 5775 5776 5777 5778 5779 5780 5781 5782 5783 5784 5785 5786 5787 5788 5789 5790 5791 5792 5793 5794 5795 5796 5797 5798 5799 5800 5801 5802 5803 5804 5805 5806 5807 5808 5809 5810 5811 5812 5813 5814 5815 5816 5817 5818 5819 5820 5821 5822 5823 5824 5825 5826 5827 5828 5829 5830 5831 5832 5833 5834 5835 5836 5837 5838 5839 5840 5841 5842 5843 5844 5845 5846 5847 5848 5849 5850 5851 5852 5853 5854 5855 5856 5857 5858 5859 5860 5861 5862 5863 5864 5865 5866 5867 5868 5869 5870 5871 5872 5873 5874 5875 5876 5877 5878 5879 5880 5881 5882 5883 5884 5885 5886 5887 5888 5889 5890 5891 5892 5893 5894 5895 5896 5897 5898 5899 5900 5901 5902 5903 5904 5905 5906 5907 5908 5909 5910 5911 5912 5913 5914 5915 5916 5917 5918 5919 5920 5921 5922 5923 5924 5925 5926 5927 5928 5929 5930 5931 5932 5933 5934 5935 5936 5937 5938 5939 5940 5941 5942 5943 5944 5945 5946 5947 5948 5949 5950 5951 5952 5953 5954 5955 5956 5957 5958 5959 5960 5961 5962 5963 5964 5965 5966 5967 5968 5969 5970 5971 5972 5973 5974 5975 5976 5977 5978 5979 5980 5981 5982 5983 5984 5985 5986 5987 5988 5989 5990 5991 5992 5993 5994 5995 5996 5997 5998 5999 6000 6001 6002 6003 6004 6005 6006 6007 6008 6009 6010 6011 6012 6013 6014 6015 6016 6017 6018 6019 6020 6021 6022 6023 6024 6025 6026 6027 6028 6029 6030 6031 6032 6033 6034 6035 6036 6037 6038 6039 6040 6041 6042 6043 6044 6045 6046 6047 6048 6049 6050 6051 6052 6053 6054 6055 6056 6057 6058 6059 6060 6061 6062 6063 6064 6065 6066 6067 6068 6069 6070 6071 6072 6073 6074 6075 6076 6077 6078 6079 6080 6081 6082 6083 6084 6085 6086 6087 6088 6089 6090 6091 6092 6093 6094 6095 6096 6097 6098 6099 6100 6101 6102 6103 6104 6105 6106 6107 6108 6109 6110 6111 6112 6113 6114 6115 6116 6117 6118 6119 6120 6121 6122 6123 6124 6125 6126 6127 6128 6129 6130 6131 6132 6133 6134 6135 6136 6137 6138 6139 6140 6141 6142 6143 6144 6145 6146 6147 6148 6149 6150 6151 6152 6153 6154 6155 6156 6157 6158 6159 6160 6161 6162 6163 6164 6165 6166 6167 6168 6169 6170 6171 6172 6173 6174 6175 6176 6177 6178 6179 6180 6181 6182 6183 6184 6185 6186 6187 6188 6189 6190 6191 6192 6193 6194 6195 6196 6197 6198 6199 6200 6201 6202 6203 6204 6205 6206 6207 6208 6209 6210 6211 6212 6213 6214 6215 6216 6217 6218 6219 6220 6221 6222 6223 6224 6225 6226 6227 6228 6229 6230 6231 6232 6233 6234 6235 6236 6237 6238 6239 6240 6241 6242 6243 6244 6245 6246 6247 6248 6249 6250 6251 6252 6253 6254 6255 6256 6257 6258 6259 6260 6261 6262 6263 6264 6265 6266 6267 6268 6269 6270 6271 6272 6273 6274 6275 6276 6277 6278 6279 6280 6281 6282 6283 6284 6285 6286 6287 6288 6289 6290 6291 6292 6293 6294 6295 6296 6297 6298 6299 6300 6301 6302 6303 6304 6305 6306 6307 6308 6309 6310 6311 6312 6313 6314 6315 6316 6317 6318 6319 6320 6321 6322 6323 6324 6325 6326 6327 6328 6329 6330 6331 6332 6333 6334 6335 6336 6337 6338 6339 6340 6341 6342 6343 6344 6345 6346 6347 6348 6349 6350 6351 6352 6353 6354 6355 6356 6357 6358 6359 6360 6361 6362 6363 6364 6365 6366 6367 6368 6369 6370 6371 6372 6373 6374 6375 6376 6377 6378 6379 6380 6381 6382 6383 6384 6385 6386 6387 6388 6389 6390 6391 6392 6393 6394 6395 6396 6397 6398 6399 6400 6401 6402 6403 6404 6405 6406 6407 6408 6409 6410 6411 6412 6413 6414 6415 6416 6417 6418 6419 6420 6421 6422 6423 6424 6425 6426 6427 6428 6429 6430 6431 6432 6433 6434 6435 6436 6437 6438 6439 6440 6441 6442 6443 6444 6445 6446 6447 6448 6449 6450 6451 6452 6453 6454 6455 6456 6457 6458 6459 6460 6461 6462 6463 6464 6465 6466 6467 6468 6469 6470 6471 6472 6473 6474 6475 6476 6477 6478 6479 6480 6481 6482 6483 6484 6485 6486 6487 6488 6489 6490 6491 6492 6493 6494 6495 6496 6497 6498 6499 6500 6501 6502 6503 6504 6505 6506 6507 6508 6509 6510 6511 6512 6513 6514 6515 6516 6517 6518 6519 6520 6521 6522 6523 6524 6525 6526 6527 6528 6529 6530 6531 6532 6533 6534 6535 6536 6537 6538 6539 6540 6541 6542 6543 6544 6545 6546 6547 6548 6549 6550 6551 6552 6553 6554 6555 6556 6557 6558 6559 6560 6561 6562 6563 6564 6565 6566 6567 6568 6569 6570 6571 6572 6573 6574 6575 6576 6577 6578 6579 6580 6581 6582 6583 6584 6585 6586 6587 6588 6589 6590 6591 6592 6593 6594 6595 6596 6597 6598 6599 6600 6601 6602 6603 6604 6605 6606 6607 6608 6609 6610 6611 6612 6613 6614 6615 6616 6617 6618 6619 6620 6621 6622 6623 6624 6625 6626 6627 6628 6629 6630 6631 6632 6633 6634 6635 6636 6637 6638 6639 6640 6641 6642 6643 6644 6645 6646 6647 6648 6649 6650 6651 6652 6653 6654 6655 6656 6657 6658 6659 6660 6661 6662 6663 6664 6665 6666 6667 6668 6669 6670 6671 6672 6673 6674 6675 6676 6677 6678 6679 6680 6681 6682 6683 6684 6685 6686 6687 6688 6689 6690 6691 6692 6693 6694 6695 6696 6697 6698 6699 6700 6701 6702 6703 6704 6705 6706 6707 6708 6709 6710 6711 6712 6713 6714 6715 6716 6717 6718 6719 6720 6721 6722 6723 6724 6725 6726 6727 6728 6729 6730 6731 6732 6733 6734 6735 6736 6737 6738 6739 6740 6741 6742 6743 6744 6745 6746 6747 6748 6749 6750 6751 6752 6753 6754 6755 6756 6757 6758 6759 6760 6761 6762 6763 6764 6765 6766 6767 6768 6769 6770 6771 6772 6773 6774 6775 6776 6777 6778 6779 6780 6781 6782 6783 6784 6785 6786 6787 6788 6789 6790 6791 6792 6793 6794 6795 6796 6797 6798 6799 6800 6801 6802 6803 6804 6805 6806 6807 6808 6809 6810 6811 6812 6813 6814 6815 6816 6817 6818 6819 6820 6821 6822 6823 6824 6825 6826 6827 6828 6829 6830 6831 6832 6833 6834 6835 6836 6837 6838 6839 6840 6841 6842 6843 6844 6845 6846 6847 6848 6849 6850 6851 6852 6853 6854 6855 6856 6857 6858 6859 6860 6861 6862 6863 6864 6865 6866 6867 6868 6869 6870 6871 6872 6873 6874 6875 6876 6877 6878 6879 6880 6881 6882 6883 6884 6885 6886 6887 6888 6889 6890 6891 6892 6893 6894 6895 6896 6897 6898 6899 6900 6901 6902 6903 6904 6905 6906 6907 6908 6909 6910 6911 6912 6913 6914 6915 6916 6917 6918 6919 6920 6921 6922 6923 6924 6925 6926 6927 6928 6929 6930 6931 6932 6933 6934 6935 6936 6937 6938 6939 6940 6941 6942 6943 6944 6945 6946 6947 6948 6949 6950 6951 6952 6953 6954 6955 6956 6957 6958 6959 6960 6961 6962 6963 6964 6965 6966 6967 6968 6969 6970 6971 6972 6973 6974 6975 6976 6977 6978 6979 6980 6981 6982 6983 6984 6985 6986 6987 6988 6989 6990 6991 6992 6993 6994 6995 6996 6997 6998 6999 7000 7001 7002 7003 7004 7005 7006 7007 7008 7009 7010 7011 7012 7013 7014 7015 7016 7017 7018 7019 7020 7021 7022 7023 7024 7025 7026 7027 7028 7029 7030 7031 7032 7033 7034 7035 7036 7037 7038 7039 7040 7041 7042 7043 7044 7045 7046 7047 7048 7049 7050 7051 7052 7053 7054 7055 7056 7057 7058 7059 7060 7061 7062 7063 7064 7065 7066 7067 7068 7069 7070 7071 7072 7073 7074 7075 7076 7077 7078 7079 7080 7081 7082 7083 7084 7085 7086 7087 7088 7089 7090 7091 7092 7093 7094 7095 7096 7097 7098 7099 7100 7101 7102 7103 7104 7105 7106 7107 7108 7109 7110 7111 7112 7113 7114 7115 7116 7117 7118 7119 7120 7121 7122 7123 7124 7125 7126 7127 7128 7129 7130 7131 7132 7133 7134 7135 7136 7137 7138 7139 7140 7141 7142 7143 7144 7145 7146 7147 7148 7149 7150 7151 7152 7153 7154 7155 7156 7157 7158 7159 7160 7161 7162 7163 7164 7165 7166 7167 7168 7169 7170 7171 7172 7173 7174 7175 7176 7177 7178 7179 7180 7181 7182 7183 7184 7185 7186 7187 7188 7189 7190 7191 7192 7193 7194 7195 7196 7197 7198 7199 7200 7201 7202 7203 7204 7205 7206 7207 7208 7209 7210 7211 7212 7213 7214 7215 7216 7217 7218 7219 7220 7221 7222 7223 7224 7225 7226 7227 7228 7229 7230 7231 7232 7233 7234 7235 7236 7237 7238 7239 7240 7241 7242 7243 7244 7245 7246 7247 7248 7249 7250 7251 7252 7253 7254 7255 7256 7257 7258 7259 7260 7261 7262 7263 7264 7265 7266 7267 7268 7269 7270 7271 7272 7273 7274 7275 7276 7277 7278 7279 7280 7281 7282 7283 7284 7285 7286 7287 7288 7289 7290 7291 7292 7293 7294 7295 7296 7297 7298 7299 7300 7301 7302 7303 7304 7305 7306 7307 7308 7309 7310 7311 7312 7313 7314 7315 7316 7317 7318 7319 7320 7321 7322 7323 7324 7325 7326 7327 7328 7329 7330 7331 7332 7333 7334 7335 7336 7337 7338 7339 7340 7341 7342 7343 7344 7345 7346 7347 7348 7349 7350 7351 7352 7353 7354 7355 7356 7357 7358 7359 7360 7361 7362 7363 7364 7365 7366 7367 7368 7369 7370 7371 7372 7373 7374 7375 7376 7377 7378 7379 7380 7381 7382 7383 7384 7385 7386 7387 7388 7389 7390 7391 7392 7393 7394 7395 7396 7397 7398 7399 7400 7401 7402 7403 7404 7405 7406 7407 7408 7409 7410 7411 7412 7413 7414 7415 7416 7417 7418 7419 7420 7421 7422 7423 7424 7425 7426 7427 7428 7429 7430 7431 7432 7433 7434 7435 7436 7437 7438 7439 7440 7441 7442 7443 7444 7445 7446 7447 7448 7449 7450 7451 7452 7453 7454 7455 7456 7457 7458 7459 7460 7461 7462 7463 7464 7465 7466 7467 7468 7469 7470 7471 7472 7473 7474 7475 7476 7477 7478 7479 7480 7481 7482 7483 7484 7485 7486 7487 7488 7489 7490 7491 7492 7493 7494 7495 7496 7497 7498 7499 7500 7501 7502 7503 7504 7505 7506 7507 7508 7509 7510 7511 7512 7513 7514 7515 7516 7517 7518 7519 7520 7521 7522 7523 7524 7525 7526 7527 7528 7529 7530 7531 7532 7533 7534 7535 7536 7537 7538 7539 7540 7541 7542 7543 7544 7545 7546 7547 7548 7549 7550 7551 7552 7553 7554 7555 7556 7557 7558 7559 7560 7561 7562 7563 7564 7565 7566 7567 7568 7569 7570 7571 7572 7573 7574 7575 7576 7577 7578 7579 7580 7581 7582 7583 7584 7585 7586 7587 7588 7589 7590 7591 7592 7593 7594 7595 7596 7597 7598 7599 7600 7601 7602 7603 7604 7605 7606 7607 7608 7609 7610 7611 7612 7613 7614 7615 7616 7617 7618 7619 7620 7621 7622 7623 7624 7625 7626 7627 7628 7629 7630 7631 7632 7633 7634 7635 7636 7637 7638 7639 7640 7641 7642 7643 7644 7645 7646 7647 7648 7649 7650 7651 7652 7653 7654 7655 7656 7657 7658 7659 7660 7661 7662 7663 7664 7665 7666 7667 7668 7669 7670 7671 7672 7673 7674 7675 7676 7677 7678 7679 7680 7681 7682 7683 7684 7685 7686 7687 7688 7689 7690 7691 7692 7693 7694 7695 7696 7697 7698 7699 7700 7701 7702 7703 7704 7705 7706 7707 7708 7709 7710 7711 7712 7713 7714 7715 7716 7717 7718 7719 7720 7721 7722 7723 7724 7725 7726 7727 7728 7729 7730 7731 7732 7733 7734 7735 7736 7737 7738 7739 7740 7741 7742 7743 7744 7745 7746 7747 7748 7749 7750 7751 7752 7753 7754 7755 7756 7757 7758 7759 7760 7761 7762 7763 7764 7765 7766 7767 7768 7769 7770 7771 7772 7773 7774 7775 7776 7777 7778 7779 7780 7781 7782 7783 7784 7785 7786 7787 7788 7789 7790 7791 7792 7793 7794 7795 7796 7797 7798 7799 7800 7801 7802 7803 7804 7805 7806 7807 7808 7809 7810 7811 7812 7813 7814 7815 7816 7817 7818 7819 7820 7821 7822 7823 7824 7825 7826 7827 7828 7829 7830 7831 7832 7833 7834 7835 7836 7837 7838 7839 7840 7841 7842 7843 7844 7845 7846 7847 7848 7849 7850 7851 7852 7853 7854 7855 7856 7857 7858 7859 7860 7861 7862 7863 7864 7865 7866 7867 7868 7869 7870 7871 7872 7873 7874 7875 7876 7877 7878 7879 7880 7881 7882 7883 7884 7885 7886 7887 7888 7889 7890 7891 7892 7893 7894 7895 7896 7897 7898 7899 7900 7901 7902 7903 7904 7905 7906 7907 7908 7909 7910 7911 7912 7913 7914 7915 7916 7917 7918 7919 7920 7921 7922 7923 7924 7925 7926 7927 7928 7929 7930 7931 7932 7933 7934 7935 7936 7937 7938 7939 7940 7941 7942 7943 7944 7945 7946 7947 7948 7949 7950 7951 7952 7953 7954 7955 7956 7957 7958 7959 7960 7961 7962 7963 7964 7965 7966 7967 7968 7969 7970 7971 7972 7973 7974 7975 7976 7977 7978 7979 7980 7981 7982 7983 7984 7985 7986 7987 7988 7989 7990 7991 7992 7993 7994 7995 7996 7997 7998 7999 8000 8001 8002 8003 8004 8005 8006 8007 8008 8009 8010 8011 8012 8013 8014 8015 8016 8017 8018 8019 8020 8021 8022 8023 8024 8025 8026 8027 8028 8029 8030 8031 8032 8033 8034 8035 8036 8037 8038 8039 8040 8041 8042 8043 8044 8045 8046 8047 8048 8049 8050 8051 8052 8053 8054 8055 8056 8057 8058 8059 8060 8061 8062 8063 8064 8065 8066 8067 8068 8069 8070 8071 8072 8073 8074 8075 8076 8077 8078 8079 8080 8081 8082 8083 8084 8085 8086 8087 8088 8089 8090 8091 8092 8093 8094 8095 8096 8097 8098 8099 8100 8101 8102 8103 8104 8105 8106 8107 8108 8109 8110 8111 8112 8113 8114 8115 8116 8117 8118 8119 8120 8121 8122 8123 8124 8125 8126 8127 8128 8129 8130 8131 8132 8133 8134 8135 8136 8137 8138 8139 8140 8141 8142 8143 8144 8145 8146 8147 8148 8149 8150 8151 8152 8153 8154 8155 8156 8157 8158 8159 8160 8161 8162 8163 8164 8165 8166 8167 8168 8169 8170 8171 8172 8173 8174 8175 8176 8177 8178 8179 8180 8181 8182 8183 8184 8185 8186 8187 8188 8189 8190 8191 8192 8193 8194 8195 8196 8197 8198 8199 8200 8201 8202 8203 8204 8205 8206 8207 8208 8209 8210 8211 8212 8213 8214 8215 8216 8217 8218 8219 8220 8221 8222 8223 8224 8225 8226 8227 8228 8229 8230 8231 8232 8233 8234 8235 8236 8237 8238 8239 8240 8241 8242 8243 8244 8245 8246 8247 8248 8249 8250 8251 8252 8253 8254 8255 8256 8257 8258 8259 8260 8261 8262 8263 8264 8265 8266 8267 8268 8269 8270 8271 8272 8273 8274 8275 8276 8277 8278 8279 8280 8281 8282 8283 8284 8285 8286 8287 8288 8289 8290 8291 8292 8293 8294 8295 8296 8297 8298 8299 8300 8301 8302 8303 8304 8305 8306 8307 8308 8309 8310 8311 8312 8313 8314 8315 8316 8317 8318 8319 8320 8321 8322 8323 8324 8325 8326 8327 8328 8329 8330 8331 8332 8333 8334 8335 8336 8337 8338 8339 8340 8341 8342 8343 8344 8345 8346 8347 8348 8349 8350 8351 8352 8353 8354 8355 8356 8357 8358 8359 8360 8361 8362 8363 8364 8365 8366 8367 8368 8369 8370 8371 8372 8373 8374 8375 8376 8377 8378 8379 8380 8381 8382 8383 8384 8385 8386 8387 8388 8389 8390 8391 8392 8393 8394 8395 8396 8397 8398 8399 8400 8401 8402 8403 8404 8405 8406 8407 8408 8409 8410 8411 8412 8413 8414 8415 8416 8417 8418 8419 8420 8421 8422 8423 8424 8425 8426 8427 8428 8429 8430 8431 8432 8433 8434 8435 8436 8437 8438 8439 8440 8441 8442 8443 8444 8445 8446 8447 8448 8449 8450 8451 8452 8453 8454 8455 8456 8457 8458 8459 8460 8461 8462 8463 8464 8465 8466 8467 8468 8469 8470 8471 8472 8473 8474 8475 8476 8477 8478 8479 8480 8481 8482 8483 8484 8485 8486 8487 8488 8489 8490 8491 8492 8493 8494 8495 8496 8497 8498 8499 8500 8501 8502 8503 8504 8505 8506 8507 8508 8509 8510 8511 8512 8513 8514 8515 8516 8517 8518 8519 8520 8521 8522 8523 8524 8525 8526 8527 8528 8529 8530 8531 8532 8533 8534 8535 8536 8537 8538 8539 8540 8541 8542 8543 8544 8545 8546 8547 8548 8549 8550 8551 8552 8553 8554 8555 8556 8557 8558 8559 8560 8561 8562 8563 8564 8565 8566 8567 8568 8569 8570 8571 8572 8573 8574 8575 8576 8577 8578 8579 8580 8581 8582 8583 8584 8585 8586 8587 8588 8589 8590 8591 8592 8593 8594 8595 8596 8597 8598 8599 8600 8601 8602 8603 8604 8605 8606 8607 8608 8609 8610 8611 8612 8613 8614 8615 8616 8617 8618 8619 8620 8621 8622 8623 8624 8625 8626 8627 8628 8629 8630 8631 8632 8633 8634 8635 8636 8637 8638 8639 8640 8641 8642 8643 8644 8645 8646 8647 8648 8649 8650 8651 8652 8653 8654 8655 8656 8657 8658 8659 8660 8661 8662 8663 8664 8665 8666 8667 8668 8669 8670 8671 8672 8673 8674 8675 8676 8677 8678 8679 8680 8681 8682 8683 8684 8685 8686 8687 8688 8689 8690 8691 8692 8693 8694 8695 8696 8697 8698 8699 8700 8701 8702 8703 8704 8705 8706 8707 8708 8709 8710 8711 8712 8713 8714 8715 8716 8717 8718 8719 8720 8721 8722 8723 8724 8725 8726 8727 8728 8729 8730 8731 8732 8733 8734 8735 8736 8737 8738 8739 8740 8741 8742 8743 8744 8745 8746 8747 8748 8749 8750 8751 8752 8753 8754 8755 8756 8757 8758 8759 8760 8761 8762 8763 8764 8765 8766 8767 8768 8769 8770 8771 8772 8773 8774 8775 8776 8777 8778 8779 8780 8781 8782 8783 8784 8785 8786 8787 8788 8789 8790 8791 8792 8793 8794 8795 8796 8797 8798 8799 8800 8801 8802 8803 8804 8805 8806 8807 8808 8809 8810 8811 8812 8813 8814 8815 8816 8817 8818 8819 8820 8821 8822 8823 8824 8825 8826 8827 8828 8829 8830 8831 8832 8833 8834 8835 8836 8837 8838 8839 8840 8841 8842 8843 8844 8845 8846 8847 8848 8849 8850 8851 8852 8853 8854 8855 8856 8857 8858 8859 8860 8861 8862 8863 8864 8865 8866 8867 8868 8869 8870 8871 8872 8873 8874 8875 8876 8877 8878 8879 8880 8881 8882 8883 8884 8885 8886 8887 8888 8889 8890 8891 8892 8893 8894 8895 8896 8897 8898 8899 8900 8901 8902 8903 8904 8905 8906 8907 8908 8909 8910 8911 8912 8913 8914 8915 8916 8917 8918 8919 8920 8921 8922 8923 8924 8925 8926 8927 8928 8929 8930 8931 8932 8933 8934 8935 8936 8937 8938 8939 8940 8941 8942 8943 8944 8945 8946 8947 8948 8949 8950 8951 8952 8953 8954 8955 8956 8957 8958 8959 8960 8961 8962 8963 8964 8965 8966 8967 8968 8969 8970 8971 8972 8973 8974 8975 8976 8977 8978 8979 8980 8981 8982 8983 8984 8985 8986 8987 8988 8989 8990 8991 8992 8993 8994 8995 8996 8997 8998 8999 9000 9001 9002 9003 9004 9005 9006 9007 9008 9009 9010 9011 9012 9013 9014 9015 9016 9017 9018 9019 9020 9021 9022 9023 9024 9025 9026 9027 9028 9029 9030 9031 9032 9033 9034 9035 9036 9037 9038 9039 9040 9041 9042 9043 9044 9045 9046 9047 9048 9049 9050 9051 9052 9053 9054 9055 9056 9057 9058 9059 9060 9061 9062 9063 9064 9065 9066 9067 9068 9069 9070 9071 9072 9073 9074 9075 9076 9077 9078 9079 9080 9081 9082 9083 9084 9085 9086 9087 9088 9089 9090 9091 9092 9093 9094 9095 9096 9097 9098 9099 9100 9101 9102 9103 9104 9105 9106 9107 9108 9109 9110 9111 9112 9113 9114 9115 9116 9117 9118 9119 9120 9121 9122 9123 9124 9125 9126 9127 9128 9129 9130 9131 9132 9133 9134 9135 9136 9137 9138 9139 9140 9141 9142 9143 9144 9145 9146 9147 9148 9149 9150 9151 9152 9153 9154 9155 9156 9157 9158 9159 9160 9161 9162 9163 9164 9165 9166 9167 9168 9169 9170 9171 9172 9173 9174 9175 9176 9177 9178 9179 9180 9181 9182 9183 9184 9185 9186 9187 9188 9189 9190 9191 9192 9193 9194 9195 9196 9197 9198 9199 9200 9201 9202 9203 9204 9205 9206 9207 9208 9209 9210 9211 9212 9213 9214 9215 9216 9217 9218 9219 9220 9221 9222 9223 9224 9225 9226 9227 9228 9229 9230 9231 9232 9233 9234 9235 9236 9237 9238 9239 9240 9241 9242 9243 9244 9245 9246 9247 9248 9249 9250 9251 9252 9253 9254 9255 9256 9257 9258 9259 9260 9261 9262 9263 9264 9265 9266 9267 9268 9269 9270 9271 9272 9273 9274 9275 9276 9277 9278 9279 9280 9281 9282 9283 9284 9285 9286 9287 9288 9289 9290 9291 9292 9293 9294 9295 9296 9297 9298 9299 9300 9301 9302 9303 9304 9305 9306 9307 9308 9309 9310 9311 9312 9313 9314 9315 9316 9317 9318 9319 9320 9321 9322 9323 9324 9325 9326 9327 9328 9329 9330 9331 9332 9333 9334 9335 9336 9337 9338 9339 9340 9341 9342 9343 9344 9345 9346 9347 9348 9349 9350 9351 9352 9353 9354 9355 9356 9357 9358 9359 9360 9361 9362 9363 9364 9365 9366 9367 9368 9369 9370 9371 9372 9373 9374 9375 9376 9377 9378 9379 9380 9381 9382 9383 9384 9385 9386 9387 9388 9389 9390 9391 9392 9393 9394 9395 9396 9397 9398 9399 9400 9401 9402 9403 9404 9405 9406 9407 9408 9409 9410 9411 9412 9413 9414 9415 9416 9417 9418 9419 9420 9421 9422 9423 9424 9425 9426 9427 9428 9429 9430 9431 9432 9433 9434 9435 9436 9437 9438 9439 9440 9441 9442 9443 9444 9445 9446 9447 9448 9449 9450 9451 9452 9453 9454 9455 9456 9457 9458 9459 9460 9461 9462 9463 9464 9465 9466 9467 9468 9469 9470 9471 9472 9473 9474 9475 9476 9477 9478 9479 9480 9481 9482 9483 9484 9485 9486 9487 9488 9489 9490 9491 9492 9493 9494 9495 9496 9497 9498 9499 9500 9501 9502 9503 9504 9505 9506 9507 9508 9509 9510 9511 9512 9513 9514 9515 9516 9517 9518 9519 9520 9521 9522 9523 9524 9525 9526 9527 9528 9529 9530 9531 9532 9533 9534 9535 9536 9537 9538 9539 9540 9541 9542 9543 9544 9545 9546 9547 9548 9549 9550 9551 9552 9553 9554 9555 9556 9557 9558 9559 9560 9561 9562 9563 9564 9565 9566 9567 9568 9569 9570 9571 9572 9573 9574 9575 9576 9577 9578 9579 9580 9581 9582 9583 9584 9585 9586 9587 9588 9589 9590 9591 9592 9593 9594 9595 9596 9597 9598 9599 9600 9601 9602 9603 9604 9605 9606 9607 9608 9609 9610 9611 9612 9613 9614 9615 9616 9617 9618 9619 9620 9621 9622 9623 9624 9625 9626 9627 9628 9629 9630 9631 9632 9633 9634 9635 9636 9637 9638 9639 9640 9641 9642 9643 9644 9645 9646 9647 9648 9649 9650 9651 9652 9653 9654 9655 9656 9657 9658 9659 9660 9661 9662 9663 9664 9665 9666 9667 9668 9669 9670 9671 9672 9673 9674 9675 9676 9677 9678 9679 9680 9681 9682 9683 9684 9685 9686 9687 9688 9689 9690 9691 9692 9693 9694 9695 9696 9697 9698 9699 9700 9701 9702 9703 9704 9705 9706 9707 9708 9709 9710 9711 9712 9713 9714 9715 9716 9717 9718 9719 9720 9721 9722 9723 9724 9725 9726 9727 9728 9729 9730 9731 9732 9733 9734 9735 9736 9737 9738 9739 9740 9741 9742 9743 9744 9745 9746 9747 9748 9749 9750 9751 9752 9753 9754 9755 9756 9757 9758 9759 9760 9761 9762 9763 9764 9765 9766 9767 9768 9769 9770 9771 9772 9773 9774 9775 9776 9777 9778 9779 9780 9781 9782 9783 9784 9785 9786 9787 9788 9789 9790 9791 9792 9793 9794 9795 9796 9797 9798 9799 9800 9801 9802 9803 9804 9805 9806 9807 9808 9809 9810 9811 9812 9813 9814 9815 9816 9817 9818 9819 9820 9821 9822 9823 9824 9825 9826 9827 9828 9829 9830 9831 9832 9833 9834 9835 9836 9837 9838 9839 9840 9841 9842 9843 9844 9845 9846 9847 9848 9849 9850 9851 9852 9853 9854 9855 9856 9857 9858 9859 9860 9861 9862 9863 9864 9865 9866 9867 9868 9869 9870 9871 9872 9873 9874 9875 9876 9877 9878 9879 9880 9881 9882 9883 9884 9885 9886 9887 9888 9889 9890 9891 9892 9893 9894 9895 9896 9897 9898 9899 9900 9901 9902 9903 9904 9905 9906 9907 9908 9909 9910 9911 9912 9913 9914 9915 9916 9917 9918 9919 9920 9921 9922 9923 9924 9925 9926 9927 9928 9929 9930 9931 9932 9933 9934 9935 9936 9937 9938 9939 9940 9941 9942 9943 9944 9945 9946 9947 9948 9949 9950 9951 9952 9953 9954 9955 9956 9957 9958 9959 9960 9961 9962 9963 9964 9965 9966 9967 9968 9969 9970 9971 9972 9973 9974 9975 9976 9977 9978 9979 9980 9981 9982 9983 9984 9985 9986 9987 9988 9989 9990 9991 9992 9993 9994 9995 9996 9997 9998 9999 10000 10001 10002 10003 10004 10005 10006 10007 10008 10009 10010 10011 10012 10013 10014 10015 10016 10017 10018 10019 10020 10021 10022 10023 10024 10025 10026 10027 10028 10029 10030 10031 10032 10033 10034 10035 10036 10037 10038 10039 10040 10041 10042 10043 10044 10045 10046 10047 10048 10049 10050 10051 10052 10053 10054 10055 10056 10057 10058 10059 10060 10061 10062 10063 10064 10065 10066 10067 10068 10069 10070 10071 10072 10073 10074 10075 10076 10077 10078 10079 10080 10081 10082 10083 10084 10085 10086 10087 10088 10089 10090 10091 10092 10093 10094 10095 10096 10097 10098 10099 10100 10101 10102 10103 10104 10105 10106 10107 10108 10109 10110 10111 10112 10113 10114 10115 10116 10117 10118 10119 10120 10121 10122 10123 10124 10125 10126 10127 10128 10129 10130 10131 10132 10133 10134 10135 10136 10137 10138 10139 10140 10141 10142 10143 10144 10145 10146 10147 10148 10149 10150 10151 10152 10153 10154 10155 10156 10157 10158 10159 10160 10161 10162 10163 10164 10165 10166 10167 10168 10169 10170 10171 10172 10173 10174 10175 10176 10177 10178 10179 10180 10181 10182 10183 10184 10185 10186 10187 10188 10189 10190 10191 10192 10193 10194 10195 10196 10197 10198 10199 10200 10201 10202 10203 10204 10205 10206 10207 10208 10209 10210 10211 10212 10213 10214 10215 10216 10217 10218 10219 10220 10221 10222 10223 10224 10225 10226 10227 10228 10229 10230 10231 10232 10233 10234 10235 10236 10237 10238 10239 10240 10241 10242 10243 10244 10245 10246 10247 10248 10249 10250 10251 10252 10253 10254 10255 10256 10257 10258 10259 10260 10261 10262 10263 10264 10265 10266 10267 10268 10269 10270 10271 10272 10273 10274 10275 10276 10277 10278 10279 10280 10281 10282 10283 10284 10285 10286 10287 10288 10289 10290 10291 10292 10293 10294 10295 10296 10297 10298 10299 10300 10301 10302 10303 10304 10305 10306 10307 10308 10309 10310 10311 10312 10313 10314 10315 10316 10317 10318 10319 10320 10321 10322 10323 10324 10325 10326 10327 10328 10329 10330 10331 10332 10333 10334 10335 10336 10337 10338 10339 10340 10341 10342 10343 10344 10345 10346 10347 10348 10349 10350 10351 10352 10353 10354 10355 10356 10357 10358 10359 10360 10361 10362 10363 10364 10365 10366 10367 10368 10369 10370 10371 10372 10373 10374 10375 10376 10377 10378 10379 10380 10381 10382 10383 10384 10385 10386 10387 10388 10389 10390 10391 10392 10393 10394 10395 10396 10397 10398 10399 10400 10401 10402 10403 10404 10405 10406 10407 10408 10409 10410 10411 10412 10413 10414 10415 10416 10417 10418 10419 10420 10421 10422 10423 10424 10425 10426 10427 10428 10429 10430 10431 10432 10433 10434 10435 10436 10437 10438 10439 10440 10441 10442 10443 10444 10445 10446 10447 10448 10449 10450 10451 10452 10453 10454 10455 10456 10457 10458 10459 10460 10461 10462 10463 10464 10465 10466 10467 10468 10469 10470 10471 10472 10473 10474 10475 10476 10477 10478 10479 10480 10481 10482 10483 10484 10485 10486 10487 10488 10489 10490 10491 10492 10493 10494 10495 10496 10497 10498 10499 10500 10501 10502 10503 10504 10505 10506 10507 10508 10509 10510 10511 10512 10513 10514 10515 10516 10517 10518 10519 10520 10521 10522 10523 10524 10525 10526 10527 10528 10529 10530 10531 10532 10533 10534 10535 10536 10537 10538 10539 10540 10541 10542 10543 10544 10545 10546 10547 10548 10549 10550 10551 10552 10553 10554 10555 10556 10557 10558 10559 10560 10561 10562 10563 10564 10565 10566 10567 10568 10569 10570 10571 10572 10573 10574 10575 10576 10577 10578 10579 10580 10581 10582 10583 10584 10585 10586 10587 10588 10589 10590 10591 10592 10593 10594 10595 10596 10597 10598 10599 10600 10601 10602 10603 10604 10605 10606 10607 10608 10609 10610 10611 10612 10613 10614 10615 10616 10617 10618 10619 10620 10621 10622 10623 10624 10625 10626 10627 10628 10629 10630 10631 10632 10633 10634 10635 10636 10637 10638 10639 10640 10641 10642 10643 10644 10645 10646 10647 10648 10649 10650 10651 10652 10653 10654 10655 10656 10657 10658 10659 10660 10661 10662 10663 10664 10665 10666 10667 10668 10669 10670 10671 10672 10673 10674 10675 10676 10677 10678 10679 10680 10681 10682 10683 10684 10685 10686 10687 10688 10689 10690 10691 10692 10693 10694 10695 10696 10697 10698 10699 10700 10701 10702 10703 10704 10705 10706 10707 10708 10709 10710 10711 10712 10713 10714 10715 10716 10717 10718 10719 10720 10721 10722 10723 10724 10725 10726 10727 10728 10729 10730 10731 10732 10733 10734 10735 10736 10737 10738 10739 10740 10741 10742 10743 10744 10745 10746 10747 10748 10749 10750 10751 10752 10753 10754 10755 10756 10757 10758 10759 10760 10761 10762 10763 10764 10765 10766 10767 10768 10769 10770 10771 10772 10773 10774 10775 10776 10777 10778 10779 10780 10781 10782 10783 10784 10785 10786 10787 10788 10789 10790 10791 10792 10793 10794 10795 10796 10797 10798 10799 10800 10801 10802 10803 10804 10805 10806 10807 10808 10809 10810 10811 10812 10813 10814 10815 10816 10817 10818 10819 10820 10821 10822 10823 10824 10825 10826 10827 10828 10829 10830 10831 10832 10833 10834 10835 10836 10837 10838 10839 10840 10841 10842 10843 10844 10845 10846 10847 10848 10849 10850 10851 10852 10853 10854 10855 10856 10857 10858 10859 10860 10861 10862 10863 10864 10865 10866 10867 10868 10869 10870 10871 10872 10873 10874 10875 10876 10877 10878 10879 10880 10881 10882 10883 10884 10885 10886 10887 10888 10889 10890 10891 10892 10893 10894 10895 10896 10897 10898 10899 10900 10901 10902 10903 10904 10905 10906 10907 10908 10909 10910 10911 10912 10913 10914 10915 10916 10917 10918 10919 10920 10921 10922 10923 10924 10925 10926 10927 10928 10929 10930 10931 10932 10933 10934 10935 10936 10937 10938 10939 10940 10941 10942 10943 10944 10945 10946 10947 10948 10949 10950 10951 10952 10953 10954 10955 10956 10957 10958 10959 10960 10961 10962 10963 10964 10965 10966 10967 10968 10969 10970 10971 10972 10973 10974 10975 10976 10977 10978 10979 10980 10981 10982 10983 10984 10985 10986 10987 10988 10989 10990 10991 10992 10993 10994 10995 10996 10997 10998 10999 11000 11001 11002 11003 11004 11005 11006 11007 11008 11009 11010 11011 11012 11013 11014 11015 11016 11017 11018 11019 11020 11021 11022 11023 11024 11025 11026 11027 11028 11029 11030 11031 11032 11033 11034 11035 11036 11037 11038 11039 11040 11041 11042 11043 11044 11045 11046 11047 11048 11049 11050 11051 11052 11053 11054 11055 11056 11057 11058 11059 11060 11061 11062 11063 11064 11065 11066 11067 11068 11069 11070 11071 11072 11073 11074 11075 11076 11077 11078 11079 11080 11081 11082 11083 11084 11085 11086 11087 11088 11089 11090 11091 11092 11093 11094 11095 11096 11097 11098 11099 11100 11101 11102 11103 11104 11105 11106 11107 11108 11109 11110 11111 11112 11113 11114 11115 11116 11117 11118 11119 11120 11121 11122 11123 11124 11125 11126 11127 11128 11129 11130 11131 11132 11133 11134 11135 11136 11137 11138 11139 11140 11141 11142 11143 11144 11145 11146 11147 11148 11149 11150 11151 11152 11153 11154 11155 11156 11157 11158 11159 11160 11161 11162 11163 11164 11165 11166 11167 11168 11169 11170 11171 11172 11173 11174 11175 11176 11177 11178 11179 11180 11181 11182 11183 11184 11185 11186 11187 11188 11189 11190 11191 11192 11193 11194 11195 11196 11197 11198 11199 11200 11201 11202 11203 11204 11205 11206 11207 11208 11209 11210 11211 11212 11213 11214 11215 11216 11217 11218 11219 11220 11221 11222 11223 11224 11225 11226 11227 11228 11229 11230 11231 11232 11233 11234 11235 11236 11237 11238 11239 11240 11241 11242 11243 11244 11245 11246 11247 11248 11249 11250 11251 11252 11253 11254 11255 11256 11257 11258 11259 11260 11261 11262 11263 11264 11265 11266 11267 11268 11269 11270 11271 11272 11273 11274 11275 11276 11277 11278 11279 11280 11281 11282 11283 11284 11285 11286 11287 11288 11289 11290 11291 11292 11293 11294 11295 11296 11297 11298 11299 11300 11301 11302 11303 11304 11305 11306 11307 11308 11309 11310 11311 11312 11313 11314 11315 11316 11317 11318 11319 11320 11321 11322 11323 11324 11325 11326 11327 11328 11329 11330 11331 11332 11333 11334 11335 11336 11337 11338 11339 11340 11341 11342 11343 11344 11345 11346 11347 11348 11349 11350 11351 11352 11353 11354 11355 11356 11357 11358 11359 11360 11361 11362 11363 11364 11365 11366 11367 11368 11369 11370 11371 11372 11373 11374 11375 11376 11377 11378 11379 11380 11381 11382 11383 11384 11385 11386 11387 11388 11389 11390 11391 11392 11393 11394 11395 11396 11397 11398 11399 11400 11401 11402 11403 11404 11405 11406 11407 11408 11409 11410 11411 11412 11413 11414 11415 11416 11417 11418 11419 11420 11421 11422 11423 11424 11425 11426 11427 11428 11429 11430 11431 11432 11433 11434 11435 11436 11437 11438 11439 11440 11441 11442 11443 11444 11445 11446 11447 11448 11449 11450 11451 11452 11453 11454 11455 11456 11457 11458 11459 11460 11461 11462 11463 11464 11465 11466 11467 11468 11469 11470 11471 11472 11473 11474 11475 11476 11477 11478 11479 11480 11481 11482 11483 11484 11485 11486 11487 11488 11489 11490 11491 11492 11493 11494 11495 11496 11497 11498 11499 11500 11501 11502 11503 11504 11505 11506 11507 11508 11509 11510 11511 11512 11513 11514 11515 11516 11517 11518 11519 11520 11521 11522 11523 11524 11525 11526 11527 11528 11529 11530 11531 11532 11533 11534 11535 11536 11537 11538 11539 11540 11541 11542 11543 11544 11545 11546 11547 11548 11549 11550 11551 11552 11553 11554 11555 11556 11557 11558 11559 11560 11561 11562 11563 11564 11565 11566 11567 11568 11569 11570 11571 11572 11573 11574 11575 11576 11577 11578 11579 11580 11581 11582 11583 11584 11585 11586 11587 11588 11589 11590 11591 11592 11593 11594 11595 11596 11597 11598 11599 11600 11601 11602 11603 11604 11605 11606 11607 11608 11609 11610 11611 11612 11613 11614 11615 11616 11617 11618 11619 11620 11621 11622 11623 11624 11625 11626 11627 11628 11629 11630 11631 11632 11633 11634 11635 11636 11637 11638 11639 11640 11641 11642 11643 11644 11645 11646 11647 11648 11649 11650 11651 11652 11653 11654 11655 11656 11657 11658 11659 11660 11661 11662 11663 11664 11665 11666 11667 11668 11669 11670 11671 11672 11673 11674 11675 11676 11677 11678 11679 11680 11681 11682 11683 11684 11685 11686 11687 11688 11689 11690 11691 11692 11693 11694 11695 11696 11697 11698 11699 11700 11701 11702 11703 11704 11705 11706 11707 11708 11709 11710 11711 11712 11713 11714 11715 11716 11717 11718 11719 11720 11721 11722 11723 11724 11725 11726 11727 11728 11729 11730 11731 11732 11733 11734 11735 11736 11737 11738 11739 11740 11741 11742 11743 11744 11745 11746 11747 11748 11749 11750 11751 11752 11753 11754 11755 11756 11757 11758 11759 11760 11761 11762 11763 11764 11765 11766 11767 11768 11769 11770 11771 11772 11773 11774 11775 11776 11777 11778 11779 11780 11781 11782 11783 11784 11785 11786 11787 11788 11789 11790 11791 11792 11793 11794 11795 11796 11797 11798 11799 11800 11801 11802 11803 11804 11805 11806 11807 11808 11809 11810 11811 11812 11813 11814 11815 11816 11817 11818 11819 11820 11821 11822 11823 11824 11825 11826 11827 11828 11829 11830 11831 11832 11833 11834 11835 11836 11837 11838 11839 11840 11841 11842 11843 11844 11845 11846 11847 11848 11849 11850 11851 11852 11853 11854 11855 11856 11857 11858 11859 11860 11861 11862 11863 11864 11865 11866 11867 11868 11869 11870 11871 11872 11873 11874 11875 11876 11877 11878 11879 11880 11881 11882 11883 11884 11885 11886 11887 11888 11889 11890 11891 11892 11893 11894 11895 11896 11897 11898 11899 11900 11901 11902 11903 11904 11905 11906 11907 11908 11909 11910 11911 11912 11913 11914 11915 11916 11917 11918 11919 11920 11921 11922 11923 11924 11925 11926 11927 11928 11929 11930 11931 11932 11933 11934 11935 11936 11937 11938 11939 11940 11941 11942 11943 11944 11945 11946 11947 11948 11949 11950 11951 11952 11953 11954 11955 11956 11957 11958 11959 11960 11961 11962 11963 11964 11965 11966 11967 11968 11969 11970 11971 11972 11973 11974 11975 11976 11977 11978 11979 11980 11981 11982 11983 11984 11985 11986 11987 11988 11989 11990 11991 11992 11993 11994 11995 11996 11997 11998 11999 12000 12001 12002 12003 12004 12005 12006 12007 12008 12009 12010 12011 12012 12013 12014 12015 12016 12017 12018 12019 12020 12021 12022 12023 12024 12025 12026 12027 12028 12029 12030 12031 12032 12033 12034 12035 12036 12037 12038 12039 12040 12041 12042 12043 12044 12045 12046 12047 12048 12049 12050 12051 12052 12053 12054 12055 12056 12057 12058 12059 12060 12061 12062 12063 12064 12065 12066 12067 12068 12069 12070 12071 12072 12073 12074 12075 12076 12077 12078 12079 12080 12081 12082 12083 12084 12085 12086 12087 12088 12089 12090 12091 12092 12093 12094 12095 12096 12097 12098 12099 12100 12101 12102 12103 12104 12105 12106 12107 12108 12109 12110 12111 12112 12113 12114 12115 12116 12117 12118 12119 12120 12121 12122 12123 12124 12125 12126 12127 12128 12129 12130 12131 12132 12133 12134 12135 12136 12137 12138 12139 12140 12141 12142 12143 12144 12145 12146 12147 12148 12149 12150 12151 12152 12153 12154 12155 12156 12157 12158 12159 12160 12161 12162 12163 12164 12165 12166 12167 12168 12169 12170 12171 12172 12173 12174 12175 12176 12177 12178 12179 12180 12181 12182 12183 12184 12185 12186 12187 12188 12189 12190 12191 12192 12193 12194 12195 12196 12197 12198 12199 12200 12201 12202 12203 12204 12205 12206 12207 12208 12209 12210 12211 12212 12213 12214 12215 12216 12217 12218 12219 12220 12221 12222 12223 12224 12225 12226 12227 12228 12229 12230 12231 12232 12233 12234 12235 12236 12237 12238 12239 12240 12241 12242 12243 12244 12245 12246 12247 12248 12249 12250 12251 12252 12253 12254 12255 12256 12257 12258 12259 12260 12261 12262 12263 12264 12265 12266 12267 12268 12269 12270 12271 12272 12273 12274 12275 12276 12277 12278 12279 12280 12281 12282 12283 12284 12285 12286 12287 12288 12289 12290 12291 12292 12293 12294 12295 12296 12297 12298 12299 12300 12301 12302 12303 12304 12305 12306 12307 12308 12309 12310 12311 12312 12313 12314 12315 12316 12317 12318 12319 12320 12321 12322 12323 12324 12325 12326 12327 12328 12329 12330 12331 12332 12333 12334 12335 12336 12337 12338 12339 12340 12341 12342 12343 12344 12345 12346 12347 12348 12349 12350 12351 12352 12353 12354 12355 12356 12357 12358 12359 12360 12361 12362 12363 12364 12365 12366 12367 12368 12369 12370 12371 12372 12373 12374 12375 12376 12377 12378 12379 12380 12381 12382 12383 12384 12385 12386 12387 12388 12389 12390 12391 12392 12393 12394 12395 12396 12397 12398 12399 12400 12401 12402 12403 12404 12405 12406 12407 12408 12409 12410 12411 12412 12413 12414 12415 12416 12417 12418 12419 12420 12421 12422 12423 12424 12425 12426 12427 12428 12429 12430 12431 12432 12433 12434 12435 12436 12437 12438 12439 12440 12441 12442 12443 12444 12445 12446 12447 12448 12449 12450 12451 12452 12453 12454 12455 12456 12457 12458 12459 12460 12461 12462 12463 12464 12465 12466 12467 12468 12469 12470 12471 12472 12473 12474 12475 12476 12477 12478 12479 12480 12481 12482 12483 12484 12485 12486 12487 12488 12489 12490 12491 12492 12493 12494 12495 12496 12497 12498 12499 12500 12501 12502 12503 12504 12505 12506 12507 12508 12509 12510 12511 12512 12513 12514 12515 12516 12517 12518 12519 12520 12521 12522 12523 12524 12525 12526 12527 12528 12529 12530 12531 12532 12533 12534 12535 12536 12537 12538 12539 12540 12541 12542 12543 12544 12545 12546 12547 12548 12549 12550 12551 12552 12553 12554 12555 12556 12557 12558 12559 12560 12561 12562 12563 12564 12565 12566 12567 12568 12569 12570 12571 12572 12573 12574 12575 12576 12577 12578 12579 12580 12581 12582 12583 12584 12585 12586 12587 12588 12589 12590 12591 12592 12593 12594 12595 12596 12597 12598 12599 12600 12601 12602 12603 12604 12605 12606 12607 12608 12609 12610 12611 12612 12613 12614 12615 12616 12617 12618 12619 12620 12621 12622 12623 12624 12625 12626 12627 12628 12629 12630 12631 12632 12633 12634 12635 12636 12637 12638 12639 12640 12641 12642 12643 12644 12645 12646 12647 12648 12649 12650 12651 12652 12653 12654 12655 12656 12657 12658 12659 12660 12661 12662 12663 12664 12665 12666 12667 12668 12669 12670 12671 12672 12673 12674 12675 12676 12677 12678 12679 12680 12681 12682 12683 12684 12685 12686 12687 12688 12689 12690 12691 12692 12693 12694 12695 12696 12697 12698 12699 12700 12701 12702 12703 12704 12705 12706 12707 12708 12709 12710 12711 12712 12713 12714 12715 12716 12717 12718 12719 12720 12721 12722 12723 12724 12725 12726 12727 12728 12729 12730 12731 12732 12733 12734 12735 12736 12737 12738 12739 12740 12741 12742 12743 12744 12745 12746 12747 12748 12749 12750 12751 12752 12753 12754 12755 12756 12757 12758 12759 12760 12761 12762 12763 12764 12765 12766 12767 12768 12769 12770 12771 12772 12773 12774 12775 12776 12777 12778 12779 12780 12781 12782 12783 12784 12785 12786 12787 12788 12789 12790 12791 12792 12793 12794 12795 12796 12797 12798 12799 12800 12801 12802 12803 12804 12805 12806 12807 12808 12809 12810 12811 12812 12813 12814 12815 12816 12817 12818 12819 12820 12821 12822 12823 12824 12825 12826 12827 12828 12829 12830 12831 12832 12833 12834 12835 12836 12837 12838 12839 12840 12841 12842 12843 12844 12845 12846 12847 12848 12849 12850 12851 12852 12853 12854 12855 12856 12857 12858 12859 12860 12861 12862 12863 12864 12865 12866 12867 12868 12869 12870 12871 12872 12873 12874 12875 12876 12877 12878 12879 12880 12881 12882 12883 12884 12885 12886 12887 12888 12889 12890 12891 12892 12893 12894 12895 12896 12897 12898 12899 12900 12901 12902 12903 12904 12905 12906 12907 12908 12909 12910 12911 12912 12913 12914 12915 12916 12917 12918 12919 12920 12921 12922 12923 12924 12925 12926 12927 12928 12929 12930 12931 12932 12933 12934 12935 12936 12937 12938 12939 12940 12941 12942 12943 12944 12945 12946 12947 12948 12949 12950 12951 12952 12953 12954 12955 12956 12957 12958 12959 12960 12961 12962 12963 12964 12965 12966 12967 12968 12969 12970 12971 12972 12973 12974 12975 12976 12977 12978 12979 12980 12981 12982 12983 12984 12985 12986 12987 12988 12989 12990 12991 12992 12993 12994 12995 12996 12997 12998 12999 13000 13001 13002 13003 13004 13005 13006 13007 13008 13009 13010 13011 13012 13013 13014 13015 13016 13017 13018 13019 13020 13021 13022 13023 13024 13025 13026 13027 13028 13029 13030 13031 13032 13033 13034 13035 13036 13037 13038 13039 13040 13041 13042 13043 13044 13045 13046 13047 13048 13049 13050 13051 13052 13053 13054 13055 13056 13057 13058 13059 13060 13061 13062 13063 13064 13065 13066 13067 13068 13069 13070 13071 13072 13073 13074 13075 13076 13077 13078 13079 13080 13081 13082 13083 13084 13085 13086 13087 13088 13089 13090 13091 13092 13093 13094 13095 13096 13097 13098 13099 13100 13101 13102 13103 13104 13105 13106 13107 13108 13109 13110 13111 13112 13113 13114 13115 13116 13117 13118 13119 13120 13121 13122 13123 13124 13125 13126 13127 13128 13129 13130 13131 13132 13133 13134 13135 13136 13137 13138 13139 13140 13141 13142 13143 13144 13145 13146 13147 13148 13149 13150 13151 13152 13153 13154 13155 13156 13157 13158 13159 13160 13161 13162 13163 13164 13165 13166 13167 13168 13169 13170 13171 13172 13173 13174 13175 13176 13177 13178 13179 13180 13181 13182 13183 13184 13185 13186 13187 13188 13189 13190 13191 13192 13193 13194 13195 13196 13197 13198 13199 13200 13201 13202 13203 13204 13205 13206 13207 13208 13209 13210 13211 13212 13213 13214 13215 13216 13217 13218 13219 13220 13221 13222 13223 13224 13225 13226 13227 13228 13229 13230 13231 13232 13233 13234 13235 13236 13237 13238 13239 13240 13241 13242 13243 13244 13245 13246 13247 13248 13249 13250 13251 13252 13253 13254 13255 13256 13257 13258 13259 13260 13261 13262 13263 13264 13265 13266 13267 13268 13269 13270 13271 13272 13273 13274 13275 13276 13277 13278 13279 13280 13281 13282 13283 13284 13285 13286 13287 13288 13289 13290 13291 13292 13293 13294 13295 13296 13297 13298 13299 13300 13301 13302 13303 13304 13305 13306 13307 13308 13309 13310 13311 13312 13313 13314 13315 13316 13317 13318 13319 13320 13321 13322 13323 13324 13325 13326 13327 13328 13329 13330 13331 13332 13333 13334 13335 13336 13337 13338 13339 13340 13341 13342 13343 13344 13345 13346 13347 13348 13349 13350 13351 13352 13353 13354 13355 13356 13357 13358 13359 13360 13361 13362 13363 13364 13365 13366 13367 13368 13369 13370 13371 13372 13373 13374 13375 13376 13377 13378 13379 13380 13381 13382 13383 13384 13385 13386 13387 13388 13389 13390 13391 13392 13393 13394 13395 13396 13397 13398 13399 13400 13401 13402 13403 13404 13405 13406 13407 13408 13409 13410 13411 13412 13413 13414 13415 13416 13417 13418 13419 13420 13421 13422 13423 13424 13425 13426 13427 13428 13429 13430 13431 13432 13433 13434 13435 13436 13437 13438 13439 13440 13441 13442 13443 13444 13445 13446 13447 13448 13449 13450 13451 13452 13453 13454 13455 13456 13457 13458 13459 13460 13461 13462 13463 13464 13465 13466 13467 13468 13469 13470 13471 13472 13473 13474 13475 13476 13477 13478 13479 13480 13481 13482 13483 13484 13485 13486 13487 13488 13489 13490 13491 13492 13493 13494 13495 13496 13497 13498 13499 13500 13501 13502 13503 13504 13505 13506 13507 13508 13509 13510 13511 13512 13513 13514 13515 13516 13517 13518 13519 13520 13521 13522 13523 13524 13525 13526 13527 13528 13529 13530 13531 13532 13533 13534 13535 13536 13537 13538 13539 13540 13541 13542 13543 13544 13545 13546 13547 13548 13549 13550 13551 13552 13553 13554 13555 13556 13557 13558 13559 13560 13561 13562 13563 13564 13565 13566 13567 13568 13569 13570 13571 13572 13573 13574 13575 13576 13577 13578 13579 13580 13581 13582 13583 13584 13585 13586 13587 13588 13589 13590 13591 13592 13593 13594 13595 13596 13597 13598 13599 13600 13601 13602 13603 13604 13605 13606 13607 13608 13609 13610 13611 13612 13613 13614 13615 13616 13617 13618 13619 13620 13621 13622 13623 13624 13625 13626 13627 13628 13629 13630 13631 13632 13633 13634 13635 13636 13637 13638 13639 13640 13641 13642 13643 13644 13645 13646 13647 13648 13649 13650 13651 13652 13653 13654 13655 13656 13657 13658 13659 13660 13661 13662 13663 13664 13665 13666 13667 13668 13669 13670 13671 13672 13673 13674 13675 13676 13677 13678 13679 13680 13681 13682 13683 13684 13685 13686 13687 13688 13689 13690 13691 13692 13693 13694 13695 13696 13697 13698 13699 13700 13701 13702 13703 13704 13705 13706 13707 13708 13709 13710 13711 13712 13713 13714 13715 13716 13717 13718 13719 13720 13721 13722 13723 13724 13725 13726 13727 13728 13729 13730 13731 13732 13733 13734 13735 13736 13737 13738 13739 13740 13741 13742 13743 13744 13745 13746 13747 13748 13749 13750 13751 13752 13753 13754 13755 13756 13757 13758 13759 13760 13761 13762 13763 13764 13765 13766 13767 13768 13769 13770 13771 13772 13773 13774 13775 13776 13777 13778 13779 13780 13781 13782 13783 13784 13785 13786 13787 13788 13789 13790 13791 13792 13793 13794 13795 13796 13797 13798 13799 13800 13801 13802 13803 13804 13805 13806 13807 13808 13809 13810 13811 13812 13813 13814 13815 13816 13817 13818 13819 13820 13821 13822 13823 13824 13825 13826 13827 13828 13829 13830 13831 13832 13833 13834 13835 13836 13837 13838 13839 13840 13841 13842 13843 13844 13845 13846 13847 13848 13849 13850 13851 13852 13853 13854 13855 13856 13857 13858 13859 13860 13861 13862 13863 13864 13865 13866 13867 13868 13869 13870 13871 13872 13873 13874 13875 13876 13877 13878 13879 13880 13881 13882 13883 13884 13885 13886 13887 13888 13889 13890 13891 13892 13893 13894 13895 13896 13897 13898 13899 13900 13901 13902 13903 13904 13905 13906 13907 13908 13909 13910 13911 13912 13913 13914 13915 13916 13917 13918 13919 13920 13921 13922 13923 13924 13925 13926 13927 13928 13929 13930 13931 13932 13933 13934 13935 13936 13937 13938 13939 13940 13941 13942 13943 13944 13945 13946 13947 13948 13949 13950 13951 13952 13953 13954 13955 13956 13957 13958 13959 13960 13961 13962 13963 13964 13965 13966 13967 13968 13969 13970 13971 13972 13973 13974 13975 13976 13977 13978 13979 13980 13981 13982 13983 13984 13985 13986 13987 13988 13989 13990 13991 13992 13993 13994 13995 13996 13997 13998 13999 14000 14001 14002 14003 14004 14005 14006 14007 14008 14009 14010 14011 14012 14013 14014 14015 14016 14017 14018 14019 14020 14021 14022 14023 14024 14025 14026 14027 14028 14029 14030 14031 14032 14033 14034 14035 14036 14037 14038 14039 14040 14041 14042 14043 14044 14045 14046 14047 14048 14049 14050 14051 14052 14053 14054 14055 14056 14057 14058 14059 14060 14061 14062 14063 14064 14065 14066 14067 14068 14069 14070 14071 14072 14073 14074 14075 14076 14077 14078 14079 14080 14081 14082 14083 14084 14085 14086 14087 14088 14089 14090 14091 14092 14093 14094 14095 14096 14097 14098 14099 14100 14101 14102 14103 14104 14105 14106 14107 14108 14109 14110 14111 14112 14113 14114 14115 14116 14117 14118 14119 14120 14121 14122 14123 14124 14125 14126 14127 14128 14129 14130 14131 14132 14133 14134 14135 14136 14137 14138 14139 14140 14141 14142 14143 14144 14145 14146 14147 14148 14149 14150 14151 14152 14153 14154 14155 14156 14157 14158 14159 14160 14161 14162 14163 14164 14165 14166 14167 14168 14169 14170 14171 14172 14173 14174 14175 14176 14177 14178 14179 14180 14181 14182 14183 14184 14185 14186 14187 14188 14189 14190 14191 14192 14193 14194 14195 14196 14197 14198 14199 14200 14201 14202 14203 14204 14205 14206 14207 14208 14209 14210 14211 14212 14213 14214 14215 14216 14217 14218 14219 14220 14221 14222 14223 14224 14225 14226 14227 14228 14229 14230 14231 14232 14233 14234 14235 14236 14237 14238 14239 14240 14241 14242 14243 14244 14245 14246 14247 14248 14249 14250 14251 14252 14253 14254 14255 14256 14257 14258 14259 14260 14261 14262 14263 14264 14265 14266 14267 14268 14269 14270 14271 14272 14273 14274 14275 14276 14277 14278 14279 14280 14281 14282 14283 14284 14285 14286 14287 14288 14289 14290 14291 14292 14293 14294 14295 14296 14297 14298 14299 14300 14301 14302 14303 14304 14305 14306 14307 14308 14309 14310 14311 14312 14313 14314 14315 14316 14317 14318 14319 14320 14321 14322 14323 14324 14325 14326 14327 14328 14329 14330 14331 14332 14333 14334 14335 14336 14337 14338 14339 14340 14341 14342 14343 14344 14345 14346 14347 14348 14349 14350 14351 14352 14353 14354 14355 14356 14357 14358 14359 14360 14361 14362 14363 14364 14365 14366 14367 14368 14369 14370 14371 14372 14373 14374 14375 14376 14377 14378 14379 14380 14381 14382 14383 14384 14385 14386 14387 14388 14389 14390 14391 14392 14393 14394 14395 14396 14397 14398 14399 14400 14401 14402 14403 14404 14405 14406 14407 14408 14409 14410 14411 14412 14413 14414 14415 14416 14417 14418 14419 14420 14421 14422 14423 14424 14425 14426 14427 14428 14429 14430 14431 14432 14433 14434 14435 14436 14437 14438 14439 14440 14441 14442 14443 14444 14445 14446 14447 14448 14449 14450 14451 14452 14453 14454 14455 14456 14457 14458 14459 14460 14461 14462 14463 14464 14465 14466 14467 14468 14469 14470 14471 14472 14473 14474 14475 14476 14477 14478 14479 14480 14481 14482 14483 14484 14485 14486 14487 14488 14489 14490 14491 14492 14493 14494 14495 14496 14497 14498 14499 14500 14501 14502 14503 14504 14505 14506 14507 14508 14509 14510 14511 14512 14513 14514 14515 14516 14517 14518 14519 14520 14521 14522 14523 14524 14525 14526 14527 14528 14529 14530 14531 14532 14533 14534 14535 14536 14537 14538 14539 14540 14541 14542 14543 14544 14545 14546 14547 14548 14549 14550 14551 14552 14553 14554 14555 14556 14557 14558 14559 14560 14561 14562 14563 14564 14565 14566 14567 14568 14569 14570 14571 14572 14573 14574 14575 14576 14577 14578 14579 14580 14581 14582 14583 14584 14585 14586 14587 14588 14589 14590 14591 14592 14593 14594 14595 14596 14597 14598 14599 14600 14601 14602 14603 14604 14605 14606 14607 14608 14609 14610 14611 14612 14613 14614 14615 14616 14617 14618 14619 14620 14621 14622 14623 14624 14625 14626 14627 14628 14629 14630 14631 14632 14633 14634 14635 14636 14637 14638 14639 14640 14641 14642 14643 14644 14645 14646 14647 14648 14649 14650 14651 14652 14653 14654 14655 14656 14657 14658 14659 14660 14661 14662 14663 14664 14665 14666 14667 14668 14669 14670 14671 14672 14673 14674 14675 14676 14677 14678 14679 14680 14681 14682 14683 14684 14685 14686 14687 14688 14689 14690 14691 14692 14693 14694 14695 14696 14697 14698 14699 14700 14701 14702 14703 14704 14705 14706 14707 14708 14709 14710 14711 14712 14713 14714 14715 14716 14717 14718 14719 14720 14721 14722 14723 14724 14725 14726 14727 14728 14729 14730 14731 14732 14733 14734 14735 14736 14737 14738 14739 14740 14741 14742 14743 14744 14745 14746 14747 14748 14749 14750 14751 14752 14753 14754 14755 14756 14757 14758 14759 14760 14761 14762 14763 14764 14765 14766 14767 14768 14769 14770 14771 14772 14773 14774 14775 14776 14777 14778 14779 14780 14781 14782 14783 14784 14785 14786 14787 14788 14789 14790 14791 14792 14793 14794 14795 14796 14797 14798 14799 14800 14801 14802 14803 14804 14805 14806 14807 14808 14809 14810 14811 14812 14813 14814 14815 14816 14817 14818 14819 14820 14821 14822 14823 14824 14825 14826 14827 14828 14829 14830 14831 14832 14833 14834 14835 14836 14837 14838 14839 14840 14841 14842 14843 14844 14845 14846 14847 14848 14849 14850 14851 14852 14853 14854 14855 14856 14857 14858 14859 14860 14861 14862 14863 14864 14865 14866 14867 14868 14869 14870 14871 14872 14873 14874 14875 14876 14877 14878 14879 14880 14881 14882 14883 14884 14885 14886 14887 14888 14889 14890 14891 14892 14893 14894 14895 14896 14897 14898 14899 14900 14901 14902 14903 14904 14905 14906 14907 14908 14909 14910 14911 14912 14913 14914 14915 14916 14917 14918 14919 14920 14921 14922 14923 14924 14925 14926 14927 14928 14929 14930 14931 14932 14933 14934 14935 14936 14937 14938 14939 14940 14941 14942 14943 14944 14945 14946 14947 14948 14949 14950 14951 14952 14953 14954 14955 14956 14957 14958 14959 14960 14961 14962 14963 14964 14965 14966 14967 14968 14969 14970 14971 14972 14973 14974 14975 14976 14977 14978 14979 14980 14981 14982 14983 14984 14985 14986 14987 14988 14989 14990 14991 14992 14993 14994 14995 14996 14997 14998 14999 15000 15001 15002 15003 15004 15005 15006 15007 15008 15009 15010 15011 15012 15013 15014 15015 15016 15017 15018 15019 15020 15021 15022 15023 15024 15025 15026 15027 15028 15029 15030 15031 15032 15033 15034 15035 15036 15037 15038 15039 15040 15041 15042 15043 15044 15045 15046 15047 15048 15049 15050 15051 15052 15053 15054 15055 15056 15057 15058 15059 15060 15061 15062 15063 15064 15065 15066 15067 15068 15069 15070 15071 15072 15073 15074 15075 15076 15077 15078 15079 15080 15081 15082 15083 15084 15085 15086 15087 15088 15089 15090 15091 15092 15093 15094 15095 15096 15097 15098 15099 15100 15101 15102 15103 15104 15105 15106 15107 15108 15109 15110 15111 15112 15113 15114 15115 15116 15117 15118 15119 15120 15121 15122 15123 15124 15125 15126 15127 15128 15129 15130 15131 15132 15133 15134 15135 15136 15137 15138 15139 15140 15141 15142 15143 15144 15145 15146 15147 15148 15149 15150 15151 15152 15153 15154 15155 15156 15157 15158 15159 15160 15161 15162 15163 15164 15165 15166 15167 15168 15169 15170 15171 15172 15173 15174 15175 15176 15177 15178 15179 15180 15181 15182 15183 15184 15185 15186 15187 15188 15189 15190 15191 15192 15193 15194 15195 15196 15197 15198 15199 15200 15201 15202 15203 15204 15205 15206 15207 15208 15209 15210 15211 15212 15213 15214 15215 15216 15217 15218 15219 15220 15221 15222 15223 15224 15225 15226 15227 15228 15229 15230 15231 15232 15233 15234 15235 15236 15237 15238 15239 15240 15241 15242 15243 15244 15245 15246 15247 15248 15249 15250 15251 15252 15253 15254 15255 15256 15257 15258 15259 15260 15261 15262 15263 15264 15265 15266 15267 15268 15269 15270 15271 15272 15273 15274 15275 15276 15277 15278 15279 15280 15281 15282 15283 15284 15285 15286 15287 15288 15289 15290 15291 15292 15293 15294 15295 15296 15297 15298 15299 15300 15301 15302 15303 15304 15305 15306 15307 15308 15309 15310 15311 15312 15313 15314 15315 15316 15317 15318 15319 15320 15321 15322 15323 15324 15325 15326 15327 15328 15329 15330 15331 15332 15333 15334 15335 15336 15337 15338 15339 15340 15341 15342 15343 15344 15345 15346 15347 15348 15349 15350 15351 15352 15353 15354 15355 15356 15357 15358 15359 15360 15361 15362 15363 15364 15365 15366 15367 15368 15369 15370 15371 15372 15373 15374 15375 15376 15377 15378 15379 15380 15381 15382 15383 15384 15385 15386 15387 15388 15389 15390 15391 15392 15393 15394 15395 15396 15397 15398 15399 15400 15401 15402 15403 15404 15405 15406 15407 15408 15409 15410 15411 15412 15413 15414 15415 15416 15417 15418 15419 15420 15421 15422 15423 15424 15425 15426 15427 15428 15429 15430 15431 15432 15433 15434 15435 15436 15437 15438 15439 15440 15441 15442 15443 15444 15445 15446 15447 15448 15449 15450 15451 15452 15453 15454 15455 15456 15457 15458 15459 15460 15461 15462 15463 15464 15465 15466 15467 15468 15469 15470 15471 15472 15473 15474 15475 15476 15477 15478 15479 15480 15481 15482 15483 15484 15485 15486 15487 15488 15489 15490 15491 15492 15493 15494 15495 15496 15497 15498 15499 15500 15501 15502 15503 15504 15505 15506 15507 15508 15509 15510 15511 15512 15513 15514 15515 15516 15517 15518 15519 15520 15521 15522 15523 15524 15525 15526 15527 15528 15529 15530 15531 15532 15533 15534 15535 15536 15537 15538 15539 15540 15541 15542 15543 15544 15545 15546 15547 15548 15549 15550 15551 15552 15553 15554 15555 15556 15557 15558 15559 15560 15561 15562 15563 15564 15565 15566 15567 15568 15569 15570 15571 15572 15573 15574 15575 15576 15577 15578 15579 15580 15581 15582 15583 15584 15585 15586 15587 15588 15589 15590 15591 15592 15593 15594 15595 15596 15597 15598 15599 15600 15601 15602 15603 15604 15605 15606 15607 15608 15609 15610 15611 15612 15613 15614 15615 15616 15617 15618 15619 15620 15621 15622 15623 15624 15625 15626 15627 15628 15629 15630 15631 15632 15633 15634 15635 15636 15637 15638 15639 15640 15641 15642 15643 15644 15645 15646 15647 15648 15649 15650 15651 15652 15653 15654 15655 15656 15657 15658 15659 15660 15661 15662 15663 15664 15665 15666 15667 15668 15669 15670 15671 15672 15673 15674 15675 15676 15677 15678 15679 15680 15681 15682 15683 15684 15685 15686 15687 15688 15689 15690 15691 15692 15693 15694 15695 15696 15697 15698 15699 15700 15701 15702 15703 15704 15705 15706 15707 15708 15709 15710 15711 15712 15713 15714 15715 15716 15717 15718 15719 15720 15721 15722 15723 15724 15725 15726 15727 15728 15729 15730 15731 15732 15733 15734 15735 15736 15737 15738 15739 15740 15741 15742 15743 15744 15745 15746 15747 15748 15749 15750 15751 15752 15753 15754 15755 15756 15757 15758 15759 15760 15761 15762 15763 15764 15765 15766 15767 15768 15769 15770 15771 15772 15773 15774 15775 15776 15777 15778 15779 15780 15781 15782 15783 15784 15785 15786 15787 15788 15789 15790 15791 15792 15793 15794 15795 15796 15797 15798 15799 15800 15801 15802 15803 15804 15805 15806 15807 15808 15809 15810 15811 15812 15813 15814 15815 15816 15817 15818 15819 15820 15821 15822 15823 15824 15825 15826 15827 15828 15829 15830 15831 15832 15833 15834 15835 15836 15837 15838 15839 15840 15841 15842 15843 15844 15845 15846 15847 15848 15849 15850 15851 15852 15853 15854 15855 15856 15857 15858 15859 15860 15861 15862 15863 15864 15865 15866 15867 15868 15869 15870 15871 15872 15873 15874 15875 15876 15877 15878 15879 15880 15881 15882 15883 15884 15885 15886 15887 15888 15889 15890 15891 15892 15893 15894 15895 15896 15897 15898 15899 15900 15901 15902 15903 15904 15905 15906 15907 15908 15909 15910 15911 15912 15913 15914 15915 15916 15917 15918 15919 15920 15921 15922 15923 15924 15925 15926 15927 15928 15929 15930 15931 15932 15933 15934 15935 15936 15937 15938 15939 15940 15941 15942 15943 15944 15945 15946 15947 15948 15949 15950 15951 15952 15953 15954 15955 15956 15957 15958 15959 15960 15961 15962 15963 15964 15965 15966 15967 15968 15969 15970 15971 15972 15973 15974 15975 15976 15977 15978 15979 15980 15981 15982 15983 15984 15985 15986 15987 15988 15989 15990 15991 15992 15993 15994 15995 15996 15997 15998 15999 16000 16001 16002 16003 16004 16005 16006 16007 16008 16009 16010 16011 16012 16013 16014 16015 16016 16017 16018 16019 16020 16021 16022 16023 16024 16025 16026 16027 16028 16029 16030 16031 16032 16033 16034 16035 16036 16037 16038 16039 16040 16041 16042 16043 16044 16045 16046 16047 16048 16049 16050 16051 16052 16053 16054 16055 16056 16057 16058 16059 16060 16061 16062 16063 16064 16065 16066 16067 16068 16069 16070 16071 16072 16073 16074 16075 16076 16077 16078 16079 16080 16081 16082 16083 16084 16085 16086 16087 16088 16089 16090 16091 16092 16093 16094 16095 16096 16097 16098 16099 16100 16101 16102 16103 16104 16105 16106 16107 16108 16109 16110 16111 16112 16113 16114 16115 16116 16117 16118 16119 16120 16121 16122 16123 16124 16125 16126 16127 16128 16129 16130 16131 16132 16133 16134 16135 16136 16137 16138 16139 16140 16141 16142 16143 16144 16145 16146 16147 16148 16149 16150 16151 16152 16153 16154 16155 16156 16157 16158 16159 16160 16161 16162 16163 16164 16165 16166 16167 16168 16169 16170 16171 16172 16173 16174 16175 16176 16177 16178 16179 16180 16181 16182 16183 16184 16185 16186 16187 16188 16189 16190 16191 16192 16193 16194 16195 16196 16197 16198 16199 16200 16201 16202 16203 16204 16205 16206 16207 16208 16209 16210 16211 16212 16213 16214 16215 16216 16217 16218 16219 16220 16221 16222 16223 16224 16225 16226 16227 16228 16229 16230 16231 16232 16233 16234 16235 16236 16237 16238 16239 16240 16241 16242 16243 16244 16245 16246 16247 16248 16249 16250 16251 16252 16253 16254 16255 16256 16257 16258 16259 16260 16261 16262 16263 16264 16265 16266 16267 16268 16269 16270 16271 16272 16273 16274 16275 16276 16277 16278 16279 16280 16281 16282 16283 16284 16285 16286 16287 16288 16289 16290 16291 16292 16293 16294 16295 16296 16297 16298 16299 16300 16301 16302 16303 16304 16305 16306 16307 16308 16309 16310 16311 16312 16313 16314 16315 16316 16317 16318 16319 16320 16321 16322 16323 16324 16325 16326 16327 16328 16329 16330 16331 16332 16333 16334 16335 16336 16337 16338 16339 16340 16341 16342 16343 16344 16345 16346 16347 16348 16349 16350 16351 16352 16353 16354 16355 16356 16357 16358 16359 16360 16361 16362 16363 16364 16365 16366 16367 16368 16369 16370 16371 16372 16373 16374 16375 16376 16377 16378 16379 16380 16381 16382 16383 16384 16385 16386 16387 16388 16389 16390 16391 16392 16393 16394 16395 16396 16397 16398 16399 16400 16401 16402 16403 16404 16405 16406 16407 16408 16409 16410 16411 16412 16413 16414 16415 16416 16417 16418 16419 16420 16421 16422 16423 16424 16425 16426 16427 16428 16429 16430 16431 16432 16433 16434 16435 16436 16437 16438 16439 16440 16441 16442 16443 16444 16445 16446 16447 16448 16449 16450 16451 16452 16453 16454 16455 16456 16457 16458 16459 16460 16461 16462 16463 16464 16465 16466 16467 16468 16469 16470 16471 16472 16473 16474 16475 16476 16477 16478 16479 16480 16481 16482 16483 16484 16485 16486 16487 16488 16489 16490 16491 16492 16493 16494 16495 16496 16497 16498 16499 16500 16501 16502 16503 16504 16505 16506 16507 16508 16509 16510 16511 16512 16513 16514 16515 16516 16517 16518 16519 16520 16521 16522 16523 16524 16525 16526 16527 16528 16529 16530 16531 16532 16533 16534 16535 16536 16537 16538 16539 16540 16541 16542 16543 16544 16545 16546 16547 16548 16549 16550 16551 16552 16553 16554 16555 16556 16557 16558 16559 16560 16561 16562 16563 16564 16565 16566 16567 16568 16569 16570 16571 16572 16573 16574 16575 16576 16577 16578 16579 16580 16581 16582 16583 16584 16585 16586 16587 16588 16589 16590 16591 16592 16593 16594 16595 16596 16597 16598 16599 16600 16601 16602 16603 16604 16605 16606 16607 16608 16609 16610 16611 16612 16613 16614 16615 16616 16617 16618 16619 16620 16621 16622 16623 16624 16625 16626 16627 16628 16629 16630 16631 16632 16633 16634 16635 16636 16637 16638 16639 16640 16641 16642 16643 16644 16645 16646 16647 16648 16649 16650 16651 16652 16653 16654 16655 16656 16657 16658 16659 16660 16661 16662 16663 16664 16665 16666 16667 16668 16669 16670 16671 16672 16673 16674 16675 16676 16677 16678 16679 16680 16681 16682 16683 16684 16685 16686 16687 16688 16689 16690 16691 16692 16693 16694 16695 16696 16697 16698 16699 16700 16701 16702 16703 16704 16705 16706 16707 16708 16709 16710 16711 16712 16713 16714 16715 16716 16717 16718 16719 16720 16721 16722 16723 16724 16725 16726 16727 16728 16729 16730 16731 16732 16733 16734 16735 16736 16737 16738 16739 16740 16741 16742 16743 16744 16745 16746 16747 16748 16749 16750 16751 16752 16753 16754 16755 16756 16757 16758 16759 16760 16761 16762 16763 16764 16765 16766 16767 16768 16769 16770 16771 16772 16773 16774 16775 16776 16777 16778 16779 16780 16781 16782 16783 16784 16785 16786 16787 16788 16789 16790 16791 16792 16793 16794 16795 16796 16797 16798 16799 16800 16801 16802 16803 16804 16805 16806 16807 16808 16809 16810 16811 16812 16813 16814 16815 16816 16817 16818 16819 16820 16821 16822 16823 16824 16825 16826 16827 16828 16829 16830 16831 16832 16833 16834 16835 16836 16837 16838 16839 16840 16841 16842 16843 16844 16845 16846 16847 16848 16849 16850 16851 16852 16853 16854 16855 16856 16857 16858 16859 16860 16861 16862 16863 16864 16865 16866 16867 16868 16869 16870 16871 16872 16873 16874 16875 16876 16877 16878 16879 16880 16881 16882 16883 16884 16885 16886 16887 16888 16889 16890 16891 16892 16893 16894 16895 16896 16897 16898 16899 16900 16901 16902 16903 16904 16905 16906 16907 16908 16909 16910 16911 16912 16913 16914 16915 16916 16917 16918 16919 16920 16921 16922 16923 16924 16925 16926 16927 16928 16929 16930 16931 16932 16933 16934 16935 16936 16937 16938 16939 16940 16941 16942 16943 16944 16945 16946 16947 16948 16949 16950 16951 16952 16953 16954 16955 16956 16957 16958 16959 16960 16961 16962 16963 16964 16965 16966 16967 16968 16969 16970 16971 16972 16973 16974 16975 16976 16977 16978 16979 16980 16981 16982 16983 16984 16985 16986 16987 16988 16989 16990 16991 16992 16993 16994 16995 16996 16997 16998 16999 17000 17001 17002 17003 17004 17005 17006 17007 17008 17009 17010 17011 17012 17013 17014 17015 17016 17017 17018 17019 17020 17021 17022 17023 17024 17025 17026 17027 17028 17029 17030 17031 17032 17033 17034 17035 17036 17037 17038 17039 17040 17041 17042 17043 17044 17045 17046 17047 17048 17049 17050 17051 17052 17053 17054 17055 17056 17057 17058 17059 17060 17061 17062 17063 17064 17065 17066 17067 17068 17069 17070 17071 17072 17073 17074 17075 17076 17077 17078 17079 17080 17081 17082 17083 17084 17085 17086 17087 17088 17089 17090 17091 17092 17093 17094 17095 17096 17097 17098 17099 17100 17101 17102 17103 17104 17105 17106 17107 17108 17109 17110 17111 17112 17113 17114 17115 17116 17117 17118 17119 17120 17121 17122 17123 17124 17125 17126 17127 17128 17129 17130 17131 17132 17133 17134 17135 17136 17137 17138 17139 17140 17141 17142 17143 17144 17145 17146 17147 17148 17149 17150 17151 17152 17153 17154 17155 17156 17157 17158 17159 17160 17161 17162 17163 17164 17165 17166 17167 17168 17169 17170 17171 17172 17173 17174 17175 17176 17177 17178 17179 17180 17181 17182 17183 17184 17185 17186 17187 17188 17189 17190 17191 17192 17193 17194 17195 17196 17197 17198 17199 17200 17201 17202 17203 17204 17205 17206 17207 17208 17209 17210 17211 17212 17213 17214 17215 17216 17217 17218 17219 17220 17221 17222 17223 17224 17225 17226 17227 17228 17229 17230 17231 17232 17233 17234 17235 17236 17237 17238 17239 17240 17241 17242 17243 17244 17245 17246 17247 17248 17249 17250 17251 17252 17253 17254 17255 17256 17257 17258 17259 17260 17261 17262 17263 17264 17265 17266 17267 17268 17269 17270 17271 17272 17273 17274 17275 17276 17277 17278 17279 17280 17281 17282 17283 17284 17285 17286 17287 17288 17289 17290 17291 17292 17293 17294 17295 17296 17297 17298 17299 17300 17301 17302 17303 17304 17305 17306 17307 17308 17309 17310 17311 17312 17313 17314 17315 17316 17317 17318 17319 17320 17321 17322 17323 17324 17325 17326 17327 17328 17329 17330 17331 17332 17333 17334 17335 17336 17337 17338 17339 17340 17341 17342 17343 17344 17345 17346 17347 17348 17349 17350 17351 17352 17353 17354 17355 17356 17357 17358 17359 17360 17361 17362 17363 17364 17365 17366 17367 17368 17369 17370 17371 17372 17373 17374 17375 17376 17377 17378 17379 17380 17381 17382 17383 17384 17385 17386 17387 17388 17389 17390 17391 17392 17393 17394 17395 17396 17397 17398 17399 17400 17401 17402 17403 17404 17405 17406 17407 17408 17409 17410 17411 17412 17413 17414 17415 17416 17417 17418 17419 17420 17421 17422 17423 17424 17425 17426 17427 17428 17429 17430 17431 17432 17433 17434 17435 17436 17437 17438 17439 17440 17441 17442 17443 17444 17445 17446 17447 17448 17449 17450 17451 17452 17453 17454 17455 17456 17457 17458 17459 17460 17461 17462 17463 17464 17465 17466 17467 17468 17469 17470 17471 17472 17473 17474 17475 17476 17477 17478 17479 17480 17481 17482 17483 17484 17485 17486 17487 17488 17489 17490 17491 17492 17493 17494 17495 17496 17497 17498 17499 17500 17501 17502 17503 17504 17505 17506 17507 17508 17509 17510 17511 17512 17513 17514 17515 17516 17517 17518 17519 17520 17521 17522 17523 17524 17525 17526 17527 17528 17529 17530 17531 17532 17533 17534 17535 17536 17537 17538 17539 17540 17541 17542 17543 17544 17545 17546 17547 17548 17549 17550 17551 17552 17553 17554 17555 17556 17557 17558 17559 17560 17561 17562 17563 17564 17565 17566 17567 17568 17569 17570 17571 17572 17573 17574 17575 17576 17577 17578 17579 17580 17581 17582 17583 17584 17585 17586 17587 17588 17589 17590 17591 17592 17593 17594 17595 17596 17597 17598 17599 17600 17601 17602 17603 17604 17605 17606 17607 17608 17609 17610 17611 17612 17613 17614 17615 17616 17617 17618 17619 17620 17621 17622 17623 17624 17625 17626 17627 17628 17629 17630 17631 17632 17633 17634 17635 17636 17637 17638 17639 17640 17641 17642 17643 17644 17645 17646 17647 17648 17649 17650 17651 17652 17653 17654 17655 17656 17657 17658 17659 17660 17661 17662 17663 17664 17665 17666 17667 17668 17669 17670 17671 17672 17673 17674 17675 17676 17677 17678 17679 17680 17681 17682 17683 17684 17685 17686 17687 17688 17689 17690 17691 17692 17693 17694 17695 17696 17697 17698 17699 17700 17701 17702 17703 17704 17705 17706 17707 17708 17709 17710 17711 17712 17713 17714 17715 17716 17717 17718 17719 17720 17721 17722 17723 17724 17725 17726 17727 17728 17729 17730 17731 17732 17733 17734 17735 17736 17737 17738 17739 17740 17741 17742 17743 17744 17745 17746 17747 17748 17749 17750 17751 17752 17753 17754 17755 17756 17757 17758 17759 17760 17761 17762 17763 17764 17765 17766 17767 17768 17769 17770 17771 17772 17773 17774 17775 17776 17777 17778 17779 17780 17781 17782 17783 17784 17785 17786 17787 17788 17789 17790 17791 17792 17793 17794 17795 17796 17797 17798 17799 17800 17801 17802 17803 17804 17805 17806 17807 17808 17809 17810 17811 17812 17813 17814 17815 17816 17817 17818 17819 17820 17821 17822 17823 17824 17825 17826 17827 17828 17829 17830 17831 17832 17833 17834 17835 17836 17837 17838 17839 17840 17841 17842 17843 17844 17845 17846 17847 17848 17849 17850 17851 17852 17853 17854 17855 17856 17857 17858 17859 17860 17861 17862 17863 17864 17865 17866 17867 17868 17869 17870 17871 17872 17873 17874 17875 17876 17877 17878 17879 17880 17881 17882 17883 17884 17885 17886 17887 17888 17889 17890 17891 17892 17893 17894 17895 17896 17897 17898 17899 17900 17901 17902 17903 17904 17905 17906 17907 17908 17909 17910 17911 17912 17913 17914 17915 17916 17917 17918 17919 17920 17921 17922 17923 17924 17925 17926 17927 17928 17929 17930 17931 17932 17933 17934 17935 17936 17937 17938 17939 17940 17941 17942 17943 17944 17945 17946 17947 17948 17949 17950 17951 17952 17953 17954 17955 17956 17957 17958 17959 17960 17961 17962 17963 17964 17965 17966 17967 17968 17969 17970 17971 17972 17973 17974 17975 17976 17977 17978 17979 17980 17981 17982 17983 17984 17985 17986 17987 17988 17989 17990 17991 17992 17993 17994 17995 17996 17997 17998 17999 18000 18001 18002 18003 18004 18005 18006 18007 18008 18009 18010 18011 18012 18013 18014 18015 18016 18017 18018 18019 18020 18021 18022 18023 18024 18025 18026 18027 18028 18029 18030 18031 18032 18033 18034 18035 18036 18037 18038 18039 18040 18041 18042 18043 18044 18045 18046 18047 18048 18049 18050 18051 18052 18053 18054 18055 18056 18057 18058 18059 18060 18061 18062 18063 18064 18065 18066 18067 18068 18069 18070 18071 18072 18073 18074 18075 18076 18077 18078 18079 18080 18081 18082 18083 18084 18085 18086 18087 18088 18089 18090 18091 18092 18093 18094 18095 18096 18097 18098 18099 18100 18101 18102 18103 18104 18105 18106 18107 18108 18109 18110 18111 18112 18113 18114 18115 18116 18117 18118 18119 18120 18121 18122 18123 18124 18125 18126 18127 18128 18129 18130 18131 18132 18133 18134 18135 18136 18137 18138 18139 18140 18141 18142 18143 18144 18145 18146 18147 18148 18149 18150 18151 18152 18153 18154 18155 18156 18157 18158 18159 18160 18161 18162 18163 18164 18165 18166 18167 18168 18169 18170 18171 18172 18173 18174 18175 18176 18177 18178 18179 18180 18181 18182 18183 18184 18185 18186 18187 18188 18189 18190 18191 18192 18193 18194 18195 18196 18197 18198 18199 18200 18201 18202 18203 18204 18205 18206 18207 18208 18209 18210 18211 18212 18213 18214 18215 18216 18217 18218 18219 18220 18221 18222 18223 18224 18225 18226 18227 18228 18229 18230 18231 18232 18233 18234 18235 18236 18237 18238 18239 18240 18241 18242 18243 18244 18245 18246 18247 18248 18249 18250 18251 18252 18253 18254 18255 18256 18257 18258 18259 18260 18261 18262 18263 18264 18265 18266 18267 18268 18269 18270 18271 18272 18273 18274 18275 18276 18277 18278 18279 18280 18281 18282 18283 18284 18285 18286 18287 18288 18289 18290 18291 18292 18293 18294 18295 18296 18297 18298 18299 18300 18301 18302 18303 18304 18305 18306 18307 18308 18309 18310 18311 18312 18313 18314 18315 18316 18317 18318 18319 18320 18321 18322 18323 18324 18325 18326 18327 18328 18329 18330 18331 18332 18333 18334 18335 18336 18337 18338 18339 18340 18341 18342 18343 18344 18345 18346 18347 18348 18349 18350 18351 18352 18353 18354 18355 18356 18357 18358 18359 18360 18361 18362 18363 18364 18365 18366 18367 18368 18369 18370 18371 18372 18373 18374 18375 18376 18377 18378 18379 18380 18381 18382 18383 18384 18385 18386 18387 18388 18389 18390 18391 18392 18393 18394 18395 18396 18397 18398 18399 18400 18401 18402 18403 18404 18405 18406 18407 18408 18409 18410 18411 18412 18413 18414 18415 18416 18417 18418 18419 18420 18421 18422 18423 18424 18425 18426 18427 18428 18429 18430 18431 18432 18433 18434 18435 18436 18437 18438 18439 18440 18441 18442 18443 18444 18445 18446 18447 18448 18449 18450 18451 18452 18453 18454 18455 18456 18457 18458 18459 18460 18461 18462 18463 18464 18465 18466 18467 18468 18469 18470 18471 18472 18473 18474 18475 18476 18477 18478 18479 18480 18481 18482 18483 18484 18485 18486 18487 18488 18489 18490 18491 18492 18493 18494 18495 18496 18497 18498 18499 18500 18501 18502 18503 18504 18505 18506 18507 18508 18509 18510 18511 18512 18513 18514 18515 18516 18517 18518 18519 18520 18521 18522 18523 18524 18525 18526 18527 18528 18529 18530 18531 18532 18533 18534 18535 18536 18537 18538 18539 18540 18541 18542 18543 18544 18545 18546 18547 18548 18549 18550 18551 18552 18553 18554 18555 18556 18557 18558 18559 18560 18561 18562 18563 18564 18565 18566 18567 18568 18569 18570 18571 18572 18573 18574 18575 18576 18577 18578 18579 18580 18581 18582 18583 18584 18585 18586 18587 18588 18589 18590 18591 18592 18593 18594 18595 18596 18597 18598 18599 18600 18601 18602 18603 18604 18605 18606 18607 18608 18609 18610 18611 18612 18613 18614 18615 18616 18617 18618 18619 18620 18621 18622 18623 18624 18625 18626 18627 18628 18629 18630 18631 18632 18633 18634 18635 18636 18637 18638 18639 18640 18641 18642 18643 18644 18645 18646 18647 18648 18649 18650 18651 18652 18653 18654 18655 18656 18657 18658 18659 18660 18661 18662 18663 18664 18665 18666 18667 18668 18669 18670 18671 18672 18673 18674 18675 18676 18677 18678 18679 18680 18681 18682 18683 18684 18685 18686 18687 18688 18689 18690 18691 18692 18693 18694 18695 18696 18697 18698 18699 18700 18701 18702 18703 18704 18705 18706 18707 18708 18709 18710 18711 18712 18713 18714 18715 18716 18717 18718 18719 18720 18721 18722 18723 18724 18725 18726 18727 18728 18729 18730 18731 18732 18733 18734 18735 18736 18737 18738 18739 18740 18741 18742 18743 18744 18745 18746 18747 18748 18749 18750 18751 18752 18753 18754 18755 18756 18757 18758 18759 18760 18761 18762 18763 18764 18765 18766 18767 18768 18769 18770 18771 18772 18773 18774 18775 18776 18777 18778 18779 18780 18781 18782 18783 18784 18785 18786 18787 18788 18789 18790 18791 18792 18793 18794 18795 18796 18797 18798 18799 18800 18801 18802 18803 18804 18805 18806 18807 18808 18809 18810 18811 18812 18813 18814 18815 18816 18817 18818 18819 18820 18821 18822 18823 18824 18825 18826 18827 18828 18829 18830 18831 18832 18833 18834 18835 18836 18837 18838 18839 18840 18841 18842 18843 18844 18845 18846 18847 18848 18849 18850 18851 18852 18853 18854 18855 18856 18857 18858 18859 18860 18861 18862 18863 18864 18865 18866 18867 18868 18869 18870 18871 18872 18873 18874 18875 18876 18877 18878 18879 18880 18881 18882 18883 18884 18885 18886 18887 18888 18889 18890 18891 18892 18893 18894 18895 18896 18897 18898 18899 18900 18901 18902 18903 18904 18905 18906 18907 18908 18909 18910 18911 18912 18913 18914 18915 18916 18917 18918 18919 18920 18921 18922 18923 18924 18925 18926 18927 18928 18929 18930 18931 18932 18933 18934 18935 18936 18937 18938 18939 18940 18941 18942 18943 18944 18945 18946 18947 18948 18949 18950 18951 18952 18953 18954 18955 18956 18957 18958 18959 18960 18961 18962 18963 18964 18965 18966 18967 18968 18969 18970 18971 18972 18973 18974 18975 18976 18977 18978 18979 18980 18981 18982 18983 18984 18985 18986 18987 18988 18989 18990 18991 18992 18993 18994 18995 18996 18997 18998 18999 19000 19001 19002 19003 19004 19005 19006 19007 19008 19009 19010 19011 19012 19013 19014 19015 19016 19017 19018 19019 19020 19021 19022 19023 19024 19025 19026 19027 19028 19029 19030 19031 19032 19033 19034 19035 19036 19037 19038 19039 19040 19041 19042 19043 19044 19045 19046 19047 19048 19049 19050 19051 19052 19053 19054 19055 19056 19057 19058 19059 19060 19061 19062 19063 19064 19065 19066 19067 19068 19069 19070 19071 19072 19073 19074 19075 19076 19077 19078 19079 19080 19081 19082 19083 19084 19085 19086 19087 19088 19089 19090 19091 19092 19093 19094 19095 19096 19097 19098 19099 19100 19101 19102 19103 19104 19105 19106 19107 19108 19109 19110 19111 19112 19113 19114 19115 19116 19117 19118 19119 19120 19121 19122 19123 19124 19125 19126 19127 19128 19129 19130 19131 19132 19133 19134 19135 19136 19137 19138 19139 19140 19141 19142 19143 19144 19145 19146 19147 19148 19149 19150 19151 19152 19153 19154 19155 19156 19157 19158 19159 19160 19161 19162 19163 19164 19165 19166 19167 19168 19169 19170 19171 19172 19173 19174 19175 19176 19177 19178 19179 19180 19181 19182 19183 19184 19185 19186 19187 19188 19189 19190 19191 19192 19193 19194 19195 19196 19197 19198 19199 19200 19201 19202 19203 19204 19205 19206 19207 19208 19209 19210 19211 19212 19213 19214 19215 19216 19217 19218 19219 19220 19221 19222 19223 19224 19225 19226 19227 19228 19229 19230 19231 19232 19233 19234 19235 19236 19237 19238 19239 19240 19241 19242 19243 19244 19245 19246 19247 19248 19249 19250 19251 19252 19253 19254 19255 19256 19257 19258 19259 19260 19261 19262 19263 19264 19265 19266 19267 19268 19269 19270 19271 19272 19273 19274 19275 19276 19277 19278 19279 19280 19281 19282 19283 19284 19285 19286 19287 19288 19289 19290 19291 19292 19293 19294 19295 19296 19297 19298 19299 19300 19301 19302 19303 19304 19305 19306 19307 19308 19309 19310 19311 19312 19313 19314 19315 19316 19317 19318 19319 19320 19321 19322 19323 19324 19325 19326 19327 19328 19329 19330 19331 19332 19333 19334 19335 19336 19337 19338 19339 19340 19341 19342 19343 19344 19345 19346 19347 19348 19349 19350 19351 19352 19353 19354 19355 19356 19357 19358 19359 19360 19361 19362 19363 19364 19365 19366 19367 19368 19369 19370 19371 19372 19373 19374 19375 19376 19377 19378 19379 19380 19381 19382 19383 19384 19385 19386 19387 19388 19389 19390 19391 19392 19393 19394 19395 19396 19397 19398 19399 19400 19401 19402 19403 19404 19405 19406 19407 19408 19409 19410 19411 19412 19413 19414 19415 19416 19417 19418 19419 19420 19421 19422 19423 19424 19425 19426 19427 19428 19429 19430 19431 19432 19433 19434 19435 19436 19437 19438 19439 19440 19441 19442 19443 19444 19445 19446 19447 19448 19449 19450 19451 19452 19453 19454 19455 19456 19457 19458 19459 19460 19461 19462 19463 19464 19465 19466 19467 19468 19469 19470 19471 19472 19473 19474 19475 19476 19477 19478 19479 19480 19481 19482 19483 19484 19485 19486 19487 19488 19489 19490 19491 19492 19493 19494 19495 19496 19497 19498 19499 19500 19501 19502 19503 19504 19505 19506 19507 19508 19509 19510 19511 19512 19513 19514 19515 19516 19517 19518 19519 19520 19521 19522 19523 19524 19525 19526 19527 19528 19529 19530 19531 19532 19533 19534 19535 19536 19537 19538 19539 19540 19541 19542 19543 19544 19545 19546 19547 19548 19549 19550 19551 19552 19553 19554 19555 19556 19557 19558 19559 19560 19561 19562 19563 19564 19565 19566 19567 19568 19569 19570 19571 19572 19573 19574 19575 19576 19577 19578 19579 19580 19581 19582 19583 19584 19585 19586 19587 19588 19589 19590 19591 19592 19593 19594 19595 19596 19597 19598 19599 19600 19601 19602 19603 19604 19605 19606 19607 19608 19609 19610 19611 19612 19613 19614 19615 19616 19617 19618 19619 19620 19621 19622 19623 19624 19625 19626 19627 19628 19629 19630 19631 19632 19633 19634 19635 19636 19637 19638 19639 19640 19641 19642 19643 19644 19645 19646 19647 19648 19649 19650 19651 19652 19653 19654 19655 19656 19657 19658 19659 19660 19661 19662 19663 19664 19665 19666 19667 19668 19669 19670 19671 19672 19673 19674 19675 19676 19677 19678 19679 19680 19681 19682 19683 19684 19685 19686 19687 19688 19689 19690 19691 19692 19693 19694 19695 19696 19697 19698 19699 19700 19701 19702 19703 19704 19705 19706 19707 19708 19709 19710 19711 19712 19713 19714 19715 19716 19717 19718 19719 19720 19721 19722 19723 19724 19725 19726 19727 19728 19729 19730 19731 19732 19733 19734 19735 19736 19737 19738 19739 19740 19741 19742 19743 19744 19745 19746 19747 19748 19749 19750 19751 19752 19753 19754 19755 19756 19757 19758 19759 19760 19761 19762 19763 19764 19765 19766 19767 19768 19769 19770 19771 19772 19773 19774 19775 19776 19777 19778 19779 19780 19781 19782 19783 19784 19785 19786 19787 19788 19789 19790 19791 19792 19793 19794 19795 19796 19797 19798 19799 19800 19801 19802 19803 19804 19805 19806 19807 19808 19809 19810 19811 19812 19813 19814 19815 19816 19817 19818 19819 19820 19821 19822 19823 19824 19825 19826 19827 19828 19829 19830 19831 19832 19833 19834 19835 19836 19837 19838 19839 19840 19841 19842 19843 19844 19845 19846 19847 19848 19849 19850 19851 19852 19853 19854 19855 19856 19857 19858 19859 19860 19861 19862 19863 19864 19865 19866 19867 19868 19869 19870 19871 19872 19873 19874 19875 19876 19877 19878 19879 19880 19881 19882 19883 19884 19885 19886 19887 19888 19889 19890 19891 19892 19893 19894 19895 19896 19897 19898 19899 19900 19901 19902 19903 19904 19905 19906 19907 19908 19909 19910 19911 19912 19913 19914 19915 19916 19917 19918 19919 19920 19921 19922 19923 19924 19925 19926 19927 19928 19929 19930 19931 19932 19933 19934 19935 19936 19937 19938 19939 19940 19941 19942 19943 19944 19945 19946 19947 19948 19949 19950 19951 19952 19953 19954 19955 19956 19957 19958 19959 19960 19961 19962 19963 19964 19965 19966 19967 19968 19969 19970 19971 19972 19973 19974 19975 19976 19977 19978 19979 19980 19981 19982 19983 19984 19985 19986 19987 19988 19989 19990 19991 19992 19993 19994 19995 19996 19997 19998 19999 20000 20001 20002 20003 20004 20005 20006 20007 20008 20009 20010 20011 20012 20013 20014 20015 20016 20017 20018 20019 20020 20021 20022 20023 20024 20025 20026 20027 20028 20029 20030 20031 20032 20033 20034 20035 20036 20037 20038 20039 20040 20041 20042 20043 20044 20045 20046 20047 20048 20049 20050 20051 20052 20053 20054 20055 20056 20057 20058 20059 20060 20061 20062 20063 20064 20065 20066 20067 20068 20069 20070 20071 20072 20073 20074 20075 20076 20077 20078 20079 20080 20081 20082 20083 20084 20085 20086 20087 20088 20089 20090 20091 20092 20093 20094 20095 20096 20097 20098 20099 20100 20101 20102 20103 20104 20105 20106 20107 20108 20109 20110 20111 20112 20113 20114 20115 20116 20117 20118 20119 20120 20121 20122 20123 20124 20125 20126 20127 20128 20129 20130 20131 20132 20133 20134 20135 20136 20137 20138 20139 20140 20141 20142 20143 20144 20145 20146 20147 20148 20149 20150 20151 20152 20153 20154 20155 20156 20157 20158 20159 20160 20161 20162 20163 20164 20165 20166 20167 20168 20169 20170 20171 20172 20173 20174 20175 20176 20177 20178 20179 20180 20181 20182 20183 20184 20185 20186 20187 20188 20189 20190 20191 20192 20193 20194 20195 20196 20197 20198 20199 20200 20201 20202 20203 20204 20205 20206 20207 20208 20209 20210 20211 20212 20213 20214 20215 20216 20217 20218 20219 20220 20221 20222 20223 20224 20225 20226 20227 20228 20229 20230 20231 20232 20233 20234 20235 20236 20237 20238 20239 20240 20241 20242 20243 20244 20245 20246 20247 20248 20249 20250 20251 20252 20253 20254 20255 20256 20257 20258 20259 20260 20261 20262 20263 20264 20265 20266 20267 20268 20269 20270 20271 20272 20273 20274 20275 20276 20277 20278 20279 20280 20281 20282 20283 20284 20285 20286 20287 20288 20289 20290 20291 20292 20293 20294 20295 20296 20297 20298 20299 20300 20301 20302 20303 20304 20305 20306 20307 20308 20309 20310 20311 20312 20313 20314 20315 20316 20317 20318 20319 20320 20321 20322 20323 20324 20325 20326 20327 20328 20329 20330 20331 20332 20333 20334 20335 20336 20337 20338 20339 20340 20341 20342 20343 20344 20345 20346 20347 20348 20349 20350 20351 20352 20353 20354 20355 20356 20357 20358 20359 20360 20361 20362 20363 20364 20365 20366 20367 20368 20369 20370 20371 20372 20373 20374 20375 20376 20377 20378 20379 20380 20381 20382 20383 20384 20385 20386 20387 20388 20389 20390 20391 20392 20393 20394 20395 20396 20397 20398 20399 20400 20401 20402 20403 20404 20405 20406 20407 20408 20409 20410 20411 20412 20413 20414 20415 20416 20417 20418 20419 20420 20421 20422 20423 20424 20425 20426 20427 20428 20429 20430 20431 20432 20433 20434 20435 20436 20437 20438 20439 20440 20441 20442 20443 20444 20445 20446 20447 20448 20449 20450 20451 20452 20453 20454 20455 20456 20457 20458 20459 20460 20461 20462 20463 20464 20465 20466 20467 20468 20469 20470 20471 20472 20473 20474 20475 20476 20477 20478 20479 20480 20481 20482 20483 20484 20485 20486 20487 20488 20489 20490 20491 20492 20493 20494 20495 20496 20497 20498 20499 20500 20501 20502 20503 20504 20505 20506 20507 20508 20509 20510 20511 20512 20513 20514 20515 20516 20517 20518 20519 20520 20521 20522 20523 20524 20525 20526 20527 20528 20529 20530 20531 20532 20533 20534 20535 20536 20537 20538 20539 20540 20541 20542 20543 20544 20545 20546 20547 20548 20549 20550 20551 20552 20553 20554 20555 20556 20557 20558 20559 20560 20561 20562 20563 20564 20565 20566 20567 20568 20569 20570 20571 20572 20573 20574 20575 20576 20577 20578 20579 20580 20581 20582 20583 20584 20585 20586 20587 20588 20589 20590 20591 20592 20593 20594 20595 20596 20597 20598 20599 20600 20601 20602 20603 20604 20605 20606 20607 20608 20609 20610 20611 20612 20613 20614 20615 20616 20617 20618 20619 20620 20621 20622 20623 20624 20625 20626 20627 20628 20629 20630 20631 20632 20633 20634 20635 20636 20637 20638 20639 20640 20641 20642 20643 20644 20645 20646 20647 20648 20649 20650 20651 20652 20653 20654 20655 20656 20657 20658 20659 20660 20661 20662 20663 20664 20665 20666 20667 20668 20669 20670 20671 20672 20673 20674 20675 20676 20677 20678 20679 20680 20681 20682 20683 20684 20685 20686 20687 20688 20689 20690 20691 20692 20693 20694 20695 20696 20697 20698 20699 20700 20701 20702 20703 20704 20705 20706 20707 20708 20709 20710 20711 20712 20713 20714 20715 20716 20717 20718 20719 20720 20721 20722 20723 20724 20725 20726 20727 20728 20729 20730 20731 20732 20733 20734 20735 20736 20737 20738 20739 20740 20741 20742 20743 20744 20745 20746 20747 20748 20749 20750 20751 20752 20753 20754 20755 20756 20757 20758 20759 20760 20761 20762 20763 20764 20765 20766 20767 20768 20769 20770 20771 20772 20773 20774 20775 20776 20777 20778 20779 20780 20781 20782 20783 20784 20785 20786 20787 20788 20789 20790 20791 20792 20793 20794 20795 20796 20797 20798 20799 20800 20801 20802 20803 20804 20805 20806 20807 20808 20809 20810 20811 20812 20813 20814 20815 20816 20817 20818 20819 20820 20821 20822 20823 20824 20825 20826 20827 20828 20829 20830 20831 20832 20833 20834 20835 20836 20837 20838 20839 20840 20841 20842 20843 20844 20845 20846 20847 20848 20849 20850 20851 20852 20853 20854 20855 20856 20857 20858 20859 20860 20861 20862 20863 20864 20865 20866 20867 20868 20869 20870 20871 20872 20873 20874 20875 20876 20877 20878 20879 20880 20881 20882 20883 20884 20885 20886 20887 20888 20889 20890 20891 20892 20893 20894 20895 20896 20897 20898 20899 20900 20901 20902 20903 20904 20905 20906 20907 20908 20909 20910 20911 20912 20913 20914 20915 20916 20917 20918 20919 20920 20921 20922 20923 20924 20925 20926 20927 20928 20929 20930 20931 20932 20933 20934 20935 20936 20937 20938 20939 20940 20941 20942 20943 20944 20945 20946 20947 20948 20949 20950 20951 20952 20953 20954 20955 20956 20957 20958 20959 20960 20961 20962 20963 20964 20965 20966 20967 20968 20969 20970 20971 20972 20973 20974 20975 20976 20977 20978 20979 20980 20981 20982 20983 20984 20985 20986 20987 20988 20989 20990 20991 20992 20993 20994 20995 20996 20997 20998 20999 21000 21001 21002 21003 21004 21005 21006 21007 21008 21009 21010 21011 21012 21013 21014 21015 21016 21017 21018 21019 21020 21021 21022 21023 21024 21025 21026 21027 21028 21029 21030 21031 21032 21033 21034 21035 21036 21037 21038 21039 21040 21041 21042 21043 21044 21045 21046 21047 21048 21049 21050 21051 21052 21053 21054 21055 21056 21057 21058 21059 21060 21061 21062 21063 21064 21065 21066 21067 21068 21069 21070 21071 21072 21073 21074 21075 21076 21077 21078 21079 21080 21081 21082 21083 21084 21085 21086 21087 21088 21089 21090 21091 21092 21093 21094 21095 21096 21097 21098 21099 21100 21101 21102 21103 21104 21105 21106 21107 21108 21109 21110 21111 21112 21113 21114 21115 21116 21117 21118 21119 21120 21121 21122 21123 21124 21125 21126 21127 21128 21129 21130 21131 21132 21133 21134 21135 21136 21137 21138 21139 21140 21141 21142 21143 21144 21145 21146 21147 21148 21149 21150 21151 21152 21153 21154 21155 21156 21157 21158 21159 21160 21161 21162 21163 21164 21165 21166 21167 21168 21169 21170 21171 21172 21173 21174 21175 21176 21177 21178 21179 21180 21181 21182 21183 21184 21185 21186 21187 21188 21189 21190 21191 21192 21193 21194 21195 21196 21197 21198 21199 21200 21201 21202 21203 21204 21205 21206 21207 21208 21209 21210 21211 21212 21213 21214 21215 21216 21217 21218 21219 21220 21221 21222 21223 21224 21225 21226 21227 21228 21229 21230 21231 21232 21233 21234 21235 21236 21237 21238 21239 21240 21241 21242 21243 21244 21245 21246 21247 21248 21249 21250 21251 21252 21253 21254 21255 21256 21257 21258 21259 21260 21261 21262 21263 21264 21265 21266 21267 21268 21269 21270 21271 21272 21273 21274 21275 21276 21277 21278 21279 21280 21281 21282 21283 21284 21285 21286 21287 21288 21289 21290 21291 21292 21293 21294 21295 21296 21297 21298 21299 21300 21301 21302 21303 21304 21305 21306 21307 21308 21309 21310 21311 21312 21313 21314 21315 21316 21317 21318 21319 21320 21321 21322 21323 21324 21325 21326 21327 21328 21329 21330 21331 21332 21333 21334 21335 21336 21337 21338 21339 21340 21341 21342 21343 21344 21345 21346 21347 21348 21349 21350 21351 21352 21353 21354 21355 21356 21357 21358 21359 21360 21361 21362 21363 21364 21365 21366 21367 21368 21369 21370 21371 21372 21373 21374 21375 21376 21377 21378 21379 21380 21381 21382 21383 21384 21385 21386 21387 21388 21389 21390 21391 21392 21393 21394 21395 21396 21397 21398 21399 21400 21401 21402 21403 21404 21405 21406 21407 21408 21409 21410 21411 21412 21413 21414 21415 21416 21417 21418 21419 21420 21421 21422 21423 21424 21425 21426 21427 21428 21429 21430 21431 21432 21433 21434 21435 21436 21437 21438 21439 21440 21441 21442 21443 21444 21445 21446 21447 21448 21449 21450 21451 21452 21453 21454 21455 21456 21457 21458 21459 21460 21461 21462 21463 21464 21465 21466 21467 21468 21469 21470 21471 21472 21473 21474 21475 21476 21477 21478 21479 21480 21481 21482 21483 21484 21485 21486 21487 21488 21489 21490 21491 21492 21493 21494 21495 21496 21497 21498 21499 21500 21501 21502 21503 21504 21505 21506 21507 21508 21509 21510 21511 21512 21513 21514 21515 21516 21517 21518 21519 21520 21521 21522 21523 21524 21525 21526 21527 21528 21529 21530 21531 21532 21533 21534 21535 21536 21537 21538 21539 21540 21541 21542 21543 21544 21545 21546 21547 21548 21549 21550 21551 21552 21553 21554 21555 21556 21557 21558 21559 21560 21561 21562 21563 21564 21565 21566 21567 21568 21569 21570 21571 21572 21573 21574 21575 21576 21577 21578 21579 21580 21581 21582 21583 21584 21585 21586 21587 21588 21589 21590 21591 21592 21593 21594 21595 21596 21597 21598 21599 21600 21601 21602 21603 21604 21605 21606 21607 21608 21609 21610 21611 21612 21613 21614 21615 21616 21617 21618 21619 21620 21621 21622 21623 21624 21625 21626 21627 21628 21629 21630 21631 21632 21633 21634 21635 21636 21637 21638 21639 21640 21641 21642 21643 21644 21645 21646 21647 21648 21649 21650 21651 21652 21653 21654 21655 21656 21657 21658 21659 21660 21661 21662 21663 21664 21665 21666 21667 21668 21669 21670 21671 21672 21673 21674 21675 21676 21677 21678 21679 21680 21681 21682 21683 21684 21685 21686 21687 21688 21689 21690 21691 21692 21693 21694 21695 21696 21697 21698 21699 21700 21701 21702 21703 21704 21705 21706 21707 21708 21709 21710 21711 21712 21713 21714 21715 21716 21717 21718 21719 21720 21721 21722 21723 21724 21725 21726 21727 21728 21729 21730 21731 21732 21733 21734 21735 21736 21737 21738 21739 21740 21741 21742 21743 21744 21745 21746 21747 21748 21749 21750 21751 21752 21753 21754 21755 21756 21757 21758 21759 21760 21761 21762 21763 21764 21765 21766 21767 21768 21769 21770 21771 21772 21773 21774 21775 21776 21777 21778 21779 21780 21781 21782 21783 21784 21785 21786 21787 21788 21789 21790 21791 21792 21793 21794 21795 21796 21797 21798 21799 21800 21801 21802 21803 21804 21805 21806 21807 21808 21809 21810 21811 21812 21813 21814 21815 21816 21817 21818 21819 21820 21821 21822 21823 21824 21825 21826 21827 21828 21829 21830 21831 21832 21833 21834 21835 21836 21837 21838 21839 21840 21841 21842 21843 21844 21845 21846 21847 21848 21849 21850 21851 21852 21853 21854 21855 21856 21857 21858 21859 21860 21861 21862 21863 21864 21865 21866 21867 21868 21869 21870 21871 21872 21873 21874 21875 21876 21877 21878 21879 21880 21881 21882 21883 21884 21885 21886 21887 21888 21889 21890 21891 21892 21893 21894 21895 21896 21897 21898 21899 21900 21901 21902 21903 21904 21905 21906 21907 21908 21909 21910 21911 21912 21913 21914 21915 21916 21917 21918 21919 21920 21921 21922 21923 21924 21925 21926 21927 21928 21929 21930 21931 21932 21933 21934 21935 21936 21937 21938 21939 21940 21941 21942 21943 21944 21945 21946 21947 21948 21949 21950 21951 21952 21953 21954 21955 21956 21957 21958 21959 21960 21961 21962 21963 21964 21965 21966 21967 21968 21969 21970 21971 21972 21973 21974 21975 21976 21977 21978 21979 21980 21981 21982 21983 21984 21985 21986 21987 21988 21989 21990 21991 21992 21993 21994 21995 21996 21997 21998 21999 22000 22001 22002 22003 22004 22005 22006 22007 22008 22009 22010 22011 22012 22013 22014 22015 22016 22017 22018 22019 22020 22021 22022 22023 22024 22025 22026 22027 22028 22029 22030 22031 22032 22033 22034 22035 22036 22037 22038 22039 22040 22041 22042 22043 22044 22045 22046 22047 22048 22049 22050 22051 22052 22053 22054 22055 22056 22057 22058 22059 22060 22061 22062 22063 22064 22065 22066 22067 22068 22069 22070 22071 22072 22073 22074 22075 22076 22077 22078 22079 22080 22081 22082 22083 22084 22085 22086 22087 22088 22089 22090 22091 22092 22093 22094 22095 22096 22097 22098 22099 22100 22101 22102 22103 22104 22105 22106 22107 22108 22109 22110 22111 22112 22113 22114 22115 22116 22117 22118 22119 22120 22121 22122 22123 22124 22125 22126 22127 22128 22129 22130 22131 22132 22133 22134 22135 22136 22137 22138 22139 22140 22141 22142 22143 22144 22145 22146 22147 22148 22149 22150 22151 22152 22153 22154 22155 22156 22157 22158 22159 22160 22161 22162 22163 22164 22165 22166 22167 22168 22169 22170 22171 22172 22173 22174 22175 22176 22177 22178 22179 22180 22181 22182 22183 22184 22185 22186 22187 22188 22189 22190 22191 22192 22193 22194 22195 22196 22197 22198 22199 22200 22201 22202 22203 22204 22205 22206 22207 22208 22209 22210 22211 22212 22213 22214 22215 22216 22217 22218 22219 22220 22221 22222 22223 22224 22225 22226 22227 22228 22229 22230 22231 22232 22233 22234 22235 22236 22237 22238 22239 22240 22241 22242 22243 22244 22245 22246 22247 22248 22249 22250 22251 22252 22253 22254 22255 22256 22257 22258 22259 22260 22261 22262 22263 22264 22265 22266 22267 22268 22269 22270 22271 22272 22273 22274 22275 22276 22277 22278 22279 22280 22281 22282 22283 22284 22285 22286 22287 22288 22289 22290 22291 22292 22293 22294 22295 22296 22297 22298 22299 22300 22301 22302 22303 22304 22305 22306 22307 22308 22309 22310 22311 22312 22313 22314 22315 22316 22317 22318 22319 22320 22321 22322 22323 22324 22325 22326 22327 22328 22329 22330 22331 22332 22333 22334 22335 22336 22337 22338 22339 22340 22341 22342 22343 22344 22345 22346 22347 22348 22349 22350 22351 22352 22353 22354 22355 22356 22357 22358 22359 22360 22361 22362 22363 22364 22365 22366 22367 22368 22369 22370 22371 22372 22373 22374 22375 22376 22377 22378 22379 22380 22381 22382 22383 22384 22385 22386 22387 22388 22389 22390 22391 22392 22393 22394 22395 22396 22397 22398 22399 22400 22401 22402 22403 22404 22405 22406 22407 22408 22409 22410 22411 22412 22413 22414 22415 22416 22417 22418 22419 22420 22421 22422 22423 22424 22425 22426 22427 22428 22429 22430 22431 22432 22433 22434 22435 22436 22437 22438 22439 22440 22441 22442 22443 22444 22445 22446 22447 22448 22449 22450 22451 22452 22453 22454 22455 22456 22457 22458 22459 22460 22461 22462 22463 22464 22465 22466 22467 22468 22469 22470 22471 22472 22473 22474 22475 22476 22477 22478 22479 22480 22481 22482 22483 22484 22485 22486 22487 22488 22489 22490 22491 22492 22493 22494 22495 22496 22497 22498 22499 22500 22501 22502 22503 22504 22505 22506 22507 22508 22509 22510 22511 22512 22513 22514 22515 22516 22517 22518 22519 22520 22521 22522 22523 22524 22525 22526 22527 22528 22529 22530 22531 22532 22533 22534 22535 22536 22537 22538 22539 22540 22541 22542 22543 22544 22545 22546 22547 22548 22549 22550 22551 22552 22553 22554 22555 22556 22557 22558 22559 22560 22561 22562 22563 22564 22565 22566 22567 22568 22569 22570 22571 22572 22573 22574 22575 22576 22577 22578 22579 22580 22581 22582 22583 22584 22585 22586 22587 22588 22589 22590 22591 22592 22593 22594 22595 22596 22597 22598 22599 22600 22601 22602 22603 22604 22605 22606 22607 22608 22609 22610 22611 22612 22613 22614 22615 22616 22617 22618 22619 22620 22621 22622 22623 22624 22625 22626 22627 22628 22629 22630 22631 22632 22633 22634 22635 22636 22637 22638 22639 22640 22641 22642 22643 22644 22645 22646 22647 22648 22649 22650 22651 22652 22653 22654 22655 22656 22657 22658 22659 22660 22661 22662 22663 22664 22665 22666 22667 22668 22669 22670 22671 22672 22673 22674 22675 22676 22677 22678 22679 22680 22681 22682 22683 22684 22685 22686 22687 22688 22689 22690 22691 22692 22693 22694 22695 22696 22697 22698 22699 22700 22701 22702 22703 22704 22705 22706 22707 22708 22709 22710 22711 22712 22713 22714 22715 22716 22717 22718 22719 22720 22721 22722 22723 22724 22725 22726 22727 22728 22729 22730 22731 22732 22733 22734 22735 22736 22737 22738 22739 22740 22741 22742 22743 22744 22745 22746 22747 22748 22749 22750 22751 22752 22753 22754 22755 22756 22757 22758 22759 22760 22761 22762 22763 22764 22765 22766 22767 22768 22769 22770 22771 22772 22773 22774 22775 22776 22777 22778 22779 22780 22781 22782 22783 22784 22785 22786 22787 22788 22789 22790 22791 22792 22793 22794 22795 22796 22797 22798 22799 22800 22801 22802 22803 22804 22805 22806 22807 22808 22809 22810 22811 22812 22813 22814 22815 22816 22817 22818 22819 22820 22821 22822 22823 22824 22825 22826 22827 22828 22829 22830 22831 22832 22833 22834 22835 22836 22837 22838 22839 22840 22841 22842 22843 22844 22845 22846 22847 22848 22849 22850 22851 22852 22853 22854 22855 22856 22857 22858 22859 22860 22861 22862 22863 22864 22865 22866 22867 22868 22869 22870 22871 22872 22873 22874 22875 22876 22877 22878 22879 22880 22881 22882 22883 22884 22885 22886 22887 22888 22889 22890 22891 22892 22893 22894 22895 22896 22897 22898 22899 22900 22901 22902 22903 22904 22905 22906 22907 22908 22909 22910 22911 22912 22913 22914 22915 22916 22917 22918 22919 22920 22921 22922 22923 22924 22925 22926 22927 22928 22929 22930 22931 22932 22933 22934 22935 22936 22937 22938 22939 22940 22941 22942 22943 22944 22945 22946 22947 22948 22949 22950 22951 22952 22953 22954 22955 22956 22957 22958 22959 22960 22961 22962 22963 22964 22965 22966 22967 22968 22969 22970 22971 22972 22973 22974 22975 22976 22977 22978 22979 22980 22981 22982 22983 22984 22985 22986 22987 22988 22989 22990 22991 22992 22993 22994 22995 22996 22997 22998 22999 23000 23001 23002 23003 23004 23005 23006 23007 23008 23009 23010 23011 23012 23013 23014 23015 23016 23017 23018 23019 23020 23021 23022 23023 23024 23025 23026 23027 23028 23029 23030 23031 23032 23033 23034 23035 23036 23037 23038 23039 23040 23041 23042 23043 23044 23045 23046 23047 23048 23049 23050 23051 23052 23053 23054 23055 23056 23057 23058 23059 23060 23061 23062 23063 23064 23065 23066 23067 23068 23069 23070 23071 23072 23073 23074 23075 23076 23077 23078 23079 23080 23081 23082 23083 23084 23085 23086 23087 23088 23089 23090 23091 23092 23093 23094 23095 23096 23097 23098 23099 23100 23101 23102 23103 23104 23105 23106 23107 23108 23109 23110 23111 23112 23113 23114 23115 23116 23117 23118 23119 23120 23121 23122 23123 23124 23125 23126 23127 23128 23129 23130 23131 23132 23133 23134 23135 23136 23137 23138 23139 23140 23141 23142 23143 23144 23145 23146 23147 23148 23149 23150 23151 23152 23153 23154 23155 23156 23157 23158 23159 23160 23161 23162 23163 23164 23165 23166 23167 23168 23169 23170 23171 23172 23173 23174 23175 23176 23177 23178 23179 23180 23181 23182 23183 23184 23185 23186 23187 23188 23189 23190 23191 23192 23193 23194 23195 23196 23197 23198 23199 23200 23201 23202 23203 23204 23205 23206 23207 23208 23209 23210 23211 23212 23213 23214 23215 23216 23217 23218 23219 23220 23221 23222 23223 23224 23225 23226 23227 23228 23229 23230 23231 23232 23233 23234 23235 23236 23237 23238 23239 23240 23241 23242 23243 23244 23245 23246 23247 23248 23249 23250 23251 23252 23253 23254 23255 23256 23257 23258 23259 23260 23261 23262 23263 23264 23265 23266 23267 23268 23269 23270 23271 23272 23273 23274 23275 23276 23277 23278 23279 23280 23281 23282 23283 23284 23285 23286 23287 23288 23289 23290 23291 23292 23293 23294 23295 23296 23297 23298 23299 23300 23301 23302 23303 23304 23305 23306 23307 23308 23309 23310 23311 23312 23313 23314 23315 23316 23317 23318 23319 23320 23321 23322 23323 23324 23325 23326 23327 23328 23329 23330 23331 23332 23333 23334 23335 23336 23337 23338 23339 23340 23341 23342 23343 23344 23345 23346 23347 23348 23349 23350 23351 23352 23353 23354 23355 23356 23357 23358 23359 23360 23361 23362 23363 23364 23365 23366 23367 23368 23369 23370 23371 23372 23373 23374 23375 23376 23377 23378 23379 23380 23381 23382 23383 23384 23385 23386 23387 23388 23389 23390 23391 23392 23393 23394 23395 23396 23397 23398 23399 23400 23401 23402 23403 23404 23405 23406 23407 23408 23409 23410 23411 23412 23413 23414 23415 23416 23417 23418 23419 23420 23421 23422 23423 23424 23425 23426 23427 23428 23429 23430 23431 23432 23433 23434 23435 23436 23437 23438 23439 23440 23441 23442 23443 23444 23445 23446 23447 23448 23449 23450 23451 23452 23453 23454 23455 23456 23457 23458 23459 23460 23461 23462 23463 23464 23465 23466 23467 23468 23469 23470 23471 23472 23473 23474 23475 23476 23477 23478 23479 23480 23481 23482 23483 23484 23485 23486 23487 23488 23489 23490 23491 23492 23493 23494 23495 23496 23497 23498 23499 23500 23501 23502 23503 23504 23505 23506 23507 23508 23509 23510 23511 23512 23513 23514 23515 23516 23517 23518 23519 23520 23521 23522 23523 23524 23525 23526 23527 23528 23529 23530 23531 23532 23533 23534 23535 23536 23537 23538 23539 23540 23541 23542 23543 23544 23545 23546 23547 23548 23549 23550 23551 23552 23553 23554 23555 23556 23557 23558 23559 23560 23561 23562 23563 23564 23565 23566 23567 23568 23569 23570 23571 23572 23573 23574 23575 23576 23577 23578 23579 23580 23581 23582 23583 23584 23585 23586 23587 23588 23589 23590 23591 23592 23593 23594 23595 23596 23597 23598 23599 23600 23601 23602 23603 23604 23605 23606 23607 23608 23609 23610 23611 23612 23613 23614 23615 23616 23617 23618 23619 23620 23621 23622 23623 23624 23625 23626 23627 23628 23629 23630 23631 23632 23633 23634 23635 23636 23637 23638 23639 23640 23641 23642 23643 23644 23645 23646 23647 23648 23649 23650 23651 23652 23653 23654 23655 23656 23657 23658 23659 23660 23661 23662 23663 23664 23665 23666 23667 23668 23669 23670 23671 23672 23673 23674 23675 23676 23677 23678 23679 23680 23681 23682 23683 23684 23685 23686 23687 23688 23689 23690 23691 23692 23693 23694 23695 23696 23697 23698 23699 23700 23701 23702 23703 23704 23705 23706 23707 23708 23709 23710 23711 23712 23713 23714 23715 23716 23717 23718 23719 23720 23721 23722 23723 23724 23725 23726 23727 23728 23729 23730 23731 23732 23733 23734 23735 23736 23737 23738 23739 23740 23741 23742 23743 23744 23745 23746 23747 23748 23749 23750 23751 23752 23753 23754 23755 23756 23757 23758 23759 23760 23761 23762 23763 23764 23765 23766 23767 23768 23769 23770 23771 23772 23773 23774 23775 23776 23777 23778 23779 23780 23781 23782 23783 23784 23785 23786 23787 23788 23789 23790 23791 23792 23793 23794 23795 23796 23797 23798 23799 23800 23801 23802 23803 23804 23805 23806 23807 23808 23809 23810 23811 23812 23813 23814 23815 23816 23817 23818 23819 23820 23821 23822 23823 23824 23825 23826 23827 23828 23829 23830 23831 23832 23833 23834 23835 23836 23837 23838 23839 23840 23841 23842 23843 23844 23845 23846 23847 23848 23849 23850 23851 23852 23853 23854 23855 23856 23857 23858 23859 23860 23861 23862 23863 23864 23865 23866 23867 23868 23869 23870 23871 23872 23873 23874 23875 23876 23877 23878 23879 23880 23881 23882 23883 23884 23885 23886 23887 23888 23889 23890 23891 23892 23893 23894 23895 23896 23897 23898 23899 23900 23901 23902 23903 23904 23905 23906 23907 23908 23909 23910 23911 23912 23913 23914 23915 23916 23917 23918 23919 23920 23921 23922 23923 23924 23925 23926 23927 23928 23929 23930 23931 23932 23933 23934 23935 23936 23937 23938 23939 23940 23941 23942 23943 23944 23945 23946 23947 23948 23949 23950 23951 23952 23953 23954 23955 23956 23957 23958 23959 23960 23961 23962 23963 23964 23965 23966 23967 23968 23969 23970 23971 23972 23973 23974 23975 23976 23977 23978 23979 23980 23981 23982 23983 23984 23985 23986 23987 23988 23989 23990 23991 23992 23993 23994 23995 23996 23997 23998 23999 24000 24001 24002 24003 24004 24005 24006 24007 24008 24009 24010 24011 24012 24013 24014 24015 24016 24017 24018 24019 24020 24021 24022 24023 24024 24025 24026 24027 24028 24029 24030 24031 24032 24033 24034 24035 24036 24037 24038 24039 24040 24041 24042 24043 24044 24045 24046 24047 24048 24049 24050 24051 24052 24053 24054 24055 24056 24057 24058 24059 24060 24061 24062 24063 24064 24065 24066 24067 24068 24069 24070 24071 24072 24073 24074 24075 24076 24077 24078 24079 24080 24081 24082 24083 24084 24085 24086 24087 24088 24089 24090 24091 24092 24093 24094 24095 24096 24097 24098 24099 24100 24101 24102 24103 24104 24105 24106 24107 24108 24109 24110 24111 24112 24113 24114 24115 24116 24117 24118 24119 24120 24121 24122 24123 24124 24125 24126 24127 24128 24129 24130 24131 24132 24133 24134 24135 24136 24137 24138 24139 24140 24141 24142 24143 24144 24145 24146 24147 24148 24149 24150 24151 24152 24153 24154 24155 24156 24157 24158 24159 24160 24161 24162 24163 24164 24165 24166 24167 24168 24169 24170 24171 24172 24173 24174 24175 24176 24177 24178 24179 24180 24181 24182 24183 24184 24185 24186 24187 24188 24189 24190 24191 24192 24193 24194 24195 24196 24197 24198 24199 24200 24201 24202 24203 24204 24205 24206 24207 24208 24209 24210 24211 24212 24213 24214 24215 24216 24217 24218 24219 24220 24221 24222 24223 24224 24225 24226 24227 24228 24229 24230 24231 24232 24233 24234 24235 24236 24237 24238 24239 24240 24241 24242 24243 24244 24245 24246 24247 24248 24249 24250 24251 24252 24253 24254 24255 24256 24257 24258 24259 24260 24261 24262 24263 24264 24265 24266 24267 24268 24269 24270 24271 24272 24273 24274 24275 24276 24277 24278 24279 24280 24281 24282 24283 24284 24285 24286 24287 24288 24289 24290 24291 24292 24293 24294 24295 24296 24297 24298 24299 24300 24301 24302 24303 24304 24305 24306 24307 24308 24309 24310 24311 24312 24313 24314 24315 24316 24317 24318 24319 24320 24321 24322 24323 24324 24325 24326 24327 24328 24329 24330 24331 24332 24333 24334 24335 24336 24337 24338 24339 24340 24341 24342 24343 24344 24345 24346 24347 24348 24349 24350 24351 24352 24353 24354 24355 24356 24357 24358 24359 24360 24361 24362 24363 24364 24365 24366 24367 24368 24369 24370 24371 24372 24373 24374 24375 24376 24377 24378 24379 24380 24381 24382 24383 24384 24385 24386 24387 24388 24389 24390 24391 24392 24393 24394 24395 24396 24397 24398 24399 24400 24401 24402 24403 24404 24405 24406 24407 24408 24409 24410 24411 24412 24413 24414 24415 24416 24417 24418 24419 24420 24421 24422 24423 24424 24425 24426 24427 24428 24429 24430 24431 24432 24433 24434 24435 24436 24437 24438 24439 24440 24441 24442 24443 24444 24445 24446 24447 24448 24449 24450 24451 24452 24453 24454 24455 24456 24457 24458 24459 24460 24461 24462 24463 24464 24465 24466 24467 24468 24469 24470 24471 24472 24473 24474 24475 24476 24477 24478 24479 24480 24481 24482 24483 24484 24485 24486 24487 24488 24489 24490 24491 24492 24493 24494 24495 24496 24497 24498 24499 24500 24501 24502 24503 24504 24505 24506 24507 24508 24509 24510 24511 24512 24513 24514 24515 24516 24517 24518 24519 24520 24521 24522 24523 24524 24525 24526 24527 24528 24529 24530 24531 24532 24533 24534 24535 24536 24537 24538 24539 24540 24541 24542 24543 24544 24545 24546 24547 24548 24549 24550 24551 24552 24553 24554 24555 24556 24557 24558 24559 24560 24561 24562 24563 24564 24565 24566 24567 24568 24569 24570 24571 24572 24573 24574 24575 24576 24577 24578 24579 24580 24581 24582 24583 24584 24585 24586 24587 24588 24589 24590 24591 24592 24593 24594 24595 24596 24597 24598 24599 24600 24601 24602 24603 24604 24605 24606 24607 24608 24609 24610 24611 24612 24613 24614 24615 24616 24617 24618 24619 24620 24621 24622 24623 24624 24625 24626 24627 24628 24629 24630 24631 24632 24633 24634 24635 24636 24637 24638 24639 24640 24641 24642 24643 24644 24645 24646 24647 24648 24649 24650 24651 24652 24653 24654 24655 24656 24657 24658 24659 24660 24661 24662 24663 24664 24665 24666 24667 24668 24669 24670 24671 24672 24673 24674 24675 24676 24677 24678 24679 24680 24681 24682 24683 24684 24685 24686 24687 24688 24689 24690 24691 24692 24693 24694 24695 24696 24697 24698 24699 24700 24701 24702 24703 24704 24705 24706 24707 24708 24709 24710 24711 24712 24713 24714 24715 24716 24717 24718 24719 24720 24721 24722 24723 24724 24725 24726 24727 24728 24729 24730 24731 24732 24733 24734 24735 24736 24737 24738 24739 24740 24741 24742 24743 24744 24745 24746 24747 24748 24749 24750 24751 24752 24753 24754 24755 24756 24757 24758 24759 24760 24761 24762 24763 24764 24765 24766 24767 24768 24769 24770 24771 24772 24773 24774 24775 24776 24777 24778 24779 24780 24781 24782 24783 24784 24785 24786 24787 24788 24789 24790 24791 24792 24793 24794 24795 24796 24797 24798 24799 24800 24801 24802 24803 24804 24805 24806 24807 24808 24809 24810 24811 24812 24813 24814 24815 24816 24817 24818 24819 24820 24821 24822 24823 24824 24825 24826 24827 24828 24829 24830 24831 24832 24833 24834 24835 24836 24837 24838 24839 24840 24841 24842 24843 24844 24845 24846 24847 24848 24849 24850 24851 24852 24853 24854 24855 24856 24857 24858 24859 24860 24861 24862 24863 24864 24865 24866 24867 24868 24869 24870 24871 24872 24873 24874 24875 24876 24877 24878 24879 24880 24881 24882 24883 24884 24885 24886 24887 24888 24889 24890 24891 24892 24893 24894 24895 24896 24897 24898 24899 24900 24901 24902 24903 24904 24905 24906 24907 24908 24909 24910 24911 24912 24913 24914 24915 24916 24917 24918 24919 24920 24921 24922 24923 24924 24925 24926 24927 24928 24929 24930 24931 24932 24933 24934 24935 24936 24937 24938 24939 24940 24941 24942 24943 24944 24945 24946 24947 24948 24949 24950 24951 24952 24953 24954 24955 24956 24957 24958 24959 24960 24961 24962 24963 24964 24965 24966 24967 24968 24969 24970 24971 24972 24973 24974 24975 24976 24977 24978 24979 24980 24981 24982 24983 24984 24985 24986 24987 24988 24989 24990 24991 24992 24993 24994 24995 24996 24997 24998 24999 25000 25001 25002 25003 25004 25005 25006 25007 25008 25009 25010 25011 25012 25013 25014 25015 25016 25017 25018 25019 25020 25021 25022 25023 25024 25025 25026 25027 25028 25029 25030 25031 25032 25033 25034 25035 25036 25037 25038 25039 25040 25041 25042 25043 25044 25045 25046 25047 25048 25049 25050 25051 25052 25053 25054 25055 25056 25057 25058 25059 25060 25061 25062 25063 25064 25065 25066 25067 25068 25069 25070 25071 25072 25073 25074 25075 25076 25077 25078 25079 25080 25081 25082 25083 25084 25085 25086 25087 25088 25089 25090 25091 25092 25093 25094 25095 25096 25097 25098 25099 25100 25101 25102 25103 25104 25105 25106 25107 25108 25109 25110 25111 25112 25113 25114 25115 25116 25117 25118 25119 25120 25121 25122 25123 25124 25125 25126 25127 25128 25129 25130 25131 25132 25133 25134 25135 25136 25137 25138 25139 25140 25141 25142 25143 25144 25145 25146 25147 25148 25149 25150 25151 25152 25153 25154 25155 25156 25157 25158 25159 25160 25161 25162 25163 25164 25165 25166 25167 25168 25169 25170 25171 25172 25173 25174 25175 25176 25177 25178 25179 25180 25181 25182 25183 25184 25185 25186 25187 25188 25189 25190 25191 25192 25193 25194 25195 25196 25197 25198 25199 25200 25201 25202 25203 25204 25205 25206 25207 25208 25209 25210 25211 25212 25213 25214 25215 25216 25217 25218 25219 25220 25221 25222 25223 25224 25225 25226 25227 25228 25229 25230 25231 25232 25233 25234 25235 25236 25237 25238 25239 25240 25241 25242 25243 25244 25245 25246 25247 25248 25249 25250 25251 25252 25253 25254 25255 25256 25257 25258 25259 25260 25261 25262 25263 25264 25265 25266 25267 25268 25269 25270 25271 25272 25273 25274 25275 25276 25277 25278 25279 25280 25281 25282 25283 25284 25285 25286 25287 25288 25289 25290 25291 25292 25293 25294 25295 25296 25297 25298 25299 25300 25301 25302 25303 25304 25305 25306 25307 25308 25309 25310 25311 25312 25313 25314 25315 25316 25317 25318 25319 25320 25321 25322 25323 25324 25325 25326 25327 25328 25329 25330 25331 25332 25333 25334 25335 25336 25337 25338 25339 25340 25341 25342 25343 25344 25345 25346 25347 25348 25349 25350 25351 25352 25353 25354 25355 25356 25357 25358 25359 25360 25361 25362 25363 25364 25365 25366 25367 25368 25369 25370 25371 25372 25373 25374 25375 25376 25377 25378 25379 25380 25381 25382 25383 25384 25385 25386 25387 25388 25389 25390 25391 25392 25393 25394 25395 25396 25397 25398 25399 25400 25401 25402 25403 25404 25405 25406 25407 25408 25409 25410 25411 25412 25413 25414 25415 25416 25417 25418 25419 25420 25421 25422 25423 25424 25425 25426 25427 25428 25429 25430 25431 25432 25433 25434 25435 25436 25437 25438 25439 25440 25441 25442 25443 25444 25445 25446 25447 25448 25449 25450 25451 25452 25453 25454 25455 25456 25457 25458 25459 25460 25461 25462 25463 25464 25465 25466 25467 25468 25469 25470 25471 25472 25473 25474 25475 25476 25477 25478 25479 25480 25481 25482 25483 25484 25485 25486 25487 25488 25489 25490 25491 25492 25493 25494 25495 25496 25497 25498 25499 25500 25501 25502 25503 25504 25505 25506 25507 25508 25509 25510 25511 25512 25513 25514 25515 25516 25517 25518 25519 25520 25521 25522 25523 25524 25525 25526 25527 25528 25529 25530 25531 25532 25533 25534 25535 25536 25537 25538 25539 25540 25541 25542 25543 25544 25545 25546 25547 25548 25549 25550 25551 25552 25553 25554 25555 25556 25557 25558 25559 25560 25561 25562 25563 25564 25565 25566 25567 25568 25569 25570 25571 25572 25573 25574 25575 25576 25577 25578 25579 25580 25581 25582 25583 25584 25585 25586 25587 25588 25589 25590 25591 25592 25593 25594 25595 25596 25597 25598 25599 25600 25601 25602 25603 25604 25605 25606 25607 25608 25609 25610 25611 25612 25613 25614 25615 25616 25617 25618 25619 25620 25621 25622 25623 25624 25625 25626 25627 25628 25629 25630 25631 25632 25633 25634 25635 25636 25637 25638 25639 25640 25641 25642 25643 25644 25645 25646 25647 25648 25649 25650 25651 25652 25653 25654 25655 25656 25657 25658 25659 25660 25661 25662 25663 25664 25665 25666 25667 25668 25669 25670 25671 25672 25673 25674 25675 25676 25677 25678 25679 25680 25681 25682 25683 25684 25685 25686 25687 25688 25689 25690 25691 25692 25693 25694 25695 25696 25697 25698 25699 25700 25701 25702 25703 25704 25705 25706 25707 25708 25709 25710 25711 25712 25713 25714 25715 25716 25717 25718 25719 25720 25721 25722 25723 25724 25725 25726 25727 25728 25729 25730 25731 25732 25733 25734 25735 25736 25737 25738 25739 25740 25741 25742 25743 25744 25745 25746 25747 25748 25749 25750 25751 25752 25753 25754 25755 25756 25757 25758 25759 25760 25761 25762 25763 25764 25765 25766 25767 25768 25769 25770 25771 25772 25773 25774 25775 25776 25777 25778 25779 25780 25781 25782 25783 25784 25785 25786 25787 25788 25789 25790 25791 25792 25793 25794 25795 25796 25797 25798 25799 25800 25801 25802 25803 25804 25805 25806 25807 25808 25809 25810 25811 25812 25813 25814 25815 25816 25817 25818 25819 25820 25821 25822 25823 25824 25825 25826 25827 25828 25829 25830 25831 25832 25833 25834 25835 25836 25837 25838 25839 25840 25841 25842 25843 25844 25845 25846 25847 25848 25849 25850 25851 25852 25853 25854 25855 25856 25857 25858 25859 25860 25861 25862 25863 25864 25865 25866 25867 25868 25869 25870 25871 25872 25873 25874 25875 25876 25877 25878 25879 25880 25881 25882 25883 25884 25885 25886 25887 25888 25889 25890 25891 25892 25893 25894 25895 25896 25897 25898 25899 25900 25901 25902 25903 25904 25905 25906 25907 25908 25909 25910 25911 25912 25913 25914 25915 25916 25917 25918 25919 25920 25921 25922 25923 25924 25925 25926 25927 25928 25929 25930 25931 25932 25933 25934 25935 25936 25937 25938 25939 25940 25941 25942 25943 25944 25945 25946 25947 25948 25949 25950 25951 25952 25953 25954 25955 25956 25957 25958 25959 25960 25961 25962 25963 25964 25965 25966 25967 25968 25969 25970 25971 25972 25973 25974 25975 25976 25977 25978 25979 25980 25981 25982 25983 25984 25985 25986 25987 25988 25989 25990 25991 25992 25993 25994 25995 25996 25997 25998 25999 26000 26001 26002 26003 26004 26005 26006 26007 26008 26009 26010 26011 26012 26013 26014 26015 26016 26017 26018 26019 26020 26021 26022 26023 26024 26025 26026 26027 26028 26029 26030 26031 26032 26033 26034 26035 26036 26037 26038 26039 26040 26041 26042 26043 26044 26045 26046 26047 26048 26049 26050 26051 26052 26053 26054 26055 26056 26057 26058 26059 26060 26061 26062 26063 26064 26065 26066 26067 26068 26069 26070 26071 26072 26073 26074 26075 26076 26077 26078 26079 26080 26081 26082 26083 26084 26085 26086 26087 26088 26089 26090 26091 26092 26093 26094 26095 26096 26097 26098 26099 26100 26101 26102 26103 26104 26105 26106 26107 26108 26109 26110 26111 26112 26113 26114 26115 26116 26117 26118 26119 26120 26121 26122 26123 26124 26125 26126 26127 26128 26129 26130 26131 26132 26133 26134 26135 26136 26137 26138 26139 26140 26141 26142 26143 26144 26145 26146 26147 26148 26149 26150 26151 26152 26153 26154 26155 26156 26157 26158 26159 26160 26161 26162 26163 26164 26165 26166 26167 26168 26169 26170 26171 26172 26173 26174 26175 26176 26177 26178 26179 26180 26181 26182 26183 26184 26185 26186 26187 26188 26189 26190 26191 26192 26193 26194 26195 26196 26197 26198 26199 26200 26201 26202 26203 26204 26205 26206 26207 26208 26209 26210 26211 26212 26213 26214 26215 26216 26217 26218 26219 26220 26221 26222 26223 26224 26225 26226 26227 26228 26229 26230 26231 26232 26233 26234 26235 26236 26237 26238 26239 26240 26241 26242 26243 26244 26245 26246 26247 26248 26249 26250 26251 26252 26253 26254 26255 26256 26257 26258 26259 26260 26261 26262 26263 26264 26265 26266 26267 26268 26269 26270 26271 26272 26273 26274 26275 26276 26277 26278 26279 26280 26281 26282 26283 26284 26285 26286 26287 26288 26289 26290 26291 26292 26293 26294 26295 26296 26297 26298 26299 26300 26301 26302 26303 26304 26305 26306 26307 26308 26309 26310 26311 26312 26313 26314 26315 26316 26317 26318 26319 26320 26321 26322 26323 26324 26325 26326 26327 26328 26329 26330 26331 26332 26333 26334 26335 26336 26337 26338 26339 26340 26341 26342 26343 26344 26345 26346 26347 26348 26349 26350 26351 26352 26353 26354 26355 26356 26357 26358 26359 26360 26361 26362 26363 26364 26365 26366 26367 26368 26369 26370 26371 26372 26373 26374 26375 26376 26377 26378 26379 26380 26381 26382 26383 26384 26385 26386 26387 26388 26389 26390 26391 26392 26393 26394 26395 26396 26397 26398 26399 26400 26401 26402 26403 26404 26405 26406 26407 26408 26409 26410 26411 26412 26413 26414 26415 26416 26417 26418 26419 26420 26421 26422 26423 26424 26425 26426 26427 26428 26429 26430 26431 26432 26433 26434 26435 26436 26437 26438 26439 26440 26441 26442 26443 26444 26445 26446 26447 26448 26449 26450 26451 26452 26453 26454 26455 26456 26457 26458 26459 26460 26461 26462 26463 26464 26465 26466 26467 26468 26469 26470 26471 26472 26473 26474 26475 26476 26477 26478 26479 26480 26481 26482 26483 26484 26485 26486 26487 26488 26489 26490 26491 26492 26493 26494 26495 26496 26497 26498 26499 26500 26501 26502 26503 26504 26505 26506 26507 26508 26509 26510 26511 26512 26513 26514 26515 26516 26517 26518 26519 26520 26521 26522 26523 26524 26525 26526 26527 26528 26529 26530 26531 26532 26533 26534 26535 26536 26537 26538 26539 26540 26541 26542 26543 26544 26545 26546 26547 26548 26549 26550 26551 26552 26553 26554 26555 26556 26557 26558 26559 26560 26561 26562 26563 26564 26565 26566 26567 26568 26569 26570 26571 26572 26573 26574 26575 26576 26577 26578 26579 26580 26581 26582 26583 26584 26585 26586 26587 26588 26589 26590 26591 26592 26593 26594 26595 26596 26597 26598 26599 26600 26601 26602 26603 26604 26605 26606 26607 26608 26609 26610 26611 26612 26613 26614 26615 26616 26617 26618 26619 26620 26621 26622 26623 26624 26625 26626 26627 26628 26629 26630 26631 26632 26633 26634 26635 26636 26637 26638 26639 26640 26641 26642 26643 26644 26645 26646 26647 26648 26649 26650 26651 26652 26653 26654 26655 26656 26657 26658 26659 26660 26661 26662 26663 26664 26665 26666 26667 26668 26669 26670 26671 26672 26673 26674 26675 26676 26677 26678 26679 26680 26681 26682 26683 26684 26685 26686 26687 26688 26689 26690 26691 26692 26693 26694 26695 26696 26697 26698 26699 26700 26701 26702 26703 26704 26705 26706 26707 26708 26709 26710 26711 26712 26713 26714 26715 26716 26717 26718 26719 26720 26721 26722 26723 26724 26725 26726 26727 26728 26729 26730 26731 26732 26733 26734 26735 26736 26737 26738 26739 26740 26741 26742 26743 26744 26745 26746 26747 26748 26749 26750 26751 26752 26753 26754 26755 26756 26757 26758 26759 26760 26761 26762 26763 26764 26765 26766 26767 26768 26769 26770 26771 26772 26773 26774 26775 26776 26777 26778 26779 26780 26781 26782 26783 26784 26785 26786 26787 26788 26789 26790 26791 26792 26793 26794 26795 26796 26797 26798 26799 26800 26801 26802 26803 26804 26805 26806 26807 26808 26809 26810 26811 26812 26813 26814 26815 26816 26817 26818 26819 26820 26821 26822 26823 26824 26825 26826 26827 26828 26829 26830 26831 26832 26833 26834 26835 26836 26837 26838 26839 26840 26841 26842 26843 26844 26845 26846 26847 26848 26849 26850 26851 26852 26853 26854 26855 26856 26857 26858 26859 26860 26861 26862 26863 26864 26865 26866 26867 26868 26869 26870 26871 26872 26873 26874 26875 26876 26877 26878 26879 26880 26881 26882 26883 26884 26885 26886 26887 26888 26889 26890 26891 26892 26893 26894 26895 26896 26897 26898 26899 26900 26901 26902 26903 26904 26905 26906 26907 26908 26909 26910 26911 26912 26913 26914 26915 26916 26917 26918 26919 26920 26921 26922 26923 26924 26925 26926 26927 26928 26929 26930 26931 26932 26933 26934 26935 26936 26937 26938 26939 26940 26941 26942 26943 26944 26945 26946 26947 26948 26949 26950 26951 26952 26953 26954 26955 26956 26957 26958 26959 26960 26961 26962 26963 26964 26965 26966 26967 26968 26969 26970 26971 26972 26973 26974 26975 26976 26977 26978 26979 26980 26981 26982 26983 26984 26985 26986 26987 26988 26989 26990 26991 26992 26993 26994 26995 26996 26997 26998 26999 27000 27001 27002 27003 27004 27005 27006 27007 27008 27009 27010 27011 27012 27013 27014 27015 27016 27017 27018 27019 27020 27021 27022 27023 27024 27025 27026 27027 27028 27029 27030 27031 27032 27033 27034 27035 27036 27037 27038 27039 27040 27041 27042 27043 27044 27045 27046 27047 27048 27049 27050 27051 27052 27053 27054 27055 27056 27057 27058 27059 27060 27061 27062 27063 27064 27065 27066 27067 27068 27069 27070 27071 27072 27073 27074 27075 27076 27077 27078 27079 27080 27081 27082 27083 27084 27085 27086 27087 27088 27089 27090 27091 27092 27093 27094 27095 27096 27097 27098 27099 27100 27101 27102 27103 27104 27105 27106 27107 27108 27109 27110 27111 27112 27113 27114 27115 27116 27117 27118 27119 27120 27121 27122 27123 27124 27125 27126 27127 27128 27129 27130 27131 27132 27133 27134 27135 27136 27137 27138 27139 27140 27141 27142 27143 27144 27145 27146 27147 27148 27149 27150 27151 27152 27153 27154 27155 27156 27157 27158 27159 27160 27161 27162 27163 27164 27165 27166 27167 27168 27169 27170 27171 27172 27173 27174 27175 27176 27177 27178 27179 27180 27181 27182 27183 27184 27185 27186 27187 27188 27189 27190 27191 27192 27193 27194 27195 27196 27197 27198 27199 27200 27201 27202 27203 27204 27205 27206 27207 27208 27209 27210 27211 27212 27213 27214 27215 27216 27217 27218 27219 27220 27221 27222 27223 27224 27225 27226 27227 27228 27229 27230 27231 27232 27233 27234 27235 27236 27237 27238 27239 27240 27241 27242 27243 27244 27245 27246 27247 27248 27249 27250 27251 27252 27253 27254 27255 27256 27257 27258 27259 27260 27261 27262 27263 27264 27265 27266 27267 27268 27269 27270 27271 27272 27273 27274 27275 27276 27277 27278 27279 27280 27281 27282 27283 27284 27285 27286 27287 27288 27289 27290 27291 27292 27293 27294 27295 27296 27297 27298 27299 27300 27301 27302 27303 27304 27305 27306 27307 27308 27309 27310 27311 27312 27313 27314 27315 27316 27317 27318 27319 27320 27321 27322 27323 27324 27325 27326 27327 27328 27329 27330 27331 27332 27333 27334 27335 27336 27337 27338 27339 27340 27341 27342 27343 27344 27345 27346 27347 27348 27349 27350 27351 27352 27353 27354 27355 27356 27357 27358 27359 27360 27361 27362 27363 27364 27365 27366 27367 27368 27369 27370 27371 27372 27373 27374 27375 27376 27377 27378 27379 27380 27381 27382 27383 27384 27385 27386 27387 27388 27389 27390 27391 27392 27393 27394 27395 27396 27397 27398 27399 27400 27401 27402 27403 27404 27405 27406 27407 27408 27409 27410 27411 27412 27413 27414 27415 27416 27417 27418 27419 27420 27421 27422 27423 27424 27425 27426 27427 27428 27429 27430 27431 27432 27433 27434 27435 27436 27437 27438 27439 27440 27441 27442 27443 27444 27445 27446 27447 27448 27449 27450 27451 27452 27453 27454 27455 27456 27457 27458 27459 27460 27461 27462 27463 27464 27465 27466 27467 27468 27469 27470 27471 27472 27473 27474 27475 27476 27477 27478 27479 27480 27481 27482 27483 27484 27485 27486 27487 27488 27489 27490 27491 27492 27493 27494 27495 27496 27497 27498 27499 27500 27501 27502 27503 27504 27505 27506 27507 27508 27509 27510 27511 27512 27513 27514 27515 27516 27517 27518 27519 27520 27521 27522 27523 27524 27525 27526 27527 27528 27529 27530 27531 27532 27533 27534 27535 27536 27537 27538 27539 27540 27541 27542 27543 27544 27545 27546 27547 27548 27549 27550 27551 27552 27553 27554 27555 27556 27557 27558 27559 27560 27561 27562 27563 27564 27565 27566 27567 27568 27569 27570 27571 27572 27573 27574 27575 27576 27577 27578 27579 27580 27581 27582 27583 27584 27585 27586 27587 27588 27589 27590 27591 27592 27593 27594 27595 27596 27597 27598 27599 27600 27601 27602 27603 27604 27605 27606 27607 27608 27609 27610 27611 27612 27613 27614 27615 27616 27617 27618 27619 27620 27621 27622 27623 27624 27625 27626 27627 27628 27629 27630 27631 27632 27633 27634 27635 27636 27637 27638 27639 27640 27641 27642 27643 27644 27645 27646 27647 27648 27649 27650 27651 27652 27653 27654 27655 27656 27657 27658 27659 27660 27661 27662 27663 27664 27665 27666 27667 27668 27669 27670 27671 27672 27673 27674 27675 27676 27677 27678 27679 27680 27681 27682 27683 27684 27685 27686 27687 27688 27689 27690 27691 27692 27693 27694 27695 27696 27697 27698 27699 27700 27701 27702 27703 27704 27705 27706 27707 27708 27709 27710 27711 27712 27713 27714 27715 27716 27717 27718 27719 27720 27721 27722 27723 27724 27725 27726 27727 27728 27729 27730 27731 27732 27733 27734 27735 27736 27737 27738 27739 27740 27741 27742 27743 27744 27745 27746 27747 27748 27749 27750 27751 27752 27753 27754 27755 27756 27757 27758 27759 27760 27761 27762 27763 27764 27765 27766 27767 27768 27769 27770 27771 27772 27773 27774 27775 27776 27777 27778 27779 27780 27781 27782 27783 27784 27785 27786 27787 27788 27789 27790 27791 27792 27793 27794 27795 27796 27797 27798 27799 27800 27801 27802 27803 27804 27805 27806 27807 27808 27809 27810 27811 27812 27813 27814 27815 27816 27817 27818 27819 27820 27821 27822 27823 27824 27825 27826 27827 27828 27829 27830 27831 27832 27833 27834 27835 27836 27837 27838 27839 27840 27841 27842 27843 27844 27845 27846 27847 27848 27849 27850 27851 27852 27853 27854 27855 27856 27857 27858 27859 27860 27861 27862 27863 27864 27865 27866 27867 27868 27869 27870 27871 27872 27873 27874 27875 27876 27877 27878 27879 27880 27881 27882 27883 27884 27885 27886 27887 27888 27889 27890 27891 27892 27893 27894 27895 27896 27897 27898 27899 27900 27901 27902 27903 27904 27905 27906 27907 27908 27909 27910 27911 27912 27913 27914 27915 27916 27917 27918 27919 27920 27921 27922 27923 27924 27925 27926 27927 27928 27929 27930 27931 27932 27933 27934 27935 27936 27937 27938 27939 27940 27941 27942 27943 27944 27945 27946 27947 27948 27949 27950 27951 27952 27953 27954 27955 27956 27957 27958 27959 27960 27961 27962 27963 27964 27965 27966 27967 27968 27969 27970 27971 27972 27973 27974 27975 27976 27977 27978 27979 27980 27981 27982 27983 27984 27985 27986 27987 27988 27989 27990 27991 27992 27993 27994 27995 27996 27997 27998 27999 28000 28001 28002 28003 28004 28005 28006 28007 28008 28009 28010 28011 28012 28013 28014 28015 28016 28017 28018 28019 28020 28021 28022 28023 28024 28025 28026 28027 28028 28029 28030 28031 28032 28033 28034 28035 28036 28037 28038 28039 28040 28041 28042 28043 28044 28045 28046 28047 28048 28049 28050 28051 28052 28053 28054 28055 28056 28057 28058 28059 28060 28061 28062 28063 28064 28065 28066 28067 28068 28069 28070 28071 28072 28073 28074 28075 28076 28077 28078 28079 28080 28081 28082 28083 28084 28085 28086 28087 28088 28089 28090 28091 28092 28093 28094 28095 28096 28097 28098 28099 28100 28101 28102 28103 28104 28105 28106 28107 28108 28109 28110 28111 28112 28113 28114 28115 28116 28117 28118 28119 28120 28121 28122 28123 28124 28125 28126 28127 28128 28129 28130 28131 28132 28133 28134 28135 28136 28137 28138 28139 28140 28141 28142 28143 28144 28145 28146 28147 28148 28149 28150 28151 28152 28153 28154 28155 28156 28157 28158 28159 28160 28161 28162 28163 28164 28165 28166 28167 28168 28169 28170 28171 28172 28173 28174 28175 28176 28177 28178 28179 28180 28181 28182 28183 28184 28185 28186 28187 28188 28189 28190 28191 28192 28193 28194 28195 28196 28197 28198 28199 28200 28201 28202 28203 28204 28205 28206 28207 28208 28209 28210 28211 28212 28213 28214 28215 28216 28217 28218 28219 28220 28221 28222 28223 28224 28225 28226 28227 28228 28229 28230 28231 28232 28233 28234 28235 28236 28237 28238 28239 28240 28241 28242 28243 28244 28245 28246 28247 28248 28249 28250 28251 28252 28253 28254 28255 28256 28257 28258 28259 28260 28261 28262 28263 28264 28265 28266 28267 28268 28269 28270 28271 28272 28273 28274 28275 28276 28277 28278 28279 28280 28281 28282 28283 28284 28285 28286 28287 28288 28289 28290 28291 28292 28293 28294 28295 28296 28297 28298 28299 28300 28301 28302 28303 28304 28305 28306 28307 28308 28309 28310 28311 28312 28313 28314 28315 28316 28317 28318 28319 28320 28321 28322 28323 28324 28325 28326 28327 28328 28329 28330 28331 28332 28333 28334 28335 28336 28337 28338 28339 28340 28341 28342 28343 28344 28345 28346 28347 28348 28349 28350 28351 28352 28353 28354 28355 28356 28357 28358 28359 28360 28361 28362 28363 28364 28365 28366 28367 28368 28369 28370 28371 28372 28373 28374 28375 28376 28377 28378 28379 28380 28381 28382 28383 28384 28385 28386 28387 28388 28389 28390 28391 28392 28393 28394 28395 28396 28397 28398 28399 28400 28401 28402 28403 28404 28405 28406 28407 28408 28409 28410 28411 28412 28413 28414 28415 28416 28417 28418 28419 28420 28421 28422 28423 28424 28425 28426 28427 28428 28429 28430 28431 28432 28433 28434 28435 28436 28437 28438 28439 28440 28441 28442 28443 28444 28445 28446 28447 28448 28449 28450 28451 28452 28453 28454 28455 28456 28457 28458 28459 28460 28461 28462 28463 28464 28465 28466 28467 28468 28469 28470 28471 28472 28473 28474 28475 28476 28477 28478 28479 28480 28481 28482 28483 28484 28485 28486 28487 28488 28489 28490 28491 28492 28493 28494 28495 28496 28497 28498 28499 28500 28501 28502 28503 28504 28505 28506 28507 28508 28509 28510 28511 28512 28513 28514 28515 28516 28517 28518 28519 28520 28521 28522 28523 28524 28525 28526 28527 28528 28529 28530 28531 28532 28533 28534 28535 28536 28537 28538 28539 28540 28541 28542 28543 28544 28545 28546 28547 28548 28549 28550 28551 28552 28553 28554 28555 28556 28557 28558 28559 28560 28561 28562 28563 28564 28565 28566 28567 28568 28569 28570 28571 28572 28573 28574 28575 28576 28577 28578 28579 28580 28581 28582 28583 28584 28585 28586 28587 28588 28589 28590 28591 28592 28593 28594 28595 28596 28597 28598 28599 28600 28601 28602 28603 28604 28605 28606 28607 28608 28609 28610 28611 28612 28613 28614 28615 28616 28617 28618 28619 28620 28621 28622 28623 28624 28625 28626 28627 28628 28629 28630 28631 28632 28633 28634 28635 28636 28637 28638 28639 28640 28641 28642 28643 28644 28645 28646 28647 28648 28649 28650 28651 28652 28653 28654 28655 28656 28657 28658 28659 28660 28661 28662 28663 28664 28665 28666 28667 28668 28669 28670 28671 28672 28673 28674 28675 28676 28677 28678 28679 28680 28681 28682 28683 28684 28685 28686 28687 28688 28689 28690 28691 28692 28693 28694 28695 28696 28697 28698 28699 28700 28701 28702 28703 28704 28705 28706 28707 28708 28709 28710 28711 28712 28713 28714 28715 28716 28717 28718 28719 28720 28721 28722 28723 28724 28725 28726 28727 28728 28729 28730 28731 28732 28733 28734 28735 28736 28737 28738 28739 28740 28741 28742 28743 28744 28745 28746 28747 28748 28749 28750 28751 28752 28753 28754 28755 28756 28757 28758 28759 28760 28761 28762 28763 28764 28765 28766 28767 28768 28769 28770 28771 28772 28773 28774 28775 28776 28777 28778 28779 28780 28781 28782 28783 28784 28785 28786 28787 28788 28789 28790 28791 28792 28793 28794 28795 28796 28797 28798 28799 28800 28801 28802 28803 28804 28805 28806 28807 28808 28809 28810 28811 28812 28813 28814 28815 28816 28817 28818 28819 28820 28821 28822 28823 28824 28825 28826 28827 28828 28829 28830 28831 28832 28833 28834 28835 28836 28837 28838 28839 28840 28841 28842 28843 28844 28845 28846 28847 28848 28849 28850 28851 28852 28853 28854 28855 28856 28857 28858 28859 28860 28861 28862 28863 28864 28865 28866 28867 28868 28869 28870 28871 28872 28873 28874 28875 28876 28877 28878 28879 28880 28881 28882 28883 28884 28885 28886 28887 28888 28889 28890 28891 28892 28893 28894 28895 28896 28897 28898 28899 28900 28901 28902 28903 28904 28905 28906 28907 28908 28909 28910 28911 28912 28913 28914 28915 28916 28917 28918 28919 28920 28921 28922 28923 28924 28925 28926 28927 28928 28929 28930 28931 28932 28933 28934 28935 28936 28937 28938 28939 28940 28941 28942 28943 28944 28945 28946 28947 28948 28949 28950 28951 28952 28953 28954 28955 28956 28957 28958 28959 28960 28961 28962 28963 28964 28965 28966 28967 28968 28969 28970 28971 28972 28973 28974 28975 28976 28977 28978 28979 28980 28981 28982 28983 28984 28985 28986 28987 28988 28989 28990 28991 28992 28993 28994 28995 28996 28997 28998 28999 29000 29001 29002 29003 29004 29005 29006 29007 29008 29009 29010 29011 29012 29013 29014 29015 29016 29017 29018 29019 29020 29021 29022 29023 29024 29025 29026 29027 29028 29029 29030 29031 29032 29033 29034 29035 29036 29037 29038 29039 29040 29041 29042 29043 29044 29045 29046 29047 29048 29049 29050 29051 29052 29053 29054 29055 29056 29057 29058 29059 29060 29061 29062 29063 29064 29065 29066 29067 29068 29069 29070 29071 29072 29073 29074 29075 29076 29077 29078 29079 29080 29081 29082 29083 29084 29085 29086 29087 29088 29089 29090 29091 29092 29093 29094 29095 29096 29097 29098 29099 29100 29101 29102 29103 29104 29105 29106 29107 29108 29109 29110 29111 29112 29113 29114 29115 29116 29117 29118 29119 29120 29121 29122 29123 29124 29125 29126 29127 29128 29129 29130 29131 29132 29133 29134 29135 29136 29137 29138 29139 29140 29141 29142 29143 29144 29145 29146 29147 29148 29149 29150 29151 29152 29153 29154 29155 29156 29157 29158 29159 29160 29161 29162 29163 29164 29165 29166 29167 29168 29169 29170 29171 29172 29173 29174 29175 29176 29177 29178 29179 29180 29181 29182 29183 29184 29185 29186 29187 29188 29189 29190 29191 29192 29193 29194 29195 29196 29197 29198 29199 29200 29201 29202 29203 29204 29205 29206 29207 29208 29209 29210 29211 29212 29213 29214 29215 29216 29217 29218 29219 29220 29221 29222 29223 29224 29225 29226 29227 29228 29229 29230 29231 29232 29233 29234 29235 29236 29237 29238 29239 29240 29241 29242 29243 29244 29245 29246 29247 29248 29249 29250 29251 29252 29253 29254 29255 29256 29257 29258 29259 29260 29261 29262 29263 29264 29265 29266 29267 29268 29269 29270 29271 29272 29273 29274 29275 29276 29277 29278 29279 29280 29281 29282 29283 29284 29285 29286 29287 29288 29289 29290 29291 29292 29293 29294 29295 29296 29297 29298 29299 29300 29301 29302 29303 29304 29305 29306 29307 29308 29309 29310 29311 29312 29313 29314 29315 29316 29317 29318 29319 29320 29321 29322 29323 29324 29325 29326 29327 29328 29329 29330 29331 29332 29333 29334 29335 29336 29337 29338 29339 29340 29341 29342 29343 29344 29345 29346 29347 29348 29349 29350 29351 29352 29353 29354 29355 29356 29357 29358 29359 29360 29361 29362 29363 29364 29365 29366 29367 29368 29369 29370 29371 29372 29373 29374 29375 29376 29377 29378 29379 29380 29381 29382 29383 29384 29385 29386 29387 29388 29389 29390 29391 29392 29393 29394 29395 29396 29397 29398 
</DataArray>
<DataArray type="UInt32" Name="offsets" format="ascii">
3 6 9 12 15 18 21 24 27 30 32 35 37 40 43 46 49 52 55 58 60 63 65 68 71 74 77 79 82 85 88 91 94 97 100 103 106 109 112 115 118 121 124 127 130 133 136 139 142 145 148 151 154 157 160 163 166 169 171 174 177 180 182 185 188 191 194 197 200 203 206 209 212 215 218 221 224 227 230 233 236 238 241 244 247 250 253 256 259 262 265 268 271 273 275 278 281 284 287 290 293 296 299 302 305 308 311 314 317 320 322 325 328 331 334 337 340 342 345 348 351 354 357 360 363 366 369 372 375 378 381 384 387 389 392 395 398 401 404 407 410 413 416 419 422 425 428 430 433 436 439 442 444 447 450 452 455 457 459 462 465 468 471 474 476 479 482 485 488 491 494 497 500 503 506 509 512 515 518 520 523 526 529 532 535 538 541 543 546 549 551 554 557 560 563 566 569 572 575 578 581 584 587 590 593 596 599 602 605 608 610 613 616 619 622 624 627 630 633 636 639 642 645 648 650 653 656 659 661 664 667 670 673 676 679 682 685 688 691 694 696 699 701 704 707 710 713 716 719 722 724 727 729 732 735 738 740 743 745 748 751 754 757 760 763 765 768 771 774 777 780 782 785 788 790 793 796 799 802 805 808 811 813 816 819 822 825 828 831 834 837 840 843 846 849 852 855 858 861 864 867 870 873 875 878 881 883 886 889 892 895 898 901 904 907 910 913 916 919 922 925 928 931 934 937 940 943 946 949 952 955 958 961 964 967 970 973 976 979 982 985 988 991 994 997 1000 1003 1006 1009 1012 1015 1018 1021 1024 1027 1030 1033 1036 1039 1042 1045 1048 1051 1054 1057 1060 1063 1066 1069 1072 1074 1077 1080 1083 1086 1089 1092 1095 1098 1101 1103 1105 1108 1111 1113 1116 1119 1122 1124 1127 1130 1133 1136 1139 1142 1144 1147 1150 1153 1156 1159 1162 1165 1168 1171 1174 1177 1180 1183 1186 1189 1192 1195 1197 1200 1202 1205 1208 1211 1214 1217 1220 1223 1225 1227 1230 1233 1236 1239 1241 1244 1247 1250 1253 1256 1259 1261 1264 1267 1270 1273 1276 1279 1282 1285 1288 1291 1294 1297 1299 1302 1305 1308 1311 1313 1316 1319 1322 1325 1328 1331 1334 1337 1340 1343 1346 1349 1352 1354 1357 1359 1362 1365 1368 1371 1374 1377 1380 1383 1386 1389 1392 1395 1398 1401 1403 1406 1409 1412 1415 1418 1421 1424 1427 1430 1433 1436 1439 1442 1445 1448 1451 1454 1457 1460 1463 1466 1469 1472 1475 1478 1481 1484 1487 1490 1493 1496 1499 1502 1505 1508 1511 1514 1517 1520 1523 1526 1529 1531 1534 1537 1540 1543 1546 1548 1551 1554 1556 1559 1562 1564 1567 1570 1573 1575 1578 1581 1583 1586 1589 1592 1595 1598 1601 1604 1607 1610 1613 1616 1619 1622 1625 1628 1631 1634 1637 1640 1643 1645 1647 1650 1653 1656 1659 1661 1664 1667 1670 1672 1675 1678 1681 1684 1686 1689 1692 1694 1697 1700 1702 1705 1708 1711 1713 1716 1719 1722 1725 1728 1731 1734 1737 1740 1743 1746 1749 1752 1755 1758 1761 1764 1767 1770 1773 1776 1779 1782 1785 1788 1791 1794 1797 1799 1802 1804 1807 1809 1812 1815 1818 1821 1823 1826 1829 1832 1835 1838 1841 1843 1846 1849 1852 1854 1857 1860 1862 1864 1867 1870 1873 1876 1878 1881 1884 1887 1889 1892 1895 1898 1900 1903 1905 1908 1911 1914 1917 1919 1922 1925 1928 1931 1934 1937 1940 1943 1945 1948 1951 1954 1957 1960 1962 1965 1968 1971 1974 1977 1980 1983 1986 1989 1992 1995 1998 2000 2003 2006 2009 2012 2015 2018 2021 2024 2027 2030 2033 2036 2039 2042 2044 2047 2050 2052 2055 2058 2061 2064 2067 2069 2072 2075 2077 2080 2083 2086 2089 2092 2095 2097 2100 2103 2106 2109 2112 2115 2117 2120 2123 2125 2128 2131 2133 2135 2138 2141 2143 2146 2149 2151 2154 2156 2158 2160 2163 2166 2169 2172 2175 2177 2180 2183 2186 2188 2191 2193 2196 2199 2201 2204 2207 2210 2213 2216 2219 2222 2225 2228 2231 2234 2237 2240 2243 2246 2248 2251 2253 2256 2259 2261 2264 2267 2269 2272 2274 2277 2280 2283 2286 2289 2291 2293 2296 2299 2302 2305 2307 2310 2313 2316 2319 2322 2325 2328 2331 2334 2336 2339 2342 2345 2348 2351 2354 2357 2359 2362 2365 2367 2370 2373 2376 2378 2380 2383 2386 2388 2391 2394 2397 2399 2402 2404 2407 2410 2413 2415 2418 2421 2423 2426 2429 2432 2435 2438 2441 2444 2447 2450 2452 2455 2458 2461 2464 2467 2470 2473 2476 2479 2482 2485 2488 2491 2494 2497 2500 2502 2505 2507 2510 2513 2516 2519 2522 2525 2528 2531 2534 2537 2540 2543 2546 2549 2552 2555 2558 2561 2564 2567 2570 2573 2575 2577 2580 2583 2586 2589 2592 2595 2598 2601 2604 2607 2610 2613 2616 2619 2622 2625 2628 2631 2634 2636 2639 2642 2645 2648 2651 2654 2657 2660 2663 2666 2669 2672 2675 2678 2681 2684 2687 2690 2693 2696 2699 2702 2705 2708 2711 2714 2717 2720 2723 2726 2728 2731 2734 2737 2739 2741 2744 2747 2750 2753 2756 2759 2762 2765 2768 2771 2774 2777 2780 2782 2785 2788 2791 2794 2797 2800 2803 2805 2808 2811 2814 2817 2820 2823 2826 2829 2832 2835 2838 2841 2843 2846 2849 2852 2855 2858 2861 2864 2867 2870 2873 2876 2878 2881 2884 2887 2890 2893 2896 2899 2902 2905 2908 2911 2914 2917 2920 2922 2925 2928 2931 2934 2937 2940 2943 2946 2949 2952 2954 2956 2959 2962 2965 2968 2971 2974 2976 2979 2982 2985 2988 2991 2994 2997 3000 3003 3006 3009 3012 3014 3017 3020 3023 3026 3029 3032 3035 3037 3040 3043 3046 3049 3052 3055 3058 3061 3064 3067 3070 3073 3075 3078 3081 3084 3087 3090 3093 3096 3099 3102 3105 3108 3111 3114 3116 3119 3122 3125 3128 3131 3134 3137 3140 3143 3146 3149 3152 3155 3158 3161 3164 3167 3169 3172 3175 3178 3181 3184 3187 3190 3193 3196 3199 3202 3205 3208 3211 3214 3217 3220 3223 3226 3229 3232 3235 3238 3241 3244 3247 3250 3253 3256 3259 3262 3265 3268 3271 3274 3277 3280 3283 3286 3289 3292 3295 3298 3301 3304 3307 3310 3313 3316 3319 3322 3325 3328 3331 3334 3337 3340 3343 3346 3349 3351 3354 3357 3360 3363 3366 3369 3372 3375 3378 3381 3384 3386 3389 3392 3395 3397 3400 3403 3406 3409 3411 3414 3417 3420 3423 3426 3429 3431 3434 3437 3440 3443 3446 3448 3451 3453 3456 3459 3461 3464 3467 3470 3473 3476 3479 3482 3485 3488 3491 3494 3497 3500 3503 3505 3508 3511 3514 3517 3520 3523 3525 3528 3531 3534 3537 3540 3542 3545 3548 3551 3554 3556 3559 3561 3564 3567 3570 3573 3576 3579 3581 3583 3586 3589 3591 3593 3595 3598 3601 3604 3606 3609 3612 3614 3617 3619 3622 3625 3628 3630 3633 3636 3639 3641 3644 3647 3650 3653 3655 3658 3661 3664 3667 3670 3673 3676 3679 3682 3685 3688 3691 3694 3697 3700 3703 3706 3709 3712 3715 3718 3721 3724 3727 3730 3733 3736 3739 3742 3745 3748 3751 3754 3757 3760 3763 3766 3769 3772 3775 3778 3781 3783 3786 3789 3792 3795 3798 3801 3804 3807 3809 3811 3813 3816 3819 3822 3825 3827 3830 3833 3835 3838 3841 3844 3847 3850 3852 3855 3858 3860 3863 3866 3869 3872 3875 3877 3880 3882 3885 3888 3890 3893 3896 3899 3902 3905 3908 3911 3914 3917 3920 3923 3926 3929 3932 3934 3936 3938 3941 3944 3946 3949 3952 3955 3958 3961 3963 3965 3968 3971 3974 3977 3979 3982 3984 3987 3990 3993 3995 3997 4000 4003 4006 4009 4011 4013 4016 4019 4022 4025 4028 4031 4034 4037 4040 4043 4046 4049 4052 4055 4058 4061 4064 4067 4070 4072 4075 4078 4081 4084 4087 4090 4093 4096 4099 4102 4105 4108 4111 4114 4117 4119 4122 4124 4127 4130 4133 4136 4139 4142 4144 4147 4149 4152 4155 4158 4161 4163 4166 4168 4170 4173 4175 4178 4181 4184 4187 4190 4193 4196 4198 4201 4204 4207 4210 4213 4215 4217 4220 4222 4225 4228 4231 4234 4237 4240 4243 4246 4249 4252 4255 4258 4261 4264 4267 4270 4273 4276 4279 4281 4284 4287 4290 4293 4296 4299 4302 4305 4308 4311 4314 4317 4320 4323 4326 4329 4332 4335 4338 4341 4344 4347 4350 4353 4356 4359 4362 4364 4367 4370 4372 4375 4378 4381 4383 4386 4389 4392 4395 4398 4400 4403 4406 4408 4411 4414 4417 4420 4423 4426 4429 4432 4435 4438 4441 4444 4447 4450 4453 4456 4459 4462 4465 4468 4471 4474 4477 4480 4483 4486 4489 4492 4494 4497 4500 4503 4505 4508 4511 4514 4516 4518 4521 4524 4527 4529 4532 4535 4538 4541 4544 4547 4550 4553 4556 4559 4561 4564 4566 4569 4572 4575 4578 4581 4584 4586 4589 4591 4594 4596 4599 4602 4605 4608 4611 4613 4615 4618 4621 4624 4627 4630 4633 4636 4639 4642 4645 4648 4651 4654 4657 4660 4663 4666 4669 4672 4675 4678 4681 4684 4687 4690 4693 4696 4699 4702 4704 4707 4710 4713 4715 4718 4721 4724 4727 4730 4733 4736 4739 4742 4745 4748 4751 4754 4757 4759 4762 4765 4768 4770 4773 4776 4779 4782 4785 4788 4791 4794 4797 4800 4803 4806 4809 4812 4815 4817 4820 4823 4826 4829 4832 4835 4838 4841 4844 4847 4850 4853 4856 4859 4862 4865 4868 4871 4874 4877 4880 4883 4886 4889 4892 4895 4898 4900 4903 4906 4909 4912 4915 4918 4921 4924 4927 4930 4933 4936 4939 4942 4945 4947 4950 4952 4955 4958 4961 4963 4965 4967 4970 4973 4976 4979 4982 4985 4988 4991 4994 4997 5000 5003 5006 5009 5012 5015 5018 5021 5024 5027 5030 5033 5036 5039 5042 5045 5048 5050 5053 5056 5059 5062 5065 5068 5071 5074 5076 5079 5082 5085 5087 5090 5093 5096 5098 5101 5104 5107 5110 5113 5116 5119 5122 5124 5126 5129 5132 5135 5137 5140 5143 5146 5149 5151 5154 5157 5159 5162 5165 5167 5170 5172 5175 5178 5181 5184 5187 5190 5193 5196 5199 5202 5205 5208 5211 5214 5216 5219 5222 5224 5227 5229 5231 5234 5237 5240 5242 5245 5248 5251 5254 5257 5259 5261 5264 5266 5269 5272 5274 5277 5280 5283 5286 5289 5292 5295 5298 5301 5304 5307 5310 5313 5315 5317 5320 5323 5326 5329 5332 5335 5338 5341 5343 5346 5349 5352 5355 5358 5360 5363 5366 5369 5372 5374 5377 5380 5383 5386 5389 5392 5395 5397 5399 5402 5405 5408 5411 5414 5417 5420 5423 5426 5428 5431 5434 5437 5439 5442 5445 5448 5451 5454 5457 5460 5463 5466 5469 5472 5475 5478 5481 5484 5487 5490 5493 5496 5499 5501 5504 5507 5510 5513 5516 5518 5521 5523 5526 5529 5532 5535 5538 5541 5544 5547 5550 5552 5555 5558 5561 5564 5567 5570 5573 5575 5578 5581 5583 5586 5589 5592 5594 5597 5600 5602 5605 5608 5611 5614 5617 5620 5623 5626 5629 5632 5635 5638 5641 5644 5647 5650 5653 5656 5659 5662 5665 5668 5671 5674 5677 5680 5683 5686 5689 5691 5694 5697 5700 5703 5706 5709 5712 5715 5718 5721 5724 5727 5730 5733 5736 5739 5742 5745 5748 5751 5754 5757 5760 5763 5766 5769 5772 5775 5778 5781 5784 5786 5789 5792 5795 5798 5801 5804 5807 5810 5813 5816 5819 5822 5825 5828 5831 5834 5837 5840 5843 5846 5849 5852 5855 5858 5860 5863 5866 5869 5872 5875 5878 5881 5884 5887 5889 5892 5895 5898 5900 5903 5906 5908 5911 5914 5916 5919 5922 5925 5927 5930 5933 5936 5939 5941 5944 5947 5950 5953 5956 5959 5962 5965 5968 5970 5973 5975 5978 5981 5984 5987 5989 5992 5995 5998 6000 6003 6005 6008 6011 6014 6017 6020 6023 6026 6029 6032 6035 6038 6041 6044 6047 6050 6053 6056 6059 6062 6065 6068 6071 6074 6077 6080 6083 6086 6089 6092 6095 6098 6101 6104 6107 6110 6112 6114 6117 6120 6123 6126 6129 6132 6135 6138 6141 6144 6147 6150 6152 6155 6158 6161 6164 6167 6170 6173 6175 6177 6180 6183 6186 6189 6191 6194 6197 6200 6203 6206 6209 6212 6215 6218 6221 6224 6227 6230 6233 6236 6239 6241 6244 6247 6250 6253 6255 6258 6261 6263 6266 6268 6271 6274 6277 6279 6282 6284 6287 6290 6293 6296 6299 6302 6305 6307 6310 6313 6316 6318 6321 6324 6327 6330 6333 6336 6339 6342 6345 6348 6351 6354 6357 6359 6362 6364 6367 6370 6372 6375 6378 6381 6384 6387 6390 6393 6396 6399 6402 6405 6408 6410 6413 6416 6419 6422 6425 6428 6431 6434 6437 6440 6443 6446 6449 6452 6455 6458 6461 6464 6467 6469 6472 6475 6478 6481 6484 6487 6489 6492 6495 6498 6500 6503 6506 6509 6512 6515 6518 6521 6524 6527 6530 6533 6536 6539 6542 6545 6548 6551 6554 6557 6559 6562 6565 6568 6571 6574 6577 6580 6583 6586 6589 6592 6595 6598 6601 6604 6607 6610 6613 6616 6619 6622 6625 6628 6631 6633 6636 6639 6642 6645 6648 6651 6653 6656 6659 6662 6665 6667 6670 6673 6676 6679 6681 6683 6685 6688 6691 6694 6697 6700 6703 6705 6708 6711 6714 6716 6719 6722 6725 6728 6730 6733 6736 6738 6740 6743 6746 6749 6752 6754 6757 6760 6762 6765 6768 6771 6774 6777 6780 6783 6786 6789 6792 6795 6798 6801 6804 6806 6809 6811 6814 6816 6819 6821 6824 6827 6830 6833 6836 6839 6841 6844 6847 6850 6853 6855 6858 6861 6864 6867 6870 6872 6875 6877 6880 6883 6886 6889 6892 6895 6898 6901 6904 6906 6909 6912 6915 6918 6921 6924 6927 6930 6933 6936 6939 6942 6945 6948 6951 6954 6956 6959 6962 6965 6968 6971 6974 6977 6980 6983 6986 6989 6992 6995 6998 7001 7004 7007 7010 7013 7016 7019 7022 7025 7028 7031 7033 7036 7039 7041 7044 7047 7050 7053 7055 7058 7060 7063 7066 7069 7072 7075 7078 7081 7084 7087 7090 7093 7096 7098 7101 7104 7107 7109 7112 7115 7118 7121 7123 7126 7129 7132 7135 7138 7141 7144 7147 7149 7152 7155 7158 7161 7164 7167 7170 7173 7176 7179 7182 7185 7188 7191 7194 7197 7200 7203 7206 7209 7212 7215 7218 7221 7224 7227 7230 7233 7236 7239 7242 7245 7247 7250 7253 7255 7258 7261 7264 7267 7270 7273 7276 7279 7282 7285 7288 7291 7293 7296 7298 7301 7304 7307 7309 7312 7315 7318 7321 7323 7325 7328 7330 7332 7335 7338 7340 7343 7346 7349 7352 7355 7358 7361 7364 7367 7370 7373 7376 7378 7381 7384 7387 7390 7393 7396 7399 7402 7405 7408 7411 7414 7417 7420 7423 7425 7428 7431 7434 7437 7440 7442 7445 7448 7450 7453 7455 7458 7461 7464 7467 7470 7473 7476 7479 7482 7485 7488 7490 7493 7496 7499 7502 7504 7507 7510 7512 7515 7518 7521 7524 7527 7530 7532 7535 7537 7539 7542 7545 7548 7550 7552 7555 7558 7561 7564 7567 7569 7572 7575 7578 7581 7584 7587 7590 7593 7596 7599 7602 7605 7608 7610 7613 7615 7618 7621 7624 7627 7630 7633 7636 7638 7641 7644 7646 7649 7652 7655 7658 7661 7664 7666 7669 7671 7674 7677 7680 7683 7686 7689 7692 7695 7697 7700 7703 7706 7708 7711 7714 7717 7720 7723 7726 7729 7732 7735 7738 7741 7744 7746 7749 7752 7755 7757 7760 7762 7765 7768 7771 7774 7777 7779 7781 7784 7787 7790 7793 7796 7799 7802 7805 7808 7811 7814 7817 7820 7823 7826 7829 7832 7835 7838 7841 7844 7847 7850 7853 7856 7859 7862 7865 7868 7871 7874 7877 7880 7883 7886 7889 7892 7895 7898 7901 7904 7907 7910 7913 7916 7919 7922 7925 7927 7930 7932 7935 7938 7941 7944 7947 7950 7952 7955 7958 7961 7964 7967 7970 7973 7976 7979 7982 7985 7988 7991 7994 7997 8000 8003 8006 8009 8012 8015 8018 8021 8024 8027 8030 8033 8035 8038 8041 8044 8047 8049 8052 8055 8057 8059 8062 8065 8068 8071 8073 8076 8079 8081 8084 8087 8089 8092 8095 8098 8101 8104 8107 8110 8113 8116 8118 8121 8124 8127 8130 8133 8136 8139 8142 8145 8148 8151 8154 8157 8160 8163 8166 8169 8172 8175 8178 8181 8184 8187 8190 8193 8195 8198 8201 8204 8207 8209 8212 8214 8217 8220 8223 8226 8229 8232 8235 8238 8241 8244 8247 8250 8253 8255 8258 8260 8263 8266 8269 8272 8275 8278 8281 8284 8287 8290 8293 8296 8299 8302 8305 8308 8311 8314 8317 8320 8323 8326 8328 8331 8334 8337 8340 8343 8346 8349 8352 8355 8358 8361 8364 8367 8370 8373 8376 8379 8382 8385 8388 8391 8394 8397 8400 8403 8406 8408 8411 8414 8417 8420 8423 8426 8429 8432 8435 8438 8441 8444 8447 8450 8453 8456 8459 8462 8465 8468 8471 8474 8477 8480 8483 8486 8489 8492 8495 8498 8500 8503 8506 8509 8512 8515 8518 8521 8524 8527 8530 8533 8536 8539 8542 8545 8548 8551 8554 8557 8559 8562 8565 8568 8571 8574 8577 8580 8583 8586 8589 8592 8595 8598 8601 8604 8607 8610 8613 8616 8619 8622 8625 8628 8631 8633 8636 8638 8641 8644 8647 8650 8653 8656 8659 8662 8665 8668 8671 8674 8677 8679 8682 8685 8687 8690 8692 8695 8697 8700 8703 8706 8709 8712 8715 8718 8721 8724 8727 8730 8732 8735 8738 8741 8744 8747 8749 8752 8755 8757 8760 8763 8766 8769 8772 8775 8777 8780 8783 8786 8788 8791 8794 8797 8800 8803 8806 8809 8812 8814 8817 8820 8823 8826 8829 8832 8835 8838 8841 8844 8846 8849 8852 8855 8858 8861 8863 8866 8869 8872 8874 8877 8880 8883 8885 8888 8891 8894 8896 8898 8901 8904 8907 8909 8912 8915 8917 8920 8923 8925 8928 8931 8934 8937 8940 8943 8946 8949 8952 8955 8957 8960 8963 8965 8968 8971 8974 8977 8979 8982 8984 8987 8990 8993 8996 8998 9001 9004 9007 9010 9013 9016 9019 9021 9024 9027 9030 9033 9035 9038 9041 9043 9046 9049 9051 9054 9057 9060 9063 9066 9069 9072 9075 9078 9081 9084 9087 9090 9093 9096 9099 9102 9105 9108 9111 9114 9117 9119 9122 9125 9128 9131 9133 9136 9139 9142 9145 9148 9151 9153 9156 9159 9162 9165 9168 9171 9174 9177 9179 9182 9184 9187 9190 9193 9196 9199 9202 9205 9208 9211 9214 9217 9220 9223 9226 9229 9232 9235 9238 9241 9244 9247 9249 9252 9255 9258 9261 9264 9267 9270 9272 9275 9278 9281 9283 9286 9289 9291 9293 9296 9299 9302 9305 9308 9311 9314 9317 9320 9322 9325 9328 9331 9334 9337 9340 9343 9346 9349 9352 9355 9358 9361 9364 9367 9370 9373 9376 9379 9382 9385 9388 9391 9394 9397 9400 9403 9406 9409 9412 9414 9417 9420 9423 9426 9429 9432 9435 9438 9441 9444 9446 9449 9452 9455 9458 9461 9464 9467 9470 9473 9476 9479 9482 9485 9487 9490 9493 9496 9499 9502 9505 9508 9511 9514 9517 9520 9523 9525 9528 9530 9533 9536 9539 9541 9543 9546 9549 9552 9555 9558 9561 9564 9567 9569 9572 9575 9578 9580 9583 9586 9589 9592 9595 9598 9601 9604 9607 9610 9613 9616 9619 9622 9625 9628 9631 9634 9637 9640 9643 9646 9648 9650 9653 9656 9659 9662 9665 9667 9670 9673 9676 9679 9682 9685 9687 9690 9693 9696 9699 9702 9705 9708 9711 9714 9717 9720 9723 9726 9729 9732 9735 9738 9741 9744 9747 9750 9753 9756 9759 9762 9765 9768 9771 9774 9777 9780 9783 9786 9788 9791 9794 9797 9800 9803 9806 9809 9812 9815 9818 9821 9824 9826 9829 9832 9834 9837 9840 9842 9845 9847 9850 9853 9856 9858 9860 9863 9866 9869 9872 9875 9878 9880 9883 9886 9889 9892 9895 9898 9901 9903 9905 9908 9910 9913 9916 9919 9921 9924 9927 9930 9933 9936 9939 9942 9945 9948 9951 9954 9956 9958 9961 9964 9967 9970 9973 9975 9978 9981 9984 9987 9990 9993 9996 9999 10001 10003 10006 10009 10012 10015 10017 10020 10023 10026 10028 10031 10034 10037 10040 10043 10046 10049 10051 10054 10057 10060 10063 10066 10069 10072 10075 10078 10081 10084 10086 10089 10092 10094 10097 10100 10102 10105 10107 10110 10113 10115 10118 10120 10123 10125 10128 10131 10133 10136 10139 10141 10144 10147 10150 10153 10155 10158 10161 10164 10167 10169 10172 10175 10178 10181 10184 10186 10189 10192 10195 10198 10201 10204 10207 10210 10212 10215 10218 10221 10224 10227 10230 10233 10236 10238 10241 10244 10247 10250 10253 10256 10259 10262 10265 10268 10271 10274 10277 10280 10283 10286 10289 10292 10295 10298 10300 10303 10306 10309 10312 10315 10318 10321 10324 10327 10330 10333 10335 10338 10341 10344 10347 10350 10353 10356 10359 10362 10365 10368 10371 10374 10376 10379 10382 10385 10388 10391 10393 10396 10399 10401 10404 10407 10410 10413 10416 10419 10421 10424 10427 10429 10432 10434 10437 10440 10442 10444 10447 10450 10453 10456 10459 10462 10465 10468 10471 10474 10477 10480 10483 10486 10489 10491 10494 10497 10500 10503 10506 10509 10512 10515 10518 10521 10524 10527 10530 10533 10536 10539 10542 10545 10548 10551 10553 10556 10559 10562 10565 10568 10571 10574 10577 10580 10583 10586 10589 10592 10595 10598 10601 10604 10606 10609 10612 10615 10618 10621 10624 10627 10630 10633 10636 10639 10641 10644 10647 10650 10653 10656 10659 10662 10665 10668 10671 10674 10677 10680 10683 10685 10688 10691 10694 10697 10700 10703 10705 10708 10711 10714 10717 10720 10723 10726 10729 10732 10735 10738 10741 10744 10747 10750 10753 10756 10759 10762 10765 10768 10771 10774 10777 10780 10783 10786 10789 10792 10795 10798 10801 10804 10807 10810 10813 10816 10819 10822 10825 10828 10831 10834 10837 10840 10843 10846 10849 10852 10855 10857 10860 10863 10866 10869 10871 10874 10876 10879 10882 10885 10888 10891 10893 10896 10899 10902 10905 10908 10911 10914 10917 10920 10923 10926 10929 10932 10935 10938 10941 10944 10947 10949 10952 10955 10958 10961 10963 10966 10969 10972 10975 10977 10980 10983 10985 10987 10990 10992 10995 10998 11001 11004 11007 11009 11012 11015 11017 11020 11023 11026 11029 11032 11035 11038 11041 11044 11047 11050 11053 11056 11059 11062 11065 11068 11071 11073 11076 11079 11082 11085 11088 11091 11094 11097 11100 11103 11106 11109 11112 11114 11117 11120 11122 11124 11127 11130 11133 11135 11138 11140 11143 11145 11147 11150 11153 11156 11159 11161 11164 11167 11170 11172 11175 11178 11181 11184 11187 11190 11193 11196 11199 11202 11205 11208 11211 11214 11217 11220 11223 11226 11229 11231 11233 11236 11239 11241 11244 11246 11249 11251 11254 11257 11260 11263 11266 11269 11272 11275 11278 11281 11284 11287 11290 11292 11294 11297 11300 11303 11305 11308 11311 11313 11316 11319 11322 11324 11327 11330 11333 11336 11339 11341 11344 11347 11350 11353 11355 11357 11360 11363 11366 11369 11372 11375 11378 11381 11384 11387 11390 11392 11395 11398 11401 11404 11407 11410 11413 11416 11419 11422 11425 11428 11431 11434 11437 11440 11443 11446 11449 11451 11454 11457 11460 11463 11465 11468 11471 11474 11477 11479 11481 11484 11487 11490 11493 11496 11499 11501 11504 11507 11510 11513 11516 11519 11521 11524 11527 11530 11533 11535 11537 11540 11543 11546 11549 11552 11555 11558 11561 11563 11566 11569 11572 11575 11578 11580 11583 11586 11589 11592 11594 11597 11600 11603 11606 11609 11612 11615 11618 11621 11624 11627 11630 11633 11636 11639 11642 11645 11648 11651 11654 11657 11660 11663 11666 11669 11672 11675 11678 11681 11684 11687 11690 11693 11696 11699 11702 11704 11707 11710 11713 11715 11718 11720 11723 11726 11729 11731 11734 11737 11740 11742 11745 11748 11751 11754 11757 11760 11762 11765 11768 11771 11774 11777 11780 11783 11786 11789 11792 11795 11798 11801 11804 11807 11810 11813 11816 11819 11822 11825 11828 11831 11834 11837 11840 11843 11846 11849 11852 11855 11858 11861 11864 11867 11870 11873 11876 11879 11882 11885 11888 11891 11894 11897 11900 11903 11906 11909 11912 11915 11918 11921 11924 11927 11930 11933 11936 11939 11942 11945 11948 11951 11954 11957 11960 11963 11966 11969 11972 11975 11978 11981 11984 11987 11990 11993 11996 11999 12002 12005 12008 12011 12014 12017 12020 12023 12026 12029 12032 12035 12038 12041 12044 12047 12050 12053 12056 12059 12062 12065 12068 12071 12073 12076 12079 12082 12085 12088 12090 12093 12096 12099 12102 12105 12108 12111 12114 12117 12120 12123 12126 12129 12132 12135 12138 12141 12144 12147 12150 12153 12156 12159 12162 12165 12168 12170 12173 12176 12179 12181 12184 12187 12190 12193 12196 12198 12201 12204 12207 12210 12213 12216 12219 12222 12225 12228 12231 12234 12237 12240 12243 12246 12249 12252 12255 12258 12261 12263 12266 12269 12272 12274 12277 12280 12282 12285 12288 12291 12294 12296 12299 12302 12305 12308 12311 12314 12317 12320 12323 12326 12329 12332 12334 12337 12339 12342 12345 12348 12351 12354 12357 12360 12363 12366 12369 12372 12375 12378 12381 12383 12386 12389 12392 12395 12398 12401 12404 12406 12409 12412 12414 12417 12420 12423 12426 12429 12432 12435 12438 12441 12444 12447 12450 12453 12456 12459 12462 12465 12468 12470 12472 12475 12478 12481 12484 12487 12490 12493 12496 12499 12502 12505 12508 12511 12514 12517 12520 12523 12526 12529 12532 12534 12537 12539 12542 12545 12548 12551 12554 12557 12560 12563 12565 12568 12571 12574 12577 12580 12583 12585 12588 12591 12593 12596 12599 12602 12605 12608 12611 12613 12615 12617 12619 12622 12625 12627 12630 12633 12636 12639 12642 12645 12648 12651 12654 12657 12660 12663 12666 12669 12672 12675 12678 12681 12684 12686 12689 12692 12695 12698 12701 12704 12707 12710 12713 12716 12719 12722 12725 12728 12731 12734 12737 12740 12743 12746 12749 12752 12755 12758 12761 12764 12766 12768 12770 12773 12776 12779 12781 12784 12787 12790 12793 12796 12799 12802 12805 12808 12811 12814 12817 12820 12823 12826 12829 12832 12835 12838 12841 12844 12847 12850 12853 12856 12859 12862 12865 12868 12871 12874 12877 12880 12883 12886 12889 12892 12895 12898 12900 12903 12906 12909 12912 12914 12916 12919 12921 12924 12927 12929 12932 12935 12937 12940 12943 12946 12949 12952 12955 12957 12960 12963 12966 12969 12972 12975 12978 12980 12983 12985 12988 12990 12992 12995 12998 13001 13004 13007 13010 13013 13016 13019 13022 13025 13028 13030 13033 13036 13039 13042 13045 13048 13051 13054 13057 13060 13063 13065 13068 13071 13074 13077 13080 13083 13086 13089 13092 13095 13098 13101 13104 13107 13110 13113 13115 13118 13121 13124 13127 13130 13133 13136 13139 13142 13145 13148 13150 13153 13156 13159 13162 13165 13168 13170 13173 13176 13178 13180 13183 13186 13188 13191 13194 13197 13200 13203 13205 13208 13211 13214 13216 13219 13221 13224 13227 13230 13233 13235 13238 13241 13244 13246 13249 13252 13254 13257 13260 13263 13266 13269 13272 13274 13277 13280 13283 13286 13289 13291 13294 13296 13299 13302 13304 13306 13309 13312 13315 13318 13321 13324 13326 13329 13332 13335 13338 13341 13344 13347 13350 13353 13356 13359 13362 13365 13368 13371 13374 13376 13379 13382 13385 13388 13391 13393 13396 13399 13401 13404 13407 13410 13413 13415 13418 13421 13424 13427 13429 13432 13435 13438 13441 13444 13447 13450 13453 13455 13458 13461 13464 13467 13470 13473 13475 13478 13481 13483 13486 13489 13492 13494 13497 13500 13503 13505 13507 13510 13513 13516 13519 13522 13525 13528 13531 13533 13536 13539 13541 13544 13547 13550 13553 13556 13559 13562 13565 13568 13571 13573 13576 13579 13582 13585 13588 13591 13594 13596 13599 13602 13605 13608 13610 13613 13616 13619 13621 13624 13627 13630 13633 13635 13637 13639 13642 13644 13647 13649 13652 13655 13658 13660 13663 13665 13668 13670 13672 13674 13676 13679 13682 13685 13688 13690 13693 13695 13698 13701 13704 13706 13709 13711 13714 13716 13719 13722 13724 13727 13730 13733 13736 13739 13742 13744 13747 13750 13753 13756 13759 13762 13765 13768 13771 13774 13777 13780 13783 13786 13789 13792 13794 13797 13800 13803 13805 13808 13810 13812 13815 13818 13820 13823 13826 13828 13831 13834 13837 13840 13843 13846 13849 13851 13854 13857 13860 13863 13866 13869 13872 13874 13877 13880 13883 13885 13887 13890 13893 13896 13899 13902 13905 13908 13910 13913 13915 13917 13920 13922 13924 13927 13929 13931 13934 13937 13940 13942 13945 13948 13951 13954 13957 13960 13963 13966 13969 13972 13975 13978 13981 13984 13987 13990 13992 13995 13998 14000 14003 14006 14009 14012 14015 14018 14021 14024 14027 14030 14033 14036 14039 14042 14045 14048 14051 14054 14057 14060 14063 14066 14069 14072 14075 14078 14081 14084 14087 14090 14093 14096 14099 14102 14105 14108 14111 14114 14117 14120 14123 14126 14129 14132 14134 14137 14140 14142 14145 14148 14151 14154 14157 14160 14163 14166 14169 14172 14175 14178 14181 14184 14187 14190 14193 14196 14199 14202 14205 14208 14211 14214 14217 14220 14223 14225 14227 14230 14232 14235 14238 14241 14244 14247 14250 14253 14256 14259 14262 14265 14268 14271 14274 14277 14280 14283 14286 14289 14292 14295 14298 14301 14304 14307 14310 14313 14315 14318 14321 14324 14327 14330 14333 14335 14338 14340 14343 14346 14348 14351 14354 14357 14360 14363 14366 14369 14372 14375 14378 14381 14384 14387 14390 14393 14395 14398 14401 14404 14407 14410 14413 14416 14419 14422 14425 14428 14431 14434 14437 14440 14443 14446 14449 14452 14455 14458 14461 14464 14467 14470 14473 14476 14479 14482 14485 14488 14491 14494 14497 14500 14503 14506 14509 14512 14515 14518 14521 14524 14527 14530 14533 14536 14539 14542 14545 14548 14551 14554 14557 14560 14563 14566 14569 14572 14575 14578 14581 14584 14587 14590 14593 14596 14598 14601 14604 14606 14609 14612 14614 14616 14619 14621 14624 14626 14629 14632 14635 14638 14641 14644 14646 14649 14652 14655 14658 14661 14664 14667 14670 14672 14675 14678 14681 14683 14686 14689 14692 14695 14698 14701 14704 14707 14710 14713 14716 14718 14720 14723 14726 14729 14732 14735 14737 14739 14742 14745 14748 14751 14754 14757 14760 14763 14766 14768 14771 14774 14777 14779 14782 14784 14787 14790 14793 14796 14799 14802 14805 14808 14811 14814 14817 14820 14823 14826 14829 14832 14835 14838 14841 14844 14846 14849 14852 14855 14858 14861 14864 14867 14870 14873 14876 14879 14881 14884 14887 14890 14893 14896 14899 14901 14903 14906 14909 14912 14914 14917 14920 14923 14926 14929 14932 14934 14937 14940 14943 14946 14949 14952 14955 14958 14961 14964 14967 14970 14973 14976 14979 14982 14985 14988 14991 14994 14997 15000 15003 15006 15009 15012 15015 15018 15020 15023 15026 15029 15032 15035 15038 15040 15043 15046 15049 15052 15055 15058 15061 15064 15067 15070 15073 15076 15079 15082 15085 15088 15091 15094 15097 15100 15103 15106 15109 15112 15115 15118 15121 15124 15127 15130 15133 15136 15139 15142 15145 15148 15151 15154 15157 15160 15163 15166 15169 15171 15174 15176 15179 15182 15185 15188 15190 15193 15196 15198 15201 15204 15207 15210 15213 15216 15219 15222 15225 15227 15230 15233 15235 15237 15239 15242 15245 15248 15250 15253 15256 15259 15262 15265 15268 15271 15274 15277 15280 15283 15286 15288 15291 15294 15297 15299 15301 15303 15306 15309 15312 15314 15317 15319 15322 15325 15328 15331 15334 15336 15339 15342 15345 15348 15351 15354 15356 15359 15362 15365 15368 15371 15374 15377 15380 15383 15386 15389 15392 15395 15398 15401 15403 15405 15408 15411 15413 15416 15419 15422 15425 15428 15431 15433 15436 15439 15442 15445 15448 15450 15453 15456 15459 15462 15465 15467 15470 15473 15476 15479 15481 15484 15487 15489 15492 15495 15498 15501 15503 15506 15509 15512 15515 15518 15521 15524 15527 15529 15532 15535 15538 15541 15544 15547 15549 15552 15555 15558 15561 15564 15567 15569 15572 15575 15578 15581 15583 15586 15589 15592 15594 15596 15599 15602 15605 15607 15610 15612 15614 15616 15619 15622 15625 15628 15631 15634 15637 15640 15643 15646 15649 15652 15655 15658 15661 15664 15667 15670 15672 15674 15677 15680 15683 15685 15687 15690 15693 15696 15698 15701 15704 15707 15710 15713 15716 15719 15722 15725 15728 15731 15734 15737 15740 15743 15746 15749 15752 15755 15758 15761 15764 15767 15770 15773 15776 15779 15782 15785 15787 15790 15793 15796 15799 15802 15805 15808 15810 15813 15816 15819 15822 15825 15827 15830 15832 15835 15838 15841 15843 15846 15849 15851 15854 15857 15860 15863 15865 15868 15871 15874 15877 15880 15883 15886 15888 15890 15893 15896 15899 15902 15904 15907 15909 15912 15915 15918 15920 15923 15926 15929 15932 15934 15937 15940 15943 15946 15948 15951 15953 15955 15958 15961 15964 15967 15969 15972 15974 15976 15978 15980 15982 15985 15988 15991 15993 15996 15999 16001 16003 16006 16009 16011 16014 16017 16020 16023 16026 16028 16030 16033 16036 16039 16041 16044 16047 16049 16052 16055 16058 16061 16064 16067 16070 16073 16076 16079 16082 16085 16088 16091 16094 16097 16100 16103 16106 16109 16112 16115 16118 16121 16123 16126 16129 16132 16135 16138 16140 16143 16145 16148 16151 16154 16157 16160 16162 16165 16168 16171 16174 16177 16180 16183 16186 16189 16192 16195 16198 16201 16204 16207 16210 16213 16216 16219 16222 16225 16228 16231 16234 16237 16240 16243 16246 16249 16252 16255 16258 16261 16264 16267 16270 16273 16276 16278 16281 16284 16286 16289 16292 16295 16297 16300 16302 16305 16307 16309 16312 16314 16317 16319 16322 16325 16328 16330 16333 16336 16339 16342 16345 16348 16350 16353 16356 16359 16362 16365 16367 16370 16373 16375 16378 16381 16384 16387 16390 16392 16395 16397 16400 16403 16406 16408 16411 16414 16417 16420 16422 16425 16428 16431 16434 16436 16439 16442 16444 16447 16449 16452 16455 16458 16461 16464 16467 16470 16473 16475 16478 16481 16484 16487 16489 16492 16495 16498 16501 16504 16507 16510 16513 16516 16519 16522 16524 16527 16530 16533 16536 16539 16542 16545 16548 16551 16554 16557 16560 16562 16565 16568 16571 16574 16577 16579 16582 16584 16587 16590 16592 16595 16598 16600 16602 16605 16608 16611 16614 16617 16620 16623 16626 16629 16632 16634 16637 16640 16643 16645 16648 16651 16654 16657 16660 16663 16665 16668 16671 16674 16677 16680 16683 16686 16689 16692 16695 16698 16701 16704 16707 16710 16713 16716 16719 16722 16725 16728 16731 16734 16737 16740 16743 16746 16749 16752 16755 16758 16761 16763 16766 16769 16772 16775 16778 16781 16784 16786 16789 16792 16794 16797 16800 16803 16806 16809 16812 16815 16818 16821 16824 16827 16830 16833 16835 16838 16841 16844 16847 16850 16853 16856 16859 16862 16865 16868 16871 16874 16877 16880 16883 16886 16889 16892 16895 16897 16900 16903 16906 16908 16911 16914 16917 16920 16923 16926 16928 16931 16934 16937 16939 16942 16945 16948 16951 16954 16957 16960 16963 16966 16969 16972 16975 16978 16981 16984 16987 16990 16993 16996 16999 17001 17004 17007 17010 17013 17015 17018 17021 17024 17027 17030 17033 17036 17039 17042 17045 17048 17051 17054 17057 17060 17063 17066 17069 17072 17074 17077 17080 17083 17086 17089 17092 17095 17097 17100 17103 17106 17109 17112 17115 17118 17121 17124 17127 17130 17133 17136 17139 17142 17144 17147 17150 17153 17156 17159 17162 17165 17167 17170 17173 17175 17177 17180 17183 17185 17187 17190 17193 17196 17198 17201 17204 17207 17209 17212 17215 17218 17221 17224 17227 17230 17233 17236 17238 17241 17244 17247 17250 17253 17256 17258 17261 17264 17267 17270 17273 17276 17279 17282 17284 17286 17288 17291 17294 17296 17299 17302 17305 17308 17311 17314 17317 17320 17323 17326 17329 17332 17335 17338 17340 17343 17346 17349 17352 17354 17356 17358 17361 17364 17367 17369 17372 17375 17378 17381 17384 17387 17390 17393 17396 17399 17402 17405 17408 17411 17414 17417 17420 17423 17426 17429 17431 17433 17436 17439 17441 17443 17446 17449 17452 17455 17458 17461 17464 17467 17469 17472 17475 17477 17480 17483 17486 17489 17492 17495 17498 17501 17504 17507 17510 17513 17516 17519 17522 17525 17528 17531 17534 17536 17539 17542 17545 17548 17551 17554 17556 17559 17562 17565 17568 17571 17574 17577 17580 17583 17586 17589 17592 17595 17598 17601 17604 17607 17610 17613 17616 17619 17622 17625 17628 17631 17634 17637 17640 17643 17646 17649 17652 17655 17658 17661 17664 17667 17670 17673 17676 17679 17682 17685 17688 17691 17694 17697 17700 17703 17706 17708 17711 17714 17717 17719 17722 17725 17728 17731 17733 17736 17738 17741 17744 17747 17749 17751 17754 17757 17760 17763 17765 17768 17771 17773 17776 17779 17782 17785 17788 17791 17793 17796 17798 17801 17804 17807 17810 17813 17816 17819 17822 17825 17828 17830 17833 17835 17838 17841 17844 17847 17850 17853 17856 17859 17861 17864 17867 17870 17873 17876 17878 17881 17884 17887 17889 17892 17895 17898 17901 17904 17906 17909 17912 17915 17918 17921 17924 17927 17930 17932 17935 17938 17941 17944 17947 17950 17953 17956 17958 17961 17964 17966 17968 17971 17974 17976 17978 17981 17983 17986 17989 17992 17995 17998 18001 18004 18007 18010 18013 18016 18019 18022 18025 18028 18031 18034 18037 18040 18043 18046 18049 18052 18055 18058 18061 18064 18067 18070 18073 18076 18078 18081 18084 18087 18090 18093 18096 18099 18102 18105 18108 18111 18114 18117 18120 18123 18126 18128 18131 18134 18137 18140 18143 18146 18149 18152 18154 18157 18160 18163 18166 18169 18172 18175 18178 18181 18184 18187 18190 18192 18195 18198 18201 18204 18207 18210 18213 18216 18219 18222 18225 18228 18231 18234 18237 18240 18243 18246 18249 18252 18255 18258 18261 18264 18266 18269 18271 18274 18277 18280 18283 18286 18289 18292 18295 18298 18301 18303 18306 18309 18312 18315 18318 18320 18323 18326 18329 18332 18335 18338 18341 18344 18347 18350 18353 18356 18359 18362 18365 18368 18371 18374 18377 18380 18383 18385 18388 18391 18394 18397 18400 18403 18406 18409 18412 18415 18418 18421 18424 18426 18428 18431 18434 18437 18439 18442 18445 18448 18450 18453 18456 18458 18461 18464 18467 18470 18473 18476 18479 18481 18484 18487 18490 18493 18496 18499 18501 18503 18506 18508 18511 18514 18517 18520 18523 18526 18529 18532 18534 18537 18540 18543 18546 18549 18552 18555 18558 18561 18564 18567 18570 18573 18576 18578 18581 18584 18587 18590 18592 18595 18598 18601 18604 18607 18610 18613 18616 18619 18622 18625 18628 18631 18634 18637 18640 18643 18646 18649 18651 18654 18657 18660 18663 18666 18668 18671 18674 18677 18680 18683 18686 18688 18691 18694 18697 18700 18703 18706 18709 18712 18715 18717 18720 18723 18726 18728 18730 18733 18736 18739 18742 18745 18747 18750 18753 18756 18759 18762 18765 18768 18771 18774 18777 18780 18783 18786 18789 18792 18795 18798 18801 18804 18807 18810 18813 18816 18819 18821 18823 18826 18829 18832 18834 18837 18840 18843 18846 18849 18852 18855 18858 18861 18864 18867 18870 18873 18876 18878 18881 18884 18887 18890 18893 18895 18898 18901 18904 18906 18909 18912 18915 18918 18921 18924 18927 18930 18933 18936 18939 18942 18945 18948 18951 18954 18957 18960 18963 18966 18968 18971 18974 18977 18980 18983 18986 18989 18992 18995 18998 19000 19003 19006 19009 19012 19015 19018 19021 19024 19027 19030 19033 19036 19039 19042 19045 19048 19051 19053 19056 19058 19061 19064 19067 19070 19073 19076 19079 19082 19085 19087 19090 19093 19096 19099 19102 19105 19108 19111 19114 19117 19120 19123 19126 19129 19132 19135 19138 19141 19144 19147 19150 19153 19156 19159 19162 19165 19168 19171 19174 19177 19180 19183 19186 19188 19191 19194 19197 19200 19203 19206 19209 19212 19215 19218 19220 19223 19226 19229 19232 19235 19237 19240 19243 19246 19249 19252 19254 19257 19260 19263 19266 19268 19271 19274 19277 19280 19283 19286 19289 19292 19295 19298 19301 19304 19307 19310 19313 19315 19318 19321 19324 19327 19330 19333 19336 19338 19341 19344 19347 19350 19352 19355 19358 19361 19364 19367 19370 19373 19376 19378 19381 19384 19387 19390 19393 19396 19399 19402 19405 19408 19410 19413 19416 19419 19422 19425 19428 19431 19434 19436 19439 19442 19445 19447 19449 19452 19455 19457 19460 19463 19466 19469 19472 19475 19478 19481 19484 19487 19489 19492 19495 19498 19500 19503 19506 19509 19512 19515 19518 19521 19524 19527 19530 19533 19535 19538 19541 19544 19547 19550 19553 19556 19559 19562 19565 19568 19571 19574 19577 19580 19583 19586 19589 19592 19594 19597 19600 19603 19606 19609 19612 19615 19618 19621 19624 19627 19630 19633 19636 19639 19642 19645 19647 19650 19653 19656 19659 19661 19664 19667 19670 19673 19675 19678 19681 19684 19687 19690 19693 19696 19699 19702 19705 19708 19710 19713 19716 19719 19721 19724 19727 19730 19733 19736 19739 19742 19744 19747 19750 19753 19756 19759 19762 19765 19768 19771 19774 19776 19779 19781 19784 19787 19790 19793 19795 19797 19800 19803 19806 19809 19812 19815 19818 19821 19824 19827 19830 19833 19836 19839 19842 19845 19848 19851 19854 19857 19860 19862 19865 19868 19871 19874 19877 19879 19882 19885 19888 19891 19894 19896 19899 19902 19905 19907 19910 19913 19916 19919 19922 19925 19928 19931 19934 19937 19940 19943 19946 19949 19952 19955 19957 19960 19963 19966 19969 19972 19975 19978 19981 19984 19986 19989 19991 19994 19997 20000 20002 20004 20007 20009 20012 20015 20018 20021 20024 20027 20030 20033 20035 20038 20041 20044 20047 20049 20052 20055 20058 20060 20063 20066 20068 20071 20074 20076 20079 20082 20085 20088 20091 20094 20096 20099 20102 20105 20108 20110 20112 20115 20118 20121 20124 20127 20130 20133 20136 20139 20141 20144 20147 20150 20153 20155 20157 20160 20163 20166 20169 20171 20174 20177 20179 20182 20184 20187 20190 20193 20196 20198 20201 20204 20207 20210 20212 20215 20218 20221 20224 20227 20230 20233 20236 20239 20242 20245 20248 20251 20254 20257 20260 20263 20266 20269 20272 20274 20277 20280 20283 20286 20289 20292 20295 20297 20300 20303 20306 20309 20311 20314 20317 20320 20323 20326 20329 20332 20335 20338 20341 20344 20347 20350 20353 20356 20359 20362 20365 20368 20371 20374 20377 20380 20383 20386 20389 20392 20395 20398 20401 20404 20407 20410 20413 20416 20419 20422 20425 20428 20431 20434 20437 20440 20443 20446 20449 20452 20455 20458 20461 20464 20467 20470 20473 20476 20479 20482 20484 20487 20490 20493 20496 20498 20501 20504 20507 20510 20513 20515 20518 20521 20524 20527 20530 20533 20536 20539 20542 20545 20548 20551 20553 20556 20559 20562 20565 20567 20570 20573 20575 20578 20581 20584 20587 20589 20592 20595 20598 20601 20604 20606 20609 20612 20615 20618 20620 20623 20625 20628 20631 20634 20636 20639 20642 20645 20648 20650 20653 20655 20658 20661 20663 20665 20668 20671 20673 20676 20679 20682 20685 20688 20691 20694 20696 20699 20702 20705 20707 20710 20712 20715 20718 20721 20724 20727 20730 20732 20735 20737 20739 20742 20745 20748 20751 20754 20757 20760 20763 20766 20769 20772 20775 20777 20780 20783 20786 20789 20791 20794 20797 20800 20803 20806 20809 20812 20815 20818 20821 20823 20826 20829 20832 20835 20838 20841 20843 20846 20849 20852 20855 20858 20861 20864 20867 20870 20873 20875 20878 20881 20883 20886 20889 20892 20895 20898 20901 20904 20907 20909 20912 20915 20918 20921 20923 20926 20929 20932 20934 20937 20939 20942 20945 20948 20950 20952 20955 20958 20960 20963 20966 20968 20971 20974 20977 20980 20982 20984 20987 20989 20992 20995 20998 21001 21003 21006 21009 21012 21015 21017 21020 21023 21026 21029 21031 21034 21037 21040 21043 21045 21048 21051 21054 21057 21059 21061 21063 21066 21068 21071 21073 21076 21079 21081 21084 21087 21090 21093 21096 21099 21101 21104 21107 21110 21113 21116 21119 21121 21124 21127 21130 21133 21136 21139 21142 21145 21148 21151 21154 21157 21160 21163 21166 21168 21171 21174 21177 21179 21182 21185 21188 21191 21194 21196 21199 21202 21204 21207 21210 21213 21216 21219 21222 21225 21227 21230 21233 21236 21239 21242 21245 21248 21251 21254 21257 21260 21263 21266 21269 21272 21275 21277 21280 21283 21286 21289 21292 21294 21297 21300 21303 21306 21309 21312 21315 21318 21321 21324 21327 21330 21332 21335 21338 21341 21343 21346 21349 21351 21354 21356 21359 21362 21365 21368 21370 21372 21374 21377 21380 21383 21386 21389 21392 21395 21398 21401 21404 21407 21410 21413 21416 21419 21422 21424 21427 21430 21433 21436 21439 21442 21445 21448 21451 21454 21457 21460 21463 21466 21469 21472 21475 21478 21481 21484 21487 21490 21493 21495 21498 21500 21503 21505 21508 21511 21514 21517 21520 21523 21526 21528 21531 21534 21537 21540 21542 21545 21547 21550 21553 21556 21559 21562 21565 21568 21571 21574 21577 21580 21583 21586 21589 21591 21594 21597 21599 21602 21605 21608 21611 21614 21617 21620 21623 21626 21629 21632 21635 21638 21641 21644 21647 21650 21653 21655 21658 21661 21664 21667 21670 21672 21675 21678 21680 21683 21686 21688 21691 21694 21697 21700 21703 21706 21709 21712 21715 21718 21721 21724 21727 21729 21732 21735 21738 21741 21744 21747 21750 21753 21756 21759 21762 21765 21768 21771 21774 21777 21780 21783 21786 21789 21792 21795 21798 21801 21804 21807 21810 21813 21816 21819 21822 21825 21828 21831 21834 21837 21840 21843 21846 21849 21852 21855 21858 21861 21864 21867 21870 21873 21876 21879 21882 21884 21887 21890 21893 21896 21899 21902 21905 21908 21911 21914 21917 21920 21923 21926 21929 21932 21935 21938 21941 21944 21947 21950 21953 21956 21959 21962 21965 21968 21971 21974 21977 21980 21983 21986 21989 21992 21995 21998 22001 22004 22007 22009 22012 22015 22017 22020 22023 22025 22028 22031 22034 22037 22040 22042 22045 22048 22051 22054 22056 22059 22061 22064 22067 22070 22073 22076 22078 22081 22084 22087 22090 22093 22096 22099 22102 22105 22108 22111 22114 22117 22120 22123 22126 22129 22132 22135 22138 22141 22144 22147 22150 22153 22156 22159 22162 22165 22168 22171 22174 22177 22179 22182 22184 22187 22190 22192 22195 22198 22201 22204 22207 22209 22212 22215 22218 22221 22224 22227 22229 22232 22235 22238 22241 22244 22247 22250 22253 22256 22259 22262 22264 22267 22269 22272 22275 22278 22280 22283 22286 22289 22292 22294 22297 22300 22302 22305 22308 22311 22314 22317 22320 22323 22325 22328 22331 22334 22336 22339 22342 22345 22348 22351 22353 22356 22359 22362 22365 22368 22371 22374 22377 22380 22383 22386 22389 22392 22395 22398 22401 22404 22407 22410 22413 22416 22419 22422 22425 22428 22431 22434 22437 22440 22443 22446 22448 22451 22454 22456 22459 22462 22465 22468 22470 22473 22476 22478 22480 22483 22486 22489 22491 22494 22497 22500 22503 22506 22509 22511 22514 22517 22520 22523 22526 22529 22532 22535 22538 22541 22544 22547 22550 22553 22556 22559 22562 22565 22568 22571 22574 22577 22580 22583 22586 22589 22591 22593 22596 22599 22602 22605 22608 22610 22613 22616 22618 22621 22624 22627 22630 22633 22635 22638 22641 22644 22646 22649 22652 22655 22658 22661 22664 22667 22670 22673 22676 22679 22682 22685 22688 22691 22693 22696 22698 22701 22704 22707 22710 22713 22716 22718 22721 22724 22726 22729 22732 22735 22738 22741 22744 22747 22750 22753 22756 22759 22762 22765 22768 22771 22774 22777 22780 22783 22786 22789 22792 22795 22798 22801 22804 22806 22809 22812 22814 22817 22820 22823 22826 22828 22831 22834 22837 22840 22843 22846 22849 22852 22855 22858 22861 22864 22867 22870 22873 22876 22879 22882 22885 22888 22891 22894 22897 22900 22903 22906 22909 22912 22915 22918 22921 22924 22927 22930 22933 22936 22939 22942 22945 22948 22950 22953 22956 22959 22962 22964 22967 22970 22972 22975 22977 22980 22983 22986 22989 22992 22995 22998 23000 23003 23006 23009 23012 23015 23018 23021 23024 23027 23029 23032 23035 23038 23041 23044 23047 23050 23052 23055 23058 23061 23064 23066 23069 23072 23075 23078 23081 23084 23087 23090 23093 23096 23098 23101 23104 23107 23110 23113 23116 23119 23122 23125 23128 23131 23133 23136 23138 23141 23144 23147 23150 23153 23156 23159 23162 23165 23168 23171 23174 23177 23180 23183 23186 23189 23192 23195 23198 23201 23204 23207 23210 23212 23215 23218 23221 23224 23227 23230 23232 23235 23237 23240 23243 23246 23248 23251 23254 23257 23259 23262 23265 23268 23271 23274 23277 23280 23283 23285 23288 23291 23294 23296 23299 23302 23304 23307 23310 23313 23316 23319 23322 23325 23328 23331 23334 23337 23340 23342 23345 23348 23351 23353 23356 23359 23362 23365 23368 23371 23374 23376 23379 23382 23385 23388 23391 23394 23397 23400 23403 23406 23408 23411 23414 23417 23420 23423 23425 23427 23430 23432 23435 23438 23441 23443 23446 23449 23452 23455 23458 23461 23464 23467 23470 23472 23475 23478 23481 23484 23487 23489 23492 23495 23498 23501 23504 23507 23510 23513 23515 23518 23521 23524 23526 23529 23532 23534 23537 23540 23543 23545 23548 23551 23554 23557 23560 23563 23566 23569 23572 23575 23578 23581 23584 23587 23590 23593 23596 23599 23602 23604 23607 23610 23612 23615 23618 23621 23624 23627 23630 23633 23636 23639 23642 23645 23648 23651 23654 23657 23660 23663 23666 23668 23671 23674 23677 23680 23682 23685 23688 23691 23694 23697 23700 23703 23706 23709 23712 23714 23717 23720 23723 23726 23729 23732 23734 23737 23740 23743 23746 23749 23752 23755 23758 23761 23764 23767 23770 23773 23776 23779 23782 23785 23788 23791 23794 23797 23799 23802 23805 23808 23811 23814 23817 23819 23822 23825 23827 23830 23832 23835 23838 23840 23843 23845 23848 23851 23854 23856 23859 23862 23864 23866 23869 23872 23875 23877 23880 23883 23886 23888 23891 23894 23896 23899 23902 23905 23907 23910 23913 23916 23919 23922 23925 23928 23931 23934 23937 23940 23943 23946 23949 23952 23955 23958 23961 23964 23967 23970 23973 23976 23979 23981 23984 23986 23989 23992 23995 23997 24000 24003 24005 24008 24011 24014 24017 24020 24023 24026 24029 24032 24035 24038 24040 24043 24046 24049 24052 24054 24056 24059 24062 24064 24067 24070 24073 24076 24078 24081 24084 24087 24090 24093 24096 24099 24101 24104 24107 24109 24112 24115 24118 24120 24123 24126 24129 24131 24134 24137 24140 24143 24146 24149 24152 24155 24158 24161 24164 24167 24170 24173 24176 24179 24182 24185 24188 24190 24193 24196 24199 24202 24204 24207 24210 24212 24215 24218 24221 24223 24226 24229 24231 24234 24237 24239 24242 24245 24247 24250 24253 24256 24259 24262 24265 24268 24271 24274 24277 24280 24283 24286 24289 24292 24295 24298 24300 24302 24304 24307 24309 24311 24314 24317 24320 24322 24325 24328 24331 24334 24337 24339 24342 24344 24347 24350 24353 24356 24358 24361 24364 24367 24370 24373 24376 24379 24382 24385 24388 24391 24394 24397 24400 24403 24406 24409 24412 24414 24417 24420 24423 24426 24428 24431 24434 24436 24439 24442 24445 24448 24451 24454 24457 24459 24461 24464 24467 24470 24472 24475 24477 24480 24483 24486 24489 24492 24495 24498 24501 24504 24507 24509 24512 24515 24518 24521 24524 24527 24530 24533 24536 24539 24541 24544 24547 24550 24553 24555 24558 24561 24564 24567 24569 24572 24575 24578 24581 24583 24586 24589 24592 24594 24597 24600 24603 24605 24607 24610 24612 24615 24617 24620 24623 24626 24629 24632 24635 24638 24641 24643 24646 24649 24651 24654 24657 24660 24662 24665 24668 24671 24673 24676 24679 24682 24685 24688 24691 24694 24697 24700 24703 24706 24708 24711 24714 24717 24719 24722 24725 24728 24730 24733 24736 24739 24741 24744 24747 24750 24753 24756 24759 24762 24765 24768 24771 24774 24776 24779 24782 24785 24788 24790 24793 24796 24799 24802 24805 24808 24811 24813 24816 24819 24822 24825 24828 24831 24833 24836 24839 24842 24845 24848 24851 24854 24857 24860 24863 24865 24868 24871 24873 24876 24879 24882 24885 24888 24891 24893 24896 24898 24901 24904 24907 24910 24912 24915 24918 24921 24924 24927 24929 24932 24935 24938 24941 24944 24947 24950 24953 24956 24959 24962 24965 24968 24971 24973 24976 24979 24982 24985 24988 24991 24994 24997 25000 25003 25006 25009 25012 25015 25018 25021 25024 25027 25030 25033 25036 25039 25042 25045 25048 25050 25052 25055 25058 25061 25064 25066 25068 25071 25074 25077 25080 25082 25085 25088 25091 25094 25097 25100 25103 25106 25109 25112 25115 25118 25121 25124 25127 25129 25132 25135 25137 25140 25143 25146 25149 25152 25155 25158 25161 25164 25167 25170 25173 25176 25179 25182 25185 25188 25191 25194 25196 25199 25202 25205 25208 25211 25214 25217 25220 25223 25226 25228 25231 25234 25237 25240 25243 25246 25249 25251 25254 25257 25260 25263 25266 25269 25271 25274 25277 25280 25282 25285 25288 25291 25294 25297 25300 25303 25306 25308 25311 25314 25317 25320 25323 25326 25329 25332 25335 25338 25341 25344 25347 25350 25353 25356 25359 25362 25365 25368 25371 25374 25377 25380 25383 25386 25389 25391 25394 25397 25400 25403 25406 25409 25412 25414 25417 25420 25423 25426 25428 25431 25434 25437 25440 25443 25446 25449 25452 25454 25457 25460 25462 25465 25468 25471 25473 25476 25479 25482 25484 25487 25490 25493 25495 25498 25501 25504 25507 25510 25513 25516 25519 25522 25525 25528 25531 25534 25537 25540 25543 25546 25549 25552 25555 25558 25561 25564 25567 25570 25573 25576 25579 25582 25585 25588 25591 25594 25597 25600 25602 25605 25608 25611 25613 25616 25619 25621 25624 25627 25630 25633 25635 25638 25640 25643 25645 25648 25651 25654 25657 25660 25663 25665 25668 25671 25674 25676 25678 25681 25683 25686 25688 25691 25693 25696 25698 25700 25703 25706 25709 25711 25713 25716 25718 25721 25723 25726 25728 25730 25733 25736 25739 25742 25745 25748 25751 25754 25757 25760 25763 25766 25769 25772 25774 25776 25779 25781 25784 25787 25790 25793 25796 25799 25802 25804 25807 25810 25813 25816 25819 25822 25825 25828 25831 25834 25837 25840 25843 25846 25849 25852 25855 25858 25861 25864 25867 25870 25873 25876 25879 25882 25885 25888 25891 25894 25896 25899 25902 25904 25907 25910 25913 25915 25917 25920 25923 25926 25929 25932 25935 25938 25941 25944 25947 25950 25953 25956 25959 25962 25964 25967 25970 25973 25976 25979 25982 25985 25988 25991 25994 25997 26000 26003 26006 26009 26011 26014 26016 26019 26022 26024 26027 26030 26033 26035 26038 26041 26044 26047 26050 26053 26056 26059 26062 26065 26068 26070 26073 26076 26079 26082 26084 26087 26090 26093 26096 26099 26101 26104 26107 26110 26113 26116 26119 26122 26125 26128 26131 26133 26136 26139 26141 26144 26147 26150 26153 26156 26159 26161 26164 26167 26170 26173 26175 26178 26181 26184 26186 26189 26192 26195 26197 26200 26203 26205 26208 26211 26214 26216 26219 26222 26225 26228 26231 26233 26236 26239 26242 26245 26248 26251 26254 26257 26260 26263 26266 26269 26272 26275 26278 26280 26283 26286 26288 26291 26293 26295 26298 26301 26304 26306 26308 26311 26314 26317 26319 26322 26325 26328 26331 26334 26336 26338 26341 26343 26345 26348 26351 26354 26357 26360 26363 26365 26368 26371 26374 26377 26380 26383 26386 26389 26391 26394 26397 26400 26403 26405 26408 26411 26414 26417 26420 26422 26425 26427 26430 26433 26436 26438 26441 26444 26447 26450 26453 26456 26459 26462 26464 26467 26470 26473 26476 26479 26482 26485 26488 26490 26493 26496 26499 26502 26505 26508 26511 26514 26517 26520 26523 26526 26529 26532 26535 26538 26541 26544 26547 26550 26553 26556 26559 26562 26565 26568 26571 26574 26577 26580 26583 26586 26589 26592 26595 26598 26601 26604 26607 26610 26613 26616 26619 26622 26625 26628 26631 26634 26637 26640 26643 26646 26649 26652 26655 26658 26661 26664 26667 26670 26673 26676 26679 26682 26685 26688 26691 26694 26697 26700 26703 26706 26709 26712 26715 26718 26721 26724 26727 26730 26733 26736 26739 26742 26745 26748 26751 26754 26757 26760 26763 26766 26769 26772 26775 26778 26781 26784 26787 26790 26793 26796 26799 26802 26805 26808 26811 26814 26817 26820 26823 26826 26829 26832 26835 26838 26841 26844 26846 26849 26852 26855 26858 26861 26863 26865 26868 26871 26874 26877 26880 26883 26886 26888 26890 26893 26896 26899 26902 26905 26908 26910 26913 26916 26918 26921 26924 26927 26930 26933 26936 26939 26942 26945 26948 26951 26954 26957 26959 26962 26965 26968 26971 26973 26975 26978 26981 26984 26987 26990 26993 26995 26998 27000 27003 27006 27009 27012 27015 27018 27020 27023 27026 27029 27032 27035 27037 27040 27043 27046 27049 27051 27054 27057 27060 27063 27066 27069 27072 27075 27078 27081 27084 27087 27090 27093 27096 27099 27102 27105 27108 27111 27114 27117 27119 27122 27125 27128 27131 27134 27137 27140 27143 27146 27149 27152 27155 27158 27161 27164 27167 27170 27173 27176 27179 27182 27185 27188 27191 27194 27197 27200 27203 27206 27209 27212 27215 27218 27221 27224 27227 27230 27233 27236 27239 27242 27245 27248 27251 27254 27257 27260 27263 27266 27269 27272 27275 27278 27281 27284 27287 27289 27292 27295 27298 27300 27303 27306 27309 27312 27315 27317 27320 27323 27326 27329 27332 27334 27337 27339 27342 27345 27348 27351 27354 27357 27359 27362 27365 27368 27371 27374 27377 27380 27383 27386 27389 27391 27394 27397 27400 27403 27406 27409 27412 27415 27418 27421 27424 27427 27430 27433 27436 27439 27442 27444 27447 27450 27453 27456 27459 27462 27465 27467 27470 27473 27476 27479 27482 27485 27488 27490 27493 27496 27498 27501 27504 27507 27510 27513 27516 27518 27521 27524 27527 27530 27533 27536 27539 27542 27545 27548 27551 27554 27557 27560 27563 27566 27569 27572 27575 27578 27581 27584 27587 27590 27593 27596 27599 27602 27605 27608 27611 27614 27617 27620 27623 27626 27629 27632 27635 27638 27641 27644 27647 27649 27652 27655 27658 27661 27664 27667 27669 27672 27675 27678 27681 27683 27686 27689 27692 27695 27698 27700 27703 27706 27709 27712 27715 27718 27721 27723 27726 27729 27732 27735 27738 27740 27743 27746 27749 27752 27755 27758 27761 27764 27767 27770 27773 27776 27779 27782 27785 27788 27791 27794 27797 27800 27803 27805 27808 27811 27814 27816 27819 27822 27825 27828 27831 27833 27836 27839 27842 27845 27848 27851 27854 27857 27860 27863 27866 27868 27871 27874 27877 27879 27882 27884 27887 27890 27893 27895 27898 27901 27903 27906 27909 27912 27915 27918 27921 27924 27927 27930 27933 27936 27939 27942 27945 27948 27950 27953 27956 27959 27962 27965 27967 27970 27972 27975 27978 27980 27983 27986 27989 27992 27995 27998 28001 28004 28007 28010 28013 28015 28018 28021 28024 28027 28030 28033 28036 28039 28042 28045 28048 28051 28054 28057 28060 28063 28066 28069 28072 28075 28078 28081 28084 28087 28090 28093 28096 28099 28102 28105 28108 28111 28114 28117 28120 28123 28125 28128 28131 28134 28137 28140 28143 28146 28149 28152 28155 28157 28160 28163 28166 28169 28172 28175 28178 28181 28184 28187 28190 28193 28196 28199 28202 28205 28208 28210 28213 28216 28219 28222 28225 28228 28231 28234 28237 28240 28243 28246 28249 28252 28255 28258 28261 28263 28266 28269 28272 28275 28278 28281 28283 28286 28289 28292 28295 28298 28300 28303 28306 28309 28312 28315 28318 28321 28324 28327 28330 28333 28336 28339 28341 28344 28347 28350 28352 28355 28358 28361 28364 28367 28369 28372 28374 28377 28380 28383 28386 28389 28392 28395 28398 28401 28404 28407 28410 28413 28415 28418 28421 28424 28427 28430 28433 28436 28439 28442 28445 28448 28451 28453 28456 28458 28461 28464 28467 28470 28473 28476 28479 28482 28485 28488 28491 28494 28497 28500 28503 28506 28509 28512 28515 28518 28521 28524 28527 28530 28533 28536 28539 28542 28545 28548 28551 28554 28557 28560 28562 28565 28568 28571 28574 28577 28579 28582 28585 28588 28591 28594 28596 28599 28602 28605 28608 28611 28614 28617 28620 28623 28625 28628 28631 28634 28637 28640 28643 28646 28649 28652 28655 28658 28661 28663 28666 28669 28672 28675 28678 28681 28684 28687 28690 28692 28695 28698 28701 28704 28707 28710 28713 28716 28719 28722 28725 28728 28731 28734 28737 28740 28743 28746 28749 28752 28755 28758 28761 28764 28767 28770 28773 28776 28779 28782 28785 28788 28791 28794 28797 28800 28803 28806 28809 28812 28815 28818 28821 28824 28827 28830 28833 28836 28839 28842 28845 28848 28851 28854 28857 28860 28863 28866 28869 28872 28875 28878 28881 28884 28887 28890 28893 28896 28899 28902 28905 28908 28911 28914 28917 28920 28923 28926 28929 28932 28935 28938 28941 28944 28947 28950 28953 28956 28959 28962 28965 28968 28971 28974 28977 28980 28983 28986 28989 28992 28995 28997 29000 29003 29006 29009 29012 29015 29018 29021 29024 29027 29030 29033 29036 29039 29041 29044 29046 29049 29052 29055 29058 29061 29064 29067 29070 29073 29076 29079 29082 29085 29088 29091 29094 29096 29099 29102 29105 29108 29111 29114 29117 29120 29123 29126 29129 29132 29135 29138 29141 29143 29146 29149 29152 29155 29158 29161 29163 29166 29169 29172 29175 29178 29181 29184 29187 29190 29193 29196 29199 29201 29204 29207 29210 29213 29216 29219 29222 29224 29227 29230 29233 29236 29238 29241 29244 29246 29249 29251 29254 29257 29260 29263 29265 29268 29271 29274 29277 29280 29282 29285 29288 29291 29294 29297 29300 29303 29306 29309 29312 29315 29318 29321 29324 29327 29330 29333 29336 29339 29342 29344 29347 29350 29353 29356 29359 29362 29364 29367 29370 29373 29376 29378 29381 29384 29387 29390 29393 29396 29399 
</DataArray>
<DataArray type="UInt32" Name="types" format="ascii">
5 5 5 5 5 5 5 5 5 5 3 5 3 5 5 5 5 5 5 5 3 5 3 5 5 5 5 3 5 5 5 5 5 5 5 5 5 5 5 5 5 5 5 5 5 5 5 5 5 5 5 5 5 5 5 5 5 5 3 5 5 5 3 5 5 5 5 5 5 5 5 5 5 5 5 5 5 5 5 5 5 3 5 5 5 5 5 5 5 5 5 5 5 3 3 5 5 5 5 5 5 5 5 5 5 5 5 5 5 5 3 5 5 5 5 5 5 3 5 5 5 5 5 5 5 5 5 5 5 5 5 5 5 3 5 5 5 5 5 5 5 5 5 5 5 5 5 3 5 5 5 5 3 5 5 3 5 3 3 5 5 5 5 5 3 5 5 5 5 5 5 5 5 5 5 5 5 5 5 3 5 5 5 5 5 5 5 3 5 5 3 5 5 5 5 5 5 5 5 5 5 5 5 5 5 5 5 5 5 5 3 5 5 5 5 3 5 5 5 5 5 5 5 5 3 5 5 5 3 5 5 5 5 5 5 5 5 5 5 5 3 5 3 5 5 5 5 5 5 5 3 5 3 5 5 5 3 5 3 5 5 5 5 5 5 3 5 5 5 5 5 3 5 5 3 5 5 5 5 5 5 5 3 5 5 5 5 5 5 5 5 5 5 5 5 5 5 5 5 5 5 5 5 3 5 5 3 5 5 5 5 5 5 5 5 5 5 5 5 5 5 5 5 5 5 5 5 5 5 5 5 5 5 5 5 5 5 5 5 5 5 5 5 5 5 5 5 5 5 5 5 5 5 5 5 5 5 5 5 5 5 5 5 5 5 5 5 5 5 5 3 5 5 5 5 5 5 5 5 5 3 3 5 5 3 5 5 5 3 5 5 5 5 5 5 3 5 5 5 5 5 5 5 5 5 5 5 5 5 5 5 5 5 3 5 3 5 5 5 5 5 5 5 3 3 5 5 5 5 3 5 5 5 5 5 5 3 5 5 5 5 5 5 5 5 5 5 5 5 3 5 5 5 5 3 5 5 5 5 5 5 5 5 5 5 5 5 5 3 5 3 5 5 5 5 5 5 5 5 5 5 5 5 5 5 3 5 5 5 5 5 5 5 5 5 5 5 5 5 5 5 5 5 5 5 5 5 5 5 5 5 5 5 5 5 5 5 5 5 5 5 5 5 5 5 5 5 5 3 5 5 5 5 5 3 5 5 3 5 5 3 5 5 5 3 5 5 3 5 5 5 5 5 5 5 5 5 5 5 5 5 5 5 5 5 5 5 5 3 3 5 5 5 5 3 5 5 5 3 5 5 5 5 3 5 5 3 5 5 3 5 5 5 3 5 5 5 5 5 5 5 5 5 5 5 5 5 5 5 5 5 5 5 5 5 5 5 5 5 5 5 5 3 5 3 5 3 5 5 5 5 3 5 5 5 5 5 5 3 5 5 5 3 5 5 3 3 5 5 5 5 3 5 5 5 3 5 5 5 3 5 3 5 5 5 5 3 5 5 5 5 5 5 5 5 3 5 5 5 5 5 3 5 5 5 5 5 5 5 5 5 5 5 5 3 5 5 5 5 5 5 5 5 5 5 5 5 5 5 3 5 5 3 5 5 5 5 5 3 5 5 3 5 5 5 5 5 5 3 5 5 5 5 5 5 3 5 5 3 5 5 3 3 5 5 3 5 5 3 5 3 3 3 5 5 5 5 5 3 5 5 5 3 5 3 5 5 3 5 5 5 5 5 5 5 5 5 5 5 5 5 5 5 3 5 3 5 5 3 5 5 3 5 3 5 5 5 5 5 3 3 5 5 5 5 3 5 5 5 5 5 5 5 5 5 3 5 5 5 5 5 5 5 3 5 5 3 5 5 5 3 3 5 5 3 5 5 5 3 5 3 5 5 5 3 5 5 3 5 5 5 5 5 5 5 5 5 3 5 5 5 5 5 5 5 5 5 5 5 5 5 5 5 5 3 5 3 5 5 5 5 5 5 5 5 5 5 5 5 5 5 5 5 5 5 5 5 5 5 3 3 5 5 5 5 5 5 5 5 5 5 5 5 5 5 5 5 5 5 5 3 5 5 5 5 5 5 5 5 5 5 5 5 5 5 5 5 5 5 5 5 5 5 5 5 5 5 5 5 5 5 3 5 5 5 3 3 5 5 5 5 5 5 5 5 5 5 5 5 5 3 5 5 5 5 5 5 5 3 5 5 5 5 5 5 5 5 5 5 5 5 3 5 5 5 5 5 5 5 5 5 5 5 3 5 5 5 5 5 5 5 5 5 5 5 5 5 5 3 5 5 5 5 5 5 5 5 5 5 3 3 5 5 5 5 5 5 3 5 5 5 5 5 5 5 5 5 5 5 5 3 5 5 5 5 5 5 5 3 5 5 5 5 5 5 5 5 5 5 5 5 3 5 5 5 5 5 5 5 5 5 5 5 5 5 3 5 5 5 5 5 5 5 5 5 5 5 5 5 5 5 5 5 3 5 5 5 5 5 5 5 5 5 5 5 5 5 5 5 5 5 5 5 5 5 5 5 5 5 5 5 5 5 5 5 5 5 5 5 5 5 5 5 5 5 5 5 5 5 5 5 5 5 5 5 5 5 5 5 5 5 5 5 5 3 5 5 5 5 5 5 5 5 5 5 5 3 5 5 5 3 5 5 5 5 3 5 5 5 5 5 5 3 5 5 5 5 5 3 5 3 5 5 3 5 5 5 5 5 5 5 5 5 5 5 5 5 5 3 5 5 5 5 5 5 3 5 5 5 5 5 3 5 5 5 5 3 5 3 5 5 5 5 5 5 3 3 5 5 3 3 3 5 5 5 3 5 5 3 5 3 5 5 5 3 5 5 5 3 5 5 5 5 3 5 5 5 5 5 5 5 5 5 5 5 5 5 5 5 5 5 5 5 5 5 5 5 5 5 5 5 5 5 5 5 5 5 5 5 5 5 5 5 5 5 5 3 5 5 5 5 5 5 5 5 3 3 3 5 5 5 5 3 5 5 3 5 5 5 5 5 3 5 5 3 5 5 5 5 5 3 5 3 5 5 3 5 5 5 5 5 5 5 5 5 5 5 5 5 5 3 3 3 5 5 3 5 5 5 5 5 3 3 5 5 5 5 3 5 3 5 5 5 3 3 5 5 5 5 3 3 5 5 5 5 5 5 5 5 5 5 5 5 5 5 5 5 5 5 5 3 5 5 5 5 5 5 5 5 5 5 5 5 5 5 5 3 5 3 5 5 5 5 5 5 3 5 3 5 5 5 5 3 5 3 3 5 3 5 5 5 5 5 5 5 3 5 5 5 5 5 3 3 5 3 5 5 5 5 5 5 5 5 5 5 5 5 5 5 5 5 5 5 5 3 5 5 5 5 5 5 5 5 5 5 5 5 5 5 5 5 5 5 5 5 5 5 5 5 5 5 5 3 5 5 3 5 5 5 3 5 5 5 5 5 3 5 5 3 5 5 5 5 5 5 5 5 5 5 5 5 5 5 5 5 5 5 5 5 5 5 5 5 5 5 5 5 3 5 5 5 3 5 5 5 3 3 5 5 5 3 5 5 5 5 5 5 5 5 5 5 3 5 3 5 5 5 5 5 5 3 5 3 5 3 5 5 5 5 5 3 3 5 5 5 5 5 5 5 5 5 5 5 5 5 5 5 5 5 5 5 5 5 5 5 5 5 5 5 5 5 3 5 5 5 3 5 5 5 5 5 5 5 5 5 5 5 5 5 5 3 5 5 5 3 5 5 5 5 5 5 5 5 5 5 5 5 5 5 5 3 5 5 5 5 5 5 5 5 5 5 5 5 5 5 5 5 5 5 5 5 5 5 5 5 5 5 5 3 5 5 5 5 5 5 5 5 5 5 5 5 5 5 5 3 5 3 5 5 5 3 3 3 5 5 5 5 5 5 5 5 5 5 5 5 5 5 5 5 5 5 5 5 5 5 5 5 5 5 5 3 5 5 5 5 5 5 5 5 3 5 5 5 3 5 5 5 3 5 5 5 5 5 5 5 5 3 3 5 5 5 3 5 5 5 5 3 5 5 3 5 5 3 5 3 5 5 5 5 5 5 5 5 5 5 5 5 5 5 3 5 5 3 5 3 3 5 5 5 3 5 5 5 5 5 3 3 5 3 5 5 3 5 5 5 5 5 5 5 5 5 5 5 5 5 3 3 5 5 5 5 5 5 5 5 3 5 5 5 5 5 3 5 5 5 5 3 5 5 5 5 5 5 5 3 3 5 5 5 5 5 5 5 5 5 3 5 5 5 3 5 5 5 5 5 5 5 5 5 5 5 5 5 5 5 5 5 5 5 5 3 5 5 5 5 5 3 5 3 5 5 5 5 5 5 5 5 5 3 5 5 5 5 5 5 5 3 5 5 3 5 5 5 3 5 5 3 5 5 5 5 5 5 5 5 5 5 5 5 5 5 5 5 5 5 5 5 5 5 5 5 5 5 5 5 5 3 5 5 5 5 5 5 5 5 5 5 5 5 5 5 5 5 5 5 5 5 5 5 5 5 5 5 5 5 5 5 5 3 5 5 5 5 5 5 5 5 5 5 5 5 5 5 5 5 5 5 5 5 5 5 5 5 3 5 5 5 5 5 5 5 5 5 3 5 5 5 3 5 5 3 5 5 3 5 5 5 3 5 5 5 5 3 5 5 5 5 5 5 5 5 5 3 5 3 5 5 5 5 3 5 5 5 3 5 3 5 5 5 5 5 5 5 5 5 5 5 5 5 5 5 5 5 5 5 5 5 5 5 5 5 5 5 5 5 5 5 5 5 5 5 3 3 5 5 5 5 5 5 5 5 5 5 5 5 3 5 5 5 5 5 5 5 3 3 5 5 5 5 3 5 5 5 5 5 5 5 5 5 5 5 5 5 5 5 5 3 5 5 5 5 3 5 5 3 5 3 5 5 5 3 5 3 5 5 5 5 5 5 5 3 5 5 5 3 5 5 5 5 5 5 5 5 5 5 5 5 5 3 5 3 5 5 3 5 5 5 5 5 5 5 5 5 5 5 5 3 5 5 5 5 5 5 5 5 5 5 5 5 5 5 5 5 5 5 5 3 5 5 5 5 5 5 3 5 5 5 3 5 5 5 5 5 5 5 5 5 5 5 5 5 5 5 5 5 5 5 3 5 5 5 5 5 5 5 5 5 5 5 5 5 5 5 5 5 5 5 5 5 5 5 5 3 5 5 5 5 5 5 3 5 5 5 5 3 5 5 5 5 3 3 3 5 5 5 5 5 5 3 5 5 5 3 5 5 5 5 3 5 5 3 3 5 5 5 5 3 5 5 3 5 5 5 5 5 5 5 5 5 5 5 5 5 5 3 5 3 5 3 5 3 5 5 5 5 5 5 3 5 5 5 5 3 5 5 5 5 5 3 5 3 5 5 5 5 5 5 5 5 5 3 5 5 5 5 5 5 5 5 5 5 5 5 5 5 5 5 3 5 5 5 5 5 5 5 5 5 5 5 5 5 5 5 5 5 5 5 5 5 5 5 5 5 3 5 5 3 5 5 5 5 3 5 3 5 5 5 5 5 5 5 5 5 5 5 5 3 5 5 5 3 5 5 5 5 3 5 5 5 5 5 5 5 5 3 5 5 5 5 5 5 5 5 5 5 5 5 5 5 5 5 5 5 5 5 5 5 5 5 5 5 5 5 5 5 5 5 3 5 5 3 5 5 5 5 5 5 5 5 5 5 5 5 3 5 3 5 5 5 3 5 5 5 5 3 3 5 3 3 5 5 3 5 5 5 5 5 5 5 5 5 5 5 5 3 5 5 5 5 5 5 5 5 5 5 5 5 5 5 5 3 5 5 5 5 5 3 5 5 3 5 3 5 5 5 5 5 5 5 5 5 5 5 3 5 5 5 5 3 5 5 3 5 5 5 5 5 5 3 5 3 3 5 5 5 3 3 5 5 5 5 5 3 5 5 5 5 5 5 5 5 5 5 5 5 5 3 5 3 5 5 5 5 5 5 5 3 5 5 3 5 5 5 5 5 5 3 5 3 5 5 5 5 5 5 5 5 3 5 5 5 3 5 5 5 5 5 5 5 5 5 5 5 5 3 5 5 5 3 5 3 5 5 5 5 5 3 3 5 5 5 5 5 5 5 5 5 5 5 5 5 5 5 5 5 5 5 5 5 5 5 5 5 5 5 5 5 5 5 5 5 5 5 5 5 5 5 5 5 5 5 5 5 5 5 5 3 5 3 5 5 5 5 5 5 3 5 5 5 5 5 5 5 5 5 5 5 5 5 5 5 5 5 5 5 5 5 5 5 5 5 5 5 3 5 5 5 5 3 5 5 3 3 5 5 5 5 3 5 5 3 5 5 3 5 5 5 5 5 5 5 5 5 3 5 5 5 5 5 5 5 5 5 5 5 5 5 5 5 5 5 5 5 5 5 5 5 5 5 3 5 5 5 5 3 5 3 5 5 5 5 5 5 5 5 5 5 5 5 5 3 5 3 5 5 5 5 5 5 5 5 5 5 5 5 5 5 5 5 5 5 5 5 5 5 3 5 5 5 5 5 5 5 5 5 5 5 5 5 5 5 5 5 5 5 5 5 5 5 5 5 5 3 5 5 5 5 5 5 5 5 5 5 5 5 5 5 5 5 5 5 5 5 5 5 5 5 5 5 5 5 5 5 3 5 5 5 5 5 5 5 5 5 5 5 5 5 5 5 5 5 5 5 3 5 5 5 5 5 5 5 5 5 5 5 5 5 5 5 5 5 5 5 5 5 5 5 5 3 5 3 5 5 5 5 5 5 5 5 5 5 5 5 5 3 5 5 3 5 3 5 3 5 5 5 5 5 5 5 5 5 5 5 3 5 5 5 5 5 3 5 5 3 5 5 5 5 5 5 3 5 5 5 3 5 5 5 5 5 5 5 5 3 5 5 5 5 5 5 5 5 5 5 3 5 5 5 5 5 3 5 5 5 3 5 5 5 3 5 5 5 3 3 5 5 5 3 5 5 3 5 5 3 5 5 5 5 5 5 5 5 5 5 3 5 5 3 5 5 5 5 3 5 3 5 5 5 5 3 5 5 5 5 5 5 5 3 5 5 5 5 3 5 5 3 5 5 3 5 5 5 5 5 5 5 5 5 5 5 5 5 5 5 5 5 5 5 5 5 5 3 5 5 5 5 3 5 5 5 5 5 5 3 5 5 5 5 5 5 5 5 3 5 3 5 5 5 5 5 5 5 5 5 5 5 5 5 5 5 5 5 5 5 5 5 3 5 5 5 5 5 5 5 3 5 5 5 3 5 5 3 3 5 5 5 5 5 5 5 5 5 3 5 5 5 5 5 5 5 5 5 5 5 5 5 5 5 5 5 5 5 5 5 5 5 5 5 5 5 5 5 5 3 5 5 5 5 5 5 5 5 5 5 3 5 5 5 5 5 5 5 5 5 5 5 5 5 3 5 5 5 5 5 5 5 5 5 5 5 5 3 5 3 5 5 5 3 3 5 5 5 5 5 5 5 5 3 5 5 5 3 5 5 5 5 5 5 5 5 5 5 5 5 5 5 5 5 5 5 5 5 5 5 3 3 5 5 5 5 5 3 5 5 5 5 5 5 3 5 5 5 5 5 5 5 5 5 5 5 5 5 5 5 5 5 5 5 5 5 5 5 5 5 5 5 5 5 5 5 5 5 3 5 5 5 5 5 5 5 5 5 5 5 5 3 5 5 3 5 5 3 5 3 5 5 5 3 3 5 5 5 5 5 5 3 5 5 5 5 5 5 5 3 3 5 3 5 5 5 3 5 5 5 5 5 5 5 5 5 5 5 3 3 5 5 5 5 5 3 5 5 5 5 5 5 5 5 3 3 5 5 5 5 3 5 5 5 3 5 5 5 5 5 5 5 3 5 5 5 5 5 5 5 5 5 5 5 3 5 5 3 5 5 3 5 3 5 5 3 5 3 5 3 5 5 3 5 5 3 5 5 5 5 3 5 5 5 5 3 5 5 5 5 5 3 5 5 5 5 5 5 5 5 3 5 5 5 5 5 5 5 5 3 5 5 5 5 5 5 5 5 5 5 5 5 5 5 5 5 5 5 5 5 3 5 5 5 5 5 5 5 5 5 5 5 3 5 5 5 5 5 5 5 5 5 5 5 5 5 3 5 5 5 5 5 3 5 5 3 5 5 5 5 5 5 3 5 5 3 5 3 5 5 3 3 5 5 5 5 5 5 5 5 5 5 5 5 5 5 5 3 5 5 5 5 5 5 5 5 5 5 5 5 5 5 5 5 5 5 5 5 3 5 5 5 5 5 5 5 5 5 5 5 5 5 5 5 5 5 3 5 5 5 5 5 5 5 5 5 5 5 3 5 5 5 5 5 5 5 5 5 5 5 5 5 5 3 5 5 5 5 5 5 3 5 5 5 5 5 5 5 5 5 5 5 5 5 5 5 5 5 5 5 5 5 5 5 5 5 5 5 5 5 5 5 5 5 5 5 5 5 5 5 5 5 5 5 5 5 5 5 5 5 5 3 5 5 5 5 3 5 3 5 5 5 5 5 3 5 5 5 5 5 5 5 5 5 5 5 5 5 5 5 5 5 5 3 5 5 5 5 3 5 5 5 5 3 5 5 3 3 5 3 5 5 5 5 5 3 5 5 3 5 5 5 5 5 5 5 5 5 5 5 5 5 5 5 5 5 5 3 5 5 5 5 5 5 5 5 5 5 5 5 5 3 5 5 3 3 5 5 5 3 5 3 5 3 3 5 5 5 5 3 5 5 5 3 5 5 5 5 5 5 5 5 5 5 5 5 5 5 5 5 5 5 5 3 3 5 5 3 5 3 5 3 5 5 5 5 5 5 5 5 5 5 5 5 5 3 3 5 5 5 3 5 5 3 5 5 5 3 5 5 5 5 5 3 5 5 5 5 3 3 5 5 5 5 5 5 5 5 5 5 5 3 5 5 5 5 5 5 5 5 5 5 5 5 5 5 5 5 5 5 5 3 5 5 5 5 3 5 5 5 5 3 3 5 5 5 5 5 5 3 5 5 5 5 5 5 3 5 5 5 5 3 3 5 5 5 5 5 5 5 5 3 5 5 5 5 5 3 5 5 5 5 3 5 5 5 5 5 5 5 5 5 5 5 5 5 5 5 5 5 5 5 5 5 5 5 5 5 5 5 5 5 5 5 5 5 5 5 5 3 5 5 5 3 5 3 5 5 5 3 5 5 5 3 5 5 5 5 5 5 3 5 5 5 5 5 5 5 5 5 5 5 5 5 5 5 5 5 5 5 5 5 5 5 5 5 5 5 5 5 5 5 5 5 5 5 5 5 5 5 5 5 5 5 5 5 5 5 5 5 5 5 5 5 5 5 5 5 5 5 5 5 5 5 5 5 5 5 5 5 5 5 5 5 5 5 5 5 5 5 5 5 5 5 5 5 5 5 5 5 5 5 5 5 5 5 5 5 5 5 5 5 5 5 3 5 5 5 5 5 3 5 5 5 5 5 5 5 5 5 5 5 5 5 5 5 5 5 5 5 5 5 5 5 5 5 5 3 5 5 5 3 5 5 5 5 5 3 5 5 5 5 5 5 5 5 5 5 5 5 5 5 5 5 5 5 5 5 5 3 5 5 5 3 5 5 3 5 5 5 5 3 5 5 5 5 5 5 5 5 5 5 5 5 3 5 3 5 5 5 5 5 5 5 5 5 5 5 5 5 5 3 5 5 5 5 5 5 5 3 5 5 3 5 5 5 5 5 5 5 5 5 5 5 5 5 5 5 5 5 5 3 3 5 5 5 5 5 5 5 5 5 5 5 5 5 5 5 5 5 5 5 5 3 5 3 5 5 5 5 5 5 5 5 3 5 5 5 5 5 5 3 5 5 3 5 5 5 5 5 5 3 3 3 3 5 5 3 5 5 5 5 5 5 5 5 5 5 5 5 5 5 5 5 5 5 5 3 5 5 5 5 5 5 5 5 5 5 5 5 5 5 5 5 5 5 5 5 5 5 5 5 5 5 3 3 3 5 5 5 3 5 5 5 5 5 5 5 5 5 5 5 5 5 5 5 5 5 5 5 5 5 5 5 5 5 5 5 5 5 5 5 5 5 5 5 5 5 5 5 3 5 5 5 5 3 3 5 3 5 5 3 5 5 3 5 5 5 5 5 5 3 5 5 5 5 5 5 5 3 5 3 5 3 3 5 5 5 5 5 5 5 5 5 5 5 5 3 5 5 5 5 5 5 5 5 5 5 5 3 5 5 5 5 5 5 5 5 5 5 5 5 5 5 5 5 3 5 5 5 5 5 5 5 5 5 5 5 3 5 5 5 5 5 5 3 5 5 3 3 5 5 3 5 5 5 5 5 3 5 5 5 3 5 3 5 5 5 5 3 5 5 5 3 5 5 3 5 5 5 5 5 5 3 5 5 5 5 5 3 5 3 5 5 3 3 5 5 5 5 5 5 3 5 5 5 5 5 5 5 5 5 5 5 5 5 5 5 5 3 5 5 5 5 5 3 5 5 3 5 5 5 5 3 5 5 5 5 3 5 5 5 5 5 5 5 5 3 5 5 5 5 5 5 3 5 5 3 5 5 5 3 5 5 5 3 3 5 5 5 5 5 5 5 5 3 5 5 3 5 5 5 5 5 5 5 5 5 5 3 5 5 5 5 5 5 5 3 5 5 5 5 3 5 5 5 3 5 5 5 5 3 3 3 5 3 5 3 5 5 5 3 5 3 5 3 3 3 3 5 5 5 5 3 5 3 5 5 5 3 5 3 5 3 5 5 3 5 5 5 5 5 5 3 5 5 5 5 5 5 5 5 5 5 5 5 5 5 5 5 3 5 5 5 3 5 3 3 5 5 3 5 5 3 5 5 5 5 5 5 5 3 5 5 5 5 5 5 5 3 5 5 5 3 3 5 5 5 5 5 5 5 3 5 3 3 5 3 3 5 3 3 5 5 5 3 5 5 5 5 5 5 5 5 5 5 5 5 5 5 5 5 3 5 5 3 5 5 5 5 5 5 5 5 5 5 5 5 5 5 5 5 5 5 5 5 5 5 5 5 5 5 5 5 5 5 5 5 5 5 5 5 5 5 5 5 5 5 5 5 3 5 5 3 5 5 5 5 5 5 5 5 5 5 5 5 5 5 5 5 5 5 5 5 5 5 5 5 5 5 5 3 3 5 3 5 5 5 5 5 5 5 5 5 5 5 5 5 5 5 5 5 5 5 5 5 5 5 5 5 5 5 3 5 5 5 5 5 5 3 5 3 5 5 3 5 5 5 5 5 5 5 5 5 5 5 5 5 5 5 3 5 5 5 5 5 5 5 5 5 5 5 5 5 5 5 5 5 5 5 5 5 5 5 5 5 5 5 5 5 5 5 5 5 5 5 5 5 5 5 5 5 5 5 5 5 5 5 5 5 5 5 5 5 5 5 5 5 5 5 5 5 5 5 5 5 5 5 3 5 5 3 5 5 3 3 5 3 5 3 5 5 5 5 5 5 3 5 5 5 5 5 5 5 5 3 5 5 5 3 5 5 5 5 5 5 5 5 5 5 5 3 3 5 5 5 5 5 3 3 5 5 5 5 5 5 5 5 5 3 5 5 5 3 5 3 5 5 5 5 5 5 5 5 5 5 5 5 5 5 5 5 5 5 5 5 3 5 5 5 5 5 5 5 5 5 5 5 3 5 5 5 5 5 5 3 3 5 5 5 3 5 5 5 5 5 5 3 5 5 5 5 5 5 5 5 5 5 5 5 5 5 5 5 5 5 5 5 5 5 5 5 5 5 5 5 3 5 5 5 5 5 5 3 5 5 5 5 5 5 5 5 5 5 5 5 5 5 5 5 5 5 5 5 5 5 5 5 5 5 5 5 5 5 5 5 5 5 5 5 5 5 5 5 5 5 5 3 5 3 5 5 5 5 3 5 5 3 5 5 5 5 5 5 5 5 5 3 5 5 3 3 3 5 5 5 3 5 5 5 5 5 5 5 5 5 5 5 5 3 5 5 5 3 3 3 5 5 5 3 5 3 5 5 5 5 5 3 5 5 5 5 5 5 3 5 5 5 5 5 5 5 5 5 5 5 5 5 5 5 3 3 5 5 3 5 5 5 5 5 5 3 5 5 5 5 5 3 5 5 5 5 5 3 5 5 5 5 3 5 5 3 5 5 5 5 3 5 5 5 5 5 5 5 5 3 5 5 5 5 5 5 3 5 5 5 5 5 5 3 5 5 5 5 3 5 5 5 3 3 5 5 5 3 5 3 3 3 5 5 5 5 5 5 5 5 5 5 5 5 5 5 5 5 5 5 3 3 5 5 5 3 3 5 5 5 3 5 5 5 5 5 5 5 5 5 5 5 5 5 5 5 5 5 5 5 5 5 5 5 5 5 5 5 5 5 3 5 5 5 5 5 5 5 3 5 5 5 5 5 3 5 3 5 5 5 3 5 5 3 5 5 5 5 3 5 5 5 5 5 5 5 3 3 5 5 5 5 3 5 3 5 5 5 3 5 5 5 5 3 5 5 5 5 3 5 3 3 5 5 5 5 3 5 3 3 3 3 3 5 5 5 3 5 5 3 3 5 5 3 5 5 5 5 5 3 3 5 5 5 3 5 5 3 5 5 5 5 5 5 5 5 5 5 5 5 5 5 5 5 5 5 5 5 5 5 5 5 3 5 5 5 5 5 3 5 3 5 5 5 5 5 3 5 5 5 5 5 5 5 5 5 5 5 5 5 5 5 5 5 5 5 5 5 5 5 5 5 5 5 5 5 5 5 5 5 5 5 5 5 5 3 5 5 3 5 5 5 3 5 3 5 3 3 5 3 5 3 5 5 5 3 5 5 5 5 5 5 3 5 5 5 5 5 3 5 5 3 5 5 5 5 5 3 5 3 5 5 5 3 5 5 5 5 3 5 5 5 5 3 5 5 3 5 3 5 5 5 5 5 5 5 5 3 5 5 5 5 3 5 5 5 5 5 5 5 5 5 5 5 3 5 5 5 5 5 5 5 5 5 5 5 5 3 5 5 5 5 5 3 5 3 5 5 3 5 5 3 3 5 5 5 5 5 5 5 5 5 5 3 5 5 5 3 5 5 5 5 5 5 3 5 5 5 5 5 5 5 5 5 5 5 5 5 5 5 5 5 5 5 5 5 5 5 5 5 5 5 5 5 5 5 5 3 5 5 5 5 5 5 5 3 5 5 3 5 5 5 5 5 5 5 5 5 5 5 5 5 3 5 5 5 5 5 5 5 5 5 5 5 5 5 5 5 5 5 5 5 5 3 5 5 5 3 5 5 5 5 5 5 3 5 5 5 3 5 5 5 5 5 5 5 5 5 5 5 5 5 5 5 5 5 5 5 5 3 5 5 5 5 3 5 5 5 5 5 5 5 5 5 5 5 5 5 5 5 5 5 5 5 3 5 5 5 5 5 5 5 3 5 5 5 5 5 5 5 5 5 5 5 5 5 5 5 3 5 5 5 5 5 5 5 3 5 5 3 3 5 5 3 3 5 5 5 3 5 5 5 3 5 5 5 5 5 5 5 5 5 3 5 5 5 5 5 5 3 5 5 5 5 5 5 5 5 3 3 3 5 5 3 5 5 5 5 5 5 5 5 5 5 5 5 5 5 3 5 5 5 5 3 3 3 5 5 5 3 5 5 5 5 5 5 5 5 5 5 5 5 5 5 5 5 5 5 5 5 3 3 5 5 3 3 5 5 5 5 5 5 5 5 3 5 5 3 5 5 5 5 5 5 5 5 5 5 5 5 5 5 5 5 5 5 5 3 5 5 5 5 5 5 3 5 5 5 5 5 5 5 5 5 5 5 5 5 5 5 5 5 5 5 5 5 5 5 5 5 5 5 5 5 5 5 5 5 5 5 5 5 5 5 5 5 5 5 5 5 5 5 5 5 5 3 5 5 5 3 5 5 5 5 3 5 3 5 5 5 3 3 5 5 5 5 3 5 5 3 5 5 5 5 5 5 3 5 3 5 5 5 5 5 5 5 5 5 5 3 5 3 5 5 5 5 5 5 5 5 3 5 5 5 5 5 3 5 5 5 3 5 5 5 5 5 3 5 5 5 5 5 5 5 5 3 5 5 5 5 5 5 5 5 3 5 5 3 3 5 5 3 3 5 3 5 5 5 5 5 5 5 5 5 5 5 5 5 5 5 5 5 5 5 5 5 5 5 5 5 5 5 5 5 5 5 3 5 5 5 5 5 5 5 5 5 5 5 5 5 5 5 5 3 5 5 5 5 5 5 5 5 3 5 5 5 5 5 5 5 5 5 5 5 5 3 5 5 5 5 5 5 5 5 5 5 5 5 5 5 5 5 5 5 5 5 5 5 5 5 3 5 3 5 5 5 5 5 5 5 5 5 5 3 5 5 5 5 5 3 5 5 5 5 5 5 5 5 5 5 5 5 5 5 5 5 5 5 5 5 5 3 5 5 5 5 5 5 5 5 5 5 5 5 5 3 3 5 5 5 3 5 5 5 3 5 5 3 5 5 5 5 5 5 5 3 5 5 5 5 5 5 3 3 5 3 5 5 5 5 5 5 5 5 3 5 5 5 5 5 5 5 5 5 5 5 5 5 5 3 5 5 5 5 3 5 5 5 5 5 5 5 5 5 5 5 5 5 5 5 5 5 5 5 3 5 5 5 5 5 3 5 5 5 5 5 5 3 5 5 5 5 5 5 5 5 5 3 5 5 5 3 3 5 5 5 5 5 3 5 5 5 5 5 5 5 5 5 5 5 5 5 5 5 5 5 5 5 5 5 5 5 5 3 3 5 5 5 3 5 5 5 5 5 5 5 5 5 5 5 5 5 5 3 5 5 5 5 5 3 5 5 5 3 5 5 5 5 5 5 5 5 5 5 5 5 5 5 5 5 5 5 5 5 3 5 5 5 5 5 5 5 5 5 5 3 5 5 5 5 5 5 5 5 5 5 5 5 5 5 5 5 5 3 5 3 5 5 5 5 5 5 5 5 5 3 5 5 5 5 5 5 5 5 5 5 5 5 5 5 5 5 5 5 5 5 5 5 5 5 5 5 5 5 5 5 5 5 5 3 5 5 5 5 5 5 5 5 5 5 3 5 5 5 5 5 3 5 5 5 5 5 3 5 5 5 5 3 5 5 5 5 5 5 5 5 5 5 5 5 5 5 5 3 5 5 5 5 5 5 5 3 5 5 5 5 3 5 5 5 5 5 5 5 5 3 5 5 5 5 5 5 5 5 5 5 3 5 5 5 5 5 5 5 5 3 5 5 5 3 3 5 5 3 5 5 5 5 5 5 5 5 5 5 3 5 5 5 3 5 5 5 5 5 5 5 5 5 5 5 3 5 5 5 5 5 5 5 5 5 5 5 5 5 5 5 5 5 5 5 3 5 5 5 5 5 5 5 5 5 5 5 5 5 5 5 5 5 3 5 5 5 5 3 5 5 5 5 3 5 5 5 5 5 5 5 5 5 5 5 3 5 5 5 3 5 5 5 5 5 5 5 3 5 5 5 5 5 5 5 5 5 5 3 5 3 5 5 5 5 3 3 5 5 5 5 5 5 5 5 5 5 5 5 5 5 5 5 5 5 5 5 5 3 5 5 5 5 5 3 5 5 5 5 5 3 5 5 5 3 5 5 5 5 5 5 5 5 5 5 5 5 5 5 5 5 3 5 5 5 5 5 5 5 5 5 3 5 3 5 5 5 3 3 5 3 5 5 5 5 5 5 5 5 3 5 5 5 5 3 5 5 5 3 5 5 3 5 5 3 5 5 5 5 5 5 3 5 5 5 5 3 3 5 5 5 5 5 5 5 5 5 3 5 5 5 5 3 3 5 5 5 5 3 5 5 3 5 3 5 5 5 5 3 5 5 5 5 3 5 5 5 5 5 5 5 5 5 5 5 5 5 5 5 5 5 5 5 5 3 5 5 5 5 5 5 5 3 5 5 5 5 3 5 5 5 5 5 5 5 5 5 5 5 5 5 5 5 5 5 5 5 5 5 5 5 5 5 5 5 5 5 5 5 5 5 5 5 5 5 5 5 5 5 5 5 5 5 5 5 5 5 5 5 5 5 5 5 5 5 3 5 5 5 5 3 5 5 5 5 5 3 5 5 5 5 5 5 5 5 5 5 5 5 3 5 5 5 5 3 5 5 3 5 5 5 5 3 5 5 5 5 5 3 5 5 5 5 3 5 3 5 5 5 3 5 5 5 5 3 5 3 5 5 3 3 5 5 3 5 5 5 5 5 5 5 3 5 5 5 3 5 3 5 5 5 5 5 5 3 5 3 3 5 5 5 5 5 5 5 5 5 5 5 5 3 5 5 5 5 3 5 5 5 5 5 5 5 5 5 5 3 5 5 5 5 5 5 3 5 5 5 5 5 5 5 5 5 5 3 5 5 3 5 5 5 5 5 5 5 5 3 5 5 5 5 3 5 5 5 3 5 3 5 5 5 3 3 5 5 3 5 5 3 5 5 5 5 3 3 5 3 5 5 5 5 3 5 5 5 5 3 5 5 5 5 3 5 5 5 5 3 5 5 5 5 3 3 3 5 3 5 3 5 5 3 5 5 5 5 5 5 3 5 5 5 5 5 5 3 5 5 5 5 5 5 5 5 5 5 5 5 5 5 5 3 5 5 5 3 5 5 5 5 5 3 5 5 3 5 5 5 5 5 5 5 3 5 5 5 5 5 5 5 5 5 5 5 5 5 5 5 5 3 5 5 5 5 5 3 5 5 5 5 5 5 5 5 5 5 5 5 3 5 5 5 3 5 5 3 5 3 5 5 5 5 3 3 3 5 5 5 5 5 5 5 5 5 5 5 5 5 5 5 5 3 5 5 5 5 5 5 5 5 5 5 5 5 5 5 5 5 5 5 5 5 5 5 5 3 5 3 5 3 5 5 5 5 5 5 5 3 5 5 5 5 3 5 3 5 5 5 5 5 5 5 5 5 5 5 5 5 5 3 5 5 3 5 5 5 5 5 5 5 5 5 5 5 5 5 5 5 5 5 5 3 5 5 5 5 5 3 5 5 3 5 5 3 5 5 5 5 5 5 5 5 5 5 5 5 5 3 5 5 5 5 5 5 5 5 5 5 5 5 5 5 5 5 5 5 5 5 5 5 5 5 5 5 5 5 5 5 5 5 5 5 5 5 5 5 5 5 5 5 5 5 5 5 5 5 5 5 5 3 5 5 5 5 5 5 5 5 5 5 5 5 5 5 5 5 5 5 5 5 5 5 5 5 5 5 5 5 5 5 5 5 5 5 5 5 5 5 5 5 5 3 5 5 3 5 5 3 5 5 5 5 5 3 5 5 5 5 3 5 3 5 5 5 5 5 3 5 5 5 5 5 5 5 5 5 5 5 5 5 5 5 5 5 5 5 5 5 5 5 5 5 5 5 5 5 5 5 5 5 3 5 3 5 5 3 5 5 5 5 5 3 5 5 5 5 5 5 3 5 5 5 5 5 5 5 5 5 5 5 3 5 3 5 5 5 3 5 5 5 5 3 5 5 3 5 5 5 5 5 5 5 3 5 5 5 3 5 5 5 5 5 3 5 5 5 5 5 5 5 5 5 5 5 5 5 5 5 5 5 5 5 5 5 5 5 5 5 5 5 5 5 5 5 3 5 5 3 5 5 5 5 3 5 5 3 3 5 5 5 3 5 5 5 5 5 5 3 5 5 5 5 5 5 5 5 5 5 5 5 5 5 5 5 5 5 5 5 5 5 5 5 5 5 3 3 5 5 5 5 5 3 5 5 3 5 5 5 5 5 3 5 5 5 3 5 5 5 5 5 5 5 5 5 5 5 5 5 5 5 3 5 3 5 5 5 5 5 5 3 5 5 3 5 5 5 5 5 5 5 5 5 5 5 5 5 5 5 5 5 5 5 5 5 5 5 5 5 5 3 5 5 3 5 5 5 5 3 5 5 5 5 5 5 5 5 5 5 5 5 5 5 5 5 5 5 5 5 5 5 5 5 5 5 5 5 5 5 5 5 5 5 5 5 5 5 5 5 3 5 5 5 5 3 5 5 3 5 3 5 5 5 5 5 5 5 3 5 5 5 5 5 5 5 5 5 3 5 5 5 5 5 5 5 3 5 5 5 5 3 5 5 5 5 5 5 5 5 5 5 3 5 5 5 5 5 5 5 5 5 5 5 3 5 3 5 5 5 5 5 5 5 5 5 5 5 5 5 5 5 5 5 5 5 5 5 5 5 5 3 5 5 5 5 5 5 3 5 3 5 5 5 3 5 5 5 3 5 5 5 5 5 5 5 5 3 5 5 5 3 5 5 3 5 5 5 5 5 5 5 5 5 5 5 5 3 5 5 5 3 5 5 5 5 5 5 5 3 5 5 5 5 5 5 5 5 5 5 3 5 5 5 5 5 3 3 5 3 5 5 5 3 5 5 5 5 5 5 5 5 5 3 5 5 5 5 5 3 5 5 5 5 5 5 5 5 3 5 5 5 3 5 5 3 5 5 5 3 5 5 5 5 5 5 5 5 5 5 5 5 5 5 5 5 5 5 5 3 5 5 3 5 5 5 5 5 5 5 5 5 5 5 5 5 5 5 5 5 5 3 5 5 5 5 3 5 5 5 5 5 5 5 5 5 5 3 5 5 5 5 5 5 3 5 5 5 5 5 5 5 5 5 5 5 5 5 5 5 5 5 5 5 5 5 3 5 5 5 5 5 5 3 5 5 3 5 3 5 5 3 5 3 5 5 5 3 5 5 3 3 5 5 5 3 5 5 5 3 5 5 3 5 5 5 3 5 5 5 5 5 5 5 5 5 5 5 5 5 5 5 5 5 5 5 5 5 5 5 5 3 5 3 5 5 5 3 5 5 3 5 5 5 5 5 5 5 5 5 5 5 3 5 5 5 5 3 3 5 5 3 5 5 5 5 3 5 5 5 5 5 5 5 3 5 5 3 5 5 5 3 5 5 5 3 5 5 5 5 5 5 5 5 5 5 5 5 5 5 5 5 5 5 5 3 5 5 5 5 3 5 5 3 5 5 5 3 5 5 3 5 5 3 5 5 3 5 5 5 5 5 5 5 5 5 5 5 5 5 5 5 5 5 3 3 3 5 3 3 5 5 5 3 5 5 5 5 5 3 5 3 5 5 5 5 3 5 5 5 5 5 5 5 5 5 5 5 5 5 5 5 5 5 5 3 5 5 5 5 3 5 5 3 5 5 5 5 5 5 5 3 3 5 5 5 3 5 3 5 5 5 5 5 5 5 5 5 5 3 5 5 5 5 5 5 5 5 5 5 3 5 5 5 5 3 5 5 5 5 3 5 5 5 5 3 5 5 5 3 5 5 5 3 3 5 3 5 3 5 5 5 5 5 5 5 5 3 5 5 3 5 5 5 3 5 5 5 3 5 5 5 5 5 5 5 5 5 5 5 3 5 5 5 3 5 5 5 3 5 5 5 3 5 5 5 5 5 5 5 5 5 5 5 3 5 5 5 5 3 5 5 5 5 5 5 5 3 5 5 5 5 5 5 3 5 5 5 5 5 5 5 5 5 5 3 5 5 3 5 5 5 5 5 5 3 5 3 5 5 5 5 3 5 5 5 5 5 3 5 5 5 5 5 5 5 5 5 5 5 5 5 5 3 5 5 5 5 5 5 5 5 5 5 5 5 5 5 5 5 5 5 5 5 5 5 5 5 5 3 3 5 5 5 5 3 3 5 5 5 5 3 5 5 5 5 5 5 5 5 5 5 5 5 5 5 5 3 5 5 3 5 5 5 5 5 5 5 5 5 5 5 5 5 5 5 5 5 5 5 3 5 5 5 5 5 5 5 5 5 5 3 5 5 5 5 5 5 5 3 5 5 5 5 5 5 3 5 5 5 3 5 5 5 5 5 5 5 5 3 5 5 5 5 5 5 5 5 5 5 5 5 5 5 5 5 5 5 5 5 5 5 5 5 5 5 5 3 5 5 5 5 5 5 5 3 5 5 5 5 3 5 5 5 5 5 5 5 5 3 5 5 3 5 5 5 3 5 5 5 3 5 5 5 3 5 5 5 5 5 5 5 5 5 5 5 5 5 5 5 5 5 5 5 5 5 5 5 5 5 5 5 5 5 5 5 5 5 5 5 3 5 5 5 3 5 5 3 5 5 5 5 3 5 3 5 3 5 5 5 5 5 5 3 5 5 5 3 3 5 3 5 3 5 3 5 3 3 5 5 5 3 3 5 3 5 3 5 3 3 5 5 5 5 5 5 5 5 5 5 5 5 5 5 3 3 5 3 5 5 5 5 5 5 5 3 5 5 5 5 5 5 5 5 5 5 5 5 5 5 5 5 5 5 5 5 5 5 5 5 5 5 5 5 5 5 3 5 5 3 5 5 5 3 3 5 5 5 5 5 5 5 5 5 5 5 5 5 5 5 3 5 5 5 5 5 5 5 5 5 5 5 5 5 5 5 3 5 3 5 5 3 5 5 5 3 5 5 5 5 5 5 5 5 5 5 5 3 5 5 5 5 3 5 5 5 5 5 3 5 5 5 5 5 5 5 5 5 5 3 5 5 3 5 5 5 5 5 5 3 5 5 5 5 3 5 5 5 3 5 5 5 3 5 5 3 5 5 5 3 5 5 5 5 5 3 5 5 5 5 5 5 5 5 5 5 5 5 5 5 5 3 5 5 3 5 3 3 5 5 5 3 3 5 5 5 3 5 5 5 5 5 3 3 5 3 3 5 5 5 5 5 5 3 5 5 5 5 5 5 5 5 3 5 5 5 5 3 5 5 5 5 5 3 5 3 5 5 5 3 5 5 5 5 5 5 5 5 3 5 5 5 5 5 5 5 5 3 5 5 5 5 5 5 5 5 5 5 5 5 5 5 5 5 5 5 5 5 5 5 5 5 5 5 5 5 5 5 5 5 5 5 5 5 5 5 5 5 5 5 5 5 5 5 5 5 5 5 5 5 5 5 5 5 5 5 5 5 5 5 5 5 5 5 5 5 5 5 5 5 5 5 5 5 5 5 5 5 5 5 5 5 5 5 5 5 5 5 5 5 5 5 5 5 5 5 5 5 5 5 5 5 5 5 5 5 5 5 5 5 5 5 5 5 5 5 3 5 5 5 5 5 3 3 5 5 5 5 5 5 5 3 3 5 5 5 5 5 5 3 5 5 3 5 5 5 5 5 5 5 5 5 5 5 5 5 3 5 5 5 5 3 3 5 5 5 5 5 5 3 5 3 5 5 5 5 5 5 3 5 5 5 5 5 3 5 5 5 5 3 5 5 5 5 5 5 5 5 5 5 5 5 5 5 5 5 5 5 5 5 5 5 3 5 5 5 5 5 5 5 5 5 5 5 5 5 5 5 5 5 5 5 5 5 5 5 5 5 5 5 5 5 5 5 5 5 5 5 5 5 5 5 5 5 5 5 5 5 5 5 5 5 5 5 5 5 5 5 5 3 5 5 5 3 5 5 5 5 5 3 5 5 5 5 5 3 5 3 5 5 5 5 5 5 3 5 5 5 5 5 5 5 5 5 5 3 5 5 5 5 5 5 5 5 5 5 5 5 5 5 5 5 5 3 5 5 5 5 5 5 5 3 5 5 5 5 5 5 5 3 5 5 3 5 5 5 5 5 5 3 5 5 5 5 5 5 5 5 5 5 5 5 5 5 5 5 5 5 5 5 5 5 5 5 5 5 5 5 5 5 5 5 5 5 5 5 5 5 5 5 5 5 5 3 5 5 5 5 5 5 3 5 5 5 5 3 5 5 5 5 5 3 5 5 5 5 5 5 5 3 5 5 5 5 5 3 5 5 5 5 5 5 5 5 5 5 5 5 5 5 5 5 5 5 5 5 5 3 5 5 5 3 5 5 5 5 5 3 5 5 5 5 5 5 5 5 5 5 5 3 5 5 5 3 5 3 5 5 5 3 5 5 3 5 5 5 5 5 5 5 5 5 5 5 5 5 5 5 3 5 5 5 5 5 3 5 3 5 5 3 5 5 5 5 5 5 5 5 5 5 5 3 5 5 5 5 5 5 5 5 5 5 5 5 5 5 5 5 5 5 5 5 5 5 5 5 5 5 5 5 5 5 5 5 5 5 5 5 3 5 5 5 5 5 5 5 5 5 5 3 5 5 5 5 5 5 5 5 5 5 5 5 5 5 5 5 5 3 5 5 5 5 5 5 5 5 5 5 5 5 5 5 5 5 5 3 5 5 5 5 5 5 3 5 5 5 5 5 3 5 5 5 5 5 5 5 5 5 5 5 5 5 3 5 5 5 3 5 5 5 5 5 3 5 3 5 5 5 5 5 5 5 5 5 5 5 5 5 3 5 5 5 5 5 5 5 5 5 5 5 5 3 5 3 5 5 5 5 5 5 5 5 5 5 5 5 5 5 5 5 5 5 5 5 5 5 5 5 5 5 5 5 5 5 5 5 5 5 3 5 5 5 5 5 3 5 5 5 5 5 3 5 5 5 5 5 5 5 5 5 3 5 5 5 5 5 5 5 5 5 5 5 5 3 5 5 5 5 5 5 5 5 5 3 5 5 5 5 5 5 5 5 5 5 5 5 5 5 5 5 5 5 5 5 5 5 5 5 5 5 5 5 5 5 5 5 5 5 5 5 5 5 5 5 5 5 5 5 5 5 5 5 5 5 5 5 5 5 5 5 5 5 5 5 5 5 5 5 5 5 5 5 5 5 5 5 5 5 5 5 5 5 5 5 5 5 5 5 5 5 5 5 5 5 5 5 5 5 5 5 5 5 5 5 5 3 5 5 5 5 5 5 5 5 5 5 5 5 5 5 3 5 3 5 5 5 5 5 5 5 5 5 5 5 5 5 5 5 5 3 5 5 5 5 5 5 5 5 5 5 5 5 5 5 5 3 5 5 5 5 5 5 3 5 5 5 5 5 5 5 5 5 5 5 5 3 5 5 5 5 5 5 5 3 5 5 5 5 3 5 5 3 5 3 5 5 5 5 3 5 5 5 5 5 3 5 5 5 5 5 5 5 5 5 5 5 5 5 5 5 5 5 5 5 5 3 5 5 5 5 5 5 3 5 5 5 5 3 5 5 5 5 5 5 5 
</DataArray>
</Cells>
<PointData Scalars="" Vectors="displacement," Tensors="">
<DataArray type="Float64" Name="displacement" NumberOfComponents="3" format="ascii">
0.0049997763159590541 0.0049998634385127402 0 0.0046602169362735743 0.0050040023700990456 0 0.0043220141615316074 0.0049996316400156031 0 0.0049997763159590541 0.0049998634385127402 0 0.0049388837981476606 0.0048464267688917671 0 0.0049996201437746907 0.0043404049083846088 0 0.0049997763159590541 0.0049998634385127402 0 0.0049388837981476606 0.0048464267688917671 0 0.0046602169362735743 0.0050040023700990456 0 0.0049388837981476606 0.0048464267688917671 0 0.0049607953690502787 0.0047274523284915578 0 0.0048902411056179363 0.0048464237212764941 0 0.0049388837981476606 0.0048464267688917671 0 0.0049843051696859082 0.0045553885563481139 0 0.0049996201437746907 0.0043404049083846088 0 0.0049388837981476606 0.0048464267688917671 0 0.0049607953690502787 0.0047274523284915578 0 0.0049843051696859082 0.0045553885563481139 0 0.0049843051696859082 0.0045553885563481139 0 0.0051594219524760537 0.0044300525847540146 0 0.0050065013183555928 0.0043186525738515731 0 0.0049843051696859082 0.0045553885563481139 0 0.0049996201437746907 0.0043404049083846088 0 0.0050065013183555928 0.0043186525738515731 0 0.0042627043062804472 0.004879893666731307 0 0.0042120008092507537 0.004761878345227886 0 0.004322864095514454 0.0047685954043597918 0 0.0042627043062804472 0.004879893666731307 0 0.0042120008092507537 0.004761878345227886 0 0.0042097597771812399 0.0049132751806850771 0 0.0047465043570161999 0.0046293703548289187 0 0.0043935938969084029 0.005152525852153359 0 0.0049607953690502787 0.0047274523284915578 0 0.0049843051696859082 0.0045553885563481139 0 0.0051594219524760537 0.0044300525847540146 0 0.0047465043570161999 0.0046293703548289187 0 0.0048487935103686411 0.0050346541679240032 0 0.0049607953690502787 0.0047274523284915578 0 0.0051594219524760537 0.0044300525847540146 0 0.0050548839559479749 0.00474405818440369 0 0.0046396467805961163 0.0053535526694254961 0 0.0046445322519965693 0.0052397542757758736 0 0.0045948358815271241 0.0052637269894681002 0 0.0049607953690502787 0.0047274523284915578 0 0.0050548839559479749 0.00474405818440369 0 0.0048902411056179363 0.0048464237212764941 0 0.0046445322519965693 0.0052397542757758736 0 0.0045948358815271241 0.0052637269894681002 0 0.0044943682097233466 0.0051058194771259179 0 0.0042097597771812399 0.0049132751806850771 0 0.0042369115698657148 0.0049362431592781478 0 0.0042314917116342138 0.0049848502606180635 0 0.0042627043062804472 0.004879893666731307 0 0.0042097597771812399 0.0049132751806850771 0 0.0042369115698657148 0.0049362431592781478 0 0.0046445322519965693 0.0052397542757758736 0 0.0044943682097233466 0.0051058194771259179 0 0.0046602169362735743 0.0050040023700990456 0 0.0043935938969084029 0.005152525852153359 0 0.0043574723290736236 0.0050263302216265911 0 0.0050548839559479749 0.00474405818440369 0 0.0048902411056179363 0.0048464237212764941 0 0.0046602169362735743 0.0050040023700990456 0 0.0048487935103686411 0.0050346541679240032 0 0.0046958102144552287 0.0049528334436019202 0 0.0049388837981476606 0.0048464267688917671 0 0.0048902411056179363 0.0048464237212764941 0 0.0046602169362735743 0.0050040023700990456 0 0.0044943682097233466 0.0051058194771259179 0 0.0046602169362735743 0.0050040023700990456 0 0.0043220141615316074 0.0049996316400156031 0 0.0043207429095338309 0.0049999380994378805 0 0.0041529083950632463 0.0050003577790787897 0 0.004239878656970425 0.004990596097564008 0 0.0042314917116342138 0.0049848502606180635 0 0.0043207429095338309 0.0049999380994378805 0 0.004239878656970425 0.004990596097564008 0 0.0043574723290736236 0.0050263302216265911 0 0.0043211130035249127 0.0049999855638414919 0 0.0043207429095338309 0.0049999380994378805 0 0.0041529083950632463 0.0050003577790787897 0 0.0040539640406601135 0.0049998666105251968 0 0.0041529083950632463 0.0050003577790787897 0 0.004239878656970425 0.004990596097564008 0 0.0042407133174540198 0.0049494571837774967 0 0.0042314917116342138 0.0049848502606180635 0 0.004239878656970425 0.004990596097564008 0 0.0042407133174540198 0.0049494571837774967 0 0.0042369115698657148 0.0049362431592781478 0 0.0042314917116342138 0.0049848502606180635 0 0.0042407133174540198 0.0049494571837774967 0 0.0037865994007667369 0.0049998720969779394 0 0.0039758121132047576 0.0050033781262832375 0 0.003755310551411106 0.005005972266561607 0 0.0037865994007667369 0.0049998720969779394 0 0.0040539640406601135 0.0049998666105251968 0 0.0039758121132047576 0.0050033781262832375 0 0.0041529083950632463 0.0050003577790787897 0 0.0040539640406601135 0.0049998666105251968 0 0.0039758121132047576 0.0050033781262832375 0 0.0041529083950632463 0.0050003577790787897 0 0.0039758121132047576 0.0050033781262832375 0 0.0040923735364059187 0.0049759002721464149 0 0.0039758121132047576 0.0050033781262832375 0 0.0039363584477772632 0.0049986821284122122 0 0.003755310551411106 0.005005972266561607 0 0.0039758121132047576 0.0050033781262832375 0 0.0039363584477772632 0.0049986821284122122 0 0.0040923735364059187 0.0049759002721464149 0 0.0039363584477772632 0.0049986821284122122 0 0.004045128388304539 0.0049850693623039958 0 0.0039102736537551183 0.0050118604304900689 0 0.0039363584477772632 0.0049986821284122122 0 0.0040923735364059187 0.0049759002721464149 0 0.004045128388304539 0.0049850693623039958 0 0.0040923735364059187 0.0049759002721464149 0 0.0041835836299522521 0.0049327753369554951 0 0.0042130996597153731 0.0049334050992098444 0 0.0040923735364059187 0.0049759002721464149 0 0.0041835836299522521 0.0049327753369554951 0 0.004045128388304539 0.0049850693623039958 0 0.0041835836299522521 0.0049327753369554951 0 0.004045128388304539 0.0049850693623039958 0 0.0040231882139483031 0.0050423155094772992 0 0.004045128388304539 0.0049850693623039958 0 0.0040231882139483031 0.0050423155094772992 0 0.0039102736537551183 0.0050118604304900689 0 0.0042407133174540198 0.0049494571837774967 0 0.0042130996597153731 0.0049334050992098444 0 0.0042698461555050679 0.0048833442345009529 0 0.0042627043062804472 0.004879893666731307 0 0.0042407133174540198 0.0049494571837774967 0 0.0042698461555050679 0.0048833442345009529 0 0.0042627043062804472 0.004879893666731307 0 0.0042369115698657148 0.0049362431592781478 0 0.0042407133174540198 0.0049494571837774967 0 0.0041529083950632463 0.0050003577790787897 0 0.0040923735364059187 0.0049759002721464149 0 0.0042130996597153731 0.0049334050992098444 0 0.0041529083950632463 0.0050003577790787897 0 0.0042407133174540198 0.0049494571837774967 0 0.0042130996597153731 0.0049334050992098444 0 0.0041835836299522521 0.0049327753369554951 0 0.0042130996597153731 0.0049334050992098444 0 0.0042798696293597817 0.0048600053235856927 0 0.0042130996597153731 0.0049334050992098444 0 0.0042798696293597817 0.0048600053235856927 0 0.0042698461555050679 0.0048833442345009529 0 0.0042798696293597817 0.0048600053235856927 0 0.0042698461555050679 0.0048833442345009529 0 0.004322864095514454 0.0047685954043597918 0 0.0042627043062804472 0.004879893666731307 0 0.0042698461555050679 0.0048833442345009529 0 0.004322864095514454 0.0047685954043597918 0 0.004322864095514454 0.0047685954043597918 0 0.0043578357735085255 0.0047234613265263866 0 0.0043970676440413534 0.0045700633181283701 0 0.0042798696293597817 0.0048600053235856927 0 0.004322864095514454 0.0047685954043597918 0 0.0043578357735085255 0.0047234613265263866 0 0.0042798696293597817 0.0048600053235856927 0 0.0043578357735085255 0.0047234613265263866 0 0.004298331082026016 0.0048491663101360117 0 0.0043578357735085255 0.0047234613265263866 0 0.004298331082026016 0.0048491663101360117 0 0.0044496168909020509 0.0044501367503386397 0 0.0041740760535150558 0.0044697008326373055 0 0.0042613877445155683 0.0044533234961914806 0 0.0044496168909020509 0.0044501367503386397 0 0.0042348519610561752 0.0046560067793938254 0 0.0044076779719181593 0.0044817959472288173 0 0.0044496168909020509 0.0044501367503386397 0 0.0045284742060732767 0.0043278916246903719 0 0.0043970676440413534 0.0045700633181283701 0 0.0043578357735085255 0.0047234613265263866 0 0.0044496168909020509 0.0044501367503386397 0 0.0043970676440413534 0.0045700633181283701 0 0.0039946281864947121 0.0047816930034202442 0 0.0040713871256280228 0.0045374853997792617 0 0.0039762469434006234 0.0047912269980106984 0 0.0040121024040326286 0.0049115863250983023 0 0.0042348519610561752 0.0046560067793938254 0 0.0039946281864947121 0.0047816930034202442 0 0.0041740760535150558 0.0044697008326373055 0 0.0040713871256280228 0.0045374853997792617 0 0.0041835836299522521 0.0049327753369554951 0 0.0042798696293597817 0.0048600053235856927 0 0.004298331082026016 0.0048491663101360117 0 0.0041835836299522521 0.0049327753369554951 0 0.0040231882139483031 0.0050423155094772992 0 0.004298331082026016 0.0048491663101360117 0 0.0041740760535150558 0.0044697008326373055 0 0.0040713871256280228 0.0045374853997792617 0 0.0042613877445155683 0.0044533234961914806 0 0.0040713871256280228 0.0045374853997792617 0 0.0042613877445155683 0.0044533234961914806 0 0.0040712385415734836 0.0044935264210982165 0 0.0040713871256280228 0.0045374853997792617 0 0.0040712385415734836 0.0044935264210982165 0 0.0040226249734463112 0.0044952524775170241 0 0.0042613877445155683 0.0044533234961914806 0 0.0044440121508571373 0.0044032194237271175 0 0.0043262971969116361 0.0045458747395833166 0 0.0042613877445155683 0.0044533234961914806 0 0.0040712385415734836 0.0044935264210982165 0 0.0043262971969116361 0.0045458747395833166 0 0.0044496168909020509 0.0044501367503386397 0 0.0044440121508571373 0.0044032194237271175 0 0.004543395786849049 0.0043268184678840679 0 0.0044496168909020509 0.0044501367503386397 0 0.004543395786849049 0.0043268184678840679 0 0.0045284742060732767 0.0043278916246903719 0 0.0042613877445155683 0.0044533234961914806 0 0.0044496168909020509 0.0044501367503386397 0 0.0044440121508571373 0.0044032194237271175 0 0.0044440121508571373 0.0044032194237271175 0 0.004543395786849049 0.0043268184678840679 0 0.0045417270729128725 0.004362407112974284 0 0.004543395786849049 0.0043268184678840679 0 0.0046436732464838889 0.0042539692529926579 0 0.0045417270729128725 0.004362407112974284 0 0.004543395786849049 0.0043268184678840679 0 0.0046360062660724365 0.0042239591719076377 0 0.0046436732464838889 0.0042539692529926579 0 0.0046360062660724365 0.0042239591719076377 0 0.0047464856273547905 0.0041319170034268557 0 0.0047178138937282264 0.0041407477936257113 0 0.004543395786849049 0.0043268184678840679 0 0.0046360062660724365 0.0042239591719076377 0 0.0045284742060732767 0.0043278916246903719 0 0.0046360062660724365 0.0042239591719076377 0 0.0045284742060732767 0.0043278916246903719 0 0.0047464856273547905 0.0041319170034268557 0 0.0045284742060732767 0.0043278916246903719 0 0.0047464856273547905 0.0041319170034268557 0 0.0043334799670420509 0.0044864735785295172 0 0.0047286907423444349 0.0042050836295751109 0 0.004631223613976972 0.0042551444860072021 0 0.0047464856273547905 0.0041319170034268557 0 0.0049976727831911646 0.0041095813670693031 0 0.0049507025673347343 0.0040991901349967837 0 0.0047464856273547905 0.0041319170034268557 0 0.0048939388750900859 0.0039730759210613526 0 0.0047178138937282264 0.0041407477936257113 0 0.0049875679393739693 0.0040216534980876363 0 0.00499504871735408 0.0037820142247711104 0 0.0048939388750900859 0.0039730759210613526 0 0.0049998314186214697 0.0038421124990810273 0 0.0049875679393739693 0.0040216534980876363 0 0.0049996201437746907 0.0043404049083846088 0 0.0049998314186214697 0.0038421124990810273 0 0.0049875679393739693 0.0040216534980876363 0 0.00499504871735408 0.0037820142247711104 0 0.0047464856273547905 0.0041319170034268557 0 0.0049875679393739693 0.0040216534980876363 0 0.0048939388750900859 0.0039730759210613526 0 0.0047464856273547905 0.0041319170034268557 0 0.0049875679393739693 0.0040216534980876363 0 0.0049976727831911646 0.0041095813670693031 0 0.0049875679393739693 0.0040216534980876363 0 0.0049976727831911646 0.0041095813670693031 0 0.0050065013183555928 0.0043186525738515731 0 0.0049875679393739693 0.0040216534980876363 0 0.0049996201437746907 0.0043404049083846088 0 0.0050065013183555928 0.0043186525738515731 0 0.0051594219524760537 0.0044300525847540146 0 0.0049976727831911646 0.0041095813670693031 0 0.0050065013183555928 0.0043186525738515731 0 0.0042120008092507537 0.004761878345227886 0 0.0043139616708177527 0.0046429632834521454 0 0.0043334799670420509 0.0044864735785295172 0 0.0047465043570161999 0.0046293703548289187 0 0.0050690669154240245 0.0039684643137571501 0 0.0047465043570161999 0.0046293703548289187 0 0.004631223613976972 0.0042551444860072021 0 0.0042120008092507537 0.004761878345227886 0 0.004322864095514454 0.0047685954043597918 0 0.0043139616708177527 0.0046429632834521454 0 0.004322864095514454 0.0047685954043597918 0 0.0043139616708177527 0.0046429632834521454 0 0.0043970676440413534 0.0045700633181283701 0 0.0045284742060732767 0.0043278916246903719 0 0.0043970676440413534 0.0045700633181283701 0 0.0043334799670420509 0.0044864735785295172 0 0.0043139616708177527 0.0046429632834521454 0 0.0043970676440413534 0.0045700633181283701 0 0.0043334799670420509 0.0044864735785295172 0 0.0049367419654463424 0.0040258250926545917 0 0.0049976727831911646 0.0041095813670693031 0 0.0049507025673347343 0.0040991901349967837 0 0.002757501427056126 0.0050953615480201176 0 0.0026591343626573656 0.0051551031156107929 0 0.002735368420534688 0.0050288533253406379 0 0.002757501427056126 0.0050953615480201176 0 0.0026591343626573656 0.0051551031156107929 0 0.0027748948949976402 0.005090378269563961 0 0.002757501427056126 0.0050953615480201176 0 0.0027748948949976402 0.005090378269563961 0 0.0029260985296412638 0.0051177053688310848 0 0.0026591343626573656 0.0051551031156107929 0 0.0026061819017785533 0.0050751889315978618 0 0.0027748948949976402 0.005090378269563961 0 0.0026061819017785533 0.0050751889315978618 0 0.0027339641946462533 0.0050000016208131912 0 0.0024832507504200154 0.0049999002029443131 0 0.0027339641946462533 0.0050000016208131912 0 0.0027748948949976402 0.005090378269563961 0 0.0029282123540438324 0.0050324930520848346 0 0.0026061819017785533 0.0050751889315978618 0 0.0027339641946462533 0.0050000016208131912 0 0.0027748948949976402 0.005090378269563961 0 0.0027748948949976402 0.005090378269563961 0 0.0029282123540438324 0.0050324930520848346 0 0.0030003062064236758 0.0050600605437116069 0 0.0027339641946462533 0.0050000016208131912 0 0.0029282123540438324 0.0050324930520848346 0 0.0029846093486905669 0.004999602008331965 0 0.0029282123540438324 0.0050324930520848346 0 0.0029846093486905669 0.004999602008331965 0 0.0031379794846891321 0.0050057438997208976 0 0.002984725259023499 0.0049999952240145588 0 0.0032494984167361703 0.0049988674379991506 0 0.0029846093486905669 0.004999602008331965 0 0.0031379794846891321 0.0050057438997208976 0 0.0032480322167614023 0.0049042598305306401 0 0.0029282123540438324 0.0050324930520848346 0 0.0031379794846891321 0.0050057438997208976 0 0.0030003062064236758 0.0050600605437116069 0 0.0030003062064236758 0.0050600605437116069 0 0.0031304265766324553 0.00511226695206709 0 0.0029260985296412638 0.0051177053688310848 0 0.0031379794846891321 0.0050057438997208976 0 0.0030003062064236758 0.0050600605437116069 0 0.0031304265766324553 0.00511226695206709 0 0.0027748948949976402 0.005090378269563961 0 0.0030003062064236758 0.0050600605437116069 0 0.0029260985296412638 0.0051177053688310848 0 0.002757501427056126 0.0050953615480201176 0 0.0029260985296412638 0.0051177053688310848 0 0.0030640568098513504 0.0052787187600523448 0 0.0027783026349629128 0.0050937750145109064 0 0.0029655155354950907 0.0050757391857766 0 0.0031304265766324553 0.00511226695206709 0 0.0032941996363791371 0.0051609243373082368 0 0.0030640568098513504 0.0052787187600523448 0 0.0031304265766324553 0.00511226695206709 0 0.0029260985296412638 0.0051177053688310848 0 0.0030640568098513504 0.0052787187600523448 0 0.0032941996363791371 0.0051609243373082368 0 0.0035048635276611105 0.0050998030083271705 0 0.0033329564922160615 0.0050668093152493043 0 0.0031304265766324553 0.00511226695206709 0 0.0032941996363791371 0.0051609243373082368 0 0.0033329564922160615 0.0050668093152493043 0 0.0032941996363791371 0.0051609243373082368 0 0.0035048635276611105 0.0050998030083271705 0 0.0034340689250971731 0.0052704271145685771 0 0.0035590348904761715 0.005034796457837486 0 0.0033329564922160615 0.0050668093152493043 0 0.0033698293298961373 0.0050083164338754777 0 0.0035048635276611105 0.0050998030083271705 0 0.0035590348904761715 0.005034796457837486 0 0.0033329564922160615 0.0050668093152493043 0 0.0031379794846891321 0.0050057438997208976 0 0.0031304265766324553 0.00511226695206709 0 0.0033329564922160615 0.0050668093152493043 0 0.0031379794846891321 0.0050057438997208976 0 0.0032480322167614023 0.0049042598305306401 0 0.0033698293298961373 0.0050083164338754777 0 0.0031379794846891321 0.0050057438997208976 0 0.0033329564922160615 0.0050668093152493043 0 0.0033698293298961373 0.0050083164338754777 0 0.0029846120137797015 0.0050000256281780928 0 0.0032348736807528049 0.0050927925905539118 0 0.0032520237668687336 0.0049999399053211576 0 0.0032348736807528049 0.0050927925905539118 0 0.0032520237668687336 0.0049999399053211576 0 0.0034048971667601908 0.0050260142769885437 0 0.0032348736807528049 0.0050927925905539118 0 0.0034048971667601908 0.0050260142769885437 0 0.0035417225606309056 0.0050102688066363194 0 0.0032520237668687336 0.0049999399053211576 0 0.0034048971667601908 0.0050260142769885437 0 0.0035193525842873515 0.0049998811170815262 0 0.0035590348904761715 0.005034796457837486 0 0.0033698293298961373 0.0050083164338754777 0 0.0035417225606309056 0.0050102688066363194 0 0.0032494984167361703 0.0049988674379991506 0 0.0035052654396664001 0.0050175575678757566 0 0.0032480322167614023 0.0049042598305306401 0 0.0033698293298961373 0.0050083164338754777 0 0.0035417225606309056 0.0050102688066363194 0 0.0035417225606309056 0.0050102688066363194 0 0.003755310551411106 0.005005972266561607 0 0.0037558173733998525 0.0050152167593270486 0 0.0034048971667601908 0.0050260142769885437 0 0.0035417225606309056 0.0050102688066363194 0 0.0035193525842873515 0.0049998811170815262 0 0.0035417225606309056 0.0050102688066363194 0 0.0035193525842873515 0.0049998811170815262 0 0.003755310551411106 0.005005972266561607 0 0.0037865994007667369 0.0049998720969779394 0 0.0035193525842873515 0.0049998811170815262 0 0.003755310551411106 0.005005972266561607 0 0.0039363584477772632 0.0049986821284122122 0 0.003755310551411106 0.005005972266561607 0 0.0037558173733998525 0.0050152167593270486 0 0.0039363584477772632 0.0049986821284122122 0 0.0037558173733998525 0.0050152167593270486 0 0.0039102736537551183 0.0050118604304900689 0 0.0037558173733998525 0.0050152167593270486 0 0.0037477436447171881 0.0050390591181672661 0 0.0039102736537551183 0.0050118604304900689 0 0.0035590348904761715 0.005034796457837486 0 0.0035417225606309056 0.0050102688066363194 0 0.0037558173733998525 0.0050152167593270486 0 0.0035590348904761715 0.005034796457837486 0 0.0037558173733998525 0.0050152167593270486 0 0.0037477436447171881 0.0050390591181672661 0 0.0035048635276611105 0.0050998030083271705 0 0.0037477436447171881 0.0050390591181672661 0 0.0036829897210329957 0.0050903006174765125 0 0.0035048635276611105 0.0050998030083271705 0 0.0035590348904761715 0.005034796457837486 0 0.0037477436447171881 0.0050390591181672661 0 0.0037477436447171881 0.0050390591181672661 0 0.0038777431520954759 0.0049888812176844474 0 0.0036829897210329957 0.0050903006174765125 0 0.0040121024040326286 0.0049115863250983023 0 0.0037859973695075649 0.0050150893679636903 0 0.0039946281864947121 0.0047816930034202442 0 0.0037477436447171881 0.0050390591181672661 0 0.0038777431520954759 0.0049888812176844474 0 0.0040231882139483031 0.0050423155094772992 0 0.0037477436447171881 0.0050390591181672661 0 0.0039102736537551183 0.0050118604304900689 0 0.0039946281864947121 0.0047816930034202442 0 0.0039762469434006234 0.0047912269980106984 0 0.0038777431520954759 0.0049888812176844474 0 0.0039762469434006234 0.0047912269980106984 0 0.0038777431520954759 0.0049888812176844474 0 0.0039750469645979123 0.0048267760110662656 0 0.0037005759997418728 0.0047486718623535751 0 0.0031541380888289645 0.0050583181751290042 0 0.0036829897210329957 0.0050903006174765125 0 0.0038440399627503851 0.005233910806130406 0 0.0034340689250971731 0.0052704271145685771 0 0.0038777431520954759 0.0049888812176844474 0 0.0036829897210329957 0.0050903006174765125 0 0.0038440399627503851 0.005233910806130406 0 0.0038405310932424579 0.0050391982910721628 0 0.0037005759997418728 0.0047486718623535751 0 0.0030760407310978133 0.0047600697770098632 0 0.0031071995388795475 0.0047898909934049327 0 0.0030239222273339213 0.0047863223305295308 0 0.0037005759997418728 0.0047486718623535751 0 0.0035069585166491125 0.0046213623455034925 0 0.0041461079886910297 0.0045468842697258868 0 0.0037005759997418728 0.0047486718623535751 0 0.0040713871256280228 0.0045374853997792617 0 0.0039762469434006234 0.0047912269980106984 0 0.0039750469645979123 0.0048267760110662656 0 0.0040713871256280228 0.0045374853997792617 0 0.0040026770875227083 0.0044651053987456012 0 0.0040226249734463112 0.0044952524775170241 0 0.0040026770875227083 0.0044651053987456012 0 0.0040226249734463112 0.0044952524775170241 0 0.0039453298927678987 0.0044942808025901226 0 0.0040712385415734836 0.0044935264210982165 0 0.0040226249734463112 0.0044952524775170241 0 0.0039453298927678987 0.0044942808025901226 0 0.0040712385415734836 0.0044935264210982165 0 0.0039453298927678987 0.0044942808025901226 0 0.0037620611446775544 0.0046182368314748035 0 0.0035069585166491125 0.0046213623455034925 0 0.0034968112617746708 0.0047701650549564108 0 0.0031071995388795475 0.0047898909934049327 0 0.0030592707749546653 0.0048032833197072097 0 0.003226686201477091 0.0048439648650685221 0 0.0031071995388795475 0.0047898909934049327 0 0.0030434308283237375 0.0047935245777410776 0 0.0030239222273339213 0.0047863223305295308 0 0.0030434308283237375 0.0047935245777410776 0 0.0030592707749546653 0.0048032833197072097 0 0.0029732426279263468 0.0047931045169680242 0 0.0030434308283237375 0.0047935245777410776 0 0.0029732426279263468 0.0047931045169680242 0 0.0030239222273339213 0.0047863223305295308 0 0.0031071995388795475 0.0047898909934049327 0 0.0030434308283237375 0.0047935245777410776 0 0.0030592707749546653 0.0048032833197072097 0 0.0030592707749546653 0.0048032833197072097 0 0.0029732426279263468 0.0047931045169680242 0 0.0029027675549456637 0.0047593094245114206 0 0.0029732426279263468 0.0047931045169680242 0 0.0029252609242425326 0.0048131487014675548 0 0.0029027675549456637 0.0047593094245114206 0 0.0029732426279263468 0.0047931045169680242 0 0.0029489711364351452 0.0048143669104457011 0 0.0029252609242425326 0.0048131487014675548 0 0.0029489711364351452 0.0048143669104457011 0 0.0029787544499385176 0.0047814856318950071 0 0.0028721953167283104 0.0048789367971876904 0 0.0030760407310978133 0.0047600697770098632 0 0.0030239222273339213 0.0047863223305295308 0 0.0029787544499385176 0.0047814856318950071 0 0.0029732426279263468 0.0047931045169680242 0 0.0029489711364351452 0.0048143669104457011 0 0.0030239222273339213 0.0047863223305295308 0 0.0029489711364351452 0.0048143669104457011 0 0.0030239222273339213 0.0047863223305295308 0 0.0029787544499385176 0.0047814856318950071 0 0.0035048635276611105 0.0050998030083271705 0 0.0036829897210329957 0.0050903006174765125 0 0.0034340689250971731 0.0052704271145685771 0 0.0032941996363791371 0.0051609243373082368 0 0.0034340689250971731 0.0052704271145685771 0 0.0030640568098513504 0.0052787187600523448 0 0.0031541380888289645 0.0050583181751290042 0 0.0029655155354950907 0.0050757391857766 0 0.0029787544499385176 0.0047814856318950071 0 0.0028721953167283104 0.0048789367971876904 0 0.0028303883363103828 0.0048819544260078982 0 0.0028721953167283104 0.0048789367971876904 0 0.0028303883363103828 0.0048819544260078982 0 0.0027914289704753614 0.0049228223648977946 0 0.002757501427056126 0.0050953615480201176 0 0.0028303883363103828 0.0048819544260078982 0 0.0027914289704753614 0.0049228223648977946 0 0.002757501427056126 0.0050953615480201176 0 0.0027914289704753614 0.0049228223648977946 0 0.0027649872811887771 0.0049465348949295435 0 0.0027914289704753614 0.0049228223648977946 0 0.0027584966117118422 0.0049375256572728047 0 0.0027649872811887771 0.0049465348949295435 0 0.0029489711364351452 0.0048143669104457011 0 0.0028721953167283104 0.0048789367971876904 0 0.0029252609242425326 0.0048131487014675548 0 0.0028721953167283104 0.0048789367971876904 0 0.0027914289704753614 0.0049228223648977946 0 0.0027584966117118422 0.0049375256572728047 0 0.0028723165207877573 0.0048733270372226887 0 0.0028598330954527759 0.004864026729135996 0 0.0028721953167283104 0.0048789367971876904 0 0.0029252609242425326 0.0048131487014675548 0 0.0029578582981261824 0.0048029464425909628 0 0.0029252609242425326 0.0048131487014675548 0 0.0029027675549456637 0.0047593094245114206 0 0.0029578582981261824 0.0048029464425909628 0 0.0028598330954527759 0.004864026729135996 0 0.0028758029410205399 0.0047558701019649284 0 0.0027584966117118422 0.0049375256572728047 0 0.0027817242515156384 0.0049139137486976662 0 0.0027536561978871383 0.0048391381013430752 0 0.0029027675549456637 0.0047593094245114206 0 0.0029578582981261824 0.0048029464425909628 0 0.002997831803207745 0.004670300836502073 0 0.0027584966117118422 0.0049375256572728047 0 0.0027817242515156384 0.0049139137486976662 0 0.0027649872811887771 0.0049465348949295435 0 0.0027817242515156384 0.0049139137486976662 0 0.0028146049109723159 0.0048518729083231382 0 0.0027536561978871383 0.0048391381013430752 0 0.0027817242515156384 0.0049139137486976662 0 0.0028146049109723159 0.0048518729083231382 0 0.0028198597655088812 0.0048695234935364571 0 0.0028146049109723159 0.0048518729083231382 0 0.0028198597655088812 0.0048695234935364571 0 0.0028486694557594782 0.0048308875884196063 0 0.0027817242515156384 0.0049139137486976662 0 0.0027882824096119858 0.0049141175231619434 0 0.0027644635407174261 0.0049627666551626329 0 0.0027817242515156384 0.0049139137486976662 0 0.0028198597655088812 0.0048695234935364571 0 0.0027882824096119858 0.0049141175231619434 0 0.0027817242515156384 0.0049139137486976662 0 0.0027644635407174261 0.0049627666551626329 0 0.0027649872811887771 0.0049465348949295435 0 0.002757501427056126 0.0050953615480201176 0 0.0027644635407174261 0.0049627666551626329 0 0.0027649872811887771 0.0049465348949295435 0 0.002757501427056126 0.0050953615480201176 0 0.0027644635407174261 0.0049627666551626329 0 0.002735368420534688 0.0050288533253406379 0 0.0027644635407174261 0.0049627666551626329 0 0.002735368420534688 0.0050288533253406379 0 0.0027614689269948147 0.0049559665432814606 0 0.0016965307959376649 0.0036224406025477962 0 0.0017507920944414336 0.0036211153869420043 0 0.0020063444924711192 0.0035924639755730583 0 0.0023123738180748435 0.0041320853610781515 0 0.0026868599540883875 0.0041935320329187535 0 0.0024250886378123465 0.0040455276222291711 0 0.0017507920944414336 0.0036211153869420043 0 0.0017197606522586601 0.0036673745749034696 0 0.0016250955363008206 0.0036555310053408467 0 0.0017197606522586601 0.0036673745749034696 0 0.0017510449492994797 0.0037019645094735331 0 0.0016552685040931603 0.0037085026832973105 0 0.0018136454892562664 0.0036575562059447415 0 0.0018528210967256938 0.0037138586695014777 0 0.0017510449492994797 0.0037019645094735331 0 0.0017197606522586601 0.0036673745749034696 0 0.0018136454892562664 0.0036575562059447415 0 0.0017510449492994797 0.0037019645094735331 0 0.0017507920944414336 0.0036211153869420043 0 0.0017197606522586601 0.0036673745749034696 0 0.0018136454892562664 0.0036575562059447415 0 0.0020093220183398089 0.00388084831293247 0 0.0023445608614166653 0.003892973832163926 0 0.0017507920944414336 0.0036211153869420043 0 0.0018136454892562664 0.0036575562059447415 0 0.0020063444924711192 0.0035924639755730583 0 0.0018136454892562664 0.0036575562059447415 0 0.0020063444924711192 0.0035924639755730583 0 0.0018528210967256938 0.0037138586695014777 0 0.0025454111909760011 0.0040324930840833139 0 0.0023543551287755001 0.0038088662279293982 0 0.0027243399414855372 0.0040193084527895984 0 0.0026868599540883875 0.0041935320329187535 0 0.0025454111909760011 0.0040324930840833139 0 0.0027243399414855372 0.0040193084527895984 0 0.0026478389307374468 0.0042157020292632472 0 0.002825777133535488 0.0042527103894230917 0 0.0026868599540883875 0.0041935320329187535 0 0.0025454111909760011 0.0040324930840833139 0 0.0024250886378123465 0.0040455276222291711 0 0.0025454111909760011 0.0040324930840833139 0 0.0024250886378123465 0.0040455276222291711 0 0.0023543551287755001 0.0038088662279293982 0 0.0023123738180748435 0.0041320853610781515 0 0.0024250886378123465 0.0040455276222291711 0 0.0022997357077446062 0.0039686003520225284 0 0.0023123738180748435 0.0041320853610781515 0 0.0022997357077446062 0.0039686003520225284 0 0.0021483092271399177 0.0039359967762781908 0 0.0024250886378123465 0.0040455276222291711 0 0.0022997357077446062 0.0039686003520225284 0 0.0023543551287755001 0.0038088662279293982 0 0.0022997357077446062 0.0039686003520225284 0 0.0023543551287755001 0.0038088662279293982 0 0.0021483092271399177 0.0039359967762781908 0 0.002907639700324273 0.0046700188004876438 0 0.0028859821476070243 0.0047626560058545379 0 0.0029189273746143356 0.0046107780905300559 0 0.002907639700324273 0.0046700188004876438 0 0.0028859821476070243 0.0047626560058545379 0 0.0029604853268492093 0.0047376387003335643 0 0.0028541008700606872 0.0047761269635815595 0 0.0029729446259184476 0.0047612555884581085 0 0.0028859821476070243 0.0047626560058545379 0 0.0028486694557594782 0.0048308875884196063 0 0.002834252287897202 0.0048550573323747565 0 0.0028146049109723159 0.0048518729083231382 0 0.0028859821476070243 0.0047626560058545379 0 0.0028486694557594782 0.0048308875884196063 0 0.0028146049109723159 0.0048518729083231382 0 0.0028859821476070243 0.0047626560058545379 0 0.0027536561978871383 0.0048391381013430752 0 0.0029153770085411654 0.0046265052260021228 0 0.0028758029410205399 0.0047558701019649284 0 0.0028859821476070243 0.0047626560058545379 0 0.0029189273746143356 0.0046107780905300559 0 0.0027536561978871383 0.0048391381013430752 0 0.0029189273746143356 0.0046107780905300559 0 0.002959831701360625 0.0045785317485805901 0 0.002968689658034845 0.004499487626588204 0 0.0029189273746143356 0.0046107780905300559 0 0.002959831701360625 0.0045785317485805901 0 0.002997831803207745 0.004670300836502073 0 0.002907639700324273 0.0046700188004876438 0 0.0029189273746143356 0.0046107780905300559 0 0.002968689658034845 0.004499487626588204 0 0.002959831701360625 0.0045785317485805901 0 0.0028946048212260289 0.00447415505219677 0 0.002968689658034845 0.004499487626588204 0 0.002959831701360625 0.0045785317485805901 0 0.002997831803207745 0.004670300836502073 0 0.0029236485259710827 0.0046195590854785544 0 0.0029027675549456637 0.0047593094245114206 0 0.002997831803207745 0.004670300836502073 0 0.0029236485259710827 0.0046195590854785544 0 0.0029027675549456637 0.0047593094245114206 0 0.0029236485259710827 0.0046195590854785544 0 0.0027555576033387484 0.0045851494307201394 0 0.0029236485259710827 0.0046195590854785544 0 0.0028946048212260289 0.00447415505219677 0 0.0027555576033387484 0.0045851494307201394 0 0.002959831701360625 0.0045785317485805901 0 0.0029236485259710827 0.0046195590854785544 0 0.0028946048212260289 0.00447415505219677 0 0.0028946048212260289 0.00447415505219677 0 0.0028404896598425793 0.0041748079387770075 0 0.0027860173004868897 0.0043519863392723068 0 0.002825777133535488 0.0042527103894230917 0 0.0028272955342672546 0.0041805973313451279 0 0.0028946048212260289 0.00447415505219677 0 0.002968689658034845 0.004499487626588204 0 0.0028404896598425793 0.0041748079387770075 0 0.0023445608614166653 0.003892973832163926 0 0.0026093755831795213 0.0039013685047279605 0 0.0026868599540883875 0.0041935320329187535 0 0.0027803316965904811 0.0041398124205507371 0 0.0028209642611732783 0.0041125701292309058 0 0.0026868599540883875 0.0041935320329187535 0 0.0027243399414855372 0.0040193084527895984 0 0.0027803316965904811 0.0041398124205507371 0 0.0027243399414855372 0.0040193084527895984 0 0.0027803316965904811 0.0041398124205507371 0 0.0028404896598425793 0.0041748079387770075 0 0.0028404896598425793 0.0041748079387770075 0 0.0027823131615250418 0.0040744215299019608 0 0.0028209642611732783 0.0041125701292309058 0 0.0027803316965904811 0.0041398124205507371 0 0.0028404896598425793 0.0041748079387770075 0 0.0028209642611732783 0.0041125701292309058 0 0.0028404896598425793 0.0041748079387770075 0 0.0027317472145972849 0.004021453334867699 0 0.0027823131615250418 0.0040744215299019608 0 0.0027317472145972849 0.004021453334867699 0 0.0028657726518369333 0.0038600588418095535 0 0.0028708097678047007 0.0039393124702146202 0 0.0026669894325951934 0.004040586447826346 0 0.00297467906613972 0.0040970819432731946 0 0.0027317472145972849 0.004021453334867699 0 0.0026397256948167899 0.0043787859422714992 0 0.0027860173004868897 0.0043519863392723068 0 0.0029108784221834748 0.0048339330510659443 0 0.00297467906613972 0.0040970819432731946 0 0.0027317472145972849 0.004021453334867699 0 0.0026397256948167899 0.0043787859422714992 0 0.0024900180993309468 0.0041181050512224164 0 0.0028404896598425793 0.0041748079387770075 0 0.0027317472145972849 0.004021453334867699 0 0.0027860173004868897 0.0043519863392723068 0 0.0028946048212260289 0.00447415505219677 0 0.0027860173004868897 0.0043519863392723068 0 0.0027555576033387484 0.0045851494307201394 0 0.0029108784221834748 0.0048339330510659443 0 0.0028639062007869125 0.0047239232543017009 0 0.0026397256948167899 0.0043787859422714992 0 0.0027860173004868897 0.0043519863392723068 0 0.0027555576033387484 0.0045851494307201394 0 0.0029025143744888858 0.0047658396107087865 0 0.0028639062007869125 0.0047239232543017009 0 0.0030592707749546653 0.0048032833197072097 0 0.0029027675549456637 0.0047593094245114206 0 0.0029868004255640163 0.0048978040713982514 0 0.0030592707749546653 0.0048032833197072097 0 0.0029868004255640163 0.0048978040713982514 0 0.0031550186787855003 0.0049066835155193809 0 0.0030592707749546653 0.0048032833197072097 0 0.0031550186787855003 0.0049066835155193809 0 0.003226686201477091 0.0048439648650685221 0 0.0031019842294417004 0.0050835678008905524 0 0.0031550186787855003 0.0049066835155193809 0 0.0034733980366178589 0.00506411744310862 0 0.0031019842294417004 0.0050835678008905524 0 0.0029868004255640163 0.0048978040713982514 0 0.0031550186787855003 0.0049066835155193809 0 0.0031550186787855003 0.0049066835155193809 0 0.003226686201477091 0.0048439648650685221 0 0.0034733980366178589 0.00506411744310862 0 0.0034968112617746708 0.0047701650549564108 0 0.0034729348986733974 0.0050659771784450228 0 0.0037620611446775544 0.0046182368314748035 0 0.0038882952214866207 0.0048594720966730143 0 0.0040671849516500562 0.0046375515422699071 0 0.0040712385415734836 0.0044935264210982165 0 0.0037620611446775544 0.0046182368314748035 0 0.0040671849516500562 0.0046375515422699071 0 0.0037620611446775544 0.0046182368314748035 0 0.0038882952214866207 0.0048594720966730143 0 0.0034733980366178589 0.00506411744310862 0 0.0038882952214866207 0.0048594720966730143 0 0.0038433166263991897 0.0052146140760253208 0 0.0034733980366178589 0.00506411744310862 0 0.0038433166263991897 0.0052146140760253208 0 0.0034733980366178589 0.00506411744310862 0 0.0033366715675594116 0.00541052613263239 0 0.0035525235869577855 0.0041164286318845708 0 0.00297467906613972 0.0040970819432731946 0 0.0031019842294417004 0.0050835678008905524 0 0.0034733980366178589 0.00506411744310862 0 0.0033366715675594116 0.00541052613263239 0 0.0026513252267941967 0.0032335172385244831 0 0.0030894579202513013 0.0033500766793099989 0 0.0030989572392319271 0.0038274124630410127 0 0.00297467906613972 0.0040970819432731946 0 0.0029602125510487013 0.0036260333505018652 0 0.0028657726518369333 0.0038600588418095535 0 0.0030989572392319271 0.0038274124630410127 0 0.0028708097678047007 0.0039393124702146202 0 0.0030894579202513013 0.0033500766793099989 0 0.0030989572392319271 0.0038274124630410127 0 0.0035080741950720929 0.0034646040556334289 0 0.0032933727992169519 0.0029630825775818605 0 0.0030894579202513013 0.0033500766793099989 0 0.0035080741950720929 0.0034646040556334289 0 0.0032933727992169519 0.0029630825775818605 0 0.0026513252267941967 0.0032335172385244831 0 0.0030894579202513013 0.0033500766793099989 0 0.0030989572392319271 0.0038274124630410127 0 0.0035080741950720929 0.0034646040556334289 0 0.003547273366969399 0.0039380526235144493 0 0.0028708097678047007 0.0039393124702146202 0 0.0030284182121593094 0.004145788111694376 0 0.0027590067737374878 0.0040379141479380204 0 0.0030989572392319271 0.0038274124630410127 0 0.0028708097678047007 0.0039393124702146202 0 0.0030284182121593094 0.004145788111694376 0 0.0031542497770028588 0.0040844897570948401 0 0.0036188960759255917 0.0042747841840159459 0 0.0030989572392319271 0.0038274124630410127 0 0.0030284182121593094 0.004145788111694376 0 0.003547273366969399 0.0039380526235144493 0 0.0030284182121593094 0.004145788111694376 0 0.003547273366969399 0.0039380526235144493 0 0.0036562088291560773 0.0042902524878535792 0 0.003271288574877346 0.0040209853299600301 0 0.0034067280472363216 0.0043111574049761719 0 0.0036562088291560773 0.0042902524878535792 0 0.0034067280472363216 0.0043111574049761719 0 0.0036562088291560773 0.0042902524878535792 0 0.0035688115555518817 0.0044451484697934302 0 0.0034067280472363216 0.0043111574049761719 0 0.003361438862865637 0.0044966382630901424 0 0.0031992173553668695 0.0042740121365717034 0 0.0034067280472363216 0.0043111574049761719 0 0.003361438862865637 0.0044966382630901424 0 0.0035688115555518817 0.0044451484697934302 0 0.003361438862865637 0.0044966382630901424 0 0.0035616391082687838 0.0046006741851455394 0 0.0034087418377564942 0.0047006136907588609 0 0.003361438862865637 0.0044966382630901424 0 0.0035616391082687838 0.0046006741851455394 0 0.0035688115555518817 0.0044451484697934302 0 0.003361438862865637 0.0044966382630901424 0 0.0030783336258220525 0.004445197553679882 0 0.0031863452449470068 0.0046578171984293622 0 0.003361438862865637 0.0044966382630901424 0 0.0030783336258220525 0.004445197553679882 0 0.0031992173553668695 0.0042740121365717034 0 0.003271288574877346 0.0040209853299600301 0 0.0034067280472363216 0.0043111574049761719 0 0.0031992173553668695 0.0042740121365717034 0 0.0030783336258220525 0.004445197553679882 0 0.0031992173553668695 0.0042740121365717034 0 0.0029728570400510581 0.0041742280300808505 0 0.003271288574877346 0.0040209853299600301 0 0.0031992173553668695 0.0042740121365717034 0 0.0029728570400510581 0.0041742280300808505 0 0.0029728570400510581 0.0041742280300808505 0 0.0027609469641800919 0.0044063620900306006 0 0.0026456452560031526 0.0041516419357508442 0 0.0030783336258220525 0.004445197553679882 0 0.0027609469641800919 0.0044063620900306006 0 0.0029298836935049135 0.0046901290814715911 0 0.0030783336258220525 0.004445197553679882 0 0.0029728570400510581 0.0041742280300808505 0 0.0027609469641800919 0.0044063620900306006 0 0.0027609469641800919 0.0044063620900306006 0 0.0026456452560031526 0.0041516419357508442 0 0.002423872354590829 0.0043358032375701077 0 0.0026456452560031526 0.0041516419357508442 0 0.0028275530163570282 0.003827171432793223 0 0.0024979601890846256 0.0039588790162749616 0 0.0029728570400510581 0.0041742280300808505 0 0.0026456452560031526 0.0041516419357508442 0 0.0028275530163570282 0.003827171432793223 0 0.003271288574877346 0.0040209853299600301 0 0.0029728570400510581 0.0041742280300808505 0 0.0028275530163570282 0.003827171432793223 0 0.0031542497770028588 0.0040844897570948401 0 0.0027955972072156755 0.0039366845249957259 0 0.0027317472145972849 0.004021453334867699 0 0.0028708097678047007 0.0039393124702146202 0 0.0027590067737374878 0.0040379141479380204 0 0.0027590067737374878 0.0040379141479380204 0 0.0027823131615250418 0.0040744215299019608 0 0.0028209642611732783 0.0041125701292309058 0 0.0027955972072156755 0.0039366845249957259 0 0.0026093755831795213 0.0039013685047279605 0 0.0027317472145972849 0.004021453334867699 0 0.0027590067737374878 0.0040379141479380204 0 0.0027823131615250418 0.0040744215299019608 0 0.0028275530163570282 0.003827171432793223 0 0.0024099157228722671 0.003685737969554691 0 0.0024979601890846256 0.0039588790162749616 0 0.0024099157228722671 0.003685737969554691 0 0.0021284398306461762 0.0038152630726731901 0 0.002255874660780758 0.0039592964722191858 0 0.0020063444924711192 0.0035924639755730583 0 0.0024099157228722671 0.003685737969554691 0 0.0021284398306461762 0.0038152630726731901 0 0.0021284398306461762 0.0038152630726731901 0 0.002255874660780758 0.0039592964722191858 0 0.0020529068816591777 0.0039677465463920725 0 0.002255874660780758 0.0039592964722191858 0 0.0021395926412118961 0.0040971684702068257 0 0.0020529068816591777 0.0039677465463920725 0 0.002255874660780758 0.0039592964722191858 0 0.0024979601890846256 0.0039588790162749616 0 0.0023478271367075865 0.0041347802397999987 0 0.0024099157228722671 0.003685737969554691 0 0.002255874660780758 0.0039592964722191858 0 0.0024979601890846256 0.0039588790162749616 0 0.0026456452560031526 0.0041516419357508442 0 0.0023478271367075865 0.0041347802397999987 0 0.002423872354590829 0.0043358032375701077 0 0.0026456452560031526 0.0041516419357508442 0 0.0024979601890846256 0.0039588790162749616 0 0.0023478271367075865 0.0041347802397999987 0 0.0027609469641800919 0.0044063620900306006 0 0.002423872354590829 0.0043358032375701077 0 0.0024473662971092056 0.0045216809341252799 0 0.002423872354590829 0.0043358032375701077 0 0.0022737883313753166 0.0044433563724628243 0 0.0024473662971092056 0.0045216809341252799 0 0.0022737883313753166 0.0044433563724628243 0 0.0021521231254802713 0.0042897806767040175 0 0.0020392029396672272 0.0045370566497310791 0 0.002423872354590829 0.0043358032375701077 0 0.0022737883313753166 0.0044433563724628243 0 0.0021521231254802713 0.0042897806767040175 0 0.0023478271367075865 0.0041347802397999987 0 0.002423872354590829 0.0043358032375701077 0 0.0021521231254802713 0.0042897806767040175 0 0.0023478271367075865 0.0041347802397999987 0 0.0021521231254802713 0.0042897806767040175 0 0.0021395926412118961 0.0040971684702068257 0 0.002255874660780758 0.0039592964722191858 0 0.0023478271367075865 0.0041347802397999987 0 0.0021395926412118961 0.0040971684702068257 0 0.0021395926412118961 0.0040971684702068257 0 0.0019786080248453868 0.0041198452740078793 0 0.0020529068816591777 0.0039677465463920725 0 0.0019786080248453868 0.0041198452740078793 0 0.0018368931717808892 0.0040629353050485352 0 0.0018948221549669195 0.0039734115049719354 0 0.0019786080248453868 0.0041198452740078793 0 0.0019732056942803277 0.0042718934210445193 0 0.0018286313740815421 0.0041776660116662019 0 0.0019786080248453868 0.0041198452740078793 0 0.0018286313740815421 0.0041776660116662019 0 0.0018368931717808892 0.0040629353050485352 0 0.0021521231254802713 0.0042897806767040175 0 0.0021395926412118961 0.0040971684702068257 0 0.0019786080248453868 0.0041198452740078793 0 0.0021521231254802713 0.0042897806767040175 0 0.0019786080248453868 0.0041198452740078793 0 0.0019732056942803277 0.0042718934210445193 0 0.0019732056942803277 0.0042718934210445193 0 0.0018765916205984248 0.0043600497397355432 0 0.0020392029396672272 0.0045370566497310791 0 0.0021521231254802713 0.0042897806767040175 0 0.0019732056942803277 0.0042718934210445193 0 0.0020392029396672272 0.0045370566497310791 0 0.0019732056942803277 0.0042718934210445193 0 0.0018765916205984248 0.0043600497397355432 0 0.0018286313740815421 0.0041776660116662019 0 0.0017585322445894077 0.0043511089273325703 0 0.0016848066494407215 0.0044017604550934467 0 0.0016238517306146668 0.0042684960380709952 0 0.0017585322445894077 0.0043511089273325703 0 0.0018765916205984248 0.0043600497397355432 0 0.0018366599057454769 0.0044545400765699916 0 0.0017585322445894077 0.0043511089273325703 0 0.0018765916205984248 0.0043600497397355432 0 0.0017250009210447448 0.0042391356597035511 0 0.0018765916205984248 0.0043600497397355432 0 0.0017250009210447448 0.0042391356597035511 0 0.0018286313740815421 0.0041776660116662019 0 0.0017585322445894077 0.0043511089273325703 0 0.0017250009210447448 0.0042391356597035511 0 0.0016238517306146668 0.0042684960380709952 0 0.001717776481212608 0.004147705792503658 0 0.0018286313740815421 0.0041776660116662019 0 0.0017219117721810611 0.0040625136436338747 0 0.0017250009210447448 0.0042391356597035511 0 0.001717776481212608 0.004147705792503658 0 0.0015960199810537967 0.0041138831697519092 0 0.0017250009210447448 0.0042391356597035511 0 0.001717776481212608 0.004147705792503658 0 0.0018286313740815421 0.0041776660116662019 0 0.001717776481212608 0.004147705792503658 0 0.0017219117721810611 0.0040625136436338747 0 0.0015960199810537967 0.0041138831697519092 0 0.0018286313740815421 0.0041776660116662019 0 0.0018368931717808892 0.0040629353050485352 0 0.0017219117721810611 0.0040625136436338747 0 0.0018368931717808892 0.0040629353050485352 0 0.0017219117721810611 0.0040625136436338747 0 0.0017645386229939129 0.003984937751249213 0 0.0017219117721810611 0.0040625136436338747 0 0.0017645386229939129 0.003984937751249213 0 0.0016252150350281609 0.0040095993839916319 0 0.0016692983270102997 0.003937975719843988 0 0.0017645386229939129 0.003984937751249213 0 0.0016252150350281609 0.0040095993839916319 0 0.0016692983270102997 0.003937975719843988 0 0.0017875694384876318 0.0038959240371003621 0 0.0017645386229939129 0.003984937751249213 0 0.0016692983270102997 0.003937975719843988 0 0.0017875694384876318 0.0038959240371003621 0 0.0016957145488890593 0.0038235583413641226 0 0.0017875694384876318 0.0038959240371003621 0 0.0017645386229939129 0.003984937751249213 0 0.0018948221549669195 0.0039734115049719354 0 0.0018368931717808892 0.0040629353050485352 0 0.0017645386229939129 0.003984937751249213 0 0.0018948221549669195 0.0039734115049719354 0 0.0019786080248453868 0.0041198452740078793 0 0.0018948221549669195 0.0039734115049719354 0 0.0020529068816591777 0.0039677465463920725 0 0.0021284398306461762 0.0038152630726731901 0 0.0020529068816591777 0.0039677465463920725 0 0.0019370357029478479 0.003840789004458348 0 0.0018948221549669195 0.0039734115049719354 0 0.0020529068816591777 0.0039677465463920725 0 0.0019370357029478479 0.003840789004458348 0 0.0017875694384876318 0.0038959240371003621 0 0.0018948221549669195 0.0039734115049719354 0 0.0019370357029478479 0.003840789004458348 0 0.0019370357029478479 0.003840789004458348 0 0.0018528210967256938 0.0037138586695014777 0 0.0017837343531771778 0.003781935499662715 0 0.0020063444924711192 0.0035924639755730583 0 0.0021284398306461762 0.0038152630726731901 0 0.0019370357029478479 0.003840789004458348 0 0.0020063444924711192 0.0035924639755730583 0 0.0019370357029478479 0.003840789004458348 0 0.0018528210967256938 0.0037138586695014777 0 0.0018528210967256938 0.0037138586695014777 0 0.0017510449492994797 0.0037019645094735331 0 0.0017837343531771778 0.003781935499662715 0 0.0017510449492994797 0.0037019645094735331 0 0.0016986567832796146 0.0037569050475599369 0 0.0017837343531771778 0.003781935499662715 0 0.0017510449492994797 0.0037019645094735331 0 0.0016986567832796146 0.0037569050475599369 0 0.0016552685040931603 0.0037085026832973105 0 0.0016986567832796146 0.0037569050475599369 0 0.0016957145488890593 0.0038235583413641226 0 0.0017837343531771778 0.003781935499662715 0 0.0016986567832796146 0.0037569050475599369 0 0.0016957145488890593 0.0038235583413641226 0 0.0016107729415817307 0.0037714732493036997 0 0.0017875694384876318 0.0038959240371003621 0 0.0019370357029478479 0.003840789004458348 0 0.0017837343531771778 0.003781935499662715 0 0.0017875694384876318 0.0038959240371003621 0 0.0016957145488890593 0.0038235583413641226 0 0.0017837343531771778 0.003781935499662715 0 0.0048734948475689559 0.0038161115371042578 0 0.0048325598806767817 0.0039236853504593721 0 0.0048486646980205415 0.003895532670992013 0 0.0048734948475689559 0.0038161115371042578 0 0.0048619963268160061 0.0038805975971969125 0 0.0048321385262293454 0.0039588976372710227 0 0.0048734948475689559 0.0038161115371042578 0 0.0048325598806767817 0.0039236853504593721 0 0.0048321385262293454 0.0039588976372710227 0 0.0048325598806767817 0.0039236853504593721 0 0.0048321385262293454 0.0039588976372710227 0 0.0047891230931865437 0.0040065353749119412 0 0.0048325598806767817 0.0039236853504593721 0 0.004797544307962232 0.0039751772378322009 0 0.0047891230931865437 0.0040065353749119412 0 0.004797544307962232 0.0039751772378322009 0 0.0048486646980205415 0.003895532670992013 0 0.0047449440120452 0.0040494568471060666 0 0.0051698573269818122 0.0033035028718431214 0 0.0047765787795609332 0.003346000793669689 0 0.004797544307962232 0.0039751772378322009 0 0.0047485818343198536 0.0040634857268199631 0 0.0047891230931865437 0.0040065353749119412 0 0.004797544307962232 0.0039751772378322009 0 0.0047485818343198536 0.0040634857268199631 0 0.0047449440120452 0.0040494568471060666 0 0.0048325598806767817 0.0039236853504593721 0 0.004797544307962232 0.0039751772378322009 0 0.0048486646980205415 0.003895532670992013 0 0.0052996746708785939 0.0031072540431764614 0 0.0052076868914112022 0.0032038510372410065 0 0.0049613924020714441 0.0031548554216913644 0 0.0052996746708785939 0.0031072540431764614 0 0.0052076868914112022 0.0032038510372410065 0 0.0052549967814201886 0.0031162965532964878 0 0.0052076868914112022 0.0032038510372410065 0 0.0052549967814201886 0.0031162965532964878 0 0.0052711209904055421 0.0030971979713138456 0 0.0052996746708785939 0.0031072540431764614 0 0.0052549967814201886 0.0031162965532964878 0 0.0052097452956287871 0.0030957984829957301 0 0.0048734948475689559 0.0038161115371042578 0 0.0048486646980205415 0.003895532670992013 0 0.0049203364656271497 0.0035996513318597191 0 0.0053002894290162875 0.0031725520093751521 0 0.0051654065944547242 0.0031299037497450528 0 0.0052097452956287871 0.0030957984829957301 0 0.0051698573269818122 0.0033035028718431214 0 0.0050042216747415843 0.0033763457939919102 0 0.0051698573269818122 0.0033035028718431214 0 0.0052343712494947086 0.0030695590137284011 0 0.0049203364656271497 0.0035996513318597191 0 0.0049329417951783482 0.0034633829626368354 0 0.0048935413272905631 0.0037028549100269741 0 0.0049203364656271497 0.0035996513318597191 0 0.0049329417951783482 0.0034633829626368354 0 0.0050002112632420758 0.0031052134755846384 0 0.0050042216747415843 0.0033763457939919102 0 0.0049999256096868623 0.0031052945186894241 0 0.0049994841868807134 0.003181635058759992 0 0.0049329417951783482 0.0034633829626368354 0 0.0050002112632420758 0.0031052134755846384 0 0.0049994841868807134 0.003181635058759992 0 0.0049329417951783482 0.0034633829626368354 0 0.0048050980171490208 0.0038279952058591707 0 0.0050000662452120556 0.0031809790926791873 0 0.0050990999974578994 0.0034877902535771789 0 0.0049998459438500009 0.0034657300082431199 0 0.0049999989874119034 0.0031812591471249 0 0.0049560636297590653 0.0036618191052513595 0 0.0048734948475689559 0.0038161115371042578 0 0.0049203364656271497 0.0035996513318597191 0 0.0048935413272905631 0.0037028549100269741 0 0.0049329417951783482 0.0034633829626368354 0 0.0048050980171490208 0.0038279952058591707 0 0.0048935413272905631 0.0037028549100269741 0 0.0048050980171490208 0.0038279952058591707 0 0.0048935413272905631 0.0037028549100269741 0 0.0048619963268160061 0.0038805975971969125 0 0.0048734948475689559 0.0038161115371042578 0 0.0048935413272905631 0.0037028549100269741 0 0.0048619963268160061 0.0038805975971969125 0 0.0050990999974578994 0.0034877902535771789 0 0.00499504871735408 0.0037820142247711104 0 0.0048939388750900859 0.0039730759210613526 0 0.0049998314186214697 0.0038421124990810273 0 0.0049998459438500009 0.0034657300082431199 0 0.00499504871735408 0.0037820142247711104 0 0.0049560636297590653 0.0036618191052513595 0 0.0049009100342123314 0.0039228534905419027 0 0.0048050980171490208 0.0038279952058591707 0 0.0048619963268160061 0.0038805975971969125 0 0.0048939388750900859 0.0039730759210613526 0 0.0050990999974578994 0.0034877902535771789 0 0.0049998459438500009 0.0034657300082431199 0 0.00499504871735408 0.0037820142247711104 0 0.0048939388750900859 0.0039730759210613526 0 0.0047646403937614224 0.0040675791976366562 0 0.0047178138937282264 0.0041407477936257113 0 0.0048939388750900859 0.0039730759210613526 0 0.0048321385262293454 0.0039588976372710227 0 0.0047646403937614224 0.0040675791976366562 0 0.0048619963268160061 0.0038805975971969125 0 0.0048939388750900859 0.0039730759210613526 0 0.0048321385262293454 0.0039588976372710227 0 0.0047485818343198536 0.0040634857268199631 0 0.0047891230931865437 0.0040065353749119412 0 0.0047141801277040037 0.0041433423720429905 0 0.0048321385262293454 0.0039588976372710227 0 0.0047891230931865437 0.0040065353749119412 0 0.0047646403937614224 0.0040675791976366562 0 0.0047891230931865437 0.0040065353749119412 0 0.0047646403937614224 0.0040675791976366562 0 0.0047141801277040037 0.0041433423720429905 0 0.0047141801277040037 0.0041433423720429905 0 0.0047178138937282264 0.0041407477936257113 0 0.0046436732464838889 0.0042539692529926579 0 0.0047646403937614224 0.0040675791976366562 0 0.0047141801277040037 0.0041433423720429905 0 0.0047178138937282264 0.0041407477936257113 0 0.0046360062660724365 0.0042239591719076377 0 0.0047178138937282264 0.0041407477936257113 0 0.0046436732464838889 0.0042539692529926579 0 0.0046436732464838889 0.0042539692529926579 0 0.0045417270729128725 0.004362407112974284 0 0.0046689463790274806 0.0042921202431010575 0 0.0047141801277040037 0.0041433423720429905 0 0.0046436732464838889 0.0042539692529926579 0 0.0046689463790274806 0.0042921202431010575 0 0.0045417270729128725 0.004362407112974284 0 0.0045258306583880227 0.0044405331564188926 0 0.0043262971969116361 0.0045458747395833166 0 0.0045417270729128725 0.004362407112974284 0 0.0045258306583880227 0.0044405331564188926 0 0.0046689463790274806 0.0042921202431010575 0 0.0044440121508571373 0.0044032194237271175 0 0.0045417270729128725 0.004362407112974284 0 0.0043262971969116361 0.0045458747395833166 0 0.004444857813951401 0.002448496900731342 0 0.0048780929547519239 0.0027899145108840344 0 0.0045624392086113501 0.002743791834885666 0 0.0045288154232698049 0.0040448097020539071 0 0.0046304648976760532 0.0042391152863447005 0 0.004444857813951401 0.002448496900731342 0 0.0045624392086113501 0.002743791834885666 0 0.0042640643438436399 0.0028174512853791646 0 0.0045288154232698049 0.0040448097020539071 0 0.0047765787795609332 0.003346000793669689 0 0.0047970169286280706 0.0042152692016100271 0 0.0047118481896094386 0.0041503640519906255 0 0.0046689463790274806 0.0042921202431010575 0 0.0047970169286280706 0.0042152692016100271 0 0.0047118481896094386 0.0041503640519906255 0 0.0047449440120452 0.0040494568471060666 0 0.0047485818343198536 0.0040634857268199631 0 0.0047118481896094386 0.0041503640519906255 0 0.0047449440120452 0.0040494568471060666 0 0.0047485818343198536 0.0040634857268199631 0 0.0047141801277040037 0.0041433423720429905 0 0.0047118481896094386 0.0041503640519906255 0 0.0047141801277040037 0.0041433423720429905 0 0.0047118481896094386 0.0041503640519906255 0 0.0046689463790274806 0.0042921202431010575 0 0.0040671849516500562 0.0046375515422699071 0 0.0043262971969116361 0.0045458747395833166 0 0.0042560410328732418 0.0049797049145865 0 0.0040712385415734836 0.0044935264210982165 0 0.0040671849516500562 0.0046375515422699071 0 0.0043262971969116361 0.0045458747395833166 0 0.0045288154232698049 0.0040448097020539071 0 0.0044317037716100714 0.0046688249182309759 0 0.0045288154232698049 0.0040448097020539071 0 0.004086025403801704 0.0037883826867103781 0 0.004444857813951401 0.002448496900731342 0 0.0038703236749419619 0.0026946227015924177 0 0.0042640643438436399 0.0028174512853791646 0 0.0046490336094064935 0.0047923744057071027 0 0.0043262971969116361 0.0045458747395833166 0 0.0042560410328732418 0.0049797049145865 0 0.0038882952214866207 0.0048594720966730143 0 0.0040671849516500562 0.0046375515422699071 0 0.0042560410328732418 0.0049797049145865 0 0.0038882952214866207 0.0048594720966730143 0 0.0038433166263991897 0.0052146140760253208 0 0.0042560410328732418 0.0049797049145865 0 0.0035525235869577855 0.0041164286318845708 0 0.004086025403801704 0.0037883826867103781 0 0.0032933727992169519 0.0029630825775818605 0 0.0038703236749419619 0.0026946227015924177 0 0.0038634785702634706 0.003145482348226977 0 0.0038634785702634706 0.003145482348226977 0 0.0042640643438436399 0.0028174512853791646 0 0.004283169861989229 0.0032452715990059998 0 0.0038703236749419619 0.0026946227015924177 0 0.0038634785702634706 0.003145482348226977 0 0.0042640643438436399 0.0028174512853791646 0 0.0038634785702634706 0.003145482348226977 0 0.004283169861989229 0.0032452715990059998 0 0.0039295535305247662 0.0036604678471337539 0 0.0038634785702634706 0.003145482348226977 0 0.0035080741950720929 0.0034646040556334289 0 0.0039295535305247662 0.0036604678471337539 0 0.0032933727992169519 0.0029630825775818605 0 0.0038634785702634706 0.003145482348226977 0 0.0035080741950720929 0.0034646040556334289 0 0.0051698573269818122 0.0033035028718431214 0 0.0047215961755257023 0.0028823054543103592 0 0.0052893838558055982 0.0031250068573713619 0 0.0048780929547519239 0.0027899145108840344 0 0.0046484489607321279 0.0029208867282947484 0 0.0048780929547519239 0.0027899145108840344 0 0.0045624392086113501 0.002743791834885666 0 0.0046484489607321279 0.0029208867282947484 0 0.0045624392086113501 0.002743791834885666 0 0.0042640643438436399 0.0028174512853791646 0 0.0046484489607321279 0.0029208867282947484 0 0.0042640643438436399 0.0028174512853791646 0 0.0046484489607321279 0.0029208867282947484 0 0.004283169861989229 0.0032452715990059998 0 0.0046484489607321279 0.0029208867282947484 0 0.004283169861989229 0.0032452715990059998 0 0.0046513177019346669 0.0033146310745021845 0 0.004283169861989229 0.0032452715990059998 0 0.0046513177019346669 0.0033146310745021845 0 0.0043775110723136583 0.0037181414270653084 0 0.0052996746708785939 0.0031072540431764614 0 0.0046484489607321279 0.0029208867282947484 0 0.0049613924020714441 0.0031548554216913644 0 0.0046513177019346669 0.0033146310745021845 0 0.0049613924020714441 0.0031548554216913644 0 0.0049103676810351203 0.0033639278169579935 0 0.0046484489607321279 0.0029208867282947484 0 0.0046513177019346669 0.0033146310745021845 0 0.0049613924020714441 0.0031548554216913644 0 0.0052076868914112022 0.0032038510372410065 0 0.0049613924020714441 0.0031548554216913644 0 0.0049103676810351203 0.0033639278169579935 0 0.0052076868914112022 0.0032038510372410065 0 0.0049103676810351203 0.0033639278169579935 0 0.0048275614440637269 0.0038012683982178901 0 0.0046513177019346669 0.0033146310745021845 0 0.0049103676810351203 0.0033639278169579935 0 0.0048275614440637269 0.0038012683982178901 0 0.0052104990325851919 0.0032149626567458366 0 0.0051109598355817513 0.0034002563314072124 0 0.0046513177019346669 0.0033146310745021845 0 0.0048275614440637269 0.0038012683982178901 0 0.0043775110723136583 0.0037181414270653084 0 0.0048275614440637269 0.0038012683982178901 0 0.0043775110723136583 0.0037181414270653084 0 0.0044777582331620843 0.0042483405739334422 0 0.0041341388900977697 0.0039906481209602525 0 0.0039857797356316017 0.0043678551297060024 0 0.0044777582331620843 0.0042483405739334422 0 0.0043775110723136583 0.0037181414270653084 0 0.0041341388900977697 0.0039906481209602525 0 0.0044777582331620843 0.0042483405739334422 0 0.0051109598355817513 0.0034002563314072124 0 0.0050172799166041246 0.0035391973482046526 0 0.0054111109694705943 0.003011548112030013 0 0.0054823883224843582 0.0028673709434185973 0 0.0053632713027138637 0.0028591740600883886 0 0.0035080741950720929 0.0034646040556334289 0 0.0039295535305247662 0.0036604678471337539 0 0.003547273366969399 0.0039380526235144493 0 0.004283169861989229 0.0032452715990059998 0 0.0043775110723136583 0.0037181414270653084 0 0.0039295535305247662 0.0036604678471337539 0 0.0043775110723136583 0.0037181414270653084 0 0.0039295535305247662 0.0036604678471337539 0 0.0041341388900977697 0.0039906481209602525 0 0.0041341388900977697 0.0039906481209602525 0 0.0038511803249376008 0.0041452649943638752 0 0.0039857797356316017 0.0043678551297060024 0 0.0039295535305247662 0.0036604678471337539 0 0.0041341388900977697 0.0039906481209602525 0 0.0038511803249376008 0.0041452649943638752 0 0.0039295535305247662 0.0036604678471337539 0 0.0038511803249376008 0.0041452649943638752 0 0.003547273366969399 0.0039380526235144493 0 0.0038511803249376008 0.0041452649943638752 0 0.003547273366969399 0.0039380526235144493 0 0.0036562088291560773 0.0042902524878535792 0 0.0036562088291560773 0.0042902524878535792 0 0.0037463627499495192 0.0044590219181380045 0 0.0035688115555518817 0.0044451484697934302 0 0.0038511803249376008 0.0041452649943638752 0 0.0036562088291560773 0.0042902524878535792 0 0.0038256685756847533 0.0043685585456892185 0 0.0036562088291560773 0.0042902524878535792 0 0.0038256685756847533 0.0043685585456892185 0 0.0037463627499495192 0.0044590219181380045 0 0.0038256685756847533 0.0043685585456892185 0 0.0039857797356316017 0.0043678551297060024 0 0.0038863072344324993 0.0045014315414452924 0 0.0038511803249376008 0.0041452649943638752 0 0.0038256685756847533 0.0043685585456892185 0 0.0039857797356316017 0.0043678551297060024 0 0.0041394617164071876 0.0044978975104318798 0 0.0045583141856994453 0.0037417409302669432 0 0.0039887626746674823 0.0045228132012675769 0 0.0039042905091060749 0.0046257728045671414 0 0.0039054916492378949 0.0046171865873862019 0 0.0045583141856994453 0.0037417409302669432 0 0.0042932850573233466 0.0040093706574998297 0 0.0039857797356316017 0.0043678551297060024 0 0.0038863072344324993 0.0045014315414452924 0 0.0039887626746674823 0.0045228132012675769 0 0.0038863072344324993 0.0045014315414452924 0 0.0039887626746674823 0.0045228132012675769 0 0.0039054916492378949 0.0046171865873862019 0 0.0038863072344324993 0.0045014315414452924 0 0.0038079798769283307 0.0045681765770886748 0 0.0039054916492378949 0.0046171865873862019 0 0.0038863072344324993 0.0045014315414452924 0 0.0037463627499495192 0.0044590219181380045 0 0.0038079798769283307 0.0045681765770886748 0 0.0038256685756847533 0.0043685585456892185 0 0.0038863072344324993 0.0045014315414452924 0 0.0037463627499495192 0.0044590219181380045 0 0.0037463627499495192 0.0044590219181380045 0 0.0038079798769283307 0.0045681765770886748 0 0.0036685974782423025 0.0045387176603818424 0 0.0038079798769283307 0.0045681765770886748 0 0.0036685974782423025 0.0045387176603818424 0 0.0037117409073015202 0.0046268360182412207 0 0.0038079798769283307 0.0045681765770886748 0 0.003794226326173255 0.0046273168887537288 0 0.0037117409073015202 0.0046268360182412207 0 0.0035616391082687838 0.0046006741851455394 0 0.0036685974782423025 0.0045387176603818424 0 0.0037117409073015202 0.0046268360182412207 0 0.0035616391082687838 0.0046006741851455394 0 0.0036685974782423025 0.0045387176603818424 0 0.0035688115555518817 0.0044451484697934302 0 0.0037463627499495192 0.0044590219181380045 0 0.0036685974782423025 0.0045387176603818424 0 0.0035688115555518817 0.0044451484697934302 0 0.0054823883224843582 0.0028673709434185973 0 0.0054454059929630594 0.0027625751953059127 0 0.0053632713027138637 0.0028591740600883886 0 0.0054454059929630594 0.0027625751953059127 0 0.0053516851603589198 0.0027306134321110763 0 0.0053632713027138637 0.0028591740600883886 0 0.0039857797356316017 0.0043678551297060024 0 0.0044777582331620843 0.0042483405739334422 0 0.0041625769765086945 0.0047001855669712945 0 0.0050172799166041246 0.0035391973482046526 0 0.0045583141856994453 0.0037417409302669432 0 0.0054823883224843582 0.0028673709434185973 0 0.0055373336723406512 0.0027524280732520276 0 0.0054454059929630594 0.0027625751953059127 0 0.0055373336723406512 0.0027524280732520276 0 0.0054454059929630594 0.0027625751953059127 0 0.0054727030523215566 0.0026297549277068347 0 0.0054053332081935145 0.0026880795594479198 0 0.0053516851603589198 0.0027306134321110763 0 0.005354155051071733 0.0026308717415932212 0 0.0054053332081935145 0.0026880795594479198 0 0.0054454059929630594 0.0027625751953059127 0 0.0053516851603589198 0.0027306134321110763 0 0.0054053332081935145 0.0026880795594479198 0 0.0054454059929630594 0.0027625751953059127 0 0.0054727030523215566 0.0026297549277068347 0 0.0053516851603589198 0.0027306134321110763 0 0.0052759795753730991 0.0026789145416932403 0 0.005354155051071733 0.0026308717415932212 0 0.0053516851603589198 0.0027306134321110763 0 0.0052759795753730991 0.0026789145416932403 0 0.0052755971375057923 0.0027658169878386459 0 0.0052759795753730991 0.0026789145416932403 0 0.0052755971375057923 0.0027658169878386459 0 0.0052203828687739989 0.002679537975236027 0 0.0052759795753730991 0.0026789145416932403 0 0.0052203828687739989 0.002679537975236027 0 0.0052180179102200956 0.0026448858133312856 0 0.0052185603941392097 0.0027724154152414977 0 0.0052755971375057923 0.0027658169878386459 0 0.0052532377799032071 0.0028919393727279627 0 0.0052185603941392097 0.0027724154152414977 0 0.0052532377799032071 0.0028919393727279627 0 0.0051605556165801279 0.0028355137766005668 0 0.0052185603941392097 0.0027724154152414977 0 0.0052755971375057923 0.0027658169878386459 0 0.0052203828687739989 0.002679537975236027 0 0.0052755971375057923 0.0027658169878386459 0 0.0053632713027138637 0.0028591740600883886 0 0.0052532377799032071 0.0028919393727279627 0 0.0053516851603589198 0.0027306134321110763 0 0.0052755971375057923 0.0027658169878386459 0 0.0053632713027138637 0.0028591740600883886 0 0.0054111109694705943 0.003011548112030013 0 0.0053632713027138637 0.0028591740600883886 0 0.0053128304180990191 0.0029374423917907983 0 0.0053632713027138637 0.0028591740600883886 0 0.0053128304180990191 0.0029374423917907983 0 0.0052532377799032071 0.0028919393727279627 0 0.0054111109694705943 0.003011548112030013 0 0.0053128304180990191 0.0029374423917907983 0 0.0052613469610592626 0.0030275443124684986 0 0.0053128304180990191 0.0029374423917907983 0 0.0052532377799032071 0.0028919393727279627 0 0.0052613469610592626 0.0030275443124684986 0 0.0052532377799032071 0.0028919393727279627 0 0.005217497860992658 0.002999724756400948 0 0.0051768498824711941 0.0029398097608643423 0 0.0052532377799032071 0.0028919393727279627 0 0.005217497860992658 0.002999724756400948 0 0.0052613469610592626 0.0030275443124684986 0 0.005217497860992658 0.002999724756400948 0 0.0052358492506311485 0.0030598824641743872 0 0.0052613469610592626 0.0030275443124684986 0 0.005217497860992658 0.002999724756400948 0 0.0052097452956287871 0.0030957984829957301 0 0.0052358492506311485 0.0030598824641743872 0 0.0052549967814201886 0.0031162965532964878 0 0.0052358492506311485 0.0030598824641743872 0 0.0052613469610592626 0.0030275443124684986 0 0.0052549967814201886 0.0031162965532964878 0 0.0052097452956287871 0.0030957984829957301 0 0.0052358492506311485 0.0030598824641743872 0 0.0052549967814201886 0.0031162965532964878 0 0.0052711209904055421 0.0030971979713138456 0 0.0052613469610592626 0.0030275443124684986 0 0.0052076868914112022 0.0032038510372410065 0 0.0054111109694705943 0.003011548112030013 0 0.0052711209904055421 0.0030971979713138456 0 0.0054111109694705943 0.003011548112030013 0 0.0052711209904055421 0.0030971979713138456 0 0.0052613469610592626 0.0030275443124684986 0 0.0049999782437109711 0.0031051333575037757 0 0.0051505568113650096 0.0030346465040202073 0 0.0051025322554406781 0.0029556325207945088 0 0.0049999782437109711 0.0031051333575037757 0 0.004999970686195297 0.0028620749334186458 0 0.0051025322554406781 0.0029556325207945088 0 0.0051654065944547242 0.0031299037497450528 0 0.0049999782437109711 0.0031051333575037757 0 0.0051505568113650096 0.0030346465040202073 0 0.0051654065944547242 0.0031299037497450528 0 0.0052097452956287871 0.0030957984829957301 0 0.0051505568113650096 0.0030346465040202073 0 0.005217497860992658 0.002999724756400948 0 0.0052097452956287871 0.0030957984829957301 0 0.0051505568113650096 0.0030346465040202073 0 0.005217497860992658 0.002999724756400948 0 0.0051505568113650096 0.0030346465040202073 0 0.0051768498824711941 0.0029398097608643423 0 0.0051505568113650096 0.0030346465040202073 0 0.0051768498824711941 0.0029398097608643423 0 0.0051025322554406781 0.0029556325207945088 0 0.0051768498824711941 0.0029398097608643423 0 0.0051025322554406781 0.0029556325207945088 0 0.0051605556165801279 0.0028355137766005668 0 0.0052532377799032071 0.0028919393727279627 0 0.0051768498824711941 0.0029398097608643423 0 0.0051605556165801279 0.0028355137766005668 0 0.004999970686195297 0.0028620749334186458 0 0.0051025322554406781 0.0029556325207945088 0 0.0051605556165801279 0.0028355137766005668 0 0.004999970686195297 0.0028620749334186458 0 0.0051605556165801279 0.0028355137766005668 0 0.0051233375101821157 0.0027067206726841824 0 0.004999970686195297 0.0028620749334186458 0 0.0051233375101821157 0.0027067206726841824 0 0.004999976669050059 0.0026188459564735873 0 0.0052185603941392097 0.0027724154152414977 0 0.0051605556165801279 0.0028355137766005668 0 0.0051233375101821157 0.0027067206726841824 0 0.0052185603941392097 0.0027724154152414977 0 0.0051233375101821157 0.0027067206726841824 0 0.0052203828687739989 0.002679537975236027 0 0.0051233375101821157 0.0027067206726841824 0 0.0052203828687739989 0.002679537975236027 0 0.0051144486671154694 0.0025748944529239062 0 0.0052243306408705599 0.0026549707972607986 0 0.005225552472408912 0.0025838945797944913 0 0.0052203828687739989 0.002679537975236027 0 0.0051144486671154694 0.0025748944529239062 0 0.0052423381146314632 0.0024851831945218992 0 0.0051233375101821157 0.0027067206726841824 0 0.004999976669050059 0.0026188459564735873 0 0.0051144486671154694 0.0025748944529239062 0 0.004999976669050059 0.0026188459564735873 0 0.0051144486671154694 0.0025748944529239062 0 0.0049999592382596516 0.0023756792053477912 0 0.0051144486671154694 0.0025748944529239062 0 0.0049999592382596516 0.0023756792053477912 0 0.0052423381146314632 0.0024851831945218992 0 0.0049999592382596516 0.0023756792053477912 0 0.0052423381146314632 0.0024851831945218992 0 0.0052397605824416891 0.0023429150887198532 0 0.005225552472408912 0.0025838945797944913 0 0.0051670365214781522 0.0023525558277874654 0 0.0050355466126343175 0.0022431842990900484 0 0.0050401887041157251 0.0022356369024321061 0 0.0050345465832225093 0.0022295079144619302 0 0.0052726942939299261 0.0022988000430766722 0 0.0051333491777705948 0.0021997663219935695 0 0.0052668580917338281 0.0020947641578090148 0 0.0051670365214781522 0.0023525558277874654 0 0.005148978533146947 0.0021673050120419113 0 0.0049999990669476573 0.002375584122536955 0 0.0051333491777705948 0.0021997663219935695 0 0.0049999984752313788 0.002176438459126546 0 0.0049999990669476573 0.002375584122536955 0 0.0052726942939299261 0.0022988000430766722 0 0.0051333491777705948 0.0021997663219935695 0 0.0050001936587079979 0.0023755354307704612 0 0.0051670365214781522 0.0023525558277874654 0 0.0052759795753730991 0.0026789145416932403 0 0.005354155051071733 0.0026308717415932212 0 0.0052699515777707697 0.0026154009058149516 0 0.0052759795753730991 0.0026789145416932403 0 0.0052180179102200956 0.0026448858133312856 0 0.0052699515777707697 0.0026154009058149516 0 0.0052180179102200956 0.0026448858133312856 0 0.0052126145204844029 0.0025818936494352257 0 0.0052699515777707697 0.0026154009058149516 0 0.0051670365214781522 0.0023525558277874654 0 0.005227069477580391 0.0023620596856721572 0 0.0052126145204844029 0.0025818936494352257 0 0.0052699515777707697 0.0026154009058149516 0 0.0053060896707190081 0.0025533062802344467 0 0.0050355466126343175 0.0022431842990900484 0 0.0050470772380271697 0.0022404321929567162 0 0.0050401887041157251 0.0022356369024321061 0 0.005227069477580391 0.0023620596856721572 0 0.0049822325159553319 0.002760375223358692 0 0.005354155051071733 0.0026308717415932212 0 0.0053060896707190081 0.0025533062802344467 0 0.0054118171575696953 0.0025230762442931339 0 0.005354155051071733 0.0026308717415932212 0 0.0052699515777707697 0.0026154009058149516 0 0.0053060896707190081 0.0025533062802344467 0 0.0050470772380271697 0.0022404321929567162 0 0.0050501614816685159 0.0022330694553087281 0 0.0050604184684919298 0.0022411223989620525 0 0.0050470772380271697 0.0022404321929567162 0 0.0050501614816685159 0.0022330694553087281 0 0.005043720213382329 0.0022294512466542508 0 0.0050501614816685159 0.0022330694553087281 0 0.0050478394739716858 0.002226651100910334 0 0.0050519679327328034 0.0022225540882898163 0 0.0050501614816685159 0.0022330694553087281 0 0.0050478394739716858 0.002226651100910334 0 0.005043720213382329 0.0022294512466542508 0 0.0050478394739716858 0.002226651100910334 0 0.005043720213382329 0.0022294512466542508 0 0.0050451608464727087 0.002222744921854986 0 0.0050401887041157251 0.0022356369024321061 0 0.005043720213382329 0.0022294512466542508 0 0.0050345465832225093 0.0022295079144619302 0 0.005043720213382329 0.0022294512466542508 0 0.0050419485314058708 0.0022204789223931446 0 0.0050345465832225093 0.0022295079144619302 0 0.0050470772380271697 0.0022404321929567162 0 0.0050401887041157251 0.0022356369024321061 0 0.005043720213382329 0.0022294512466542508 0 0.0050419485314058708 0.0022204789223931446 0 0.0050345465832225093 0.0022295079144619302 0 0.0050358903661351399 0.0022158053651240325 0 0.0050419485314058708 0.0022204789223931446 0 0.0050358903661351399 0.0022158053651240325 0 0.005046824600677834 0.0022152666318353475 0 0.005043720213382329 0.0022294512466542508 0 0.0050419485314058708 0.0022204789223931446 0 0.0050451608464727087 0.002222744921854986 0 0.0050419485314058708 0.0022204789223931446 0 0.0050451608464727087 0.002222744921854986 0 0.0050456621051299068 0.0022186193221694224 0 0.0050451608464727087 0.002222744921854986 0 0.0050456621051299068 0.0022186193221694224 0 0.0050473618707782657 0.0022203679974402159 0 0.0050478394739716858 0.002226651100910334 0 0.0050451608464727087 0.002222744921854986 0 0.0050473618707782657 0.0022203679974402159 0 0.0050419485314058708 0.0022204789223931446 0 0.0050456621051299068 0.0022186193221694224 0 0.005046824600677834 0.0022152666318353475 0 0.0050456621051299068 0.0022186193221694224 0 0.0050460201611885191 0.0022170358321717139 0 0.005046824600677834 0.0022152666318353475 0 0.0050456621051299068 0.0022186193221694224 0 0.0050460201611885191 0.0022170358321717139 0 0.0050473618707782657 0.0022203679974402159 0 0.0050460201611885191 0.0022170358321717139 0 0.0050480767952453282 0.0022208988141996107 0 0.0050473618707782657 0.0022203679974402159 0 0.004803260061069372 0.0025594637634344416 0 0.0048927226373180624 0.0025204127255836766 0 0.004814684074868362 0.0024431953610444387 0 0.004803260061069372 0.0025594637634344416 0 0.0050478394739716858 0.002226651100910334 0 0.0050519679327328034 0.0022225540882898163 0 0.0050473618707782657 0.0022203679974402159 0 0.0051325278925154778 0.0020677073280481275 0 0.0049999984752313788 0.002176438459126546 0 0.0049999991507022872 0.0019772986023628286 0 0.0051333491777705948 0.0021997663219935695 0 0.0051325278925154778 0.0020677073280481275 0 0.0049999984752313788 0.002176438459126546 0 0.0051333491777705948 0.0021997663219935695 0 0.0051325278925154778 0.0020677073280481275 0 0.0052668580917338281 0.0020947641578090148 0 0.005148978533146947 0.0021673050120419113 0 0.0051713423514606893 0.0019451517827066608 0 0.0051325278925154778 0.0020677073280481275 0 0.0052668580917338281 0.0020947641578090148 0 0.0052607840866073716 0.0018924359131204339 0 0.0051325278925154778 0.0020677073280481275 0 0.0052607840866073716 0.0018924359131204339 0 0.0049999991507022872 0.0019772986023628286 0 0.0052487298642600001 0.0018581373910154047 0 0.0049999733247904415 0.001977261157240185 0 0.0051132744609646468 0.0017517725329328172 0 0.0051713423514606893 0.0019451517827066608 0 0.005000190464231417 0.0019771967458933177 0 0.0049999733247904415 0.001977261157240185 0 0.0051132744609646468 0.0017517725329328172 0 0.0049999633408387588 0.0016974290648741131 0 0.0051132744609646468 0.0017517725329328172 0 0.0049999633408387588 0.0016974290648741131 0 0.0051165035556736552 0.0014653328550323585 0 0.0051132744609646468 0.0017517725329328172 0 0.0052088350185657759 0.0015864646912772094 0 0.0051165035556736552 0.0014653328550323585 0 0.0052088350185657759 0.0015864646912772094 0 0.0053337032355193926 0.0013359412600256308 0 0.0051165035556736552 0.0014653328550323585 0 0.0051713423514606893 0.0019451517827066608 0 0.005217223686552858 0.0015565699700806903 0 0.0052006480918676216 0.00176167985229634 0 0.0052088350185657759 0.0015864646912772094 0 0.0053301176630800289 0.0015605862532372867 0 0.0052487298642600001 0.0018581373910154047 0 0.0051132744609646468 0.0017517725329328172 0 0.0052088350185657759 0.0015864646912772094 0 0.0051713423514606893 0.0019451517827066608 0 0.0052523835105143333 0.0019679280217193042 0 0.0052006480918676216 0.00176167985229634 0 0.005426958744607295 0.0016879461526522379 0 0.0053301176630800289 0.0015605862532372867 0 0.0050460201611885191 0.0022170358321717139 0 0.005046824600677834 0.0022152666318353475 0 0.0050409577820906036 0.0022164286741449971 0 0.0052523835105143333 0.0019679280217193042 0 0.0052056575734835886 0.0017674058960687015 0 0.005426958744607295 0.0016879461526522379 0 0.0055305108172191047 0.0014877884120593457 0 0.0056932387572563928 0.0015978790622333727 0 0.005426958744607295 0.0016879461526522379 0 0.0055305108172191047 0.0014877884120593457 0 0.0053301176630800289 0.0015605862532372867 0 0.0055305108172191047 0.0014877884120593457 0 0.0053301176630800289 0.0015605862532372867 0 0.0053337032355193926 0.0013359412600256308 0 0.0054374273917025661 0.0013482034133076011 0 0.0053389117238786966 0.0013196465438203833 0 0.0052088350185657759 0.0015864646912772094 0 0.0053301176630800289 0.0015605862532372867 0 0.0053337032355193926 0.0013359412600256308 0 0.0053337032355193926 0.0013359412600256308 0 0.0053138343152311389 0.0011880153855687295 0 0.0051870412583799406 0.0012748745285050044 0 0.0053337032355193926 0.0013359412600256308 0 0.0053467092921002215 0.00121722026855792 0 0.0053138343152311389 0.0011880153855687295 0 0.0053467092921002215 0.00121722026855792 0 0.0053138343152311389 0.0011880153855687295 0 0.0053501984512875703 0.0011407396501937424 0 0.0053451231124913585 0.0011987311514932318 0 0.0053337032355193926 0.0013359412600256308 0 0.0053467092921002215 0.00121722026855792 0 0.0053138343152311389 0.0011880153855687295 0 0.0053501984512875703 0.0011407396501937424 0 0.0053372356370933001 0.0010447466312837089 0 0.0053138343152311389 0.0011880153855687295 0 0.0051870412583799406 0.0012748745285050044 0 0.0052465942047055436 0.0010801862813290626 0 0.0051870412583799406 0.0012748745285050044 0 0.0051236994597484839 0.0011734336795551472 0 0.0052465942047055436 0.0010801862813290626 0 0.0051870412583799406 0.0012748745285050044 0 0.0049999757022452492 0.0014176350688467727 0 0.0051236994597484839 0.0011734336795551472 0 0.0049999757022452492 0.0014176350688467727 0 0.0051236994597484839 0.0011734336795551472 0 0.0049999671861236453 0.0011379252638021521 0 0.0051870412583799406 0.0012748745285050044 0 0.0051165035556736552 0.0014653328550323585 0 0.0049999757022452492 0.0014176350688467727 0 0.0049999633408387588 0.0016974290648741131 0 0.0051165035556736552 0.0014653328550323585 0 0.0049999757022452492 0.0014176350688467727 0 0.0053337032355193926 0.0013359412600256308 0 0.0051870412583799406 0.0012748745285050044 0 0.0051165035556736552 0.0014653328550323585 0 0.0053829863448044352 0.0010428756064664664 0 0.0053870863840249205 0.00099065330175386471 0 0.0053782793838561965 0.0010427195524115138 0 0.0053829863448044352 0.0010428756064664664 0 0.0053870863840249205 0.00099065330175386471 0 0.005388720495963637 0.0010214188461727491 0 0.0053870863840249205 0.00099065330175386471 0 0.005388720495963637 0.0010214188461727491 0 0.005369527777322484 0.00095417249551693704 0 0.0053870863840249205 0.00099065330175386471 0 0.005376968470101726 0.00094251680097805657 0 0.005388106981857931 0.00092298668017376734 0 0.0053870863840249205 0.00099065330175386471 0 0.0053856080339458713 0.00098084997812134173 0 0.005388106981857931 0.00092298668017376734 0 0.0053870863840249205 0.00099065330175386471 0 0.0053782793838561965 0.0010427195524115138 0 0.0053856080339458713 0.00098084997812134173 0 0.0053687882801766859 0.0010678058864045416 0 0.0053782793838561965 0.0010427195524115138 0 0.0053856080339458713 0.00098084997812134173 0 0.0053687882801766859 0.0010678058864045416 0 0.0053501984512875703 0.0011407396501937424 0 0.0053372356370933001 0.0010447466312837089 0 0.0053687882801766859 0.0010678058864045416 0 0.0053501984512875703 0.0011407396501937424 0 0.0053595443283393548 0.001128414772735142 0 0.0053467092921002215 0.00121722026855792 0 0.0053501984512875703 0.0011407396501937424 0 0.0053595443283393548 0.001128414772735142 0 0.0053451231124913585 0.0011987311514932318 0 0.0053467092921002215 0.00121722026855792 0 0.0053595443283393548 0.001128414772735142 0 0.0053687882801766859 0.0010678058864045416 0 0.0053782793838561965 0.0010427195524115138 0 0.0053595443283393548 0.001128414772735142 0 0.0053829863448044352 0.0010428756064664664 0 0.0053595443283393548 0.001128414772735142 0 0.0053739053710672542 0.0011070842951342098 0 0.0053829863448044352 0.0010428756064664664 0 0.0053782793838561965 0.0010427195524115138 0 0.0053595443283393548 0.001128414772735142 0 0.0053595443283393548 0.001128414772735142 0 0.0053543525595512445 0.0011676697830001654 0 0.0053739053710672542 0.0011070842951342098 0 0.0052056575734835886 0.0017674058960687015 0 0.005134277294963868 0.0015204690277800406 0 0.0053451231124913585 0.0011987311514932318 0 0.0053595443283393548 0.001128414772735142 0 0.0053543525595512445 0.0011676697830001654 0 0.0054374273917025661 0.0013482034133076011 0 0.0052056575734835886 0.0017674058960687015 0 0.0050460201611885191 0.0022170358321717139 0 0.0050409577820906036 0.0022164286741449971 0 0.005038573926319412 0.0022144629935455192 0 0.0052056575734835886 0.0017674058960687015 0 0.0049474933000650976 0.002191721883678902 0 0.0047998893370422386 0.0020136979283528205 0 0.0049270496585572124 0.0021050624510625107 0 0.0049405483767234184 0.0019645594601517703 0 0.0050409577820906036 0.0022164286741449971 0 0.0050327150472056935 0.0022092584836046077 0 0.005038573926319412 0.0022144629935455192 0 0.0049270496585572124 0.0021050624510625107 0 0.0049405483767234184 0.0019645594601517703 0 0.0050546733962204609 0.0020453919046771554 0 0.0053829863448044352 0.0010428756064664664 0 0.0053739053710672542 0.0011070842951342098 0 0.005388720495963637 0.0010214188461727491 0 0.005134277294963868 0.0015204690277800406 0 0.0052363399720639758 0.001467378978825754 0 0.0049405483767234184 0.0019645594601517703 0 0.0050888879609428117 0.0019073676638255792 0 0.0050546733962204609 0.0020453919046771554 0 0.0050888879609428117 0.0019073676638255792 0 0.0050546733962204609 0.0020453919046771554 0 0.0051780808302188302 0.001987814941071571 0 0.0050546733962204609 0.0020453919046771554 0 0.0051214536918897727 0.0021289347991667765 0 0.0051780808302188302 0.001987814941071571 0 0.0050672452442818566 0.0022063686002412905 0 0.0051214536918897727 0.0021289347991667765 0 0.005111593126171628 0.0022542703672446891 0 0.0050546733962204609 0.0020453919046771554 0 0.0050672452442818566 0.0022063686002412905 0 0.0051214536918897727 0.0021289347991667765 0 0.0049270496585572124 0.0021050624510625107 0 0.0050546733962204609 0.0020453919046771554 0 0.0050672452442818566 0.0022063686002412905 0 0.0049474933000650976 0.002191721883678902 0 0.0050718905225188146 0.0021991637879898735 0 0.0050327150472056935 0.0022092584836046077 0 0.0050672452442818566 0.0022063686002412905 0 0.0050384742441371517 0.0022201920759554383 0 0.004724868902785481 0.0031152057835326565 0 0.0046587971909719918 0.0031483131728073559 0 0.004691106906747922 0.0032214690686141467 0 0.004724868902785481 0.0031152057835326565 0 0.0047816833620831622 0.0032360478427798521 0 0.004691106906747922 0.0032214690686141467 0 0.0049651343548685863 0.0026508303509808337 0 0.004515510867228653 0.0031043390292007892 0 0.004724868902785481 0.0031152057835326565 0 0.0048366194548667167 0.0031389756587548875 0 0.0047816833620831622 0.0032360478427798521 0 0.0050672452442818566 0.0022063686002412905 0 0.0050384742441371517 0.0022201920759554383 0 0.005111593126171628 0.0022542703672446891 0 0.004515510867228653 0.0031043390292007892 0 0.0043140876469098767 0.0039846509062058961 0 0.004803260061069372 0.0025594637634344416 0 0.0048039057946843459 0.002656860015677645 0 0.005044050426399261 0.0022145907391155667 0 0.005038573926319412 0.0022144629935455192 0 0.0050336135216932252 0.0022136584062507625 0 0.0050460201611885191 0.0022170358321717139 0 0.005044050426399261 0.0022145907391155667 0 0.005038573926319412 0.0022144629935455192 0 0.0050327150472056935 0.0022092584836046077 0 0.005038573926319412 0.0022144629935455192 0 0.0050336135216932252 0.0022136584062507625 0 0.0050327150472056935 0.0022092584836046077 0 0.0050384742441371517 0.0022201920759554383 0 0.0050336135216932252 0.0022136584062507625 0 0.0049651343548685863 0.0026508303509808337 0 0.0048039057946843459 0.002656860015677645 0 0.004724868902785481 0.0031152057835326565 0 0.0046123909395722213 0.0030909835002536326 0 0.0046587971909719918 0.0031483131728073559 0 0.0046587971909719918 0.0031483131728073559 0 0.0045957426549325543 0.0031707057074597039 0 0.00463859233934108 0.0032118444671542555 0 0.0046123909395722213 0.0030909835002536326 0 0.0046587971909719918 0.0031483131728073559 0 0.0045957426549325543 0.0031707057074597039 0 0.004803260061069372 0.0025594637634344416 0 0.0049822325159553319 0.002760375223358692 0 0.0045035727436726078 0.003065943813969187 0 0.0046123909395722213 0.0030909835002536326 0 0.0045560423601622557 0.0031799166412709769 0 0.0050501614816685159 0.0022330694553087281 0 0.0050519679327328034 0.0022225540882898163 0 0.0050604184684919298 0.0022411223989620525 0 0.0046123909395722213 0.0030909835002536326 0 0.0045957426549325543 0.0031707057074597039 0 0.0045560423601622557 0.0031799166412709769 0 0.0045619450711902477 0.0030138419153686166 0 0.0049822325159553319 0.002760375223358692 0 0.0045957426549325543 0.0031707057074597039 0 0.0045515970005909259 0.0031817998916167361 0 0.0046078386456340518 0.003309033989066654 0 0.0049822325159553319 0.002760375223358692 0 0.0050791662117231611 0.0028944296334994439 0 0.005354155051071733 0.0026308717415932212 0 0.0054118171575696953 0.0025230762442931339 0 0.0054727030523215566 0.0026297549277068347 0 0.0045957426549325543 0.0031707057074597039 0 0.00463859233934108 0.0032118444671542555 0 0.0046078386456340518 0.003309033989066654 0 0.00463859233934108 0.0032118444671542555 0 0.0046078386456340518 0.003309033989066654 0 0.004691106906747922 0.0032214690686141467 0 0.0046587971909719918 0.0031483131728073559 0 0.00463859233934108 0.0032118444671542555 0 0.004691106906747922 0.0032214690686141467 0 0.0045583141856994453 0.0037417409302669432 0 0.0050791662117231611 0.0028944296334994439 0 0.0046671357604380565 0.0034390375240846917 0 0.0046078386456340518 0.003309033989066654 0 0.0047264262845481833 0.0033363286612443483 0 0.0054053332081935145 0.0026880795594479198 0 0.005354155051071733 0.0026308717415932212 0 0.0054727030523215566 0.0026297549277068347 0 0.0040145901642156846 0.0043649412333975962 0 0.0039299235267250075 0.0045456636800719208 0 0.0039711348852546563 0.0045740787276769045 0 0.0039299235267250075 0.0045456636800719208 0 0.0039711348852546563 0.0045740787276769045 0 0.0039042905091060749 0.0046257728045671414 0 0.0036385253420906974 0.0049244399210011816 0 0.0036093785203223454 0.0047979497636083104 0 0.0034936689366694487 0.0048532285310750678 0 0.0047816833620831622 0.0032360478427798521 0 0.004691106906747922 0.0032214690686141467 0 0.0047264262845481833 0.0033363286612443483 0 0.0039711348852546563 0.0045740787276769045 0 0.0039042905091060749 0.0046257728045671414 0 0.0039054916492378949 0.0046171865873862019 0 0.0046078386456340518 0.003309033989066654 0 0.004691106906747922 0.0032214690686141467 0 0.0047264262845481833 0.0033363286612443483 0 0.0043140876469098767 0.0039846509062058961 0 0.0042932850573233466 0.0040093706574998297 0 0.0039054916492378949 0.0046171865873862019 0 0.003794226326173255 0.0046273168887537288 0 0.0037546200120308734 0.0046793860199124022 0 0.0038079798769283307 0.0045681765770886748 0 0.0039054916492378949 0.0046171865873862019 0 0.003794226326173255 0.0046273168887537288 0 0.003794226326173255 0.0046273168887537288 0 0.0037117409073015202 0.0046268360182412207 0 0.0037546200120308734 0.0046793860199124022 0 0.0039054916492378949 0.0046171865873862019 0 0.0037546200120308734 0.0046793860199124022 0 0.0037154464741611291 0.0047672100552044764 0 0.0036385253420906974 0.0049244399210011816 0 0.0039054916492378949 0.0046171865873862019 0 0.0037154464741611291 0.0047672100552044764 0 0.003740183731442246 0.0048985482059642023 0 0.0039368972525726529 0.0045721469257700683 0 0.0037546200120308734 0.0046793860199124022 0 0.0037154464741611291 0.0047672100552044764 0 0.0036546785813523887 0.0047133726213290745 0 0.0037117409073015202 0.0046268360182412207 0 0.0037546200120308734 0.0046793860199124022 0 0.0036546785813523887 0.0047133726213290745 0 0.0036385253420906974 0.0049244399210011816 0 0.0037154464741611291 0.0047672100552044764 0 0.0036093785203223454 0.0047979497636083104 0 0.0037154464741611291 0.0047672100552044764 0 0.0036093785203223454 0.0047979497636083104 0 0.0036546785813523887 0.0047133726213290745 0 0.0036093785203223454 0.0047979497636083104 0 0.0036546785813523887 0.0047133726213290745 0 0.0035445255490516104 0.0047351263590091047 0 0.0035616391082687838 0.0046006741851455394 0 0.0037117409073015202 0.0046268360182412207 0 0.0036546785813523887 0.0047133726213290745 0 0.0035616391082687838 0.0046006741851455394 0 0.0036546785813523887 0.0047133726213290745 0 0.0035445255490516104 0.0047351263590091047 0 0.0035616391082687838 0.0046006741851455394 0 0.0034087418377564942 0.0047006136907588609 0 0.0035445255490516104 0.0047351263590091047 0 0.0034087418377564942 0.0047006136907588609 0 0.0034936689366694487 0.0048532285310750678 0 0.0032881366044804523 0.0048520175351761084 0 0.0034087418377564942 0.0047006136907588609 0 0.0035445255490516104 0.0047351263590091047 0 0.0034936689366694487 0.0048532285310750678 0 0.0036093785203223454 0.0047979497636083104 0 0.0035445255490516104 0.0047351263590091047 0 0.0034936689366694487 0.0048532285310750678 0 0.0036385253420906974 0.0049244399210011816 0 0.0034936689366694487 0.0048532285310750678 0 0.0033980372189242919 0.0049779583398474507 0 0.003740183731442246 0.0048985482059642023 0 0.0038483860141266669 0.0039230821072531695 0 0.0036385253420906974 0.0049244399210011816 0 0.0033980372189242919 0.0049779583398474507 0 0.0033631937097560799 0.0051978862774946701 0 0.0034936689366694487 0.0048532285310750678 0 0.0033980372189242919 0.0049779583398474507 0 0.0032881366044804523 0.0048520175351761084 0 0.0032157368297987109 0.0050109120453935979 0 0.0030454351816626085 0.0048895690151072426 0 0.0029818019949474617 0.0051350274317837506 0 0.0033980372189242919 0.0049779583398474507 0 0.0032157368297987109 0.0050109120453935979 0 0.0033631937097560799 0.0051978862774946701 0 0.0033980372189242919 0.0049779583398474507 0 0.0032157368297987109 0.0050109120453935979 0 0.0032881366044804523 0.0048520175351761084 0 0.0032157368297987109 0.0050109120453935979 0 0.0032881366044804523 0.0048520175351761084 0 0.0030454351816626085 0.0048895690151072426 0 0.0032881366044804523 0.0048520175351761084 0 0.0031863452449470068 0.0046578171984293622 0 0.0030454351816626085 0.0048895690151072426 0 0.0034087418377564942 0.0047006136907588609 0 0.0032881366044804523 0.0048520175351761084 0 0.0031863452449470068 0.0046578171984293622 0 0.003361438862865637 0.0044966382630901424 0 0.0034087418377564942 0.0047006136907588609 0 0.0031863452449470068 0.0046578171984293622 0 0.0030783336258220525 0.004445197553679882 0 0.0031863452449470068 0.0046578171984293622 0 0.0029298836935049135 0.0046901290814715911 0 0.0031863452449470068 0.0046578171984293622 0 0.0029298836935049135 0.0046901290814715911 0 0.0030454351816626085 0.0048895690151072426 0 0.0029298836935049135 0.0046901290814715911 0 0.0030454351816626085 0.0048895690151072426 0 0.0028377902757770928 0.0049252399526260645 0 0.0027609469641800919 0.0044063620900306006 0 0.0029298836935049135 0.0046901290814715911 0 0.0026875792767989464 0.0047566137481428687 0 0.0027609469641800919 0.0044063620900306006 0 0.0026397267648213814 0.0046178274045907677 0 0.0024473662971092056 0.0045216809341252799 0 0.0027775990648562956 0.0043691631760959483 0 0.0025739123217048249 0.0048126238148447353 0 0.0029298836935049135 0.0046901290814715911 0 0.0026875792767989464 0.0047566137481428687 0 0.0028377902757770928 0.0049252399526260645 0 0.0026036587685836772 0.0050655857391782837 0 0.0028377902757770928 0.0049252399526260645 0 0.0029818019949474617 0.0051350274317837506 0 0.0025739123217048249 0.0048126238148447353 0 0.0035531964407662406 0.0044867003557336627 0 0.0026875792767989464 0.0047566137481428687 0 0.0026036587685836772 0.0050655857391782837 0 0.0028377902757770928 0.0049252399526260645 0 0.0030454351816626085 0.0048895690151072426 0 0.0028377902757770928 0.0049252399526260645 0 0.0029818019949474617 0.0051350274317837506 0 0.0048620345506034295 0.003191920374652 0 0.0049555125104546651 0.0027469568011266265 0 0.0045000627489610477 0.0026821029106934438 0 0.0048620345506034295 0.003191920374652 0 0.0052927041778723961 0.0029494667695003692 0 0.0049555125104546651 0.0027469568011266265 0 0.0055650174477355815 0.0033137983947822275 0 0.0048620345506034295 0.003191920374652 0 0.0052927041778723961 0.0029494667695003692 0 0.0035531964407662406 0.0044867003557336627 0 0.0040055779443489937 0.0041623633935980618 0 0.0055650174477355815 0.0033137983947822275 0 0.0052927041778723961 0.0029494667695003692 0 0.0057127641048019063 0.0028741503098144595 0 0.0053627576436321728 0.002619752661244831 0 0.0048977628822302662 0.0022967449908268146 0 0.0053746461274934623 0.0022598586357937592 0 0.0055353357850739075 0.0028995223869396477 0 0.0043535729905807476 0.0033558963826981489 0 0.0053627576436321728 0.002619752661244831 0 0.0057062352666855595 0.0028470937498675255 0 0.0056158895026937579 0.0024685361395946565 0 0.0052927041778723961 0.0029494667695003692 0 0.0053627576436321728 0.002619752661244831 0 0.0057127641048019063 0.0028741503098144595 0 0.0052927041778723961 0.0029494667695003692 0 0.0053627576436321728 0.002619752661244831 0 0.0049555125104546651 0.0027469568011266265 0 0.0053627576436321728 0.002619752661244831 0 0.0056158895026937579 0.0024685361395946565 0 0.0053746461274934623 0.0022598586357937592 0 0.0053627576436321728 0.002619752661244831 0 0.0049555125104546651 0.0027469568011266265 0 0.0048977628822302662 0.0022967449908268146 0 0.0049555125104546651 0.0027469568011266265 0 0.0045000627489610477 0.0026821029106934438 0 0.0048977628822302662 0.0022967449908268146 0 0.004654988347644739 0.0025389196554420606 0 0.0048173840774275827 0.0023765873561028806 0 0.0045787525292142212 0.0026316803086357653 0 0.0045855476601445334 0.0022563522937937819 0 0.0048977628822302662 0.0022967449908268146 0 0.0045787525292142212 0.0026316803086357653 0 0.0043017934634962717 0.0026231300105025177 0 0.0042502718162522584 0.0029747035438326542 0 0.0043017934634962717 0.0026231300105025177 0 0.0042334267324674046 0.0023053647962297664 0 0.0045855476601445334 0.0022563522937937819 0 0.0045787525292142212 0.0026316803086357653 0 0.0043017934634962717 0.0026231300105025177 0 0.0045855476601445334 0.0022563522937937819 0 0.0038797081773999905 0.0029089759742753989 0 0.0043017934634962717 0.0026231300105025177 0 0.0042334267324674046 0.0023053647962297664 0 0.0051214536918897727 0.0021289347991667765 0 0.005111593126171628 0.0022542703672446891 0 0.0052160921621632059 0.0021124261481070545 0 0.004515510867228653 0.0031043390292007892 0 0.0047492361026165346 0.0021048286222867412 0 0.0038797081773999905 0.0029089759742753989 0 0.0043017934634962717 0.0026231300105025177 0 0.0042502718162522584 0.0029747035438326542 0 0.0040145901642156846 0.0043649412333975962 0 0.0039711348852546563 0.0045740787276769045 0 0.0041513514458842342 0.0043865290147742922 0 0.004515510867228653 0.0031043390292007892 0 0.0038483860141266669 0.0039230821072531695 0 0.0032157368297987109 0.0050109120453935979 0 0.0029818019949474617 0.0051350274317837506 0 0.0033631937097560799 0.0051978862774946701 0 0.0048620345506034295 0.003191920374652 0 0.0045000627489610477 0.0026821029106934438 0 0.0041218254568221703 0.0030726997349843099 0 0.0040055779443489937 0.0041623633935980618 0 0.0038483860141266669 0.0039230821072531695 0 0.004654988347644739 0.0025389196554420606 0 0.0038483860141266669 0.0039230821072531695 0 0.0014890323719801727 0.0036898627926317401 0 0.0014783774558580938 0.003657885543112676 0 0.0014969752474147846 0.0036723680280732582 0 0.0033448719019600857 0.0034696364794836662 0 0.0031704303321795171 0.0033413648424042951 0 0.0033327854111619612 0.003213949378880102 0 0.001910245916274776 0.0038976826809607721 0 0.0024564660257706265 0.0033781350530869376 0 0.0033448719019600857 0.0034696364794836662 0 0.0033732958687750581 0.0034636782243097565 0 0.0033327854111619612 0.003213949378880102 0 0.0017662197520567006 0.0045733101084739665 0 0.0018366599057454769 0.0044545400765699916 0 0.0020392029396672272 0.0045370566497310791 0 0.0021369209309221315 0.0041988573266407555 0 0.001910245916274776 0.0038976826809607721 0 0.0019052661250453275 0.004173291550173504 0 0.0018303959211502963 0.0041889081912377581 0 0.0018112270344245783 0.0041115718475381183 0 0.0021369209309221315 0.0041988573266407555 0 0.0018281685950029285 0.0041820165284032545 0 0.001910245916274776 0.0038976826809607721 0 0.0018281685950029285 0.0041820165284032545 0 0.0018281685950029285 0.0041820165284032545 0 0.0017915670649479001 0.0044127093076351282 0 0.0017091631051629342 0.0045351599403493231 0 0.001751991746051439 0.0044622944063190621 0 0.0016848066494407215 0.0044017604550934467 0 0.0017662197520567006 0.0045733101084739665 0 0.0017091631051629342 0.0045351599403493231 0 0.001751991746051439 0.0044622944063190621 0 0.0017585322445894077 0.0043511089273325703 0 0.001751991746051439 0.0044622944063190621 0 0.0016848066494407215 0.0044017604550934467 0 0.0017662197520567006 0.0045733101084739665 0 0.001751991746051439 0.0044622944063190621 0 0.0018366599057454769 0.0044545400765699916 0 0.0017585322445894077 0.0043511089273325703 0 0.001751991746051439 0.0044622944063190621 0 0.0018366599057454769 0.0044545400765699916 0 0.0021369209309221315 0.0041988573266407555 0 0.001873475421649859 0.004585033822994378 0 0.0018107390878620473 0.0045827785331126608 0 0.0020392029396672272 0.0045370566497310791 0 0.0020516108733698102 0.0047496895700325885 0 0.0020392029396672272 0.0045370566497310791 0 0.0020516108733698102 0.0047496895700325885 0 0.0021534119841661488 0.0046546194865374159 0 0.0018765916205984248 0.0043600497397355432 0 0.0018366599057454769 0.0044545400765699916 0 0.0020392029396672272 0.0045370566497310791 0 0.0021369209309221315 0.0041988573266407555 0 0.002649850723139553 0.0040458117575742254 0 0.0020516108733698102 0.0047496895700325885 0 0.0021652723406133485 0.0047676709653380776 0 0.0021534119841661488 0.0046546194865374159 0 0.002649850723139553 0.0040458117575742254 0 0.002881543090959243 0.0039982506576389295 0 0.0020516108733698102 0.0047496895700325885 0 0.0021652723406133485 0.0047676709653380776 0 0.0024147792389648715 0.0049325193658306087 0 0.0021652723406133485 0.0047676709653380776 0 0.0023879140305574156 0.0047963602688586337 0 0.0024841303505104919 0.0047704425974363918 0 0.0022439518293483058 0.0047738841657133163 0 0.0022963289646436682 0.0047588275515838638 0 0.0021652723406133485 0.0047676709653380776 0 0.0022661711036692121 0.0047032535139185224 0 0.0023518980393816185 0.0048177757505536919 0 0.0021652723406133485 0.0047676709653380776 0 0.0023879140305574156 0.0047963602688586337 0 0.0024147792389648715 0.0049325193658306087 0 0.0023879140305574156 0.0047963602688586337 0 0.0024841303505104919 0.0047704425974363918 0 0.002429293492959709 0.0049391131165586657 0 0.0021652723406133485 0.0047676709653380776 0 0.0022661711036692121 0.0047032535139185224 0 0.0021534119841661488 0.0046546194865374159 0 0.0020392029396672272 0.0045370566497310791 0 0.0021534119841661488 0.0046546194865374159 0 0.0022648876396261235 0.0045921365903342382 0 0.0022737883313753166 0.0044433563724628243 0 0.0020392029396672272 0.0045370566497310791 0 0.0022648876396261235 0.0045921365903342382 0 0.0022661711036692121 0.0047032535139185224 0 0.0021534119841661488 0.0046546194865374159 0 0.0022648876396261235 0.0045921365903342382 0 0.0022737883313753166 0.0044433563724628243 0 0.0022648876396261235 0.0045921365903342382 0 0.0024473662971092056 0.0045216809341252799 0 0.0022661711036692121 0.0047032535139185224 0 0.0022648876396261235 0.0045921365903342382 0 0.0024135542300086112 0.0046874999918970206 0 0.0022648876396261235 0.0045921365903342382 0 0.0024473662971092056 0.0045216809341252799 0 0.0024135542300086112 0.0046874999918970206 0 0.0026397267648213814 0.0046178274045907677 0 0.0024473662971092056 0.0045216809341252799 0 0.0024135542300086112 0.0046874999918970206 0 0.0026397267648213814 0.0046178274045907677 0 0.0025547547071745184 0.004855800898384742 0 0.0024135542300086112 0.0046874999918970206 0 0.0022661711036692121 0.0047032535139185224 0 0.0024135542300086112 0.0046874999918970206 0 0.0023518980393816185 0.0048177757505536919 0 0.0025547547071745184 0.004855800898384742 0 0.0024135542300086112 0.0046874999918970206 0 0.0023518980393816185 0.0048177757505536919 0 0.0028271827154327457 0.0048132775113762663 0 0.0024841303505104919 0.0047704425974363918 0 0.0026364563053249972 0.0049091063058970758 0 0.0035531964407662406 0.0044867003557336627 0 0.0022963289646436682 0.0047588275515838638 0 0.0028271827154327457 0.0048132775113762663 0 0.0026364563053249972 0.0049091063058970758 0 0.0027271989909417572 0.0051200600115042386 0 0.0035531964407662406 0.0044867003557336627 0 0.0043535729905807476 0.0033558963826981489 0 0.0026364563053249972 0.0049091063058970758 0 0.0027271989909417572 0.0051200600115042386 0 0.002429293492959709 0.0049391131165586657 0 0.0024841303505104919 0.0047704425974363918 0 0.0026364563053249972 0.0049091063058970758 0 0.002429293492959709 0.0049391131165586657 0 0.0043535729905807476 0.0033558963826981489 0 0.002881543090959243 0.0039982506576389295 0 0.0034669005894110917 0.0033379933484920785 0 0.0037274495208617776 0.0031797434623130026 0 0.003805655598688435 0.0035692324160828096 0 0.0034669005894110917 0.0033379933484920785 0 0.0037274495208617776 0.0031797434623130026 0 0.0036464697098293596 0.0027896330480174343 0 0.0043535729905807476 0.0033558963826981489 0 0.0039612896012616184 0.0025949130696303279 0 0.0057062352666855595 0.0028470937498675255 0 0.0056158895026937579 0.0024685361395946565 0 0.0059019728952228838 0.0022269257137260434 0 0.0033284363279859884 0.0030524007713092459 0 0.0039612896012616184 0.0025949130696303279 0 0.0029495678364013828 0.0030443234617656412 0 0.0030079271229976183 0.0028708847676036636 0 0.0029186361601526399 0.0028716846510369355 0 0.0029495678364013828 0.0030443234617656412 0 0.003140331271782234 0.0031121568965895253 0 0.0031094295277138699 0.0029000605056917856 0 0.0029495678364013828 0.0030443234617656412 0 0.0031094295277138699 0.0029000605056917856 0 0.0030079271229976183 0.0028708847676036636 0 0.0031704303321795171 0.0033413648424042951 0 0.002981753155220368 0.0032108568329115407 0 0.003140331271782234 0.0031121568965895253 0 0.0029495678364013828 0.0030443234617656412 0 0.002981753155220368 0.0032108568329115407 0 0.003140331271782234 0.0031121568965895253 0 0.0033284363279859884 0.0030524007713092459 0 0.002881543090959243 0.0039982506576389295 0 0.0027439084500510335 0.0047210860324182905 0 0.002881543090959243 0.0039982506576389295 0 0.0031704303321795171 0.0033413648424042951 0 0.003140331271782234 0.0031121568965895253 0 0.0033327854111619612 0.003213949378880102 0 0.003140331271782234 0.0031121568965895253 0 0.003290367125534573 0.0029488426282426039 0 0.0033327854111619612 0.003213949378880102 0 0.003140331271782234 0.0031121568965895253 0 0.003290367125534573 0.0029488426282426039 0 0.0031094295277138699 0.0029000605056917856 0 0.0014658096774364411 0.0036228688689842318 0 0.0014839158383913068 0.0036386128646077368 0 0.0014783774558580938 0.003657885543112676 0 0.0023721845311926669 0.0033016962039916879 0 0.0024564660257706265 0.0033781350530869376 0 0.0014658096774364411 0.0036228688689842318 0 0.0014839158383913068 0.0036386128646077368 0 0.001467273337480011 0.0036213134930531432 0 0.0014839158383913068 0.0036386128646077368 0 0.0014783774558580938 0.003657885543112676 0 0.0015021979564831965 0.003655612356504411 0 0.0014606071982680058 0.0036168391841670351 0 0.0014615739675400221 0.003621239649937318 0 0.0014517373302616219 0.0036224564467677344 0 0.0014606071982680058 0.0036168391841670351 0 0.0014721905810326302 0.0036048581592087593 0 0.0014572745850328151 0.0036112005371857978 0 0.0014606071982680058 0.0036168391841670351 0 0.0014517373302616219 0.0036224564467677344 0 0.0014721905810326302 0.0036048581592087593 0 0.0014606071982680058 0.0036168391841670351 0 0.0014630485686182406 0.0036208036216389071 0 0.0014615739675400221 0.003621239649937318 0 0.0014630485686182406 0.0036208036216389071 0 0.001467273337480011 0.0036213134930531432 0 0.0014630460157635512 0.0036214770242044498 0 0.0014630485686182406 0.0036208036216389071 0 0.001467273337480011 0.0036213134930531432 0 0.0014615739675400221 0.003621239649937318 0 0.0014658096774364411 0.0036228688689842318 0 0.001467273337480011 0.0036213134930531432 0 0.0014615739675400221 0.003621239649937318 0 0.0023721845311926669 0.0033016962039916879 0 0.0023592183096272108 0.003113017774022122 0 0.0014658096774364411 0.0036228688689842318 0 0.0014615739675400221 0.003621239649937318 0 0.0014517373302616219 0.0036224564467677344 0 0.003290367125534573 0.0029488426282426039 0 0.0032424122770232486 0.0026739884698735944 0 0.0031094295277138699 0.0029000605056917856 0 0.0032424122770232486 0.0026739884698735944 0 0.0030456725831195671 0.002703275977239968 0 0.0031214066569805288 0.0025454222019704663 0 0.0030456725831195671 0.002703275977239968 0 0.0028921643808824974 0.0027140812392884768 0 0.0030054507667556262 0.0024117838783402363 0 0.0030456725831195671 0.002703275977239968 0 0.0031094295277138699 0.0029000605056917856 0 0.0030079271229976183 0.0028708847676036636 0 0.0032424122770232486 0.0026739884698735944 0 0.0030456725831195671 0.002703275977239968 0 0.0031094295277138699 0.0029000605056917856 0 0.0030456725831195671 0.002703275977239968 0 0.0030079271229976183 0.0028708847676036636 0 0.0029407823206157907 0.0028106223455422858 0 0.0039612896012616184 0.0025949130696303279 0 0.0049435673985144856 0.0019855495312544992 0 0.0029407823206157907 0.0028106223455422858 0 0.0029249395815266529 0.0028675620980114186 0 0.0028921643808824974 0.0027140812392884768 0 0.0030079271229976183 0.0028708847676036636 0 0.0029407823206157907 0.0028106223455422858 0 0.0029186361601526399 0.0028716846510369355 0 0.0036250206163016465 0.0028742631520164677 0 0.0039612896012616184 0.0025949130696303279 0 0.0056158895026937579 0.0024685361395946565 0 0.0059019728952228838 0.0022269257137260434 0 0.0056808057880525491 0.0022051262120136219 0 0.0059019728952228838 0.0022269257137260434 0 0.0056808057880525491 0.0022051262120136219 0 0.0058103023052163147 0.001855221443840287 0 0.0056808057880525491 0.0022051262120136219 0 0.0058318528638402409 0.0018090549350778 0 0.0054823122193405124 0.0019289951825117193 0 0.0056475164983470208 0.001992600615167634 0 0.0049435673985144856 0.0019855495312544992 0 0.0049435673985144856 0.0019855495312544992 0 0.0054934467910479588 0.0010548167708420463 0 0.0058318528638402409 0.0018090549350778 0 0.0056661692927704593 0.0012240685210991289 0 0.0054918986110521154 0.0015815286192832716 0 0.0030456725831195671 0.002703275977239968 0 0.0029407823206157907 0.0028106223455422858 0 0.0028921643808824974 0.0027140812392884768 0 0.0049435673985144856 0.0019855495312544992 0 0.0041278024456397316 0.0016479267839874794 0 0.005292524602675399 0.0011810673360526604 0 0.0052653937039485012 0.0010195075514783155 0 0.0053558910693406727 0.00097684656696396749 0 0.0053558910693406727 0.00097684656696396749 0 0.0052718872593255734 0.0008828990626516402 0 0.0053319562603544217 0.00087624686992049676 0 0.0052653937039485012 0.0010195075514783155 0 0.0053558910693406727 0.00097684656696396749 0 0.0052718872593255734 0.0008828990626516402 0 0.0054934467910479588 0.0010548167708420463 0 0.0053715903524277787 0.00090963604343876074 0 0.0030054507667556262 0.0024117838783402363 0 0.0031912552964002468 0.0023898191515067981 0 0.003131488024481612 0.0020941096107991741 0 0.0041278024456397316 0.0016479267839874794 0 0.0038186182545493176 0.001721199263306858 0 0.0053558910693406727 0.00097684656696396749 0 0.0053781645000927089 0.00084313521266771976 0 0.0053319562603544217 0.00087624686992049676 0 0.0030054507667556262 0.0024117838783402363 0 0.0031214066569805288 0.0025454222019704663 0 0.0031912552964002468 0.0023898191515067981 0 0.0030456725831195671 0.002703275977239968 0 0.0030054507667556262 0.0024117838783402363 0 0.0031214066569805288 0.0025454222019704663 0 0.0023592183096272108 0.003113017774022122 0 0.0021291655531267572 0.0031412927128041958 0 0.0014517373302616219 0.0036224564467677344 0 0.0013912288856149895 0.0035756736584201354 0 0.0014721905810326302 0.0036048581592087593 0 0.0032424122770232486 0.0026739884698735944 0 0.0031214066569805288 0.0025454222019704663 0 0.0031912552964002468 0.0023898191515067981 0 0.0021291655531267572 0.0031412927128041958 0 0.0038186182545493176 0.001721199263306858 0 0.0013912288856149895 0.0035756736584201354 0 0.0014142803708961959 0.0034413599101422725 0 0.0012683134747295745 0.0032968624024999455 0 0.0014142803708961959 0.0034413599101422725 0 0.0015157043019877214 0.003556865949999306 0 0.0014682318460467925 0.0033153568091790222 0 0.0013912288856149895 0.0035756736584201354 0 0.0014142803708961959 0.0034413599101422725 0 0.0015157043019877214 0.003556865949999306 0 0.0015157043019877214 0.003556865949999306 0 0.0014721905810326302 0.0036048581592087593 0 0.0014694216213342497 0.0035943425269414084 0 0.0013912288856149895 0.0035756736584201354 0 0.0015157043019877214 0.003556865949999306 0 0.0014721905810326302 0.0036048581592087593 0 0.0053156955125079116 0.0019504671855919162 0 0.0051780808302188302 0.001987814941071571 0 0.0052464241026292926 0.001843955295806153 0 0.0050888879609428117 0.0019073676638255792 0 0.0051780808302188302 0.001987814941071571 0 0.0052464241026292926 0.001843955295806153 0 0.0053156955125079116 0.0019504671855919162 0 0.0051780808302188302 0.001987814941071571 0 0.0052160921621632059 0.0021124261481070545 0 0.0051214536918897727 0.0021289347991667765 0 0.0051780808302188302 0.001987814941071571 0 0.0052160921621632059 0.0021124261481070545 0 0.0049403093576127826 0.0018522435242814667 0 0.0047492361026165346 0.0021048286222867412 0 0.004604152513744208 0.0016845644387782843 0 0.0042334267324674046 0.0023053647962297664 0 0.0045855476601445334 0.0022563522937937819 0 0.004604152513744208 0.0016845644387782843 0 0.0045855476601445334 0.0022563522937937819 0 0.0048994980114834986 0.0019732989410472298 0 0.0045855476601445334 0.0022563522937937819 0 0.0048977628822302662 0.0022967449908268146 0 0.0048994980114834986 0.0019732989410472298 0 0.0048977628822302662 0.0022967449908268146 0 0.0053746461274934623 0.0022598586357937592 0 0.005196243465708429 0.0020225293000697871 0 0.0048977628822302662 0.0022967449908268146 0 0.0048994980114834986 0.0019732989410472298 0 0.005196243465708429 0.0020225293000697871 0 0.0048994980114834986 0.0019732989410472298 0 0.005196243465708429 0.0020225293000697871 0 0.0052192492918826782 0.0016853381967349087 0 0.0056808057880525491 0.0022051262120136219 0 0.0053746461274934623 0.0022598586357937592 0 0.0054823122193405124 0.0019289951825117193 0 0.0056158895026937579 0.0024685361395946565 0 0.0056808057880525491 0.0022051262120136219 0 0.0053746461274934623 0.0022598586357937592 0 0.0053746461274934623 0.0022598586357937592 0 0.005196243465708429 0.0020225293000697871 0 0.0054823122193405124 0.0019289951825117193 0 0.0054823122193405124 0.0019289951825117193 0 0.0052192492918826782 0.0016853381967349087 0 0.0054918986110521154 0.0015815286192832716 0 0.0058318528638402409 0.0018090549350778 0 0.0054823122193405124 0.0019289951825117193 0 0.0054918986110521154 0.0015815286192832716 0 0.005196243465708429 0.0020225293000697871 0 0.0054823122193405124 0.0019289951825117193 0 0.0052192492918826782 0.0016853381967349087 0 0.0052192492918826782 0.0016853381967349087 0 0.0054918986110521154 0.0015815286192832716 0 0.005278428969522549 0.0012992598743500052 0 0.004604152513744208 0.0016845644387782843 0 0.0048994980114834986 0.0019732989410472298 0 0.0052192492918826782 0.0016853381967349087 0 0.004604152513744208 0.0016845644387782843 0 0.0052192492918826782 0.0016853381967349087 0 0.005278428969522549 0.0012992598743500052 0 0.004604152513744208 0.0016845644387782843 0 0.0050399595451377311 0.0010599858309841255 0 0.005278428969522549 0.0012992598743500052 0 0.0049403093576127826 0.0018522435242814667 0 0.0053068578830870079 0.001371269127442887 0 0.0050399595451377311 0.0010599858309841255 0 0.005278428969522549 0.0012992598743500052 0 0.0052492952781940288 0.0010031626612432912 0 0.0053068578830870079 0.001371269127442887 0 0.0053026430498254494 0.0012558990685983006 0 0.0056661692927704593 0.0012240685210991289 0 0.0054918986110521154 0.0015815286192832716 0 0.005278428969522549 0.0012992598743500052 0 0.0056661692927704593 0.0012240685210991289 0 0.005278428969522549 0.0012992598743500052 0 0.0054168968097997082 0.0010574191869541475 0 0.005278428969522549 0.0012992598743500052 0 0.0054168968097997082 0.0010574191869541475 0 0.0052492952781940288 0.0010031626612432912 0 0.0056661692927704593 0.0012240685210991289 0 0.0054168968097997082 0.0010574191869541475 0 0.0054594263769025247 0.00087640112377730304 0 0.0054168968097997082 0.0010574191869541475 0 0.0053456242702329612 0.00093823795601643916 0 0.0054594263769025247 0.00087640112377730304 0 0.0054168968097997082 0.0010574191869541475 0 0.0053456242702329612 0.00093823795601643916 0 0.0052492952781940288 0.0010031626612432912 0 0.0053456242702329612 0.00093823795601643916 0 0.0054594263769025247 0.00087640112377730304 0 0.005347995600735898 0.00085891559593398957 0 0.0053046909212184183 0.00094325283816853371 0 0.0053161848905949891 0.00094352700860763554 0 0.0053374260066754711 0.00093681581574444684 0 0.0053046909212184183 0.00094325283816853371 0 0.0053161848905949891 0.00094352700860763554 0 0.005292156575022626 0.00095978238788590076 0 0.0053046909212184183 0.00094325283816853371 0 0.0052492952781940288 0.0010031626612432912 0 0.005292156575022626 0.00095978238788590076 0 0.0053456242702329612 0.00093823795601643916 0 0.0052492952781940288 0.0010031626612432912 0 0.005292156575022626 0.00095978238788590076 0 0.0053161848905949891 0.00094352700860763554 0 0.005292156575022626 0.00095978238788590076 0 0.0053158807091237261 0.00091736107203860967 0 0.0053456242702329612 0.00093823795601643916 0 0.005292156575022626 0.00095978238788590076 0 0.0053158807091237261 0.00091736107203860967 0 0.0053456242702329612 0.00093823795601643916 0 0.0053158807091237261 0.00091736107203860967 0 0.005347995600735898 0.00085891559593398957 0 0.0053158807091237261 0.00091736107203860967 0 0.0053274736771781054 0.00091278087396828411 0 0.0053315588836549653 0.00087317034669556184 0 0.0053161848905949891 0.00094352700860763554 0 0.0053158807091237261 0.00091736107203860967 0 0.0053274736771781054 0.00091278087396828411 0 0.0053161848905949891 0.00094352700860763554 0 0.0053274736771781054 0.00091278087396828411 0 0.0053374260066754711 0.00093681581574444684 0 0.0053572057191262077 0.00092486220781064069 0 0.0053374260066754711 0.00093681581574444684 0 0.0053429658303530952 0.00089513377663639625 0 0.0053274736771781054 0.00091278087396828411 0 0.0053374260066754711 0.00093681581574444684 0 0.0053429658303530952 0.00089513377663639625 0 0.0053572057191262077 0.00092486220781064069 0 0.0053374260066754711 0.00093681581574444684 0 0.005369527777322484 0.00095417249551693704 0 0.0053046909212184183 0.00094325283816853371 0 0.0053374260066754711 0.00093681581574444684 0 0.005369527777322484 0.00095417249551693704 0 0.0053156955125079116 0.0019504671855919162 0 0.0054149165295302093 0.0017796914099859485 0 0.0052464241026292926 0.001843955295806153 0 0.0053068578830870079 0.001371269127442887 0 0.0053161662090749785 0.0013991099947089141 0 0.0052363399720639758 0.001467378978825754 0 0.0053161662090749785 0.0013991099947089141 0 0.0053870863840249205 0.00099065330175386471 0 0.005369527777322484 0.00095417249551693704 0 0.005376968470101726 0.00094251680097805657 0 0.0053572057191262077 0.00092486220781064069 0 0.005369527777322484 0.00095417249551693704 0 0.005376968470101726 0.00094251680097805657 0 0.005376968470101726 0.00094251680097805657 0 0.0053736323496060027 0.00089392839275525583 0 0.005388106981857931 0.00092298668017376734 0 0.0053572057191262077 0.00092486220781064069 0 0.0053736323496060027 0.00089392839275525583 0 0.0053566377786691622 0.00086696848101392408 0 0.0053572057191262077 0.00092486220781064069 0 0.005376968470101726 0.00094251680097805657 0 0.0053736323496060027 0.00089392839275525583 0 0.0053736323496060027 0.00089392839275525583 0 0.0053705342215517558 0.00084488872710456787 0 0.0053855134289602898 0.00085359895314998885 0 0.0053736323496060027 0.00089392839275525583 0 0.0053705342215517558 0.00084488872710456787 0 0.0053566377786691622 0.00086696848101392408 0 0.0053705342215517558 0.00084488872710456787 0 0.0053573487668400147 0.00081427747491311445 0 0.0053777194176070743 0.00079606902192197069 0 0.0053705342215517558 0.00084488872710456787 0 0.0053777194176070743 0.00079606902192197069 0 0.0053855134289602898 0.00085359895314998885 0 0.0053573487668400147 0.00081427747491311445 0 0.0053435693214790511 0.00084096930053669319 0 0.0053382754773182873 0.0007804264788233181 0 0.0053705342215517558 0.00084488872710456787 0 0.0053573487668400147 0.00081427747491311445 0 0.0053566377786691622 0.00086696848101392408 0 0.0053573487668400147 0.00081427747491311445 0 0.0053566377786691622 0.00086696848101392408 0 0.0053435693214790511 0.00084096930053669319 0 0.0053572057191262077 0.00092486220781064069 0 0.0053566377786691622 0.00086696848101392408 0 0.0053429658303530952 0.00089513377663639625 0 0.0053566377786691622 0.00086696848101392408 0 0.0053429658303530952 0.00089513377663639625 0 0.0053435693214790511 0.00084096930053669319 0 0.0053274736771781054 0.00091278087396828411 0 0.0053429658303530952 0.00089513377663639625 0 0.0053315588836549653 0.00087317034669556184 0 0.0053158807091237261 0.00091736107203860967 0 0.0053315588836549653 0.00087317034669556184 0 0.005347995600735898 0.00085891559593398957 0 0.0053315588836549653 0.00087317034669556184 0 0.005347995600735898 0.00085891559593398957 0 0.0053345658857854748 0.00081917676035454692 0 0.0053315588836549653 0.00087317034669556184 0 0.0053435693214790511 0.00084096930053669319 0 0.0053345658857854748 0.00081917676035454692 0 0.0053429658303530952 0.00089513377663639625 0 0.0053315588836549653 0.00087317034669556184 0 0.0053435693214790511 0.00084096930053669319 0 0.0053715903524277787 0.00090963604343876074 0 0.0053310975878008799 0.00081393788455319332 0 0.0054594263769025247 0.00087640112377730304 0 0.005347995600735898 0.00085891559593398957 0 0.0053226136960952365 0.00080616302206462111 0 0.005347995600735898 0.00085891559593398957 0 0.0053226136960952365 0.00080616302206462111 0 0.0053345658857854748 0.00081917676035454692 0 0.0053226136960952365 0.00080616302206462111 0 0.0053172547281573803 0.00077740927935242299 0 0.0052977721880514052 0.00075768152472855538 0 0.0053226136960952365 0.00080616302206462111 0 0.0053345658857854748 0.00081917676035454692 0 0.0053172547281573803 0.00077740927935242299 0 0.0053345658857854748 0.00081917676035454692 0 0.0053382754773182873 0.0007804264788233181 0 0.0053172547281573803 0.00077740927935242299 0 0.0053435693214790511 0.00084096930053669319 0 0.0053345658857854748 0.00081917676035454692 0 0.0053382754773182873 0.0007804264788233181 0 0.0053172547281573803 0.00077740927935242299 0 0.0052906199398209813 0.00072540092301572772 0 0.0052977721880514052 0.00075768152472855538 0 0.0053382754773182873 0.0007804264788233181 0 0.0053172547281573803 0.00077740927935242299 0 0.0052906199398209813 0.00072540092301572772 0 0.0053382754773182873 0.0007804264788233181 0 0.0052906199398209813 0.00072540092301572772 0 0.0053391185040970925 0.00073087770681296883 0 0.0053391185040970925 0.00073087770681296883 0 0.0053807990327395718 0.00073852153340861601 0 0.0053600988362543381 0.00077001478380117475 0 0.0053807990327395718 0.00073852153340861601 0 0.0053919950631953198 0.00076925275833180263 0 0.0054082171655518065 0.0007372781440725569 0 0.0053807990327395718 0.00073852153340861601 0 0.0053919950631953198 0.00076925275833180263 0 0.0053777194176070743 0.00079606902192197069 0 0.0053919950631953198 0.00076925275833180263 0 0.0053777194176070743 0.00079606902192197069 0 0.0053983822924274635 0.00080407704597843877 0 0.0053777194176070743 0.00079606902192197069 0 0.0053855134289602898 0.00085359895314998885 0 0.0053983822924274635 0.00080407704597843877 0 0.0053573487668400147 0.00081427747491311445 0 0.0053777194176070743 0.00079606902192197069 0 0.0053600988362543381 0.00077001478380117475 0 0.0053807990327395718 0.00073852153340861601 0 0.0053777194176070743 0.00079606902192197069 0 0.0053600988362543381 0.00077001478380117475 0 0.0053382754773182873 0.0007804264788233181 0 0.0053391185040970925 0.00073087770681296883 0 0.0053600988362543381 0.00077001478380117475 0 0.0053573487668400147 0.00081427747491311445 0 0.0053382754773182873 0.0007804264788233181 0 0.0053600988362543381 0.00077001478380117475 0 0.0016332180058812218 0.0030422548613752982 0 0.0016206082235450375 0.0032489628476818516 0 0.0018735135217637865 0.0032276881005165576 0 0.0016332180058812218 0.0030422548613752982 0 0.0014655091489414308 0.0030598722472491677 0 0.0014236747439855381 0.002852803861994727 0 0.0047681345616497929 0.00017050824788492674 0 0.0047688031676592487 0.00031731951726274749 0 0.0046196762601315618 0.00026045830752639848 0 0.0016332180058812218 0.0030422548613752982 0 0.0015189776534370891 0.0031719900743307967 0 0.0016206082235450375 0.0032489628476818516 0 0.0016332180058812218 0.0030422548613752982 0 0.0015189776534370891 0.0031719900743307967 0 0.0014655091489414308 0.0030598722472491677 0 0.0015157043019877214 0.003556865949999306 0 0.0016206082235450375 0.0032489628476818516 0 0.0018735135217637865 0.0032276881005165576 0 0.0015157043019877214 0.003556865949999306 0 0.0016206082235450375 0.0032489628476818516 0 0.0014682318460467925 0.0033153568091790222 0 0.0015189776534370891 0.0031719900743307967 0 0.0016206082235450375 0.0032489628476818516 0 0.0014682318460467925 0.0033153568091790222 0 0.0015189776534370891 0.0031719900743307967 0 0.0014682318460467925 0.0033153568091790222 0 0.0014086539466783927 0.0031893987857020516 0 0.0014142803708961959 0.0034413599101422725 0 0.0014682318460467925 0.0033153568091790222 0 0.0012683134747295745 0.0032968624024999455 0 0.0014682318460467925 0.0033153568091790222 0 0.0014086539466783927 0.0031893987857020516 0 0.0012683134747295745 0.0032968624024999455 0 0.0014086539466783927 0.0031893987857020516 0 0.0013327809183638678 0.0030726314133958034 0 0.0012683134747295745 0.0032968624024999455 0 0.0031808316740833216 0.0019708033238674603 0 0.0038186182545493176 0.001721199263306858 0 0.0014086539466783927 0.0031893987857020516 0 0.0014655091489414308 0.0030598722472491677 0 0.0013327809183638678 0.0030726314133958034 0 0.0015189776534370891 0.0031719900743307967 0 0.0014086539466783927 0.0031893987857020516 0 0.0014655091489414308 0.0030598722472491677 0 0.0014655091489414308 0.0030598722472491677 0 0.0013327809183638678 0.0030726314133958034 0 0.0014236747439855381 0.002852803861994727 0 0.0031808316740833216 0.0019708033238674603 0 0.0033771079234179643 0.0012896511850208887 0 0.0038186182545493176 0.001721199263306858 0 0.0053410336312879961 0.00051408979882673568 0 0.0051015477818833451 0.00059970015352947331 0 0.0050806386181792389 0.00062764027126891841 0 0.0051206839059257121 0.0005848456293188548 0 0.0053781645000927089 0.00084313521266771976 0 0.0053225599466793661 0.00081266556854443198 0 0.0053321405657920122 0.00076330325600826169 0 0.0051015477818833451 0.00059970015352947331 0 0.0051206839059257121 0.0005848456293188548 0 0.0050949682887447625 0.00059713355624094644 0 0.0053781645000927089 0.00084313521266771976 0 0.0053319562603544217 0.00087624686992049676 0 0.0053225599466793661 0.00081266556854443198 0 0.0052718872593255734 0.0008828990626516402 0 0.0053226136960952365 0.00080616302206462111 0 0.0053225599466793661 0.00081266556854443198 0 0.0052718872593255734 0.0008828990626516402 0 0.0053319562603544217 0.00087624686992049676 0 0.0053225599466793661 0.00081266556854443198 0 0.0053225599466793661 0.00081266556854443198 0 0.0052977721880514052 0.00075768152472855538 0 0.0053321405657920122 0.00076330325600826169 0 0.0053226136960952365 0.00080616302206462111 0 0.0053225599466793661 0.00081266556854443198 0 0.0052977721880514052 0.00075768152472855538 0 0.0052977721880514052 0.00075768152472855538 0 0.0052246925207588097 0.00069643660296535563 0 0.0053321405657920122 0.00076330325600826169 0 0.0052906199398209813 0.00072540092301572772 0 0.0052246925207588097 0.00069643660296535563 0 0.0052028157767225166 0.00071230978600128278 0 0.0052906199398209813 0.00072540092301572772 0 0.0052977721880514052 0.00075768152472855538 0 0.0052246925207588097 0.00069643660296535563 0 0.0052246925207588097 0.00069643660296535563 0 0.0051183780023621095 0.000654709497750659 0 0.0051262182483724919 0.00071782383520731111 0 0.0052246925207588097 0.00069643660296535563 0 0.0051231164198523764 0.00062204263578954477 0 0.0051183780023621095 0.000654709497750659 0 0.0052141151771506839 0.00076377653553517781 0 0.0053410336312879961 0.00051408979882673568 0 0.0052246925207588097 0.00069643660296535563 0 0.0051231164198523764 0.00062204263578954477 0 0.0051206839059257121 0.0005848456293188548 0 0.0051231164198523764 0.00062204263578954477 0 0.0051206839059257121 0.0005848456293188548 0 0.0050949682887447625 0.00059713355624094644 0 0.0051231164198523764 0.00062204263578954477 0 0.0050949682887447625 0.00059713355624094644 0 0.0050932044203507391 0.00060980757479171495 0 0.0051015477818833451 0.00059970015352947331 0 0.0050949682887447625 0.00059713355624094644 0 0.0050751258622865657 0.00059876932958751394 0 0.0050949682887447625 0.00059713355624094644 0 0.0050751258622865657 0.00059876932958751394 0 0.0050932044203507391 0.00060980757479171495 0 0.0050751258622865657 0.00059876932958751394 0 0.0050790811972136847 0.00062316168268331256 0 0.0050239491783690251 0.0006096701434964017 0 0.0050870709255469359 0.00042027803994520399 0 0.0050239491783690251 0.0006096701434964017 0 0.0049508293213215045 0.00050230005686889947 0 0.0033771079234179643 0.0012896511850208887 0 0.0046297487135526826 0.00027822801251295106 0 0.0050790811972136847 0.00062316168268331256 0 0.0050932044203507391 0.00060980757479171495 0 0.0051183780023621095 0.000654709497750659 0 0.0051231164198523764 0.00062204263578954477 0 0.0050932044203507391 0.00060980757479171495 0 0.0051183780023621095 0.000654709497750659 0 0.0050751258622865657 0.00059876932958751394 0 0.0050790811972136847 0.00062316168268331256 0 0.0050932044203507391 0.00060980757479171495 0 0.0050790811972136847 0.00062316168268331256 0 0.0051183780023621095 0.000654709497750659 0 0.0050835737519988947 0.00067981996720599619 0 0.0050835737519988947 0.00067981996720599619 0 0.0050462712503008267 0.00074436593442271269 0 0.0051262182483724919 0.00071782383520731111 0 0.0051183780023621095 0.000654709497750659 0 0.0050835737519988947 0.00067981996720599619 0 0.0051262182483724919 0.00071782383520731111 0 0.0050835737519988947 0.00067981996720599619 0 0.0050462712503008267 0.00074436593442271269 0 0.0050239491783690251 0.0006096701434964017 0 0.0050790811972136847 0.00062316168268331256 0 0.0050835737519988947 0.00067981996720599619 0 0.0050239491783690251 0.0006096701434964017 0 0.0050462712503008267 0.00074436593442271269 0 0.0050239491783690251 0.0006096701434964017 0 0.004777945390739626 0.00064654330276043312 0 0.0050239491783690251 0.0006096701434964017 0 0.004777945390739626 0.00064654330276043312 0 0.0048540476087221684 0.00053384508028661603 0 0.0050462712503008267 0.00074436593442271269 0 0.004777945390739626 0.00064654330276043312 0 0.0046479991801266322 0.00092764662636427876 0 0.004777945390739626 0.00064654330276043312 0 0.0046773445840849861 0.00044994382723910546 0 0.0048540476087221684 0.00053384508028661603 0 0.0032472465229494846 0.0016070606267650272 0 0.0033771079234179643 0.0012896511850208887 0 0.0047681345616497929 0.00017050824788492674 0 0.0050870709255469359 0.00042027803994520399 0 0.0047688031676592487 0.00031731951726274749 0 0.0050870709255469359 0.00042027803994520399 0 0.0048418486442814322 0.00042620187377670628 0 0.0047688031676592487 0.00031731951726274749 0 0.0046773445840849861 0.00044994382723910546 0 0.0048540476087221684 0.00053384508028661603 0 0.0048418486442814322 0.00042620187377670628 0 0.0050870709255469359 0.00042027803994520399 0 0.0049508293213215045 0.00050230005686889947 0 0.0048418486442814322 0.00042620187377670628 0 0.0050239491783690251 0.0006096701434964017 0 0.0048540476087221684 0.00053384508028661603 0 0.0049508293213215045 0.00050230005686889947 0 0.0048540476087221684 0.00053384508028661603 0 0.0049508293213215045 0.00050230005686889947 0 0.0048418486442814322 0.00042620187377670628 0 0.0046773445840849861 0.00044994382723910546 0 0.0047688031676592487 0.00031731951726274749 0 0.0046196762601315618 0.00026045830752639848 0 0.0046773445840849861 0.00044994382723910546 0 0.0048418486442814322 0.00042620187377670628 0 0.0047688031676592487 0.00031731951726274749 0 0.0050709029901220325 0.0007112189613823045 0 0.0050723607257080906 0.00071716732371053451 0 0.0050712920333887716 0.0007133914685651891 0 0.0050709029901220325 0.0007112189613823045 0 0.0050723607257080906 0.00071716732371053451 0 0.005082754260488289 0.00071336807257556419 0 0.0050462712503008267 0.00074436593442271269 0 0.0050723607257080906 0.00071716732371053451 0 0.0050700872692148293 0.00072077725651428759 0 0.0049610184374963744 0.00077363161776239917 0 0.005036393110402858 0.00079972284754441648 0 0.0050723607257080906 0.00071716732371053451 0 0.0050700872692148293 0.00072077725651428759 0 0.0050712920333887716 0.0007133914685651891 0 0.0050834988999902773 0.00072659744072002227 0 0.005121683404733241 0.000720038100200259 0 0.0051262182483724919 0.00071782383520731111 0 0.0050462712503008267 0.00074436593442271269 0 0.0050723607257080906 0.00071716732371053451 0 0.0050834988999902773 0.00072659744072002227 0 0.0050462712503008267 0.00074436593442271269 0 0.0050834988999902773 0.00072659744072002227 0 0.0051262182483724919 0.00071782383520731111 0 0.005082754260488289 0.00071336807257556419 0 0.005121683404733241 0.000720038100200259 0 0.005105070067525092 0.0007034929038100638 0 0.0050834988999902773 0.00072659744072002227 0 0.005082754260488289 0.00071336807257556419 0 0.005121683404733241 0.000720038100200259 0 0.0050723607257080906 0.00071716732371053451 0 0.0050834988999902773 0.00072659744072002227 0 0.005082754260488289 0.00071336807257556419 0 0.005121683404733241 0.000720038100200259 0 0.0051581284700450893 0.00070784766008313512 0 0.005105070067525092 0.0007034929038100638 0 0.005121683404733241 0.000720038100200259 0 0.0052028157767225166 0.00071230978600128278 0 0.0051581284700450893 0.00070784766008313512 0 0.005121683404733241 0.000720038100200259 0 0.0051262182483724919 0.00071782383520731111 0 0.0052028157767225166 0.00071230978600128278 0 0.0052246925207588097 0.00069643660296535563 0 0.0051262182483724919 0.00071782383520731111 0 0.0052028157767225166 0.00071230978600128278 0 0.0052906199398209813 0.00072540092301572772 0 0.0052028157767225166 0.00071230978600128278 0 0.0052378750155252802 0.00071067251951362795 0 0.0052028157767225166 0.00071230978600128278 0 0.0051581284700450893 0.00070784766008313512 0 0.0052378750155252802 0.00071067251951362795 0 0.0051581284700450893 0.00070784766008313512 0 0.0051127495617478086 0.00067644895006174711 0 0.0052622528526735978 0.00075742234396945632 0 0.0051278536786342095 0.00066605019364534212 0 0.0051746629346417676 0.00059951657984385904 0 0.0050552230227830569 0.00054769385375235844 0 0.0051127495617478086 0.00067644895006174711 0 0.0050591955564065986 0.00044480352838886778 0 0.0050552230227830569 0.00054769385375235844 0 0.0051136093510207141 0.00060064808319088784 0 0.0051127495617478086 0.00067644895006174711 0 0.0051136093510207141 0.00060064808319088784 0 0.0051127495617478086 0.00067644895006174711 0 0.005105070067525092 0.0007034929038100638 0 0.0051581284700450893 0.00070784766008313512 0 0.0051127495617478086 0.00067644895006174711 0 0.005105070067525092 0.0007034929038100638 0 0.0051136093510207141 0.00060064808319088784 0 0.005105070067525092 0.0007034929038100638 0 0.0050574527703685966 0.00070716890333319621 0 0.005082754260488289 0.00071336807257556419 0 0.005105070067525092 0.0007034929038100638 0 0.0050574527703685966 0.00070716890333319621 0 0.0050709029901220325 0.0007112189613823045 0 0.005082754260488289 0.00071336807257556419 0 0.0050574527703685966 0.00070716890333319621 0 0.0050574527703685966 0.00070716890333319621 0 0.0049599917860951477 0.00061457292377206131 0 0.0050822784779436959 0.00067074421061954809 0 0.0049599917860951477 0.00061457292377206131 0 0.0050822784779436959 0.00067074421061954809 0 0.0048849436744645269 0.00050692651163060343 0 0.0047530433790452381 0.00055703066682842963 0 0.0049599917860951477 0.00061457292377206131 0 0.0048849436744645269 0.00050692651163060343 0 0.0049301528874597144 0.00057550708314049303 0 0.0050420917871466372 0.00069164664314581988 0 0.0043105749186466858 8.2003147438043308e-05 0 0.0043711973436810015 0.0001759247894527781 0 0.0047530433790452381 0.00055703066682842963 0 0.0050574527703685966 0.00070716890333319621 0 0.0049599917860951477 0.00061457292377206131 0 0.00353782008773531 -0.00054793032604330018 0 0.0038580656999986467 -0.00015979607364482166 0 0.0034925476577047942 -0.00020034960899975113 0 0.00353782008773531 -0.00054793032604330018 0 0.003335610281882589 -0.00034698928556238171 0 0.0034925476577047942 -0.00020034960899975113 0 0.00353782008773531 -0.00054793032604330018 0 0.0032431754012286389 -0.00056628697493246749 0 0.003335610281882589 -0.00034698928556238171 0 0.0050709029901220325 0.0007112189613823045 0 0.0050822784779436959 0.00067074421061954809 0 0.0050712920333887716 0.0007133914685651891 0 0.0050709029901220325 0.0007112189613823045 0 0.0050574527703685966 0.00070716890333319621 0 0.0050822784779436959 0.00067074421061954809 0 0.0043105749186466858 8.2003147438043308e-05 0 0.0041529842004048448 -0.00022993220662093452 0 0.0053623874871817096 0.00070734809294791185 0 0.0054029599187755198 0.00068718240134377575 0 0.0054050210690584095 0.00069659952394504187 0 0.0053807990327395718 0.00073852153340861601 0 0.0054050210690584095 0.00069659952394504187 0 0.0054082171655518065 0.0007372781440725569 0 0.0053807990327395718 0.00073852153340861601 0 0.0053623874871817096 0.00070734809294791185 0 0.0054050210690584095 0.00069659952394504187 0 0.0053391185040970925 0.00073087770681296883 0 0.0053807990327395718 0.00073852153340861601 0 0.0053623874871817096 0.00070734809294791185 0 0.0052906199398209813 0.00072540092301572772 0 0.0053391185040970925 0.00073087770681296883 0 0.0053072355669144672 0.0007141730667899126 0 0.0053391185040970925 0.00073087770681296883 0 0.0053623874871817096 0.00070734809294791185 0 0.0053072355669144672 0.0007141730667899126 0 0.0052906199398209813 0.00072540092301572772 0 0.0052378750155252802 0.00071067251951362795 0 0.0053072355669144672 0.0007141730667899126 0 0.0051581284700450893 0.00070784766008313512 0 0.0052378750155252802 0.00071067251951362795 0 0.0052622528526735978 0.00075742234396945632 0 0.0052378750155252802 0.00071067251951362795 0 0.0053072355669144672 0.0007141730667899126 0 0.0052622528526735978 0.00075742234396945632 0 0.0053072355669144672 0.0007141730667899126 0 0.0053216753253430516 0.00073024356206146724 0 0.0052622528526735978 0.00075742234396945632 0 0.0053623874871817096 0.00070734809294791185 0 0.0053072355669144672 0.0007141730667899126 0 0.0053216753253430516 0.00073024356206146724 0 0.0053216753253430516 0.00073024356206146724 0 0.0052622528526735978 0.00075742234396945632 0 0.0053670440144484386 0.00073617947160181478 0 0.0051746629346417676 0.00059951657984385904 0 0.0053456307212433321 0.00049148951584541793 0 0.0050552230227830569 0.00054769385375235844 0 0.0050591955564065986 0.00044480352838886778 0 0.0050656625667044024 0.00050555527351072989 0 0.0050591955564065986 0.00044480352838886778 0 0.0051763896516583132 0.0004231396770942162 0 0.0053149676466154672 0.00023975020971323389 0 0.0050591955564065986 0.00044480352838886778 0 0.0051763896516583132 0.0004231396770942162 0 0.0050656625667044024 0.00050555527351072989 0 0.0051763896516583132 0.0004231396770942162 0 0.0053149676466154672 0.00023975020971323389 0 0.0053219234010529037 0.00041000929521182371 0 0.0053149676466154672 0.00023975020971323389 0 0.0054401676163423687 0.00028037925429996691 0 0.0053219234010529037 0.00041000929521182371 0 0.0053623874871817096 0.00070734809294791185 0 0.0054029599187755198 0.00068718240134377575 0 0.0053670440144484386 0.00073617947160181478 0 0.0053623874871817096 0.00070734809294791185 0 0.0053216753253430516 0.00073024356206146724 0 0.0053670440144484386 0.00073617947160181478 0 0.0053456307212433321 0.00049148951584541793 0 0.0055298445833741562 0.00041833152683114075 0 0.0054029599187755198 0.00068718240134377575 0 0.0053670440144484386 0.00073617947160181478 0 0.0054291020307769009 0.00065071357346798005 0 0.0053149676466154672 0.00023975020971323389 0 0.0054401676163423687 0.00028037925429996691 0 0.0056487723135592652 0.00018415730226976231 0 0.0055864817778153199 0.00023685215156724193 0 0.0054401676163423687 0.00028037925429996691 0 0.0056487723135592652 0.00018415730226976231 0 0.0054401676163423687 0.00028037925429996691 0 0.005432097374847753 0.00037498707979581987 0 0.005499803266147075 0.00029360250774876178 0 0.0054401676163423687 0.00028037925429996691 0 0.005432097374847753 0.00037498707979581987 0 0.0053219234010529037 0.00041000929521182371 0 0.005432097374847753 0.00037498707979581987 0 0.005499803266147075 0.00029360250774876178 0 0.0054984651794054559 0.00033912367991817508 0 0.005432097374847753 0.00037498707979581987 0 0.0054984651794054559 0.00033912367991817508 0 0.005485304058311608 0.00038061190045860367 0 0.0055864817778153199 0.00023685215156724193 0 0.0054401676163423687 0.00028037925429996691 0 0.005499803266147075 0.00029360250774876178 0 0.0055864817778153199 0.00023685215156724193 0 0.005551078380782201 0.00028328070208271538 0 0.0055938270702665703 0.00024666351273101655 0 0.0055864817778153199 0.00023685215156724193 0 0.005499803266147075 0.00029360250774876178 0 0.005551078380782201 0.00028328070208271538 0 0.005499803266147075 0.00029360250774876178 0 0.005551078380782201 0.00028328070208271538 0 0.0054984651794054559 0.00033912367991817508 0 0.005551078380782201 0.00028328070208271538 0 0.0054984651794054559 0.00033912367991817508 0 0.0055401346884270493 0.00035174309199486849 0 0.0055414427113365528 0.0002166760381555031 0 0.0055393628427601264 0.00020941988030038158 0 0.0054984651794054559 0.00033912367991817508 0 0.0055401346884270493 0.00035174309199486849 0 0.005485304058311608 0.00038061190045860367 0 0.0056124301933114292 0.00023496235715640899 0 0.005610945661562671 0.00022131241141879577 0 0.005632802376585676 0.00018274084823180153 0 0.005551078380782201 0.00028328070208271538 0 0.0056124301933114292 0.00023496235715640899 0 0.0055938270702665703 0.00024666351273101655 0 0.0056124301933114292 0.00023496235715640899 0 0.0055938270702665703 0.00024666351273101655 0 0.005610945661562671 0.00022131241141879577 0 0.005610945661562671 0.00022131241141879577 0 0.0056102488473172042 0.00022167043949375883 0 0.005632802376585676 0.00018274084823180153 0 0.0056288631685713249 0.00019575960836412643 0 0.0056487723135592652 0.00018415730226976231 0 0.0056333707038511843 0.00015019827531280116 0 0.0056102488473172042 0.00022167043949375883 0 0.0056288631685713249 0.00019575960836412643 0 0.005632802376585676 0.00018274084823180153 0 0.0055938270702665703 0.00024666351273101655 0 0.005610945661562671 0.00022131241141879577 0 0.0056102488473172042 0.00022167043949375883 0 0.0055864817778153199 0.00023685215156724193 0 0.0055938270702665703 0.00024666351273101655 0 0.0056102488473172042 0.00022167043949375883 0 0.0055864817778153199 0.00023685215156724193 0 0.0056102488473172042 0.00022167043949375883 0 0.0056288631685713249 0.00019575960836412643 0 0.0055864817778153199 0.00023685215156724193 0 0.0056288631685713249 0.00019575960836412643 0 0.0056487723135592652 0.00018415730226976231 0 0.0056487723135592652 0.00018415730226976231 0 0.0055849586711791089 0.00021165620317468433 0 0.0056333707038511843 0.00015019827531280116 0 0.0055849586711791089 0.00021165620317468433 0 0.0056333707038511843 0.00015019827531280116 0 0.005579595065195158 0.00011107816922192728 0 0.0055298445833741562 0.00041833152683114075 0 0.0054969653200498082 0.00035423907058239009 0 0.0054291020307769009 0.00065071357346798005 0 0.0054320205140551414 0.00062164920284194772 0 0.0054355830608135754 0.00050128236000819408 0 0.0054029599187755198 0.00068718240134377575 0 0.0054291020307769009 0.00065071357346798005 0 0.0054201119260501637 0.00066344211040750072 0 0.0054291020307769009 0.00065071357346798005 0 0.0054201119260501637 0.00066344211040750072 0 0.0054320205140551414 0.00062164920284194772 0 0.0054029599187755198 0.00068718240134377575 0 0.0054050210690584095 0.00069659952394504187 0 0.0054201119260501637 0.00066344211040750072 0 0.0054201119260501637 0.00066344211040750072 0 0.0054320205140551414 0.00062164920284194772 0 0.00541970471607692 0.00068436066254298907 0 0.0054050210690584095 0.00069659952394504187 0 0.0054201119260501637 0.00066344211040750072 0 0.00541970471607692 0.00068436066254298907 0 0.0054320205140551414 0.00062164920284194772 0 0.0054161611403599104 0.00070335266470208577 0 0.00541970471607692 0.00068436066254298907 0 0.0054161611403599104 0.00070335266470208577 0 0.00541970471607692 0.00068436066254298907 0 0.0054082171655518065 0.0007372781440725569 0 0.0054050210690584095 0.00069659952394504187 0 0.00541970471607692 0.00068436066254298907 0 0.0054082171655518065 0.0007372781440725569 0 0.0054120693704876243 0.00059657122160802301 0 0.0053959408358919556 0.00074207265958647678 0 0.0053563365314223529 0.00069828803851735329 0 0.0054120693704876243 0.00059657122160802301 0 0.0053267530055191364 0.00052714704540917084 0 0.0053563365314223529 0.00069828803851735329 0 0.0054161611403599104 0.00070335266470208577 0 0.0054120693704876243 0.00059657122160802301 0 0.0053959408358919556 0.00074207265958647678 0 0.0054320205140551414 0.00062164920284194772 0 0.0054120693704876243 0.00059657122160802301 0 0.0054355830608135754 0.00050128236000819408 0 0.0054320205140551414 0.00062164920284194772 0 0.0054161611403599104 0.00070335266470208577 0 0.0054120693704876243 0.00059657122160802301 0 0.0054120693704876243 0.00059657122160802301 0 0.0053829519732770887 0.00028962722449504916 0 0.0053267530055191364 0.00052714704540917084 0 0.0054120693704876243 0.00059657122160802301 0 0.0054355830608135754 0.00050128236000819408 0 0.0053829519732770887 0.00028962722449504916 0 0.0055849586711791089 0.00021165620317468433 0 0.005579595065195158 0.00011107816922192728 0 0.0055023367592045057 9.8999148168604507e-05 0 0.0054969653200498082 0.00035423907058239009 0 0.0053755168842455174 0.00029883758729983272 0 0.0055849586711791089 0.00021165620317468433 0 0.0053829519732770887 0.00028962722449504916 0 0.0055023367592045057 9.8999148168604507e-05 0 0.0052716658564868129 0.00034331165441235374 0 0.0051405903349274681 0.00027701329328140247 0 0.0052233895853313166 -1.7556419030100715e-06 0 0.0053829519732770887 0.00028962722449504916 0 0.0052716658564868129 0.00034331165441235374 0 0.0052233895853313166 -1.7556419030100715e-06 0 0.0052716658564868129 0.00034331165441235374 0 0.0051405903349274681 0.00027701329328140247 0 0.00522647479329417 0.00050022645512802868 0 0.0053829519732770887 0.00028962722449504916 0 0.0052716658564868129 0.00034331165441235374 0 0.0053267530055191364 0.00052714704540917084 0 0.0049999505689725561 1.8987195569838122e-05 0 0.0051405903349274681 0.00027701329328140247 0 0.0052233895853313166 -1.7556419030100715e-06 0 0.0049999505689725561 1.8987195569838122e-05 0 0.0051405903349274681 0.00027701329328140247 0 0.0049999582137929301 0.00029874704596999016 0 0.0051405903349274681 0.00027701329328140247 0 0.0049999582137929301 0.00029874704596999016 0 0.0051061210891231064 0.00045957051988876498 0 0.0049999582137929301 0.00029874704596999016 0 0.0051061210891231064 0.00045957051988876498 0 0.0049999543514145763 0.0005784888787673261 0 0.0051405903349274681 0.00027701329328140247 0 0.0051061210891231064 0.00045957051988876498 0 0.00522647479329417 0.00050022645512802868 0 0.0051061210891231064 0.00045957051988876498 0 0.0051473410489271745 0.00064098277561139272 0 0.00522647479329417 0.00050022645512802868 0 0.0051061210891231064 0.00045957051988876498 0 0.0051473410489271745 0.00064098277561139272 0 0.0049999543514145763 0.0005784888787673261 0 0.0052716658564868129 0.00034331165441235374 0 0.0053267530055191364 0.00052714704540917084 0 0.00522647479329417 0.00050022645512802868 0 0.0051473410489271745 0.00064098277561139272 0 0.00522647479329417 0.00050022645512802868 0 0.0052720607797269309 0.00066116573500127828 0 0.0053267530055191364 0.00052714704540917084 0 0.00522647479329417 0.00050022645512802868 0 0.0052720607797269309 0.00066116573500127828 0 0.0053267530055191364 0.00052714704540917084 0 0.0052720607797269309 0.00066116573500127828 0 0.0053563365314223529 0.00069828803851735329 0 0.0052720607797269309 0.00066116573500127828 0 0.0053091681649133828 0.00079256170045095495 0 0.0053563365314223529 0.00069828803851735329 0 0.0051473410489271745 0.00064098277561139272 0 0.0052720607797269309 0.00066116573500127828 0 0.0052263298053896977 0.00080329405751577716 0 0.0052720607797269309 0.00066116573500127828 0 0.0052263298053896977 0.00080329405751577716 0 0.0053091681649133828 0.00079256170045095495 0 0.0052263298053896977 0.00080329405751577716 0 0.0051486695277207202 0.00098341138722617691 0 0.0052602605645944876 0.00093182965800523798 0 0.0052263298053896977 0.00080329405751577716 0 0.0053091681649133828 0.00079256170045095495 0 0.0052602605645944876 0.00093182965800523798 0 0.0053091681649133828 0.00079256170045095495 0 0.005329217456336406 0.00090177343179917641 0 0.0053643075479425529 0.00081686851715461557 0 0.0053091681649133828 0.00079256170045095495 0 0.005329217456336406 0.00090177343179917641 0 0.0052602605645944876 0.00093182965800523798 0 0.0052263298053896977 0.00080329405751577716 0 0.004999975881537097 0.00085820418569391294 0 0.0051486695277207202 0.00098341138722617691 0 0.0051473410489271745 0.00064098277561139272 0 0.0052263298053896977 0.00080329405751577716 0 0.004999975881537097 0.00085820418569391294 0 0.0051473410489271745 0.00064098277561139272 0 0.0049999543514145763 0.0005784888787673261 0 0.004999975881537097 0.00085820418569391294 0 0.004999975881537097 0.00085820418569391294 0 0.0051486695277207202 0.00098341138722617691 0 0.0049999671861236453 0.0011379252638021521 0 0.0051486695277207202 0.00098341138722617691 0 0.0051236994597484839 0.0011734336795551472 0 0.0052465942047055436 0.0010801862813290626 0 0.0051486695277207202 0.00098341138722617691 0 0.0051236994597484839 0.0011734336795551472 0 0.0049999671861236453 0.0011379252638021521 0 0.005329217456336406 0.00090177343179917641 0 0.0052602605645944876 0.00093182965800523798 0 0.0053372356370933001 0.0010447466312837089 0 0.0051486695277207202 0.00098341138722617691 0 0.0052602605645944876 0.00093182965800523798 0 0.0052465942047055436 0.0010801862813290626 0 0.0052602605645944876 0.00093182965800523798 0 0.0052465942047055436 0.0010801862813290626 0 0.0053372356370933001 0.0010447466312837089 0 0.0053138343152311389 0.0011880153855687295 0 0.0052465942047055436 0.0010801862813290626 0 0.0053372356370933001 0.0010447466312837089 0 0.0053372356370933001 0.0010447466312837089 0 0.0053688461853959434 0.00091536286172814682 0 0.0053732472818233757 0.00098759916245451905 0 0.0053687882801766859 0.0010678058864045416 0 0.0053372356370933001 0.0010447466312837089 0 0.0053732472818233757 0.00098759916245451905 0 0.005329217456336406 0.00090177343179917641 0 0.0053372356370933001 0.0010447466312837089 0 0.0053688461853959434 0.00091536286172814682 0 0.005329217456336406 0.00090177343179917641 0 0.0053688461853959434 0.00091536286172814682 0 0.0053643075479425529 0.00081686851715461557 0 0.0053688461853959434 0.00091536286172814682 0 0.0053732472818233757 0.00098759916245451905 0 0.0053897483801382514 0.00091800745293715695 0 0.0053688461853959434 0.00091536286172814682 0 0.0053897483801382514 0.00091800745293715695 0 0.0053915423700614806 0.00084412413647368112 0 0.0053732472818233757 0.00098759916245451905 0 0.0053856080339458713 0.00098084997812134173 0 0.0053897483801382514 0.00091800745293715695 0 0.0053687882801766859 0.0010678058864045416 0 0.0053732472818233757 0.00098759916245451905 0 0.0053856080339458713 0.00098084997812134173 0 0.0053856080339458713 0.00098084997812134173 0 0.005388106981857931 0.00092298668017376734 0 0.0053897483801382514 0.00091800745293715695 0 0.0053736323496060027 0.00089392839275525583 0 0.005388106981857931 0.00092298668017376734 0 0.0053855134289602898 0.00085359895314998885 0 0.0053855134289602898 0.00085359895314998885 0 0.005395681293960535 0.00086196880067016348 0 0.0053983822924274635 0.00080407704597843877 0 0.005388106981857931 0.00092298668017376734 0 0.0053855134289602898 0.00085359895314998885 0 0.005395681293960535 0.00086196880067016348 0 0.005395681293960535 0.00086196880067016348 0 0.0053897483801382514 0.00091800745293715695 0 0.0053915423700614806 0.00084412413647368112 0 0.005388106981857931 0.00092298668017376734 0 0.005395681293960535 0.00086196880067016348 0 0.0053897483801382514 0.00091800745293715695 0 0.005395681293960535 0.00086196880067016348 0 0.0054050938796090164 0.00078407813778345761 0 0.0053915423700614806 0.00084412413647368112 0 0.005395681293960535 0.00086196880067016348 0 0.0054050938796090164 0.00078407813778345761 0 0.0053983822924274635 0.00080407704597843877 0 0.0053919950631953198 0.00076925275833180263 0 0.0053983822924274635 0.00080407704597843877 0 0.0054082171655518065 0.0007372781440725569 0 0.0054050938796090164 0.00078407813778345761 0 0.0053983822924274635 0.00080407704597843877 0 0.0054082171655518065 0.0007372781440725569 0 0.0054161611403599104 0.00070335266470208577 0 0.0054050938796090164 0.00078407813778345761 0 0.0054082171655518065 0.0007372781440725569 0 0.0054161611403599104 0.00070335266470208577 0 0.0054050938796090164 0.00078407813778345761 0 0.0053959408358919556 0.00074207265958647678 0 0.0053091681649133828 0.00079256170045095495 0 0.0053563365314223529 0.00069828803851735329 0 0.0053643075479425529 0.00081686851715461557 0 0.0053959408358919556 0.00074207265958647678 0 0.0053563365314223529 0.00069828803851735329 0 0.0053643075479425529 0.00081686851715461557 0 0.0053959408358919556 0.00074207265958647678 0 0.0053643075479425529 0.00081686851715461557 0 0.0053915423700614806 0.00084412413647368112 0 0.0053688461853959434 0.00091536286172814682 0 0.0053643075479425529 0.00081686851715461557 0 0.0053915423700614806 0.00084412413647368112 0 0.0054050938796090164 0.00078407813778345761 0 0.0053959408358919556 0.00074207265958647678 0 0.0053915423700614806 0.00084412413647368112 0 0.001025951005305689 0.0015934733884952147 0 0.0011078303424612614 0.0016046814338314978 0 0.0010718006322475973 0.0015089901770958644 0 0.001025951005305689 0.0015934733884952147 0 0.0010448582584061303 0.001643592199087027 0 0.0010108441653319128 0.0016451431858391294 0 0.00080287122053645686 0.0022585588191851016 0 0.00046074145611250456 0.0019072261593054919 0 0.001025951005305689 0.0015934733884952147 0 0.0010448582584061303 0.001643592199087027 0 0.0011078303424612614 0.0016046814338314978 0 0.0010448582584061303 0.001643592199087027 0 0.0011078303424612614 0.0016046814338314978 0 0.0010691703462475553 0.0016695187502396701 0 0.0011078303424612614 0.0016046814338314978 0 0.0012022615077048795 0.0016719984035365773 0 0.0010691703462475553 0.0016695187502396701 0 0.0011078303424612614 0.0016046814338314978 0 0.0012022615077048795 0.0016719984035365773 0 0.0012381769022385774 0.001597078644131944 0 0.0011078303424612614 0.0016046814338314978 0 0.0011941373865238772 0.0015349507251101631 0 0.0012381769022385774 0.001597078644131944 0 0.0011078303424612614 0.0016046814338314978 0 0.0011941373865238772 0.0015349507251101631 0 0.0010718006322475973 0.0015089901770958644 0 0.0011941373865238772 0.0015349507251101631 0 0.0011854751731432676 0.0014648116146851059 0 0.0010718006322475973 0.0015089901770958644 0 0.0011941373865238772 0.0015349507251101631 0 0.0011854751731432676 0.0014648116146851059 0 0.0012590861143744227 0.0014891534242566747 0 0.0011854751731432676 0.0014648116146851059 0 0.0012500240186893588 0.001435346915382187 0 0.0012063516102336148 0.001394602345421701 0 0.00039772413621332319 0.0030214443368670948 0 0.00041635286860515806 0.0029347377697728221 0 0.00033595567086954403 0.0030473604705223123 0 0.0011854751731432676 0.0014648116146851059 0 0.0010718006322475973 0.0015089901770958644 0 0.0011406116669660164 0.0014125656489246551 0 0.0007185353881044653 0.0021457013590661799 0 0.0009806318907285309 0.002657280024343229 0 0.00039772413621332319 0.0030214443368670948 0 0.00041635286860515806 0.0029347377697728221 0 0.00047978092248738213 0.0030010750706905712 0 0.00049163073995314602 0.0028279390372998228 0 0.00047978092248738213 0.0030010750706905712 0 0.00059149706130911042 0.0029806931988554182 0 0.00049163073995314602 0.0028279390372998228 0 0.00041635286860515806 0.0029347377697728221 0 0.00047978092248738213 0.0030010750706905712 0 0.00080287122053645686 0.0022585588191851016 0 0.0007185353881044653 0.0021457013590661799 0 0.00047978092248738213 0.0030010750706905712 0 0.00059149706130911042 0.0029806931988554182 0 0.00051267691734143328 0.0030984873055307418 0 0.00059149706130911042 0.0029806931988554182 0 0.00071157619273900987 0.0029357197789948485 0 0.00064617250420802199 0.0028254493032149977 0 0.00049163073995314602 0.0028279390372998228 0 0.00059149706130911042 0.0029806931988554182 0 0.00064617250420802199 0.0028254493032149977 0 0.00059149706130911042 0.0029806931988554182 0 0.00071157619273900987 0.0029357197789948485 0 0.00069134120998474427 0.0030507569001505227 0 0.0006024094543882829 0.002806740728180403 0 0.00052280570891874434 0.0025880017540708899 0 0.00044416579088906149 0.0025667296474212935 0 0.00033787549095926219 0.0022502751180014527 0 0.00051940712703532426 0.0023122283150267342 0 0.00074473020701750056 0.0030364727566620829 0 0.00071157619273900987 0.0029357197789948485 0 0.00069134120998474427 0.0030507569001505227 0 0.00033787549095926219 0.0022502751180014527 0 0.00051940712703532426 0.0023122283150267342 0 0.0004617785993886259 0.0020571374207967634 0 0.00051940712703532426 0.0023122283150267342 0 0.0004617785993886259 0.0020571374207967634 0 0.00064454596145676224 0.0021418109770034799 0 0.00033787549095926219 0.0022502751180014527 0 0.0004617785993886259 0.0020571374207967634 0 0.00023546255836379701 0.0020091070428483668 0 0.0004617785993886259 0.0020571374207967634 0 0.00046861246062969674 0.0018304308893548327 0 0.00023546255836379701 0.0020091070428483668 0 0.00052280570891874434 0.0025880017540708899 0 0.00043375251506337523 0.0024731299824245221 0 0.00046861246062969674 0.0018304308893548327 0 0.00023546255836379701 0.0020091070428483668 0 0.00032425367806811147 0.0017451529787062406 0 0.0004617785993886259 0.0020571374207967634 0 0.00046861246062969674 0.0018304308893548327 0 0.00062692598346270891 0.0019081946941835893 0 0.00046861246062969674 0.0018304308893548327 0 0.00061073567534708256 0.0016895812314530381 0 0.00062692598346270891 0.0019081946941835893 0 0.00049163073995314602 0.0028279390372998228 0 0.00064617250420802199 0.0028254493032149977 0 0.00056820144711497444 0.0027146638481061209 0 0.00023546255836379701 0.0020091070428483668 0 6.9964096646908978e-05 0.001772320006091146 0 0.00032425367806811147 0.0017451529787062406 0 0.00043375251506337523 0.0024731299824245221 0 0.00046074145611250456 0.0019072261593054919 0 0.0002088934245025902 0.0016437516047654625 0 0.00032859259205095302 0.0014975480703278712 0 8.9482860172718055e-05 0.0014874372015760272 0 0.00046074145611250456 0.0019072261593054919 0 0.00056362349133736302 0.0015095706470396604 0 0.00032859259205095302 0.0014975480703278712 0 0.00024297681248583198 0.0012759925751781717 0 8.9482860172718055e-05 0.0014874372015760272 0 6.9964096646908978e-05 0.001772320006091146 0 0.00032425367806811147 0.0017451529787062406 0 0.00032859259205095302 0.0014975480703278712 0 0.00046074145611250456 0.0019072261593054919 0 0.00023303842012885505 0.0014643291106920581 0 0.00047790665381094202 0.0016082922874208149 0 0.00061741681677891444 0.0014770294103761252 0 0.00049541953321111012 0.001249338179202015 0 0.00032859259205095302 0.0014975480703278712 0 0.00047790665381094202 0.0016082922874208149 0 0.00049541953321111012 0.001249338179202015 0 0.00046861246062969674 0.0018304308893548327 0 0.00061073567534708256 0.0016895812314530381 0 0.00047790665381094202 0.0016082922874208149 0 0.00032425367806811147 0.0017451529787062406 0 0.00032859259205095302 0.0014975480703278712 0 0.00047790665381094202 0.0016082922874208149 0 0.00046861246062969674 0.0018304308893548327 0 0.00032425367806811147 0.0017451529787062406 0 0.00047790665381094202 0.0016082922874208149 0 0.00061073567534708256 0.0016895812314530381 0 0.00047790665381094202 0.0016082922874208149 0 0.00061741681677891444 0.0014770294103761252 0 0.00061741681677891444 0.0014770294103761252 0 0.00049541953321111012 0.001249338179202015 0 0.00065487399019942933 0.0012821246508310311 0 0.00049541953321111012 0.001249338179202015 0 0.00065487399019942933 0.0012821246508310311 0 0.00060640225564882494 0.0010365423537060233 0 0.00032859259205095302 0.0014975480703278712 0 0.00049541953321111012 0.001249338179202015 0 0.00024297681248583198 0.0012759925751781717 0 0.00049541953321111012 0.001249338179202015 0 0.00024297681248583198 0.0012759925751781717 0 0.00032421432478254967 0.0010313302831047625 0 0.00049541953321111012 0.001249338179202015 0 0.00032421432478254967 0.0010313302831047625 0 0.00049177159706161673 0.0008982805239747579 0 0.00032421432478254967 0.0010313302831047625 0 7.0808297632355221e-05 0.001058814610341493 0 0.00016407228139181447 0.00083228183710336409 0 0.00024297681248583198 0.0012759925751781717 0 0.00032421432478254967 0.0010313302831047625 0 7.0808297632355221e-05 0.001058814610341493 0 7.0808297632355221e-05 0.001058814610341493 0 -0.00013554268431306075 0.00085863034169825941 0 -3.2178142539813235e-06 0.00076659301615710634 0 0.00053241123891294801 0.0015406098865902076 0 0.00019070473555559051 0.00066578383038443112 0 7.0808297632355221e-05 0.001058814610341493 0 -0.00013554268431306075 0.00085863034169825941 0 -9.8452244943020292e-05 0.0012631362443985318 0 -0.00013554268431306075 0.00085863034169825941 0 -9.8452244943020292e-05 0.0012631362443985318 0 -0.00033444144501783215 0.00093479611435843071 0 0.00024297681248583198 0.0012759925751781717 0 7.0808297632355221e-05 0.001058814610341493 0 8.2823760761738548e-05 0.0012783275513524137 0 -9.8452244943020292e-05 0.0012631362443985318 0 8.2823760761738548e-05 0.0012783275513524137 0 8.9482860172718055e-05 0.0014874372015760272 0 0.00024297681248583198 0.0012759925751781717 0 8.2823760761738548e-05 0.0012783275513524137 0 8.9482860172718055e-05 0.0014874372015760272 0 7.0808297632355221e-05 0.001058814610341493 0 -9.8452244943020292e-05 0.0012631362443985318 0 8.2823760761738548e-05 0.0012783275513524137 0 0.00053241123891294801 0.0015406098865902076 0 0.00056362349133736302 0.0015095706470396604 0 0.0010563309961882372 0.0016018528425099591 0 0.0010538354928796999 0.0016502420476632198 0 0.0010691703462475553 0.0016695187502396701 0 0.0010448582584061303 0.001643592199087027 0 0.0010538354928796999 0.0016502420476632198 0 0.0010691703462475553 0.0016695187502396701 0 0.0010448582584061303 0.001643592199087027 0 0.0010108441653319128 0.0016451431858391294 0 0.0010538354928796999 0.0016502420476632198 0 0.0010563309961882372 0.0016018528425099591 0 0.0010691703462475553 0.0016695187502396701 0 0.0010164343350281418 0.0015992581725821765 0 0.0012022615077048795 0.0016719984035365773 0 0.0010691703462475553 0.0016695187502396701 0 0.0011886691100921982 0.0017697884833392918 0 0.0010336086689720163 0.0016187304975360838 0 0.0011447596292062233 0.0018416742269109687 0 0.0010691703462475553 0.0016695187502396701 0 0.00097692801784304817 0.0016300122540566541 0 0.0010164343350281418 0.0015992581725821765 0 0.00097692801784304817 0.0016300122540566541 0 0.0010164343350281418 0.0015992581725821765 0 0.00095995120943801913 0.001545690302464621 0 0.0010563309961882372 0.0016018528425099591 0 0.0010164343350281418 0.0015992581725821765 0 0.0010163561573797591 0.001527945699098508 0 0.0010164343350281418 0.0015992581725821765 0 0.0010163561573797591 0.001527945699098508 0 0.00095995120943801913 0.001545690302464621 0 -0.00026563104302303615 0.00088150488333909184 0 0.00019070473555559051 0.00066578383038443112 0 -0.00032354362979277547 -0.00034355112360622046 0 0.00011257257038659679 -0.00051470785813430633 0 6.0765691516297673e-05 -0.00025277902807152954 0 0.00019070473555559051 0.00066578383038443112 0 0.00054489767335784889 0.00047339364546400544 0 0.00011257257038659679 -0.00051470785813430633 0 6.0765691516297673e-05 -0.00025277902807152954 0 0.00032903644536497325 -0.00035147206897369343 0 0.00011257257038659679 -0.00051470785813430633 0 0.00032903644536497325 -0.00035147206897369343 0 0.00055503526730880709 -0.00066935479256147797 0 6.0765691516297673e-05 -0.00025277902807152954 0 0.00032903644536497325 -0.00035147206897369343 0 0.00024792549861152552 -0.00011072318874803786 0 0.00032903644536497325 -0.00035147206897369343 0 0.00055575392791374506 -0.00039753336640803753 0 0.00046947292387793143 -0.00013958635057179265 0 0.00032903644536497325 -0.00035147206897369343 0 0.00055503526730880709 -0.00066935479256147797 0 0.00055575392791374506 -0.00039753336640803753 0 0.00097692801784304817 0.0016300122540566541 0 0.00095995120943801913 0.001545690302464621 0 0.0008960030685044297 0.0015652164191548483 0 0.0011447596292062233 0.0018416742269109687 0 0.00096799910262222028 0.00094882330722098932 0 0.00054489767335784889 0.00047339364546400544 0 0.00096799910262222028 0.00094882330722098932 0 0.0010143440775100491 0.00052960584098425375 0 0.001208331702107918 0.00067191680545538636 0 0.0012682373860452027 0.00043231406809642877 0 0.0012972574557221477 0.0018472917491670019 0 0.0013858104364670176 0.0018219373553629641 0 0.0013410187053719724 0.0017888790211065618 0 0.00096799910262222028 0.00094882330722098932 0 0.0013622021106377774 0.0011300034652429673 0 0.00096799910262222028 0.00094882330722098932 0 0.00097107493509342136 -0.00019758801852143325 0 0.00097107493509342136 -0.00019758801852143325 0 0.00050358186128337948 -0.00022507385038305261 0 0.00055575392791374506 -0.00039753336640803753 0 0.00086340417259769505 -0.00043246874249568422 0 0.00046947292387793143 -0.00013958635057179265 0 0.00055503526730880709 -0.00066935479256147797 0 0.00055575392791374506 -0.00039753336640803753 0 0.00086340417259769505 -0.00043246874249568422 0 0.0012738926761322008 5.1518186101240182e-05 0 0.00100317887307624 -0.00015199873219799953 0 0.0014778722916885482 -0.00050741503898877899 0 0.0013038474151486491 -0.00024753665192167812 0 0.00097107493509342136 -0.00019758801852143325 0 0.0012738926761322008 5.1518186101240182e-05 0 0.0014778722916885482 -0.00050741503898877899 0 0.00183038683952232 -0.00048865369380218392 0 0.0015507632970293973 -0.00027263249115561073 0 0.001955227391816959 -0.00032542718467386939 0 0.0019685994588811016 -0.00067127546296567213 0 0.0013038474151486491 -0.00024753665192167812 0 0.0019173554226651281 -0.00056518921659415235 0 0.0014778722916885482 -0.00050741503898877899 0 0.00183038683952232 -0.00048865369380218392 0 0.0019580161912209366 -0.00087417955492105734 0 0.0014364555071850547 4.5200187346708101e-05 0 0.0018949484150306232 -0.00025299404888614354 0 0.0014337897831925789 0.00050878026844206222 0 0.0015303018849086413 0.00033247064081244355 0 0.0016674161729428349 0.00034086609184937825 0 0.001208331702107918 0.00067191680545538636 0 0.0014337897831925789 0.00050878026844206222 0 0.0012682373860452027 0.00043231406809642877 0 0.0014337897831925789 0.00050878026844206222 0 0.0012682373860452027 0.00043231406809642877 0 0.0015303018849086413 0.00033247064081244355 0 0.00097107493509342136 -0.00019758801852143325 0 0.0014364555071850547 4.5200187346708101e-05 0 0.0013858104364670176 0.0018219373553629641 0 0.0015260808230390195 0.001780850328935765 0 0.0014541620843739889 0.0017729498164769989 0 0.0013971393012366781 0.001772531615824453 0 0.0013410187053719724 0.0017888790211065618 0 0.0013691330936707112 0.0017465558698978555 0 0.0013858104364670176 0.0018219373553629641 0 0.0013971393012366781 0.001772531615824453 0 0.0013410187053719724 0.0017888790211065618 0 0.0013622021106377774 0.0011300034652429673 0 0.0014780323076732595 0.001110320354345063 0 0.0013858104364670176 0.0018219373553629641 0 0.0013971393012366781 0.001772531615824453 0 0.0014541620843739889 0.0017729498164769989 0 0.0013971393012366781 0.001772531615824453 0 0.0014252611057882971 0.0017317446449886457 0 0.0014541620843739889 0.0017729498164769989 0 0.0013971393012366781 0.001772531615824453 0 0.0014252611057882971 0.0017317446449886457 0 0.0013691330936707112 0.0017465558698978555 0 0.0015260808230390195 0.001780850328935765 0 0.0014541620843739889 0.0017729498164769989 0 0.0016274263673600085 0.0016883916645113581 0 0.0014950336104289459 0.001765997250811023 0 0.0015776543827746578 0.0017674999801336063 0 0.0014541620843739889 0.0017729498164769989 0 0.0014860594337096572 0.0017211275134442002 0 0.0016066552156263113 0.0017981734578149105 0 0.0014252611057882971 0.0017317446449886457 0 0.0014541620843739889 0.0017729498164769989 0 0.0014860594337096572 0.0017211275134442002 0 0.0014860594337096572 0.0017211275134442002 0 0.0015396491806640383 0.0016898003207833922 0 0.0016066552156263113 0.0017981734578149105 0 0.0015396491806640383 0.0016898003207833922 0 0.0014959811448410384 0.0016886189173498242 0 0.0015033457114377281 0.001659802015984401 0 0.0014860594337096572 0.0017211275134442002 0 0.0015396491806640383 0.0016898003207833922 0 0.0014959811448410384 0.0016886189173498242 0 0.0014252611057882971 0.0017317446449886457 0 0.0014860594337096572 0.0017211275134442002 0 0.0014553723851510817 0.0016889345408985974 0 0.0014860594337096572 0.0017211275134442002 0 0.0014959811448410384 0.0016886189173498242 0 0.0014553723851510817 0.0016889345408985974 0 0.0014959811448410384 0.0016886189173498242 0 0.0014553723851510817 0.0016889345408985974 0 0.0015033457114377281 0.001659802015984401 0 0.0014553723851510817 0.0016889345408985974 0 0.0015033457114377281 0.001659802015984401 0 0.001441444827314457 0.0016440588512149435 0 0.0014252611057882971 0.0017317446449886457 0 0.0013797023220169086 0.0016913906249769388 0 0.0013691330936707112 0.0017465558698978555 0 0.0014252611057882971 0.0017317446449886457 0 0.0014553723851510817 0.0016889345408985974 0 0.0013797023220169086 0.0016913906249769388 0 0.0014553723851510817 0.0016889345408985974 0 0.0013797023220169086 0.0016913906249769388 0 0.001441444827314457 0.0016440588512149435 0 0.0013797023220169086 0.0016913906249769388 0 0.0013691330936707112 0.0017465558698978555 0 0.0012981353224543462 0.0017409761170946278 0 0.0013797023220169086 0.0016913906249769388 0 0.0012981353224543462 0.0017409761170946278 0 0.0013032384873997993 0.0016571503702632717 0 0.0012022615077048795 0.0016719984035365773 0 0.0012981353224543462 0.0017409761170946278 0 0.0013032384873997993 0.0016571503702632717 0 0.0012022615077048795 0.0016719984035365773 0 0.0011886691100921982 0.0017697884833392918 0 0.0012981353224543462 0.0017409761170946278 0 0.0011886691100921982 0.0017697884833392918 0 0.0012972574557221477 0.0018472917491670019 0 0.0012981353224543462 0.0017409761170946278 0 0.0012972574557221477 0.0018472917491670019 0 0.0013410187053719724 0.0017888790211065618 0 0.0012981353224543462 0.0017409761170946278 0 0.0013410187053719724 0.0017888790211065618 0 0.0013691330936707112 0.0017465558698978555 0 0.0012981353224543462 0.0017409761170946278 0 0.0032431754012286389 -0.00056628697493246749 0 0.0029466581827761579 -0.0005731500419083374 0 0.0032184101353274802 -0.00093672716219790652 0 0.00353782008773531 -0.00054793032604330018 0 0.0032431754012286389 -0.00056628697493246749 0 0.0032184101353274802 -0.00093672716219790652 0 0.0032431754012286389 -0.00056628697493246749 0 0.003335610281882589 -0.00034698928556238171 0 0.003140186112558349 -0.00033578852283892683 0 0.003335610281882589 -0.00034698928556238171 0 0.003140186112558349 -0.00033578852283892683 0 0.0032457855125525427 -0.00011304335914525396 0 0.0032431754012286389 -0.00056628697493246749 0 0.003140186112558349 -0.00033578852283892683 0 0.0029466581827761579 -0.0005731500419083374 0 0.0026647319930278792 -0.00035459045179481782 0 0.0029466581827761579 -0.0005731500419083374 0 0.0029132805441790337 -0.00020704572479012735 0 0.003140186112558349 -0.00033578852283892683 0 0.0029466581827761579 -0.0005731500419083374 0 0.0029132805441790337 -0.00020704572479012735 0 0.0026647319930278792 -0.00035459045179481782 0 0.0029466581827761579 -0.0005731500419083374 0 0.0026325667460615266 -0.00063651938386553994 0 0.0029466581827761579 -0.0005731500419083374 0 0.0026325667460615266 -0.00063651938386553994 0 0.0028149834044073475 -0.00089986394511681151 0 0.0029466581827761579 -0.0005731500419083374 0 0.0028149834044073475 -0.00089986394511681151 0 0.0032184101353274802 -0.00093672716219790652 0 0.0023746789545576364 -0.00067079987965408593 0 0.0026325667460615266 -0.00063651938386553994 0 0.0025290059320260613 -0.00086508174549733007 0 0.0026325667460615266 -0.00063651938386553994 0 0.0025290059320260613 -0.00086508174549733007 0 0.0028149834044073475 -0.00089986394511681151 0 0.0023746789545576364 -0.00067079987965408593 0 0.0023059899102577412 -0.00084643208750295794 0 0.0025290059320260613 -0.00086508174549733007 0 0.0023746789545576364 -0.00067079987965408593 0 0.0026325667460615266 -0.00063651938386553994 0 0.0023926023660988528 -0.00043031774887611644 0 0.0026647319930278792 -0.00035459045179481782 0 0.0023926023660988528 -0.00043031774887611644 0 0.0023549553277181431 -0.00010587117695809145 0 0.0026647319930278792 -0.00035459045179481782 0 0.0026325667460615266 -0.00063651938386553994 0 0.0023926023660988528 -0.00043031774887611644 0 0.0023926023660988528 -0.00043031774887611644 0 0.0021748103144198557 -0.00052213879423896302 0 0.0021659095375073387 -0.00030804905399069274 0 0.001955227391816959 -0.00032542718467386939 0 0.0019685994588811016 -0.00067127546296567213 0 0.0021748103144198557 -0.00052213879423896302 0 0.0023926023660988528 -0.00043031774887611644 0 0.0021659095375073387 -0.00030804905399069274 0 0.0023549553277181431 -0.00010587117695809145 0 0.0023746789545576364 -0.00067079987965408593 0 0.0023926023660988528 -0.00043031774887611644 0 0.0021748103144198557 -0.00052213879423896302 0 0.001955227391816959 -0.00032542718467386939 0 0.0021748103144198557 -0.00052213879423896302 0 0.0021659095375073387 -0.00030804905399069274 0 0.001955227391816959 -0.00032542718467386939 0 0.0021659095375073387 -0.00030804905399069274 0 0.0020600583569297904 -0.00011493096975274586 0 0.0019685994588811016 -0.00067127546296567213 0 0.0021748103144198557 -0.00052213879423896302 0 0.0022058011434834364 -0.00067799530331140825 0 0.0019173554226651281 -0.00056518921659415235 0 0.0023597873166739838 -0.0010312863330042121 0 0.0019685994588811016 -0.00067127546296567213 0 0.0022058011434834364 -0.00067799530331140825 0 0.0023059899102577412 -0.00084643208750295794 0 0.0019685994588811016 -0.00067127546296567213 0 0.0023059899102577412 -0.00084643208750295794 0 0.0023896602171962944 -0.0010507661243267605 0 0.0023746789545576364 -0.00067079987965408593 0 0.0021748103144198557 -0.00052213879423896302 0 0.0022058011434834364 -0.00067799530331140825 0 0.0023746789545576364 -0.00067079987965408593 0 0.0022058011434834364 -0.00067799530331140825 0 0.0023059899102577412 -0.00084643208750295794 0 0.0017530276581157575 0.0016781772564941492 0 0.0016274263673600085 0.0016883916645113581 0 0.0018373154231234377 0.0016051237102481066 0 0.0015303018849086413 0.00033247064081244355 0 0.0016674161729428349 0.00034086609184937825 0 0.0018056381158676339 0.00024056817906026984 0 0.0015260808230390195 0.001780850328935765 0 0.0017530276581157575 0.0016781772564941492 0 0.0016274263673600085 0.0016883916645113581 0 0.00183038683952232 -0.00048865369380218392 0 0.0019580161912209366 -0.00087417955492105734 0 0.0023896602171962944 -0.0010507661243267605 0 0.0014780323076732595 0.001110320354345063 0 0.0019131559625362355 0.00036097087520573911 0 0.0015776543827746578 0.0017674999801336063 0 0.0020725116503231525 0.00093140961187634084 0 0.0018949484150306232 -0.00025299404888614354 0 0.0019131559625362355 0.00036097087520573911 0 0.0019580161912209366 -0.00087417955492105734 0 0.0022437705431597593 -0.0010891587234339985 0 0.0023896602171962944 -0.0010507661243267605 0 0.0015396491806640383 0.0016898003207833922 0 0.0015033457114377281 0.001659802015984401 0 0.0015697508528914727 0.0016456340147947717 0 0.0015396491806640383 0.0016898003207833922 0 0.0016066552156263113 0.0017981734578149105 0 0.001810988966944345 0.0015909867602976967 0 0.0016066552156263113 0.0017981734578149105 0 0.001810988966944345 0.0015909867602976967 0 0.0020822816879456311 0.001707516613381725 0 0.0015792921717319127 0.0016330372480261521 0 0.0016263139581106003 0.0015345756053498714 0 0.0015396491806640383 0.0016898003207833922 0 0.001810988966944345 0.0015909867602976967 0 0.0018381216170288281 0.0012707884663222058 0 0.001810988966944345 0.0015909867602976967 0 0.0021488792138381094 0.0012859820081023402 0 0.0018381216170288281 0.0012707884663222058 0 0.0020725116503231525 0.00093140961187634084 0 0.0036131950933319871 0.00049259930929915544 0 0.0020907430268183127 0.0017041642224939785 0 0.0023017235641910336 0.0015491985905338294 0 0.0027093125064061902 0.0015259895418872184 0 0.001810988966944345 0.0015909867602976967 0 0.0020822816879456311 0.001707516613381725 0 0.0021488792138381094 0.0012859820081023402 0 0.0024285903851143215 -0.0011994272087038269 0 0.0026539435825400797 -0.0010674893021206879 0 0.0029063467200020452 -0.0013237808593982759 0 0.0020822816879456311 0.001707516613381725 0 0.0023017235641910336 0.0015491985905338294 0 0.0021488792138381094 0.0012859820081023402 0 0.0023017235641910336 0.0015491985905338294 0 0.002449266380101497 0.0011966067180372159 0 0.0021488792138381094 0.0012859820081023402 0 0.0020725116503231525 0.00093140961187634084 0 0.0020525848357558466 0.0013939712285013358 0 0.0024285903851143215 -0.0011994272087038269 0 0.0026539435825400797 -0.0010674893021206879 0 0.0023896602171962944 -0.0010507661243267605 0 0.0022437705431597593 -0.0010891587234339985 0 0.0024285903851143215 -0.0011994272087038269 0 0.0023896602171962944 -0.0010507661243267605 0 0.0019131559625362355 0.00036097087520573911 0 0.0020725116503231525 0.00093140961187634084 0 0.0023059899102577412 -0.00084643208750295794 0 0.0023896602171962944 -0.0010507661243267605 0 0.0025290059320260613 -0.00086508174549733007 0 0.0026539435825400797 -0.0010674893021206879 0 0.0023896602171962944 -0.0010507661243267605 0 0.0025290059320260613 -0.00086508174549733007 0 0.0026539435825400797 -0.0010674893021206879 0 0.0025290059320260613 -0.00086508174549733007 0 0.0028149834044073475 -0.00089986394511681151 0 0.0026539435825400797 -0.0010674893021206879 0 0.0028149834044073475 -0.00089986394511681151 0 0.0029063467200020452 -0.0013237808593982759 0 0.0028149834044073475 -0.00089986394511681151 0 0.0029063467200020452 -0.0013237808593982759 0 0.0032184101353274802 -0.00093672716219790652 0 0.0036131950933319871 0.00049259930929915544 0 0.0033098625439125923 0.0010702620195646062 0 0.0023017235641910336 0.0015491985905338294 0 0.0027093125064061902 0.0015259895418872184 0 0.002449266380101497 0.0011966067180372159 0 0.0036131950933319871 0.00049259930929915544 0 0.005036393110402858 0.00079972284754441648 0 0.0050518707494772719 0.00071361818088465985 0 0.0050700872692148293 0.00072077725651428759 0 0.0050712920333887716 0.0007133914685651891 0 0.0042522587313414901 0.0010472864493396555 0 0.0046479991801266322 0.00092764662636427876 0 0.0043385558092043129 0.00078559487570713064 0 0.0036131950933319871 0.00049259930929915544 0 0.0041529842004048448 -0.00022993220662093452 0 0.0044416576400619738 0.00041604464758182846 0 0.0041780106558138245 0.0002386926012637554 0 0.0046196762601315618 0.00026045830752639848 0 0.0046773445840849861 0.00044994382723910546 0 0.0044416576400619738 0.00041604464758182846 0 0.0046196762601315618 0.00026045830752639848 0 0.0044416576400619738 0.00041604464758182846 0 0.00450546077599151 0.00058336081194774764 0 0.0042263723135934879 0.00055849728451431849 0 0.004777945390739626 0.00064654330276043312 0 0.0046773445840849861 0.00044994382723910546 0 0.00450546077599151 0.00058336081194774764 0 0.0046773445840849861 0.00044994382723910546 0 0.0044416576400619738 0.00041604464758182846 0 0.00450546077599151 0.00058336081194774764 0 0.0046479991801266322 0.00092764662636427876 0 0.00450546077599151 0.00058336081194774764 0 0.0043385558092043129 0.00078559487570713064 0 0.004777945390739626 0.00064654330276043312 0 0.0046479991801266322 0.00092764662636427876 0 0.00450546077599151 0.00058336081194774764 0 0.00450546077599151 0.00058336081194774764 0 0.0043385558092043129 0.00078559487570713064 0 0.0042263723135934879 0.00055849728451431849 0 0.0040655672617836459 0.00080667422429203412 0 0.0042263723135934879 0.00055849728451431849 0 0.0038778976480530682 0.00057050136391998058 0 0.0043385558092043129 0.00078559487570713064 0 0.0040655672617836459 0.00080667422429203412 0 0.0042263723135934879 0.00055849728451431849 0 0.0042522587313414901 0.0010472864493396555 0 0.0043385558092043129 0.00078559487570713064 0 0.0040655672617836459 0.00080667422429203412 0 0.0044416576400619738 0.00041604464758182846 0 0.0042263723135934879 0.00055849728451431849 0 0.0041780106558138245 0.0002386926012637554 0 0.0042263723135934879 0.00055849728451431849 0 0.0038778976480530682 0.00057050136391998058 0 0.0041780106558138245 0.0002386926012637554 0 0.0024993086494382627 0.0014060541448144041 0 0.0020206372832821608 0.00078863382655168664 0 0.0030230191090199559 0.00080233427743659283 0 0.002543692477565156 0.0010496719620258302 0 0.0016149707468491987 0.0014041962225697529 0 0.002543692477565156 0.0010496719620258302 0 0.0033332538391724099 0.00055685144878917805 0 0.0033098625439125923 0.0010702620195646062 0 0.002543692477565156 0.0010496719620258302 0 0.002449266380101497 0.0011966067180372159 0 0.0021910577603687651 0.00086249916901062458 0 0.0021488792138381094 0.0012859820081023402 0 0.0021910577603687651 0.00086249916901062458 0 0.0021488792138381094 0.0012859820081023402 0 0.0018381216170288281 0.0012707884663222058 0 0.002543692477565156 0.0010496719620258302 0 0.0016263139581106003 0.0015345756053498714 0 0.0015697508528914727 0.0016456340147947717 0 0.0015530361271017374 0.0015811510254234368 0 0.0014990851729109278 0.0016133308173995828 0 0.0016275424828270542 0.0015840498345769296 0 0.0015697508528914727 0.0016456340147947717 0 0.0015530361271017374 0.0015811510254234368 0 0.0016275424828270542 0.0015840498345769296 0 0.0015530361271017374 0.0015811510254234368 0 0.0015655621675597334 0.0015114384129760103 0 0.0015530361271017374 0.0015811510254234368 0 0.0015655621675597334 0.0015114384129760103 0 0.0015044185423167549 0.0015621480094528751 0 0.0016760823748301526 0.0016454858464358382 0 0.0017828126902144387 0.0015000190850693468 0 0.0015674094404230887 0.0014983403210714634 0 0.0016149707468491987 0.0014041962225697529 0 0.0014894880849349705 0.0015477474257113747 0 0.0016149707468491987 0.0014041962225697529 0 0.0016107352251555471 0.0015642717676199005 0 0.0016661307923414542 0.001425459697631553 0 0.0017828126902144387 0.0015000190850693468 0 0.0015674094404230887 0.0014983403210714634 0 0.0017828126902144387 0.0015000190850693468 0 0.0019493913653381356 0.0014205073295170247 0 0.001823841722059344 0.0013321771805802542 0 0.0016661307923414542 0.001425459697631553 0 0.0017828126902144387 0.0015000190850693468 0 0.001823841722059344 0.0013321771805802542 0 0.0016760823748301526 0.0016454858464358382 0 0.0017828126902144387 0.0015000190850693468 0 0.0019467410896139351 0.0016536527282190786 0 0.0016149707468491987 0.0014041962225697529 0 0.0033332538391724099 0.00055685144878917805 0 0.0017828126902144387 0.0015000190850693468 0 0.0019467410896139351 0.0016536527282190786 0 0.0019303549044226182 0.0015252428621694346 0 0.0033332538391724099 0.00055685144878917805 0 0.0025136601142805495 0.0021875031944950138 0 0.0019467410896139351 0.0016536527282190786 0 0.0019303549044226182 0.0015252428621694346 0 0.0020732212993847033 0.0015121559557297749 0 0.0017828126902144387 0.0015000190850693468 0 0.0019303549044226182 0.0015252428621694346 0 0.0019493913653381356 0.0014205073295170247 0 0.0019303549044226182 0.0015252428621694346 0 0.0019493913653381356 0.0014205073295170247 0 0.0020732212993847033 0.0015121559557297749 0 0.0016270303865027799 0.0024678952875920035 0 0.0025136601142805495 0.0021875031944950138 0 0.0011381748497316017 0.0040765491149539392 0 0.0025136601142805495 0.0021875031944950138 0 0.0015157043019877214 0.003556865949999306 0 0.0014658075025418763 0.0036529666842409275 0 0.001461469174557993 0.0036064191061287898 0 0.0014283443142136189 0.0036268810802734617 0 0.0014658075025418763 0.0036529666842409275 0 0.001461469174557993 0.0036064191061287898 0 0.0047681345616497929 0.00017050824788492674 0 0.0043770257201045841 -0.0001266971571340128 0 0.0046196762601315618 0.00026045830752639848 0 0.004021067146801862 0.00027272268155315271 0 0.0043770257201045841 -0.0001266971571340128 0 0.0046196762601315618 0.00026045830752639848 0 0.0033332538391724099 0.00055685144878917805 0 0.0048909673467079934 0.00021117594527916909 0 0.0032472465229494846 0.0016070606267650272 0 0.0025136601142805495 0.0021875031944950138 0 0.001320949019484371 0.0015916298549363901 0 0.001386948154283324 0.0015362671825731641 0 0.0013055241344233171 0.001536179410035966 0 0.001320949019484371 0.0015916298549363901 0 0.0012381769022385774 0.001597078644131944 0 0.0013055241344233171 0.001536179410035966 0 0.0011941373865238772 0.0015349507251101631 0 0.0012381769022385774 0.001597078644131944 0 0.0013055241344233171 0.001536179410035966 0 0.0012022615077048795 0.0016719984035365773 0 0.0012381769022385774 0.001597078644131944 0 0.0013032384873997993 0.0016571503702632717 0 0.001320949019484371 0.0015916298549363901 0 0.0012381769022385774 0.001597078644131944 0 0.0013032384873997993 0.0016571503702632717 0 0.001320949019484371 0.0015916298549363901 0 0.0013737294621708322 0.0016332578158295421 0 0.0014276099929540669 0.0015853036074152519 0 0.0013797023220169086 0.0016913906249769388 0 0.0013032384873997993 0.0016571503702632717 0 0.0013737294621708322 0.0016332578158295421 0 0.001320949019484371 0.0015916298549363901 0 0.0013032384873997993 0.0016571503702632717 0 0.0013737294621708322 0.0016332578158295421 0 0.0013737294621708322 0.0016332578158295421 0 0.001441444827314457 0.0016440588512149435 0 0.0014276099929540669 0.0015853036074152519 0 0.0013797023220169086 0.0016913906249769388 0 0.0013737294621708322 0.0016332578158295421 0 0.001441444827314457 0.0016440588512149435 0 0.001441444827314457 0.0016440588512149435 0 0.0014990851729109278 0.0016133308173995828 0 0.0014276099929540669 0.0015853036074152519 0 0.0015033457114377281 0.001659802015984401 0 0.0015697508528914727 0.0016456340147947717 0 0.0014990851729109278 0.0016133308173995828 0 0.0015033457114377281 0.001659802015984401 0 0.001441444827314457 0.0016440588512149435 0 0.0014990851729109278 0.0016133308173995828 0 0.0014990851729109278 0.0016133308173995828 0 0.0015044185423167549 0.0015621480094528751 0 0.0014276099929540669 0.0015853036074152519 0 0.0015044185423167549 0.0015621480094528751 0 0.0014276099929540669 0.0015853036074152519 0 0.0014750799530636818 0.0015171228574714778 0 0.0015655621675597334 0.0015114384129760103 0 0.0015044185423167549 0.0015621480094528751 0 0.0014750799530636818 0.0015171228574714778 0 0.0015530361271017374 0.0015811510254234368 0 0.0014990851729109278 0.0016133308173995828 0 0.0015044185423167549 0.0015621480094528751 0 0.001320949019484371 0.0015916298549363901 0 0.0014276099929540669 0.0015853036074152519 0 0.001386948154283324 0.0015362671825731641 0 0.0014276099929540669 0.0015853036074152519 0 0.001386948154283324 0.0015362671825731641 0 0.0014750799530636818 0.0015171228574714778 0 0.0014021098231133771 0.001537502777014118 0 0.0014894880849349705 0.0015477474257113747 0 0.001386948154283324 0.0015362671825731641 0 0.0014474942147282642 0.0014774177899529095 0 0.0013335405087799936 0.0014501176066257992 0 0.001386948154283324 0.0015362671825731641 0 0.0015117156706252006 0.0015690941809769659 0 0.0014474942147282642 0.0014774177899529095 0 0.001622482794230414 0.0015731107500466825 0 0.0015117156706252006 0.0015690941809769659 0 0.0015674094404230887 0.0014983403210714634 0 0.0015117156706252006 0.0015690941809769659 0 0.0015674094404230887 0.0014983403210714634 0 0.0014474942147282642 0.0014774177899529095 0 0.0015090721861775419 0.0014149064846363942 0 0.0015674094404230887 0.0014983403210714634 0 0.0014474942147282642 0.0014774177899529095 0 0.0016661307923414542 0.001425459697631553 0 0.0015090721861775419 0.0014149064846363942 0 0.0015674094404230887 0.0014983403210714634 0 0.0014474942147282642 0.0014774177899529095 0 0.0013335405087799936 0.0014501176066257992 0 0.0014068933992416497 0.0013608808846733997 0 0.0015090721861775419 0.0014149064846363942 0 0.0014474942147282642 0.0014774177899529095 0 0.0014068933992416497 0.0013608808846733997 0 0.001386948154283324 0.0015362671825731641 0 0.0013335405087799936 0.0014501176066257992 0 0.0013055241344233171 0.001536179410035966 0 0.0013335405087799936 0.0014501176066257992 0 0.0013055241344233171 0.001536179410035966 0 0.0012590861143744227 0.0014891534242566747 0 0.0011941373865238772 0.0015349507251101631 0 0.0013055241344233171 0.001536179410035966 0 0.0012590861143744227 0.0014891534242566747 0 0.0011854751731432676 0.0014648116146851059 0 0.0012590861143744227 0.0014891534242566747 0 0.0012500240186893588 0.001435346915382187 0 0.0013335405087799936 0.0014501176066257992 0 0.0012500240186893588 0.001435346915382187 0 0.0012745756113436476 0.0013754602958093295 0 0.0013335405087799936 0.0014501176066257992 0 0.0012590861143744227 0.0014891534242566747 0 0.0012500240186893588 0.001435346915382187 0 0.0012500240186893588 0.001435346915382187 0 0.0012745756113436476 0.0013754602958093295 0 0.0012063516102336148 0.001394602345421701 0 0.0012600374938743343 0.0029094379116170444 0 0.0012772285006811387 0.0023681312876821948 0 0.0012104983054274047 0.0033024042600507926 0 0.001223252143585786 0.0032966970567968835 0 0.0012244830600013766 0.0033057128993457369 0 0.0012600374938743343 0.0029094379116170444 0 0.0012237113160223601 0.0031165216376877127 0 0.0012084524259380514 0.0032962899010881563 0 0.001223252143585786 0.0032966970567968835 0 0.0012327167969557607 0.0032895878022793723 0 0.0012117760728061124 0.0033264696761526442 0 0.0012173440250628942 0.0033464876911884107 0 0.0012365032628959083 0.0033178071550214365 0 0.0012104983054274047 0.0033024042600507926 0 0.0012244830600013766 0.0033057128993457369 0 0.0012117760728061124 0.0033264696761526442 0 0.0012244830600013766 0.0033057128993457369 0 0.0012117760728061124 0.0033264696761526442 0 0.0012365032628959083 0.0033178071550214365 0 0.0012104983054274047 0.0033024042600507926 0 0.0011896219203526806 0.00333336909297215 0 0.0011785249842592778 0.0033203640728217266 0 0.0012104983054274047 0.0033024042600507926 0 0.0012117760728061124 0.0033264696761526442 0 0.0011896219203526806 0.00333336909297215 0 0.0012600374938743343 0.0029094379116170444 0 0.0012487392406402259 0.0035103515507756821 0 0.0013335405087799936 0.0014501176066257992 0 0.0012745756113436476 0.0013754602958093295 0 0.0014068933992416497 0.0013608808846733997 0 0.0012600374938743343 0.0029094379116170444 0 0.0013858325985013475 0.0024166951347245726 0 0.0013274484470880506 0.0035351495204850336 0 0.0013496830876456095 0.0035692781872703801 0 0.0013520378577219748 0.0035698501979828396 0 0.0013496830876456095 0.0035692781872703801 0 0.0013520378577219748 0.0035698501979828396 0 0.0013739464815925662 0.0036029086715898976 0 0.0013520378577219748 0.0035698501979828396 0 0.0013739464815925662 0.0036029086715898976 0 0.0013782856204690465 0.0036001781855478161 0 0.0015090721861775419 0.0014149064846363942 0 0.0014068933992416497 0.0013608808846733997 0 0.0015863181295287733 0.0013379433209897756 0 0.0013858325985013475 0.0024166951347245726 0 0.0015011631698349077 0.0024269825413339116 0 0.0011785249842592778 0.0033203640728217266 0 0.0011677882511152084 0.0033385223407483449 0 0.0011568386571802597 0.0033307561131803711 0 0.0012263421166939861 0.0035057106781732333 0 0.0013176720165651889 0.0035213794324526191 0 0.0012487392406402259 0.0035103515507756821 0 0.0013176720165651889 0.0035213794324526191 0 0.0011896219203526806 0.00333336909297215 0 0.0011785249842592778 0.0033203640728217266 0 0.0011677882511152084 0.0033385223407483449 0 0.0012088176547154594 0.0035165299968549493 0 0.0012263421166939861 0.0035057106781732333 0 0.0011896219203526806 0.00333336909297215 0 0.0011816507933095251 0.0033525536470984437 0 0.0011677882511152084 0.0033385223407483449 0 0.0013074498026404355 0.003686995597085027 0 0.0013065871335721478 0.0036693928511623212 0 0.0013498758002074083 0.0036620902793380169 0 0.0012474161022430739 0.0036997687739526493 0 0.0013074498026404355 0.003686995597085027 0 0.0013065871335721478 0.0036693928511623212 0 0.0013065871335721478 0.0036693928511623212 0 0.00132717009794669 0.0036517818245489319 0 0.0012718274693524893 0.0036650320302910053 0 0.0013065871335721478 0.0036693928511623212 0 0.0012369771550941194 0.0036896184661645379 0 0.0012718274693524893 0.0036650320302910053 0 0.0012474161022430739 0.0036997687739526493 0 0.0013065871335721478 0.0036693928511623212 0 0.0012369771550941194 0.0036896184661645379 0 0.0012369771550941194 0.0036896184661645379 0 0.0011984176552144077 0.0037034948568951832 0 0.0012224846624832343 0.003684185027175857 0 0.0012088176547154594 0.0035165299968549493 0 0.0011963889989515073 0.0036276105206225636 0 0.0012474161022430739 0.0036997687739526493 0 0.0012369771550941194 0.0036896184661645379 0 0.0011956098091747587 0.0037059590316366716 0 0.0011816507933095251 0.0033525536470984437 0 0.001200068942349135 0.0033706231955318148 0 0.0011983147034205365 0.0033492136413714024 0 0.0012369771550941194 0.0036896184661645379 0 0.0011984176552144077 0.0037034948568951832 0 0.0011956098091747587 0.0037059590316366716 0 0.0011984176552144077 0.0037034948568951832 0 0.0011807690787293374 0.0037317063012022849 0 0.0011747931617244664 0.0037054802889691678 0 0.0011807690787293374 0.0037317063012022849 0 0.0011663016014457166 0.0037252484570936086 0 0.0011747931617244664 0.0037054802889691678 0 0.0011963889989515073 0.0036276105206225636 0 0.0012029122768045359 0.0036588370224168161 0 0.0011768243171407927 0.0036807370213273239 0 0.0011963889989515073 0.0036276105206225636 0 0.0011459222855106227 0.0037419406230648779 0 0.001137835683191916 0.0037989320790762556 0 0.0011105992577880319 0.003742812962160811 0 0.0011963889989515073 0.0036276105206225636 0 0.001199503915089147 0.0035759300325136022 0 0.0011807673607203682 0.0037362496806162119 0 0.0011459222855106227 0.0037419406230648779 0 0.001137835683191916 0.0037989320790762556 0 0.0011663016014457166 0.0037252484570936086 0 0.0011459222855106227 0.0037419406230648779 0 0.0011369485372832973 0.0037124487854910807 0 0.0011807673607203682 0.0037362496806162119 0 0.0011663016014457166 0.0037252484570936086 0 0.0011459222855106227 0.0037419406230648779 0 0.0011459222855106227 0.0037419406230648779 0 0.0011369485372832973 0.0037124487854910807 0 0.0011105992577880319 0.003742812962160811 0 0.0012117760728061124 0.0033264696761526442 0 0.0012173440250628942 0.0033464876911884107 0 0.0011983147034205365 0.0033492136413714024 0 0.0011896219203526806 0.00333336909297215 0 0.0011816507933095251 0.0033525536470984437 0 0.0011983147034205365 0.0033492136413714024 0 0.0012117760728061124 0.0033264696761526442 0 0.0011896219203526806 0.00333336909297215 0 0.0011983147034205365 0.0033492136413714024 0 0.001200068942349135 0.0033706231955318148 0 0.0012173440250628942 0.0033464876911884107 0 0.0011983147034205365 0.0033492136413714024 0 0.0014572745850328151 0.0036112005371857978 0 0.0014360377586251681 0.003615460919112834 0 0.0014384189297741653 0.0036187541764989965 0 0.0014694216213342497 0.0035943425269414084 0 0.0014391915782340286 0.0036122124226690201 0 0.0014360377586251681 0.003615460919112834 0 0.0014572745850328151 0.0036112005371857978 0 0.0014694216213342497 0.0035943425269414084 0 0.0014360377586251681 0.003615460919112834 0 0.0014721905810326302 0.0036048581592087593 0 0.0014572745850328151 0.0036112005371857978 0 0.0014694216213342497 0.0035943425269414084 0 0.0015157043019877214 0.003556865949999306 0 0.0014694216213342497 0.0035943425269414084 0 0.001461469174557993 0.0036064191061287898 0 0.0014694216213342497 0.0035943425269414084 0 0.001461469174557993 0.0036064191061287898 0 0.0014391915782340286 0.0036122124226690201 0 0.0014391915782340286 0.0036122124226690201 0 0.0014203643262840357 0.0036209068001322614 0 0.0014237553917020368 0.0036197776129598788 0 0.0014283443142136189 0.0036268810802734617 0 0.001461469174557993 0.0036064191061287898 0 0.0014391915782340286 0.0036122124226690201 0 0.0014283443142136189 0.0036268810802734617 0 0.0014391915782340286 0.0036122124226690201 0 0.0014203643262840357 0.0036209068001322614 0 0.0014283443142136189 0.0036268810802734617 0 0.0014089624265742398 0.0036266698042843443 0 0.0014051709810035502 0.0036271885562739505 0 0.0014283443142136189 0.0036268810802734617 0 0.0014203643262840357 0.0036209068001322614 0 0.0014089624265742398 0.0036266698042843443 0 0.0016270303865027799 0.0024678952875920035 0 0.0015177872703214226 0.0029085483071261348 0 0.0014203643262840357 0.0036209068001322614 0 0.0014101260516092002 0.0036251440834764292 0 0.0014089624265742398 0.0036266698042843443 0 0.0014203643262840357 0.0036209068001322614 0 0.0014139437804107651 0.003623429712885358 0 0.0014237553917020368 0.0036197776129598788 0 0.0014203643262840357 0.0036209068001322614 0 0.0014139437804107651 0.003623429712885358 0 0.0014101260516092002 0.0036251440834764292 0 0.0014084696250948692 0.0036267631061008315 0 0.0014237553917020368 0.0036197776129598788 0 0.0014129767280190158 0.0036261727757268178 0 0.0014139437804107651 0.003623429712885358 0 0.0014084696250948692 0.0036267631061008315 0 0.0014032366597110028 0.0036264621226733081 0 0.0014139437804107651 0.003623429712885358 0 0.0014084696250948692 0.0036267631061008315 0 0.0014237553917020368 0.0036197776129598788 0 0.0014391915782340286 0.0036122124226690201 0 0.0014237553917020368 0.0036197776129598788 0 0.0014360377586251681 0.003615460919112834 0 0.0014237553917020368 0.0036197776129598788 0 0.0014360377586251681 0.003615460919112834 0 0.0014129767280190158 0.0036261727757268178 0 0.0014360377586251681 0.003615460919112834 0 0.0014129767280190158 0.0036261727757268178 0 0.0014169782910168247 0.0036260639543086331 0 0.0014084696250948692 0.0036267631061008315 0 0.0014129767280190158 0.0036261727757268178 0 0.0013951950066405112 0.0036358035157876599 0 0.0014129767280190158 0.0036261727757268178 0 0.0013951950066405112 0.0036358035157876599 0 0.0013998001526041002 0.0036342373836440287 0 0.0013951950066405112 0.0036358035157876599 0 0.0013813193205501233 0.0036457708409772297 0 0.0013998001526041002 0.0036342373836440287 0 0.0013951950066405112 0.0036358035157876599 0 0.0013819359986115491 0.0036465244103377295 0 0.0013813193205501233 0.0036457708409772297 0 0.0013951950066405112 0.0036358035157876599 0 0.0013819359986115491 0.0036465244103377295 0 0.0013897689788395071 0.0036362534889167347 0 0.0013819359986115491 0.0036465244103377295 0 0.0013725836820881613 0.003654706108956064 0 0.0013813193205501233 0.0036457708409772297 0 0.0013819359986115491 0.0036465244103377295 0 0.0013897689788395071 0.0036362534889167347 0 0.001383597830381596 0.003638815181418269 0 0.001383597830381596 0.003638815181418269 0 0.0013897033443989015 0.0036303544967989168 0 0.0013855487346655692 0.0036203329564285266 0 0.0013897689788395071 0.0036362534889167347 0 0.001383597830381596 0.003638815181418269 0 0.0013897033443989015 0.0036303544967989168 0 0.0013897689788395071 0.0036362534889167347 0 0.0013897033443989015 0.0036303544967989168 0 0.0013982390868392421 0.003630322876353718 0 0.0013897033443989015 0.0036303544967989168 0 0.0013982390868392421 0.003630322876353718 0 0.0014032366597110028 0.0036264621226733081 0 0.0013951950066405112 0.0036358035157876599 0 0.0013897689788395071 0.0036362534889167347 0 0.0013982390868392421 0.003630322876353718 0 0.0014084696250948692 0.0036267631061008315 0 0.0013951950066405112 0.0036358035157876599 0 0.0013982390868392421 0.003630322876353718 0 0.0014084696250948692 0.0036267631061008315 0 0.0013982390868392421 0.003630322876353718 0 0.0014032366597110028 0.0036264621226733081 0 0.0014139437804107651 0.003623429712885358 0 0.0014032366597110028 0.0036264621226733081 0 0.0014101260516092002 0.0036251440834764292 0 0.0013931785193838442 0.0036278551886131847 0 0.0013961161255495195 0.0036320925255559585 0 0.0013739464815925662 0.0036029086715898976 0 0.0013897033443989015 0.0036303544967989168 0 0.0014032366597110028 0.0036264621226733081 0 0.0013931785193838442 0.0036278551886131847 0 0.0014032366597110028 0.0036264621226733081 0 0.0013931785193838442 0.0036278551886131847 0 0.0014027920595629816 0.0036287789872638566 0 0.0015885281551027326 0.0031018733726517491 0 0.0015177872703214226 0.0029085483071261348 0 0.0014101260516092002 0.0036251440834764292 0 0.0014089624265742398 0.0036266698042843443 0 0.0014027920595629816 0.0036287789872638566 0 0.0014032366597110028 0.0036264621226733081 0 0.0014101260516092002 0.0036251440834764292 0 0.0014027920595629816 0.0036287789872638566 0 0.0014943106914017453 0.0029578905538580453 0 0.0015177872703214226 0.0029085483071261348 0 0.0013897033443989015 0.0036303544967989168 0 0.0013931785193838442 0.0036278551886131847 0 0.0013855487346655692 0.0036203329564285266 0 0.0013931785193838442 0.0036278551886131847 0 0.0013855487346655692 0.0036203329564285266 0 0.0013739464815925662 0.0036029086715898976 0 0.0016661307923414542 0.001425459697631553 0 0.001823841722059344 0.0013321771805802542 0 0.0015863181295287733 0.0013379433209897756 0 0.0015177872703214226 0.0029085483071261348 0 0.0015011631698349077 0.0024269825413339116 0 0.0016661307923414542 0.001425459697631553 0 0.0015090721861775419 0.0014149064846363942 0 0.0015863181295287733 0.0013379433209897756 0 0.0013855487346655692 0.0036203329564285266 0 0.0013739464815925662 0.0036029086715898976 0 0.0013782856204690465 0.0036001781855478161 0 0.0013622064455350504 0.0036672280021144217 0 0.0013725836820881613 0.003654706108956064 0 0.0013498758002074083 0.0036620902793380169 0 0.0013074498026404355 0.003686995597085027 0 0.0013622064455350504 0.0036672280021144217 0 0.0013498758002074083 0.0036620902793380169 0 0.0013855487346655692 0.0036203329564285266 0 0.0013974411377831949 0.0036507561306057213 0 0.0013802783214842932 0.0036535508822806168 0 0.0014039112924830203 0.0036182623024912795 0 0.0013176720165651889 0.0035213794324526191 0 0.001383597830381596 0.003638815181418269 0 0.0013855487346655692 0.0036203329564285266 0 0.0013802783214842932 0.0036535508822806168 0 0.0013819359986115491 0.0036465244103377295 0 0.001383597830381596 0.003638815181418269 0 0.0013802783214842932 0.0036535508822806168 0 0.0013176720165651889 0.0035213794324526191 0 0.0013488573652116304 0.0035542922107831545 0 0.0013622064455350504 0.0036672280021144217 0 0.0013802783214842932 0.0036535508822806168 0 0.0013725836820881613 0.003654706108956064 0 0.0013819359986115491 0.0036465244103377295 0 0.0013802783214842932 0.0036535508822806168 0 0.0013725836820881613 0.003654706108956064 0 0.0013065871335721478 0.0036693928511623212 0 0.0013498758002074083 0.0036620902793380169 0 0.0013546720125442724 0.0036478283750729901 0 0.0013498758002074083 0.0036620902793380169 0 0.001374297755944112 0.0036443963370053835 0 0.0013813193205501233 0.0036457708409772297 0 0.0013725836820881613 0.003654706108956064 0 0.0013498758002074083 0.0036620902793380169 0 0.0013813193205501233 0.0036457708409772297 0 0.0013498758002074083 0.0036620902793380169 0 0.0013546720125442724 0.0036478283750729901 0 0.001374297755944112 0.0036443963370053835 0 0.00132717009794669 0.0036517818245489319 0 0.0013546720125442724 0.0036478283750729901 0 0.00136689015298126 0.0036308294957712183 0 0.0013065871335721478 0.0036693928511623212 0 0.00132717009794669 0.0036517818245489319 0 0.0013546720125442724 0.0036478283750729901 0 0.0013546720125442724 0.0036478283750729901 0 0.0013784800606017134 0.0036370739257237739 0 0.001374297755944112 0.0036443963370053835 0 0.0013546720125442724 0.0036478283750729901 0 0.0013784800606017134 0.0036370739257237739 0 0.00136689015298126 0.0036308294957712183 0 0.0013977618060944785 0.0036257482348938325 0 0.0013945171309435486 0.0036166700778979244 0 0.00136689015298126 0.0036308294957712183 0 0.0013784800606017134 0.0036370739257237739 0 0.0013977618060944785 0.0036257482348938325 0 0.00136689015298126 0.0036308294957712183 0 0.0013784800606017134 0.0036370739257237739 0 0.0013962438451485888 0.0036339015852937082 0 0.0013977618060944785 0.0036257482348938325 0 0.0013784800606017134 0.0036370739257237739 0 0.0013962438451485888 0.0036339015852937082 0 0.001374297755944112 0.0036443963370053835 0 0.0013962438451485888 0.0036339015852937082 0 0.001374297755944112 0.0036443963370053835 0 0.0013813193205501233 0.0036457708409772297 0 0.0013962438451485888 0.0036339015852937082 0 0.0013813193205501233 0.0036457708409772297 0 0.0013998001526041002 0.0036342373836440287 0 0.0014129767280190158 0.0036261727757268178 0 0.0013998001526041002 0.0036342373836440287 0 0.0014169782910168247 0.0036260639543086331 0 0.0013962438451485888 0.0036339015852937082 0 0.0013998001526041002 0.0036342373836440287 0 0.0014169782910168247 0.0036260639543086331 0 0.0014360377586251681 0.003615460919112834 0 0.0014169782910168247 0.0036260639543086331 0 0.0014384189297741653 0.0036187541764989965 0 0.0014169782910168247 0.0036260639543086331 0 0.0014233471475506823 0.0036211788924810696 0 0.0014384189297741653 0.0036187541764989965 0 0.0013962438451485888 0.0036339015852937082 0 0.0014169782910168247 0.0036260639543086331 0 0.0014233471475506823 0.0036211788924810696 0 0.0013962438451485888 0.0036339015852937082 0 0.0014233471475506823 0.0036211788924810696 0 0.0013977618060944785 0.0036257482348938325 0 0.0013977618060944785 0.0036257482348938325 0 0.0014148198446013451 0.0036165979815374954 0 0.0013945171309435486 0.0036166700778979244 0 0.0014233471475506823 0.0036211788924810696 0 0.0013977618060944785 0.0036257482348938325 0 0.0014148198446013451 0.0036165979815374954 0 0.0014606071982680058 0.0036168391841670351 0 0.0014233471475506823 0.0036211788924810696 0 0.0014348589655649466 0.0036128694108021296 0 0.0014233471475506823 0.0036211788924810696 0 0.0014148198446013451 0.0036165979815374954 0 0.0014348589655649466 0.0036128694108021296 0 0.0014148198446013451 0.0036165979815374954 0 0.0014348589655649466 0.0036128694108021296 0 0.001417575677623959 0.003603956707630052 0 0.0014606071982680058 0.0036168391841670351 0 0.0014630485686182406 0.0036208036216389071 0 0.0014630460157635512 0.0036214770242044498 0 0.0014588954960155405 0.0036206129992863551 0 0.0014478884199493468 0.0036139223898883016 0 0.0014606071982680058 0.0036168391841670351 0 0.0014233471475506823 0.0036211788924810696 0 0.0014384189297741653 0.0036187541764989965 0 0.0014606071982680058 0.0036168391841670351 0 0.0014572745850328151 0.0036112005371857978 0 0.0014384189297741653 0.0036187541764989965 0 0.0014783774558580938 0.003657885543112676 0 0.0015021979564831965 0.003655612356504411 0 0.0014969752474147846 0.0036723680280732582 0 0.0014819843373541934 0.0036212157874349303 0 0.001450999034385469 0.0036336124407359313 0 0.0014839158383913068 0.0036386128646077368 0 0.0015021979564831965 0.003655612356504411 0 0.0015095597064212945 0.003634533565428946 0 0.001467273337480011 0.0036213134930531432 0 0.0014630460157635512 0.0036214770242044498 0 0.0014609126221598453 0.0036181793177363464 0 0.0014839158383913068 0.0036386128646077368 0 0.001467273337480011 0.0036213134930531432 0 0.0015095597064212945 0.003634533565428946 0 0.0014478884199493468 0.0036139223898883016 0 0.001450999034385469 0.0036336124407359313 0 0.001450999034385469 0.0036336124407359313 0 0.0013590581763801108 0.003621367138058476 0 0.001417575677623959 0.003603956707630052 0 0.0013945171309435486 0.0036166700778979244 0 0.001369766580741313 0.0036047409584474099 0 0.0014148198446013451 0.0036165979815374954 0 0.001417575677623959 0.003603956707630052 0 0.0013945171309435486 0.0036166700778979244 0 0.0015021979564831965 0.003655612356504411 0 0.0015211737469775005 0.0036584697310759222 0 0.0015105250711693091 0.0036691387554138566 0 0.001450999034385469 0.0036336124407359313 0 0.0014578189975141462 0.0036210959292366793 0 0.0015021979564831965 0.003655612356504411 0 0.0015095597064212945 0.003634533565428946 0 0.0015211737469775005 0.0036584697310759222 0 0.0014200933009135821 0.0036604395415560389 0 0.0013932211841212283 0.0036186569986143583 0 0.0013618547738599134 0.0036385855917618953 0 0.0013932211841212283 0.0036186569986143583 0 0.0013659519979907129 0.0036101576027919345 0 0.0013618547738599134 0.0036385855917618953 0 0.0013659519979907129 0.0036101576027919345 0 0.0013618547738599134 0.0036385855917618953 0 0.0013423232337433223 0.0036060831926733755 0 0.001369766580741313 0.0036047409584474099 0 0.00136689015298126 0.0036308294957712183 0 0.0013262684959959577 0.0036350382982466779 0 0.0013945171309435486 0.0036166700778979244 0 0.001369766580741313 0.0036047409584474099 0 0.00136689015298126 0.0036308294957712183 0 0.00132717009794669 0.0036517818245489319 0 0.00136689015298126 0.0036308294957712183 0 0.0013262684959959577 0.0036350382982466779 0 0.0013618547738599134 0.0036385855917618953 0 0.0013423232337433223 0.0036060831926733755 0 0.001304224882047379 0.0036156806208409585 0 0.0013262684959959577 0.0036350382982466779 0 0.0012918635748747529 0.0036400404240977194 0 0.001304224882047379 0.0036156806208409585 0 0.001369766580741313 0.0036047409584474099 0 0.0013262684959959577 0.0036350382982466779 0 0.001304224882047379 0.0036156806208409585 0 0.0013590581763801108 0.003621367138058476 0 0.0013135292750902545 0.0036153119412796362 0 0.0013423232337433223 0.0036060831926733755 0 0.0013121150898138161 0.0035868896989922228 0 0.0013663065215932955 0.0035779762653932738 0 0.0011927506835449683 0.003715539129554849 0 0.0013123927494670155 0.0038275181895568171 0 0.0011142165948402971 0.0038609645758570094 0 0.0011166501946572277 0.0039038575454936704 0 0.0010407477150788946 0.0038692634098450515 0 0.0013423232337433223 0.0036060831926733755 0 0.0013121150898138161 0.0035868896989922228 0 0.001304224882047379 0.0036156806208409585 0 0.0011142165948402971 0.0038609645758570094 0 0.0011166501946572277 0.0039038575454936704 0 0.0011155106984775912 0.003888171323489766 0 0.0011166501946572277 0.0039038575454936704 0 0.0011155106984775912 0.003888171323489766 0 0.0011429137123024403 0.0039870503688378732 0 0.0011166501946572277 0.0039038575454936704 0 0.0010407477150788946 0.0038692634098450515 0 0.0011429137123024403 0.0039870503688378732 0 0.0012476819493353454 0.0041969041975746212 0 0.0012986367491723296 0.0040964626227069107 0 0.0011429137123024403 0.0039870503688378732 0 0.0013123927494670155 0.0038275181895568171 0 0.0011027073324330033 0.0040577530939216854 0 0.0013932211841212283 0.0036186569986143583 0 0.0013659519979907129 0.0036101576027919345 0 0.0013663065215932955 0.0035779762653932738 0 0.0014578189975141462 0.0036210959292366793 0 0.0013123927494670155 0.0038275181895568171 0 0.0013659519979907129 0.0036101576027919345 0 0.0013423232337433223 0.0036060831926733755 0 0.0013663065215932955 0.0035779762653932738 0 0.0013123927494670155 0.0038275181895568171 0 0.0013626498322923833 0.0039419574537271256 0 0.0015211737469775005 0.0036584697310759222 0 0.0015308423182468012 0.0036794865686285462 0 0.0015105250711693091 0.0036691387554138566 0 0.0015308423182468012 0.0036794865686285462 0 0.0015105250711693091 0.0036691387554138566 0 0.0015090851576852948 0.0036839519285827979 0 0.0012476819493353454 0.0041969041975746212 0 0.0013587706909022185 0.0041616464576311228 0 0.0012986367491723296 0.0040964626227069107 0 0.0013587706909022185 0.0041616464576311228 0 0.0012986367491723296 0.0040964626227069107 0 0.0013708743511343952 0.0040808851963706301 0 0.0017113588651982347 0.0045184387988919427 0 0.0016848066494407215 0.0044017604550934467 0 0.0014971529667451812 0.0043390233431599553 0 0.001910245916274776 0.0038976826809607721 0 0.0013626498322923833 0.0039419574537271256 0 0.0018281685950029285 0.0041820165284032545 0 0.0014160043719437872 0.0041991296750517023 0 0.0014520094538927289 0.0041275866071557371 0 0.0013587706909022185 0.0041616464576311228 0 0.0013708743511343952 0.0040808851963706301 0 0.0014559797487118857 0.0041417230255641271 0 0.0014520094538927289 0.0041275866071557371 0 0.0013587706909022185 0.0041616464576311228 0 0.0014890323719801727 0.0036898627926317401 0 0.0015090851576852948 0.0036839519285827979 0 0.0014969752474147846 0.0036723680280732582 0 0.0015105250711693091 0.0036691387554138566 0 0.0015090851576852948 0.0036839519285827979 0 0.0014969752474147846 0.0036723680280732582 0 0.0015021979564831965 0.003655612356504411 0 0.0015105250711693091 0.0036691387554138566 0 0.0014969752474147846 0.0036723680280732582 0 0.0011446506414985521 0.0037006587151682253 0 0.0011393721761713343 0.0036976765796827957 0 0.0011628026250849498 0.0036960484053197421 0 0.0011446506414985521 0.0037006587151682253 0 0.0011927565401768057 0.0036886934724560229 0 0.0012162653059119924 0.0036735296616177875 0 0.0011446506414985521 0.0037006587151682253 0 0.0011320784899709749 0.0037029531978475588 0 0.0011393721761713343 0.0036976765796827957 0 0.0011320784899709749 0.0037029531978475588 0 0.0011077546921302703 0.0036965173501871092 0 0.0011168301418915181 0.0036988478054837183 0 0.0011320784899709749 0.0037029531978475588 0 0.0011393721761713343 0.0036976765796827957 0 0.0011168301418915181 0.0036988478054837183 0 0.0011393721761713343 0.0036976765796827957 0 0.0011369485372832973 0.0037124487854910807 0 0.0011628026250849498 0.0036960484053197421 0 0.0011393721761713343 0.0036976765796827957 0 0.0011369485372832973 0.0037124487854910807 0 0.0011168301418915181 0.0036988478054837183 0 0.0011369485372832973 0.0037124487854910807 0 0.0011747931617244664 0.0037054802889691678 0 0.0011628026250849498 0.0036960484053197421 0 0.0011663016014457166 0.0037252484570936086 0 0.0011369485372832973 0.0037124487854910807 0 0.0011747931617244664 0.0037054802889691678 0 0.0011446506414985521 0.0037006587151682253 0 0.0011628026250849498 0.0036960484053197421 0 0.0011927565401768057 0.0036886934724560229 0 0.0011984176552144077 0.0037034948568951832 0 0.0011747931617244664 0.0037054802889691678 0 0.0011927565401768057 0.0036886934724560229 0 0.0011747931617244664 0.0037054802889691678 0 0.0011628026250849498 0.0036960484053197421 0 0.0011927565401768057 0.0036886934724560229 0 0.0011984176552144077 0.0037034948568951832 0 0.0011927565401768057 0.0036886934724560229 0 0.0012224846624832343 0.003684185027175857 0 0.0012369771550941194 0.0036896184661645379 0 0.0012224846624832343 0.003684185027175857 0 0.0012718274693524893 0.0036650320302910053 0 0.0012162653059119924 0.0036735296616177875 0 0.0012718274693524893 0.0036650320302910053 0 0.0012654884703423867 0.0036433759658038071 0 0.0012224846624832343 0.003684185027175857 0 0.0012162653059119924 0.0036735296616177875 0 0.0012718274693524893 0.0036650320302910053 0 0.0011927565401768057 0.0036886934724560229 0 0.0012224846624832343 0.003684185027175857 0 0.0012162653059119924 0.0036735296616177875 0 0.0013262684959959577 0.0036350382982466779 0 0.0012718274693524893 0.0036650320302910053 0 0.0012918635748747529 0.0036400404240977194 0 0.00132717009794669 0.0036517818245489319 0 0.0013262684959959577 0.0036350382982466779 0 0.0012718274693524893 0.0036650320302910053 0 0.0012718274693524893 0.0036650320302910053 0 0.0012918635748747529 0.0036400404240977194 0 0.0012654884703423867 0.0036433759658038071 0 0.0012654884703423867 0.0036433759658038071 0 0.001304224882047379 0.0036156806208409585 0 0.0012446927989154632 0.00361153412441622 0 0.0012918635748747529 0.0036400404240977194 0 0.0012654884703423867 0.0036433759658038071 0 0.001304224882047379 0.0036156806208409585 0 0.0011446506414985521 0.0037006587151682253 0 0.0012162653059119924 0.0036735296616177875 0 0.0012446927989154632 0.00361153412441622 0 0.0012162653059119924 0.0036735296616177875 0 0.0012654884703423867 0.0036433759658038071 0 0.0012446927989154632 0.00361153412441622 0 0.0011554672792577143 0.0037015300531911162 0 0.0011855231586233783 0.003708410859889967 0 0.0011446506414985521 0.0037006587151682253 0 0.0011047524671390398 0.0038064485664033388 0 0.0011091692110381528 0.003821652531868734 0 0.0011047524671390398 0.0038064485664033388 0 0.0011155106984775912 0.003888171323489766 0 0.0011091692110381528 0.003821652531868734 0 0.0013121150898138161 0.0035868896989922228 0 0.001304224882047379 0.0036156806208409585 0 0.0012446927989154632 0.00361153412441622 0 0.0011927506835449683 0.003715539129554849 0 0.0011855231586233783 0.003708410859889967 0 0.0011142165948402971 0.0038609645758570094 0 0.0011047524671390398 0.0038064485664033388 0 0.0011155106984775912 0.003888171323489766 0 0.0011155106984775912 0.003888171323489766 0 0.0011091692110381528 0.003821652531868734 0 0.0010981822091869647 0.0038639991112365871 0 0.0011091692110381528 0.003821652531868734 0 0.0011088436381288906 0.0038162362813457576 0 0.0010981822091869647 0.0038639991112365871 0 0.0011091692110381528 0.003821652531868734 0 0.0011088436381288906 0.0038162362813457576 0 0.0011276522787377701 0.0037646582979988363 0 0.0011446506414985521 0.0037006587151682253 0 0.0011091692110381528 0.003821652531868734 0 0.0011276522787377701 0.0037646582979988363 0 0.0011446506414985521 0.0037006587151682253 0 0.0011320784899709749 0.0037029531978475588 0 0.0011276522787377701 0.0037646582979988363 0 0.0011320784899709749 0.0037029531978475588 0 0.0011276522787377701 0.0037646582979988363 0 0.0011248538786596076 0.0037357591493936029 0 0.0011320784899709749 0.0037029531978475588 0 0.0011248538786596076 0.0037357591493936029 0 0.0011163153684383535 0.0037125079788900214 0 0.0011276522787377701 0.0037646582979988363 0 0.0011248538786596076 0.0037357591493936029 0 0.0011228620555400598 0.0037684968675485942 0 0.0011248538786596076 0.0037357591493936029 0 0.0011228620555400598 0.0037684968675485942 0 0.0011163153684383535 0.0037125079788900214 0 0.0011088436381288906 0.0038162362813457576 0 0.0011276522787377701 0.0037646582979988363 0 0.0011228620555400598 0.0037684968675485942 0 0.0011088436381288906 0.0038162362813457576 0 0.0011228620555400598 0.0037684968675485942 0 0.0011120396486086299 0.0038174385783601725 0 0.0011228620555400598 0.0037684968675485942 0 0.0011463760132857147 0.0037851644184170386 0 0.0011120396486086299 0.0038174385783601725 0 0.0011228620555400598 0.0037684968675485942 0 0.0011463760132857147 0.0037851644184170386 0 0.0011163153684383535 0.0037125079788900214 0 0.0010772024328989038 0.0037232632309871158 0 0.0010821016451279758 0.00369765458090218 0 0.0010188422639448875 0.0036545216606362692 0 0.0010423550893054799 0.003661140900516357 0 0.0010835966382979373 0.0036868416944786106 0 0.0010423550893054799 0.003661140900516357 0 0.0010835966382979373 0.0036868416944786106 0 0.0010604884926247397 0.0036821903937173774 0 0.00091925520121418508 0.0035698953650394882 0 0.00090940546301094096 0.003550692964515365 0 0.0009242652726170578 0.0035451749693746386 0 0.0009854396711275748 0.0036120846573306957 0 0.00098838367781128129 0.0036195305152308442 0 0.0010835966382979373 0.0036868416944786106 0 0.0011163153684383535 0.0037125079788900214 0 0.0010775138191295764 0.0036870202407473015 0 0.0011463760132857147 0.0037851644184170386 0 0.0010835966382979373 0.0036868416944786106 0 0.0011163153684383535 0.0037125079788900214 0 0.0008940973841384983 0.0035578665986281304 0 0.00087908705019754281 0.0035420700087625536 0 0.00083998087294022146 0.0035333195244669096 0 0.00091925520121418508 0.0035698953650394882 0 0.00091459719631785017 0.0035635592244893984 0 0.00090940546301094096 0.003550692964515365 0 0.00091925520121418508 0.0035698953650394882 0 0.00091459719631785017 0.0035635592244893984 0 0.00094366487403632333 0.0036009980508676701 0 0.00087908705019754281 0.0035420700087625536 0 0.00091459719631785017 0.0035635592244893984 0 0.00090940546301094096 0.003550692964515365 0 0.0008940973841384983 0.0035578665986281304 0 0.00087908705019754281 0.0035420700087625536 0 0.00091459719631785017 0.0035635592244893984 0 0.00090940546301094096 0.003550692964515365 0 0.00088232723154248627 0.0035420849768841747 0 0.0009242652726170578 0.0035451749693746386 0 0.00087908705019754281 0.0035420700087625536 0 0.00090940546301094096 0.003550692964515365 0 0.00088232723154248627 0.0035420849768841747 0 0.00087908705019754281 0.0035420700087625536 0 0.00088232723154248627 0.0035420849768841747 0 0.00081055411782307682 0.0035222826675272672 0 0.00087908705019754281 0.0035420700087625536 0 0.00081055411782307682 0.0035222826675272672 0 0.00083998087294022146 0.0035333195244669096 0 0.00088232723154248627 0.0035420849768841747 0 0.00083692043721246957 0.0035480906208500526 0 0.00081055411782307682 0.0035222826675272672 0 0.00088232723154248627 0.0035420849768841747 0 0.00083692043721246957 0.0035480906208500526 0 0.0008938533755869306 0.0035744351584376007 0 0.00083692043721246957 0.0035480906208500526 0 0.0008938533755869306 0.0035744351584376007 0 0.00086141310561375483 0.0036096632234564937 0 0.0008938533755869306 0.0035744351584376007 0 0.00096697376358646878 0.0036755332813350307 0 0.0009242652726170578 0.0035451749693746386 0 0.0009669511585372664 0.0036811186927258846 0 0.00098838367781128129 0.0036195305152308442 0 0.00088232723154248627 0.0035420849768841747 0 0.0008938533755869306 0.0035744351584376007 0 0.0009242652726170578 0.0035451749693746386 0 0.0008938533755869306 0.0035744351584376007 0 0.00096697376358646878 0.0036755332813350307 0 0.00086141310561375483 0.0036096632234564937 0 0.00083692043721246957 0.0035480906208500526 0 0.00086141310561375483 0.0036096632234564937 0 0.00069411964211663025 0.0035050383140506061 0 0.00086141310561375483 0.0036096632234564937 0 0.0008658691251451821 0.0037287976336036815 0 0.00069411964211663025 0.0035050383140506061 0 0.00096697376358646878 0.0036755332813350307 0 0.00086141310561375483 0.0036096632234564937 0 0.0008658691251451821 0.0037287976336036815 0 0.0011077546921302703 0.0036965173501871092 0 0.0010775138191295764 0.0036870202407473015 0 0.0010905051234746527 0.0037030261427480407 0 0.0011320784899709749 0.0037029531978475588 0 0.0011163153684383535 0.0037125079788900214 0 0.0011077546921302703 0.0036965173501871092 0 0.0011163153684383535 0.0037125079788900214 0 0.0011077546921302703 0.0036965173501871092 0 0.0010775138191295764 0.0036870202407473015 0 0.0010604884926247397 0.0036821903937173774 0 0.0010775138191295764 0.0036870202407473015 0 0.0010468913608150515 0.0036865828769124111 0 0.0010835966382979373 0.0036868416944786106 0 0.0010604884926247397 0.0036821903937173774 0 0.0010775138191295764 0.0036870202407473015 0 0.0010775138191295764 0.0036870202407473015 0 0.0010468913608150515 0.0036865828769124111 0 0.0010905051234746527 0.0037030261427480407 0 0.00096697376358646878 0.0036755332813350307 0 0.0010604884926247397 0.0036821903937173774 0 0.0010468913608150515 0.0036865828769124111 0 0.00096697376358646878 0.0036755332813350307 0 0.0010468913608150515 0.0036865828769124111 0 0.0010426017402796759 0.003723101887856193 0 0.0010468913608150515 0.0036865828769124111 0 0.0010905051234746527 0.0037030261427480407 0 0.0010426017402796759 0.003723101887856193 0 0.0011369485372832973 0.0037124487854910807 0 0.0010905051234746527 0.0037030261427480407 0 0.0011168301418915181 0.0036988478054837183 0 0.0010905051234746527 0.0037030261427480407 0 0.0010821248296859019 0.0037292749795313695 0 0.0010426017402796759 0.003723101887856193 0 0.0011369485372832973 0.0037124487854910807 0 0.0010905051234746527 0.0037030261427480407 0 0.0011105992577880319 0.003742812962160811 0 0.0011077546921302703 0.0036965173501871092 0 0.0010905051234746527 0.0037030261427480407 0 0.0011168301418915181 0.0036988478054837183 0 0.0010905051234746527 0.0037030261427480407 0 0.0011105992577880319 0.003742812962160811 0 0.0010821248296859019 0.0037292749795313695 0 0.0010821248296859019 0.0037292749795313695 0 0.0010803304312641652 0.0037789588035232135 0 0.0010426017402796759 0.003723101887856193 0 0.0011105992577880319 0.003742812962160811 0 0.0010821248296859019 0.0037292749795313695 0 0.0010803304312641652 0.0037789588035232135 0 0.001137835683191916 0.0037989320790762556 0 0.0011105992577880319 0.003742812962160811 0 0.0010803304312641652 0.0037789588035232135 0 0.001137835683191916 0.0037989320790762556 0 0.0010803304312641652 0.0037789588035232135 0 0.0010907103252979051 0.0038611773143290848 0 0.0010803304312641652 0.0037789588035232135 0 0.001007502460882769 0.0038114682629283893 0 0.0010907103252979051 0.0038611773143290848 0 0.00096697376358646878 0.0036755332813350307 0 0.001007502460882769 0.0038114682629283893 0 0.0010426017402796759 0.003723101887856193 0 0.0010803304312641652 0.0037789588035232135 0 0.001007502460882769 0.0038114682629283893 0 0.0010426017402796759 0.003723101887856193 0 0.00096697376358646878 0.0036755332813350307 0 0.001007502460882769 0.0038114682629283893 0 0.0008658691251451821 0.0037287976336036815 0 0.00064787273729793795 0.0035238281500468913 0 0.00068657659903370225 0.0035330535474630857 0 0.00048163442172188169 0.00334261494830668 0 0.00048950133466517344 0.0032158080725943777 0 0.00061467032262637169 0.0033392093695824034 0 0.00037561936746594336 0.003224901772216186 0 0.00048163442172188169 0.00334261494830668 0 0.00048950133466517344 0.0032158080725943777 0 0.00037561936746594336 0.003224901772216186 0 0.00048950133466517344 0.0032158080725943777 0 0.00042071980219212187 0.0031342040527482158 0 0.00048950133466517344 0.0032158080725943777 0 0.00042071980219212187 0.0031342040527482158 0 0.00051267691734143328 0.0030984873055307418 0 0.00048950133466517344 0.0032158080725943777 0 0.00051267691734143328 0.0030984873055307418 0 0.00060192125234688606 0.0032144355013460045 0 0.00047978092248738213 0.0030010750706905712 0 0.00051267691734143328 0.0030984873055307418 0 0.00042424809249647576 0.0030668300804610128 0 0.00042071980219212187 0.0031342040527482158 0 0.00051267691734143328 0.0030984873055307418 0 0.00042424809249647576 0.0030668300804610128 0 0.00039772413621332319 0.0030214443368670948 0 0.00047978092248738213 0.0030010750706905712 0 0.00042424809249647576 0.0030668300804610128 0 0.00042424809249647576 0.0030668300804610128 0 0.0003807671723298841 0.0030515387982978852 0 0.00037241425784768564 0.0030779065519902071 0 0.00042071980219212187 0.0031342040527482158 0 0.00042424809249647576 0.0030668300804610128 0 0.00037241425784768564 0.0030779065519902071 0 0.00039772413621332319 0.0030214443368670948 0 0.00042424809249647576 0.0030668300804610128 0 0.0003807671723298841 0.0030515387982978852 0 0.00033595567086954403 0.0030473604705223123 0 0.00027824225789980508 0.0031312677597420411 0 0.00035319963767052012 0.0031247694653494642 0 0.0003807671723298841 0.0030515387982978852 0 0.00037241425784768564 0.0030779065519902071 0 0.00033595567086954403 0.0030473604705223123 0 0.00039772413621332319 0.0030214443368670948 0 0.0003807671723298841 0.0030515387982978852 0 0.00033595567086954403 0.0030473604705223123 0 0.00037241425784768564 0.0030779065519902071 0 0.00033595567086954403 0.0030473604705223123 0 0.00035319963767052012 0.0031247694653494642 0 0.0009806318907285309 0.002657280024343229 0 0.0012772285006811387 0.0023681312876821948 0 0.0012564503657510027 0.0032796493534478651 0 0.0012327167969557607 0.0032895878022793723 0 0.0012361284979941038 0.0033145053841066247 0 0.0009806318907285309 0.002657280024343229 0 0.0009234984318276596 0.0034061363252391049 0 0.0011854751731432676 0.0014648116146851059 0 0.0011406116669660164 0.0014125656489246551 0 0.0012063516102336148 0.001394602345421701 0 0.0012244830600013766 0.0033057128993457369 0 0.0012327167969557607 0.0032895878022793723 0 0.0012361284979941038 0.0033145053841066247 0 0.001223252143585786 0.0032966970567968835 0 0.0012244830600013766 0.0033057128993457369 0 0.0012327167969557607 0.0032895878022793723 0 0.001199503915089147 0.0035759300325136022 0 0.0009234984318276596 0.0034061363252391049 0 0.0011709328358089253 0.0034028158912701796 0 0.0009234984318276596 0.0034061363252391049 0 0.00064787273729793795 0.0035238281500468913 0 0.0009234984318276596 0.0034061363252391049 0 0.00037561936746594336 0.003224901772216186 0 0.00027824225789980508 0.0031312677597420411 0 0.00035319963767052012 0.0031247694653494642 0 0.00037561936746594336 0.003224901772216186 0 0.00042071980219212187 0.0031342040527482158 0 0.00035319963767052012 0.0031247694653494642 0 0.00042071980219212187 0.0031342040527482158 0 0.00037241425784768564 0.0030779065519902071 0 0.00035319963767052012 0.0031247694653494642 0 0.00073354427735827646 0.0030584670538788793 0 0.00069134120998474427 0.0030507569001505227 0 0.00069366515052220461 0.0031759857885745894 0 0.00073354427735827646 0.0030584670538788793 0 0.00073070752808380925 0.0031359718757361164 0 0.00073251124160078455 0.0030837296110985289 0 0.00073354427735827646 0.0030584670538788793 0 0.00069366515052220461 0.0031759857885745894 0 0.00073070752808380925 0.0031359718757361164 0 0.00074473020701750056 0.0030364727566620829 0 0.00073354427735827646 0.0030584670538788793 0 0.00069134120998474427 0.0030507569001505227 0 0.00059149706130911042 0.0029806931988554182 0 0.00069134120998474427 0.0030507569001505227 0 0.00061836175789921528 0.0031068872080223567 0 0.00059149706130911042 0.0029806931988554182 0 0.00051267691734143328 0.0030984873055307418 0 0.00061836175789921528 0.0031068872080223567 0 0.00051267691734143328 0.0030984873055307418 0 0.00061836175789921528 0.0031068872080223567 0 0.00060192125234688606 0.0032144355013460045 0 0.00061836175789921528 0.0031068872080223567 0 0.00060192125234688606 0.0032144355013460045 0 0.00069366515052220461 0.0031759857885745894 0 0.00069134120998474427 0.0030507569001505227 0 0.00061836175789921528 0.0031068872080223567 0 0.00069366515052220461 0.0031759857885745894 0 0.00060192125234688606 0.0032144355013460045 0 0.00068587598957669149 0.0033378785915438476 0 0.00069366515052220461 0.0031759857885745894 0 0.00048950133466517344 0.0032158080725943777 0 0.00060192125234688606 0.0032144355013460045 0 0.00061467032262637169 0.0033392093695824034 0 0.00060192125234688606 0.0032144355013460045 0 0.00061467032262637169 0.0033392093695824034 0 0.00068587598957669149 0.0033378785915438476 0 0.00068587598957669149 0.0033378785915438476 0 0.00072998543672923594 0.0033431312293085587 0 0.00069366515052220461 0.0031759857885745894 0 0.00072998543672923594 0.0033431312293085587 0 0.00069366515052220461 0.0031759857885745894 0 0.00073590432760255533 0.0032279898993692892 0 0.00069366515052220461 0.0031759857885745894 0 0.00073070752808380925 0.0031359718757361164 0 0.00073590432760255533 0.0032279898993692892 0 0.00073070752808380925 0.0031359718757361164 0 0.00073590432760255533 0.0032279898993692892 0 0.0007619880815837092 0.0031888424186889276 0 0.00072998543672923594 0.0033431312293085587 0 0.00073590432760255533 0.0032279898993692892 0 0.00076598192967379779 0.0032970325247377742 0 0.00073590432760255533 0.0032279898993692892 0 0.00076598192967379779 0.0032970325247377742 0 0.0007619880815837092 0.0031888424186889276 0 0.00072998543672923594 0.0033431312293085587 0 0.00077058683775782348 0.0034044684748792283 0 0.00073333594769860514 0.0034355157886301968 0 0.00072998543672923594 0.0033431312293085587 0 0.00076598192967379779 0.0032970325247377742 0 0.00077058683775782348 0.0034044684748792283 0 0.00068587598957669149 0.0033378785915438476 0 0.00072998543672923594 0.0033431312293085587 0 0.00073333594769860514 0.0034355157886301968 0 0.00073333594769860514 0.0034355157886301968 0 0.00074343865427715244 0.0034882758100767131 0 0.00075131796536739707 0.0034651633668856797 0 0.00077058683775782348 0.0034044684748792283 0 0.00075131796536739707 0.0034651633668856797 0 0.00078303169945465078 0.0034735346811769728 0 0.00077058683775782348 0.0034044684748792283 0 0.00073333594769860514 0.0034355157886301968 0 0.00075131796536739707 0.0034651633668856797 0 0.00068657659903370225 0.0035330535474630857 0 0.00068888656895907266 0.0035115848007993443 0 0.00048163442172188169 0.00334261494830668 0 0.00061467032262637169 0.0033392093695824034 0 0.00069411964211663025 0.0035050383140506061 0 0.00061467032262637169 0.0033392093695824034 0 0.00068587598957669149 0.0033378785915438476 0 0.00069411964211663025 0.0035050383140506061 0 0.00068587598957669149 0.0033378785915438476 0 0.00073333594769860514 0.0034355157886301968 0 0.00069411964211663025 0.0035050383140506061 0 0.00074343865427715244 0.0034882758100767131 0 0.00069411964211663025 0.0035050383140506061 0 0.00077285971388970926 0.0035089320373458345 0 0.00073333594769860514 0.0034355157886301968 0 0.00074343865427715244 0.0034882758100767131 0 0.00069411964211663025 0.0035050383140506061 0 0.00083692043721246957 0.0035480906208500526 0 0.00069411964211663025 0.0035050383140506061 0 0.00081055411782307682 0.0035222826675272672 0 0.00069411964211663025 0.0035050383140506061 0 0.00081055411782307682 0.0035222826675272672 0 0.00077285971388970926 0.0035089320373458345 0 0.00081055411782307682 0.0035222826675272672 0 0.00077285971388970926 0.0035089320373458345 0 0.00083998087294022146 0.0035333195244669096 0 0.00078092623336051172 0.0034817715835048276 0 0.0007163772146117867 0.003595944928629068 0 0.00077285971388970926 0.0035089320373458345 0 0.00076761174555503814 0.0034845322522712215 0 0.00074540145973864041 0.003494177579389534 0 0.00077285971388970926 0.0035089320373458345 0 0.00081267866690494571 0.0035225356592866589 0 0.00083998087294022146 0.0035333195244669096 0 0.00075983747588598879 0.0035365080628456855 0 0.00068270047656330732 0.0035356834943514721 0 0.00078303169945465078 0.0034735346811769728 0 0.00071109649728231714 0.0035094712853035257 0 0.0007790897577934421 0.0034765906288512691 0 0.00075131796536739707 0.0034651633668856797 0 0.00074540145973864041 0.003494177579389534 0 0.00078303169945465078 0.0034735346811769728 0 0.00074343865427715244 0.0034882758100767131 0 0.00075131796536739707 0.0034651633668856797 0 0.00074540145973864041 0.003494177579389534 0 0.00074343865427715244 0.0034882758100767131 0 0.00077285971388970926 0.0035089320373458345 0 0.00074540145973864041 0.003494177579389534 0 0.0007163772146117867 0.003595944928629068 0 0.00071109649728231714 0.0035094712853035257 0 0.00058203598472233086 0.0036041137111739998 0 0.00068270047656330732 0.0035356834943514721 0 0.0006483781801834694 0.0036173243311022445 0 0.00068270047656330732 0.0035356834943514721 0 0.00070182140520982038 0.0036015714661491809 0 0.0006483781801834694 0.0036173243311022445 0 0.00070182140520982038 0.0036015714661491809 0 0.00072651712446025784 0.00356615011109625 0 0.00075985436553613328 0.0035909619951087213 0 0.00075983747588598879 0.0035365080628456855 0 0.00068270047656330732 0.0035356834943514721 0 0.00072651712446025784 0.00356615011109625 0 0.00068270047656330732 0.0035356834943514721 0 0.00070182140520982038 0.0036015714661491809 0 0.00072651712446025784 0.00356615011109625 0 0.00075983747588598879 0.0035365080628456855 0 0.00072651712446025784 0.00356615011109625 0 0.00075985436553613328 0.0035909619951087213 0 0.00070182140520982038 0.0036015714661491809 0 0.00075985436553613328 0.0035909619951087213 0 0.0007505809502080709 0.0036347537455095544 0 0.00037755538213734614 0.0039086258715949132 0 0.00032522647153313553 0.0039263681446742521 0 0.00035752147957787261 0.0039945606451335181 0 0.00062169749530238368 0.0035775470853805168 0 0.00043711247813575568 0.0038067741621901265 0 0.00043711247813575568 0.0038067741621901265 0 0.00051190369136128676 0.0037914802267717518 0 0.00070182140520982038 0.0036015714661491809 0 0.0007505809502080709 0.0036347537455095544 0 0.00067543401517640466 0.0036606929530965527 0 0.00070182140520982038 0.0036015714661491809 0 0.0006483781801834694 0.0036173243311022445 0 0.00067543401517640466 0.0036606929530965527 0 0.0006483781801834694 0.0036173243311022445 0 0.00067543401517640466 0.0036606929530965527 0 0.00059957224409150508 0.0036862808182965305 0 0.00051190369136128676 0.0037914802267717518 0 0.00052108858386189856 0.0038739529089482504 0 0.00032522647153313553 0.0039263681446742521 0 0.00031581919472191395 0.003951699310523412 0 0.00028013178226360391 0.0039437270469410077 0 0.00031581919472191395 0.003951699310523412 0 0.00031716376735992959 0.0040130059486874672 0 0.00027791466543026041 0.0039700184511492044 0 0.00031581919472191395 0.003951699310523412 0 0.00035752147957787261 0.0039945606451335181 0 0.00031716376735992959 0.0040130059486874672 0 0.00032522647153313553 0.0039263681446742521 0 0.00031581919472191395 0.003951699310523412 0 0.00035752147957787261 0.0039945606451335181 0 0.00032177320018028258 0.0039852640160126908 0 0.00034026335433621889 0.0040791267075110417 0 0.00031581919472191395 0.003951699310523412 0 0.00028535835402558531 0.0039661943601922373 0 0.00028013178226360391 0.0039437270469410077 0 -1.8308028686101202e-05 0.0038786717228919761 0 -2.0083802812968898e-05 0.0039367715313982964 0 2.8898907244844214e-06 0.0039073474823829663 0 0.00043711247813575568 0.0038067741621901265 0 0.00013724214506080897 0.0039899352794599934 0 0.00035752147957787261 0.0039945606451335181 0 0.00031716376735992959 0.0040130059486874672 0 0.000336164360115652 0.004079487554133991 0 -2.0083802812968898e-05 0.0039367715313982964 0 -6.1292360461383552e-07 0.003997706944865731 0 6.2437653375569074e-06 0.0039493912195610013 0 0.00013724214506080897 0.0039899352794599934 0 0.00017308201726289773 0.004025992950257672 0 0.00031716376735992959 0.0040130059486874672 0 0.00029783162664194735 0.0040676142414044015 0 0.00027791466543026041 0.0039700184511492044 0 0.00024463291033838676 0.0041853163055575772 0 0.00034026335433621889 0.0040791267075110417 0 0.00031716376735992959 0.0040130059486874672 0 0.00029783162664194735 0.0040676142414044015 0 0.000336164360115652 0.004079487554133991 0 0.00029783162664194735 0.0040676142414044015 0 0.000336164360115652 0.004079487554133991 0 0.00031569771516622944 0.0041602301664908775 0 -6.1292360461383552e-07 0.003997706944865731 0 2.3215465714813434e-05 0.0039826248560768922 0 3.3405908891734013e-05 0.0040258058126679428 0 0.00030165685472742401 0.004229998685325846 0 0.00034642711361421332 0.0042398616975221105 0 0.00032715467850764229 0.0041812201584819995 0 0.00030165685472742401 0.004229998685325846 0 0.00026758236162588358 0.0042675118778457994 0 0.0003196781782526333 0.0042718273665534922 0 0.00030165685472742401 0.004229998685325846 0 0.0003196781782526333 0.0042718273665534922 0 0.00034642711361421332 0.0042398616975221105 0 0.00019649054998131248 0.0042541192399477915 0 0.00026758236162588358 0.0042675118778457994 0 0.00023630447129601719 0.004202547430506136 0 0.00030165685472742401 0.004229998685325846 0 0.00026758236162588358 0.0042675118778457994 0 0.00023630447129601719 0.004202547430506136 0 0.00026758236162588358 0.0042675118778457994 0 0.00024725629597933019 0.00430080611235852 0 0.00030054956407801813 0.0043246086633607368 0 0.00019649054998131248 0.0042541192399477915 0 0.00024725629597933019 0.00430080611235852 0 0.00022476210792228644 0.0043569171912327259 0 0.00019649054998131248 0.0042541192399477915 0 0.00026758236162588358 0.0042675118778457994 0 0.00024725629597933019 0.00430080611235852 0 0.00030054956407801813 0.0043246086633607368 0 0.0003196781782526333 0.0042718273665534922 0 0.00038274756716180169 0.0042904817098054649 0 0.00026758236162588358 0.0042675118778457994 0 0.00030054956407801813 0.0043246086633607368 0 0.0003196781782526333 0.0042718273665534922 0 0.0006401621449855121 0.0039695505643023024 0 0.0006989177773045782 0.0040445909693811359 0 0.00048268475187511907 0.00411218976227726 0 0.00072782593755577225 0.0039035614787264103 0 0.00052108858386189856 0.0038739529089482504 0 0.00076477352902901358 0.0037215659871139908 0 0.00066536191474226127 0.0037526831884307321 0 0.00077204908205048047 0.003753065154163729 0 0.00024725629597933019 0.00430080611235852 0 0.00030054956407801813 0.0043246086633607368 0 0.00022476210792228644 0.0043569171912327259 0 0.0004715723909857979 0.0041576062756099293 0 0.00034026335433621889 0.0040791267075110417 0 0.0006401621449855121 0.0039695505643023024 0 0.00046772350190676503 0.0040482025140260924 0 0.00048268475187511907 0.00411218976227726 0 0.00034026335433621889 0.0040791267075110417 0 0.00052108858386189856 0.0038739529089482504 0 0.0007163772146117867 0.003595944928629068 0 0.00052108858386189856 0.0038739529089482504 0 0.00058203598472233086 0.0036041137111739998 0 0.0006483781801834694 0.0036173243311022445 0 0.00059957224409150508 0.0036862808182965305 0 0.00068008125336507656 0.0038134807277531301 0 0.00066536191474226127 0.0037526831884307321 0 0.00077204908205048047 0.003753065154163729 0 0.00081267866690494571 0.0035225356592866589 0 0.00083998087294022146 0.0035333195244669096 0 0.00087866609197617663 0.0035500050986553289 0 0.0007163772146117867 0.003595944928629068 0 0.00082329684638550189 0.0036534360334399131 0 0.0008940973841384983 0.0035578665986281304 0 0.00087866609197617663 0.0035500050986553289 0 0.00094366487403632333 0.0036009980508676701 0 0.0008940973841384983 0.0035578665986281304 0 0.00083998087294022146 0.0035333195244669096 0 0.00087866609197617663 0.0035500050986553289 0 0.0008940973841384983 0.0035578665986281304 0 0.00091459719631785017 0.0035635592244893984 0 0.00094366487403632333 0.0036009980508676701 0 0.00094366487403632333 0.0036009980508676701 0 0.00096144208909281067 0.0036144727325813403 0 0.00098468180530479556 0.0036405756703266896 0 0.00087866609197617663 0.0035500050986553289 0 0.00094366487403632333 0.0036009980508676701 0 0.00096144208909281067 0.0036144727325813403 0 0.00072782593755577225 0.0039035614787264103 0 0.00094272937359068248 0.0037365002708008139 0 0.00082329684638550189 0.0036534360334399131 0 0.00094272937359068248 0.0037365002708008139 0 0.00076477352902901358 0.0037215659871139908 0 0.00077204908205048047 0.003753065154163729 0 0.0008693339592439548 0.0036906920220747615 0 0.0010772024328989038 0.0037232632309871158 0 0.0010445288540839495 0.0037675470857869335 0 0.0010188422639448875 0.0036545216606362692 0 0.00099030022062663084 0.0036489692216898316 0 0.00098302110165176333 0.0036774230931318468 0 0.0010188422639448875 0.0036545216606362692 0 0.0010423550893054799 0.003661140900516357 0 0.00099030022062663084 0.0036489692216898316 0 0.0009854396711275748 0.0036120846573306957 0 0.00098904018355958317 0.0036385550938237568 0 0.00091925520121418508 0.0035698953650394882 0 0.00094366487403632333 0.0036009980508676701 0 0.00099030022062663084 0.0036489692216898316 0 0.00094366487403632333 0.0036009980508676701 0 0.00099030022062663084 0.0036489692216898316 0 0.00098468180530479556 0.0036405756703266896 0 0.00096144208909281067 0.0036144727325813403 0 0.00098468180530479556 0.0036405756703266896 0 0.0010199789706851125 0.0036932971641667873 0 0.00098468180530479556 0.0036405756703266896 0 0.0010096037990653718 0.0036943999171123038 0 0.0010199789706851125 0.0036932971641667873 0 0.00099030022062663084 0.0036489692216898316 0 0.00098468180530479556 0.0036405756703266896 0 0.0010096037990653718 0.0036943999171123038 0 0.00099030022062663084 0.0036489692216898316 0 0.0010096037990653718 0.0036943999171123038 0 0.00098302110165176333 0.0036774230931318468 0 0.0010096037990653718 0.0036943999171123038 0 0.00098302110165176333 0.0036774230931318468 0 0.0010089326739730878 0.0037548687433782927 0 0.001021431739875083 0.0037396092035895875 0 0.0010307626856517925 0.0037284045045531417 0 0.0010326090566644215 0.0038368942956547537 0 0.0010163780725051825 0.0037551730946584518 0 0.0010089326739730878 0.0037548687433782927 0 0.0010178521894114478 0.0038119822328673684 0 0.0010163780725051825 0.0037551730946584518 0 0.001021431739875083 0.0037396092035895875 0 0.0010326090566644215 0.0038368942956547537 0 0.0010096037990653718 0.0036943999171123038 0 0.0010163780725051825 0.0037551730946584518 0 0.0010089326739730878 0.0037548687433782927 0 0.0010096037990653718 0.0036943999171123038 0 0.001021431739875083 0.0037396092035895875 0 0.0010199789706851125 0.0036932971641667873 0 0.0010096037990653718 0.0036943999171123038 0 0.0010163780725051825 0.0037551730946584518 0 0.001021431739875083 0.0037396092035895875 0 0.00094272937359068248 0.0037365002708008139 0 0.0010494810356771744 0.003665942548987534 0 0.00094272937359068248 0.0037365002708008139 0 0.0010272051075717586 0.0038151590013930669 0 0.0011108251388807146 0.0036629561489660754 0 0.0010307626856517925 0.0037284045045531417 0 0.0010199789706851125 0.0036932971641667873 0 0.001021431739875083 0.0037396092035895875 0 0.0010307626856517925 0.0037284045045531417 0 0.0010199789706851125 0.0036932971641667873 0 0.0010180860364781843 0.0038794133504502061 0 0.00099862760095882175 0.0038642706498095611 0 0.0010101216723414303 0.0038624289359332031 0 0.0010180860364781843 0.0038794133504502061 0 0.0009713680848733898 0.003880828990770151 0 0.00094523805668341311 0.003904140992076172 0 0.0009713680848733898 0.003880828990770151 0 0.00097428563005546611 0.0038308151565147183 0 0.00094523805668341311 0.003904140992076172 0 0.0010180860364781843 0.0038794133504502061 0 0.00099862760095882175 0.0038642706498095611 0 0.0009713680848733898 0.003880828990770151 0 0.00099862760095882175 0.0038642706498095611 0 0.0009713680848733898 0.003880828990770151 0 0.00098729241408090831 0.0038488052862696042 0 0.0009907884241262062 0.0038408304661381901 0 0.0010178389916156293 0.0038524140715705804 0 0.0010392271503182181 0.0038658201239464827 0 0.00087179213035284693 0.0040159820533730893 0 0.0011088151888529907 0.0038118384197797796 0 0.0010769483774834456 0.0038700660756686568 0 0.0010392271503182181 0.0038658201239464827 0 0.0010603093215847633 0.0038877497527787172 0 0.0010769483774834456 0.0038700660756686568 0 0.0010603093215847633 0.0038877497527787172 0 0.0010651634174878872 0.0039194189195835673 0 0.0010005719086212833 0.0038526012603900825 0 0.0009907884241262062 0.0038408304661381901 0 0.0010178389916156293 0.0038524140715705804 0 0.0009713680848733898 0.003880828990770151 0 0.00098729241408090831 0.0038488052862696042 0 0.00097428563005546611 0.0038308151565147183 0 0.00098729241408090831 0.0038488052862696042 0 0.0010005719086212833 0.0038526012603900825 0 0.0009907884241262062 0.0038408304661381901 0 0.00087252555043055213 0.0039916438816282821 0 0.00087179213035284693 0.0040159820533730893 0 0.00099862760095882175 0.0038642706498095611 0 0.00098729241408090831 0.0038488052862696042 0 0.0010005719086212833 0.0038526012603900825 0 0.00099862760095882175 0.0038642706498095611 0 0.0010005719086212833 0.0038526012603900825 0 0.0010101216723414303 0.0038624289359332031 0 0.0010180860364781843 0.0038794133504502061 0 0.0010178389916156293 0.0038524140715705804 0 0.0010101216723414303 0.0038624289359332031 0 0.0010005719086212833 0.0038526012603900825 0 0.0010178389916156293 0.0038524140715705804 0 0.0010101216723414303 0.0038624289359332031 0 0.0010272051075717586 0.0038151590013930669 0 0.001021180726996349 0.0038332158128633722 0 0.0010180860364781843 0.0038794133504502061 0 0.0010178389916156293 0.0038524140715705804 0 0.0010326090566644215 0.0038368942956547537 0 0.0010178389916156293 0.0038524140715705804 0 0.0010392271503182181 0.0038658201239464827 0 0.0010326090566644215 0.0038368942956547537 0 0.0010392271503182181 0.0038658201239464827 0 0.0010326090566644215 0.0038368942956547537 0 0.0010308976742879454 0.0038538274501007867 0 0.0010163780725051825 0.0037551730946584518 0 0.0010326090566644215 0.0038368942956547537 0 0.0010178521894114478 0.0038119822328673684 0 0.0010326090566644215 0.0038368942956547537 0 0.0010308976742879454 0.0038538274501007867 0 0.0010178521894114478 0.0038119822328673684 0 0.0006401621449855121 0.0039695505643023024 0 0.0006989177773045782 0.0040445909693811359 0 0.00081280460099858746 0.0038925516519218166 0 0.0006989177773045782 0.0040445909693811359 0 0.00091142306463326854 0.0039742515384948805 0 0.00081280460099858746 0.0038925516519218166 0 0.0004715723909857979 0.0041576062756099293 0 0.00056945438621033037 0.0041004431721518141 0 0.00087179213035284693 0.0040159820533730893 0 0.00056945438621033037 0.0041004431721518141 0 0.00091142306463326854 0.0039742515384948805 0 0.0010180860364781843 0.0038794133504502061 0 0.00094523805668341311 0.003904140992076172 0 0.00097428563005546611 0.0038308151565147183 0 0.00081280460099858746 0.0038925516519218166 0 0.00094523805668341311 0.003904140992076172 0 0.00091142306463326854 0.0039742515384948805 0 0.00081280460099858746 0.0038925516519218166 0 0.00094523805668341311 0.003904140992076172 0 0.00046770220368886218 0.0042517520084347634 0 0.00040191037685728312 0.0042263775897207045 0 0.00040167714207138018 0.0041605487578088747 0 0.00046770220368886218 0.0042517520084347634 0 0.00038274756716180169 0.0042904817098054649 0 0.00040191037685728312 0.0042263775897207045 0 0.00040191037685728312 0.0042263775897207045 0 0.00034642711361421332 0.0042398616975221105 0 0.00032715467850764229 0.0041812201584819995 0 0.0003196781782526333 0.0042718273665534922 0 0.00038274756716180169 0.0042904817098054649 0 0.00034642711361421332 0.0042398616975221105 0 0.00038274756716180169 0.0042904817098054649 0 0.00040191037685728312 0.0042263775897207045 0 0.00034642711361421332 0.0042398616975221105 0 0.00040191037685728312 0.0042263775897207045 0 0.00040167714207138018 0.0041605487578088747 0 0.00032715467850764229 0.0041812201584819995 0 0.00087179213035284693 0.0040159820533730893 0 0.00074201267266751924 0.0040595319650512402 0 0.0010769483774834456 0.0038700660756686568 0 0.0011135076004915865 0.0039465332489748844 0 0.0010651634174878872 0.0039194189195835673 0 0.0011135076004915865 0.0039465332489748844 0 0.0010548947104027525 0.0039850992303198324 0 0.001066109401736629 0.0040680894205060401 0 0.0011135076004915865 0.0039465332489748844 0 0.0010651634174878872 0.0039194189195835673 0 0.0010548947104027525 0.0039850992303198324 0 0.00074201267266751924 0.0040595319650512402 0 0.00074194003742896353 0.0041011041527706533 0 0.00040167714207138018 0.0041605487578088747 0 0.00033578707511415577 0.0040709036488553547 0 0.00032715467850764229 0.0041812201584819995 0 0.0011135076004915865 0.0039465332489748844 0 0.0011583542364117399 0.0041355095895625801 0 0.001066109401736629 0.0040680894205060401 0 0.0010392271503182181 0.0038658201239464827 0 0.0010365408554262893 0.0038940280817920401 0 0.0010513277746840727 0.0038995870301864795 0 0.0010392271503182181 0.0038658201239464827 0 0.0010365408554262893 0.0038940280817920401 0 0.0010308976742879454 0.0038538274501007867 0 0.0010392271503182181 0.0038658201239464827 0 0.0010513277746840727 0.0038995870301864795 0 0.0010603093215847633 0.0038877497527787172 0 0.0010365408554262893 0.0038940280817920401 0 0.0010513277746840727 0.0038995870301864795 0 0.0010464165859681296 0.0039374461297477402 0 0.0010513277746840727 0.0038995870301864795 0 0.0010651634174878872 0.0039194189195835673 0 0.0010464165859681296 0.0039374461297477402 0 0.0010513277746840727 0.0038995870301864795 0 0.0010603093215847633 0.0038877497527787172 0 0.0010651634174878872 0.0039194189195835673 0 0.0010651634174878872 0.0039194189195835673 0 0.0010548947104027525 0.0039850992303198324 0 0.0010464165859681296 0.0039374461297477402 0 0.0010548947104027525 0.0039850992303198324 0 0.0010464165859681296 0.0039374461297477402 0 0.0010428195681933515 0.0039759969578626207 0 0.0010464165859681296 0.0039374461297477402 0 0.0010416414461416178 0.0039377753383908433 0 0.0010428195681933515 0.0039759969578626207 0 0.0010365408554262893 0.0038940280817920401 0 0.0010464165859681296 0.0039374461297477402 0 0.0010416414461416178 0.0039377753383908433 0 0.0010428195681933515 0.0039759969578626207 0 0.0010421173576504875 0.0040006786592339258 0 0.0010490408604327871 0.0039502224073061712 0 0.0010416414461416178 0.0039377753383908433 0 0.0010428195681933515 0.0039759969578626207 0 0.0010490408604327871 0.0039502224073061712 0 0.0010488860544604374 0.004028646354916351 0 0.00104647523662485 0.0040961725236830582 0 0.001066109401736629 0.0040680894205060401 0 0.0010428195681933515 0.0039759969578626207 0 0.0010488860544604374 0.004028646354916351 0 0.0010421173576504875 0.0040006786592339258 0 0.0010548947104027525 0.0039850992303198324 0 0.0010428195681933515 0.0039759969578626207 0 0.0010488860544604374 0.004028646354916351 0 0.0010548947104027525 0.0039850992303198324 0 0.0010488860544604374 0.004028646354916351 0 0.001066109401736629 0.0040680894205060401 0 0.0010488860544604374 0.004028646354916351 0 0.00104647523662485 0.0040961725236830582 0 0.0010421173576504875 0.0040006786592339258 0 0.00104647523662485 0.0040961725236830582 0 0.0010421173576504875 0.0040006786592339258 0 0.0010451408634580088 0.0039716861126621213 0 0.0012105533674923123 0.0043349868631642084 0 0.0014678185057314511 0.0043621990878112684 0 0.0010421173576504875 0.0040006786592339258 0 0.0010490408604327871 0.0039502224073061712 0 0.0010451408634580088 0.0039716861126621213 0 0.0011583542364117399 0.0041355095895625801 0 0.0010909797064295884 0.0041591720429573912 0 0.001066109401736629 0.0040680894205060401 0 0.0011583542364117399 0.0041355095895625801 0 0.0010909797064295884 0.0041591720429573912 0 0.0011091889361454733 0.004310216418248955 0 0.00104647523662485 0.0040961725236830582 0 0.0010909797064295884 0.0041591720429573912 0 0.0011091889361454733 0.004310216418248955 0 0.00104647523662485 0.0040961725236830582 0 0.0010909797064295884 0.0041591720429573912 0 0.001066109401736629 0.0040680894205060401 0 0.0012105533674923123 0.0043349868631642084 0 0.0011377786165490493 0.0043126263713610348 0 0.0011583542364117399 0.0041355095895625801 0 0.0011091889361454733 0.004310216418248955 0 0.0010734338660145562 0.0043716202406570382 0 0.00074194003742896353 0.0041011041527706533 0 0.00066207823096299404 0.0041710267614421667 0 0.00033578707511415577 0.0040709036488553547 0 0.00026397552962317529 0.0039891012935891965 0 0.00026424160885722258 0.0040399881744715618 0 0.00033578707511415577 0.0040709036488553547 0 0.00023531032687584553 0.0040860339849519752 0 0.00026424160885722258 0.0040399881744715618 0 0.00023531032687584553 0.0040860339849519752 0 0.00022326042085589224 0.0040184535294879118 0 0.00017846769513205139 0.004044731351837849 0 0.00023531032687584553 0.0040860339849519752 0 0.00026424160885722258 0.0040399881744715618 0 0.00022326042085589224 0.0040184535294879118 0 0.00026397552962317529 0.0039891012935891965 0 0.00026424160885722258 0.0040399881744715618 0 0.00022326042085589224 0.0040184535294879118 0 0.00026397552962317529 0.0039891012935891965 0 0.00022326042085589224 0.0040184535294879118 0 0.00022962777610227898 0.003985438163917018 0 0.00022326042085589224 0.0040184535294879118 0 0.00016009197963678341 0.0039852877779817386 0 0.00017846769513205139 0.004044731351837849 0 0.00022326042085589224 0.0040184535294879118 0 0.00016009197963678341 0.0039852877779817386 0 0.00022962777610227898 0.003985438163917018 0 0.00016009197963678341 0.0039852877779817386 0 0.00010836685578821007 0.0040552721481814874 0 0.00017846769513205139 0.004044731351837849 0 0.00019039250075822699 0.0040065513076310072 0 0.0001010937975182538 0.0040529962032276115 0 0.00022457220652627525 0.0040248808885445016 0 0.00013174853319429912 0.0040659136965006176 0 0.00013657040583175441 0.0040404263383168109 0 0.00016009197963678341 0.0039852877779817386 0 6.6433304351005274e-05 0.0040481091395020213 0 0.00010836685578821007 0.0040552721481814874 0 0.00022457220652627525 0.0040248808885445016 0 0.00015173662605214936 0.0040134287762950494 0 0.00013657040583175441 0.0040404263383168109 0 6.6433304351005274e-05 0.0040481091395020213 0 0.00010836685578821007 0.0040552721481814874 0 5.6945224146762516e-05 0.0040513434069481095 0 0.00023531032687584553 0.0040860339849519752 0 0.00017846769513205139 0.004044731351837849 0 0.00016476290029500621 0.0040999793833786371 0 0.00010836685578821007 0.0040552721481814874 0 0.00017846769513205139 0.004044731351837849 0 0.00016476290029500621 0.0040999793833786371 0 0.00010836685578821007 0.0040552721481814874 0 0.00016476290029500621 0.0040999793833786371 0 0.00015032956012796735 0.0041843718225865025 0 8.7281416384346537e-05 0.0040466520395296655 0 0.00017971702698916126 0.0041219643069638585 0 0.00023531032687584553 0.0040860339849519752 0 0.00016476290029500621 0.0040999793833786371 0 0.00021266501131419541 0.0041364863199559515 0 0.00016476290029500621 0.0040999793833786371 0 0.00016323123758566637 0.0041488914421759261 0 0.00021266501131419541 0.0041364863199559515 0 0.00016454550747091633 0.004123135649880762 0 0.00017971702698916126 0.0041219643069638585 0 3.5401560248749596e-05 0.0040437757547085833 0 5.6945224146762516e-05 0.0040513434069481095 0 3.3405908891734013e-05 0.0040258058126679428 0 0.00010836685578821007 0.0040552721481814874 0 3.5401560248749596e-05 0.0040437757547085833 0 5.6945224146762516e-05 0.0040513434069481095 0 -6.1292360461383552e-07 0.003997706944865731 0 3.5401560248749596e-05 0.0040437757547085833 0 3.3405908891734013e-05 0.0040258058126679428 0 0.00024463291033838676 0.0041853163055575772 0 0.00017971702698916126 0.0041219643069638585 0 0.00016323123758566637 0.0041488914421759261 0 0.00023630447129601719 0.004202547430506136 0 0.00021266501131419541 0.0041364863199559515 0 0.00019649054998131248 0.0042541192399477915 0 0.00016323123758566637 0.0041488914421759261 0 0.00023630447129601719 0.004202547430506136 0 0.00017308201726289773 0.004025992950257672 0 0.00017971702698916126 0.0041219643069638585 0 0.00023630447129601719 0.004202547430506136 0 0.00021266501131419541 0.0041364863199559515 0 0.00026440785255109632 0.0041406425460665756 0 0.00030165685472742401 0.004229998685325846 0 0.00023630447129601719 0.004202547430506136 0 0.00032715467850764229 0.0041812201584819995 0 0.00023630447129601719 0.004202547430506136 0 0.00032715467850764229 0.0041812201584819995 0 0.00026440785255109632 0.0041406425460665756 0 0.00033578707511415577 0.0040709036488553547 0 0.00023531032687584553 0.0040860339849519752 0 0.00026440785255109632 0.0041406425460665756 0 0.00033578707511415577 0.0040709036488553547 0 0.00032715467850764229 0.0041812201584819995 0 0.00026440785255109632 0.0041406425460665756 0 0.00023531032687584553 0.0040860339849519752 0 0.00021266501131419541 0.0041364863199559515 0 0.00026440785255109632 0.0041406425460665756 0 0.001498342869918065 0.0037872168899869448 0 0.0016107729415817307 0.0037714732493036997 0 0.0016034818589138432 0.0038658639705481694 0 0.001498342869918065 0.0037872168899869448 0 0.0015037010414853907 0.0038744396425737454 0 0.0016034818589138432 0.0038658639705481694 0 0.0016957145488890593 0.0038235583413641226 0 0.0016107729415817307 0.0037714732493036997 0 0.0016034818589138432 0.0038658639705481694 0 0.0016107729415817307 0.0037714732493036997 0 0.0015335297342391955 0.0037068217659685268 0 0.0016552685040931603 0.0037085026832973105 0 0.0016986567832796146 0.0037569050475599369 0 0.0016107729415817307 0.0037714732493036997 0 0.0016552685040931603 0.0037085026832973105 0 0.001498342869918065 0.0037872168899869448 0 0.0016107729415817307 0.0037714732493036997 0 0.0015335297342391955 0.0037068217659685268 0 0.001498342869918065 0.0037872168899869448 0 0.001377835133948692 0.0037443104016571358 0 0.0013679717561785845 0.0038800673436108694 0 0.001498342869918065 0.0037872168899869448 0 0.001377835133948692 0.0037443104016571358 0 0.0015335297342391955 0.0037068217659685268 0 0.001498342869918065 0.0037872168899869448 0 0.0013679717561785845 0.0038800673436108694 0 0.0015037010414853907 0.0038744396425737454 0 0.0013679717561785845 0.0038800673436108694 0 0.0015105417461105488 0.0039675395878895243 0 0.0015037010414853907 0.0038744396425737454 0 0.0013679717561785845 0.0038800673436108694 0 0.0015105417461105488 0.0039675395878895243 0 0.0013450298625407356 0.0039843990385307233 0 0.0015105417461105488 0.0039675395878895243 0 0.0015037010414853907 0.0038744396425737454 0 0.0016034818589138432 0.0038658639705481694 0 0.0016692983270102997 0.003937975719843988 0 0.0016957145488890593 0.0038235583413641226 0 0.0016034818589138432 0.0038658639705481694 0 0.0016692983270102997 0.003937975719843988 0 0.0015105417461105488 0.0039675395878895243 0 0.0016252150350281609 0.0040095993839916319 0 0.0016692983270102997 0.003937975719843988 0 0.0015105417461105488 0.0039675395878895243 0 0.0016034818589138432 0.0038658639705481694 0 0.0015105417461105488 0.0039675395878895243 0 0.0016252150350281609 0.0040095993839916319 0 0.0015960199810537967 0.0041138831697519092 0 0.0017219117721810611 0.0040625136436338747 0 0.0016252150350281609 0.0040095993839916319 0 0.0015960199810537967 0.0041138831697519092 0 0.0015105417461105488 0.0039675395878895243 0 0.0015960199810537967 0.0041138831697519092 0 0.0014392169275538901 0.0040588469179389467 0 0.0015960199810537967 0.0041138831697519092 0 0.0015062520158268639 0.0041679086047310739 0 0.0014392169275538901 0.0040588469179389467 0 0.0017250009210447448 0.0042391356597035511 0 0.0015960199810537967 0.0041138831697519092 0 0.0016238517306146668 0.0042684960380709952 0 0.0015960199810537967 0.0041138831697519092 0 0.0016238517306146668 0.0042684960380709952 0 0.0015062520158268639 0.0041679086047310739 0 0.0016238517306146668 0.0042684960380709952 0 0.0015062520158268639 0.0041679086047310739 0 0.0014971529667451812 0.0043390233431599553 0 0.0016848066494407215 0.0044017604550934467 0 0.0016238517306146668 0.0042684960380709952 0 0.0014971529667451812 0.0043390233431599553 0 0.0014160043719437872 0.0041991296750517023 0 0.0013350232566717154 0.0041020980644156614 0 0.0015062520158268639 0.0041679086047310739 0 0.0014971529667451812 0.0043390233431599553 0 0.0013117251436561021 0.0040688800586373541 0 0.0015062520158268639 0.0041679086047310739 0 0.0013117251436561021 0.0040688800586373541 0 0.0014392169275538901 0.0040588469179389467 0 0.0012986367491723296 0.0040964626227069107 0 0.0013708743511343952 0.0040808851963706301 0 0.0013117251436561021 0.0040688800586373541 0 0.0013117251436561021 0.0040688800586373541 0 0.0014392169275538901 0.0040588469179389467 0 0.0013450298625407356 0.0039843990385307233 0 0.0015105417461105488 0.0039675395878895243 0 0.0014392169275538901 0.0040588469179389467 0 0.0013450298625407356 0.0039843990385307233 0 0.0013117251436561021 0.0040688800586373541 0 0.0013450298625407356 0.0039843990385307233 0 0.0012057599494884924 0.0039450866410907027 0 0.0012986367491723296 0.0040964626227069107 0 0.0013117251436561021 0.0040688800586373541 0 0.0011429137123024403 0.0039870503688378732 0 0.0013117251436561021 0.0040688800586373541 0 0.0012057599494884924 0.0039450866410907027 0 0.0011429137123024403 0.0039870503688378732 0 0.0012057599494884924 0.0039450866410907027 0 0.0011429137123024403 0.0039870503688378732 0 0.0011116116907740163 0.0039169493942802797 0 0.0012057599494884924 0.0039450866410907027 0 0.001153654087929445 0.0038810467578448138 0 0.0011116116907740163 0.0039169493942802797 0 0.0012057599494884924 0.0039450866410907027 0 0.001153654087929445 0.0038810467578448138 0 0.0012381624781544736 0.0038263016977665228 0 0.0013679717561785845 0.0038800673436108694 0 0.0012057599494884924 0.0039450866410907027 0 0.0012381624781544736 0.0038263016977665228 0 0.0013679717561785845 0.0038800673436108694 0 0.0013450298625407356 0.0039843990385307233 0 0.0012057599494884924 0.0039450866410907027 0 0.001377835133948692 0.0037443104016571358 0 0.0013679717561785845 0.0038800673436108694 0 0.0012381624781544736 0.0038263016977665228 0 0.001153654087929445 0.0038810467578448138 0 0.0012381624781544736 0.0038263016977665228 0 0.0011329761021973803 0.0038148274767872319 0 0.0012381624781544736 0.0038263016977665228 0 0.0011329761021973803 0.0038148274767872319 0 0.001244521041217342 0.0036738527736673221 0 0.0011329761021973803 0.0038148274767872319 0 0.0010616812317500463 0.0038412143936157627 0 0.0011010269804167722 0.0038706736112526174 0 0.0010616812317500463 0.0038412143936157627 0 0.0011010269804167722 0.0038706736112526174 0 0.0010750270797274945 0.0038692555472658857 0 0.001153654087929445 0.0038810467578448138 0 0.0011010269804167722 0.0038706736112526174 0 0.0011116116907740163 0.0039169493942802797 0 0.001153654087929445 0.0038810467578448138 0 0.0011329761021973803 0.0038148274767872319 0 0.0011010269804167722 0.0038706736112526174 0 0.0011155106984775912 0.003888171323489766 0 0.0011429137123024403 0.0039870503688378732 0 0.0011116116907740163 0.0039169493942802797 0 0.0011155106984775912 0.003888171323489766 0 0.0011116116907740163 0.0039169493942802797 0 0.0010981822091869647 0.0038639991112365871 0 0.0011010269804167722 0.0038706736112526174 0 0.0011116116907740163 0.0039169493942802797 0 0.0010750270797274945 0.0038692555472658857 0 0.0011116116907740163 0.0039169493942802797 0 0.0010981822091869647 0.0038639991112365871 0 0.0010750270797274945 0.0038692555472658857 0 0.0010981822091869647 0.0038639991112365871 0 0.0010750270797274945 0.0038692555472658857 0 0.0010942320365302882 0.0038469920707922497 0 0.0011088436381288906 0.0038162362813457576 0 0.0010981822091869647 0.0038639991112365871 0 0.0010942320365302882 0.0038469920707922497 0 0.0010942320365302882 0.0038469920707922497 0 0.0011120396486086299 0.0038174385783601725 0 0.0010958178601243919 0.003861879095594066 0 0.0011463760132857147 0.0037851644184170386 0 0.0011120396486086299 0.0038174385783601725 0 0.0010958178601243919 0.003861879095594066 0 0.0011088436381288906 0.0038162362813457576 0 0.0010942320365302882 0.0038469920707922497 0 0.0011120396486086299 0.0038174385783601725 0 0.0010750270797274945 0.0038692555472658857 0 0.0010942320365302882 0.0038469920707922497 0 0.0010958178601243919 0.003861879095594066 0 0.0010750270797274945 0.0038692555472658857 0 0.0010958178601243919 0.003861879095594066 0 0.0010283037062604541 0.0038321466767825755 0 0.0010445288540839495 0.0037675470857869335 0 0.0010303933644714659 0.0038187014245901272 0 0.00098302110165176333 0.0036774230931318468 0 0.0010089326739730878 0.0037548687433782927 0 0.0010283037062604541 0.0038321466767825755 0 0.0010089326739730878 0.0037548687433782927 0 0.0010283037062604541 0.0038321466767825755 0 0.0010178521894114478 0.0038119822328673684 0 0.0010616812317500463 0.0038412143936157627 0 0.0010750270797274945 0.0038692555472658857 0 0.0010283037062604541 0.0038321466767825755 0 0.0010616812317500463 0.0038412143936157627 0 0.0010283037062604541 0.0038321466767825755 0 0.0010330800288930863 0.0038573488011562156 0 0.0010283037062604541 0.0038321466767825755 0 0.0010178521894114478 0.0038119822328673684 0 0.0010330800288930863 0.0038573488011562156 0 0.0010308976742879454 0.0038538274501007867 0 0.0010178521894114478 0.0038119822328673684 0 0.0010330800288930863 0.0038573488011562156 0 0.0010365408554262893 0.0038940280817920401 0 0.0010330800288930863 0.0038573488011562156 0 0.0010440460364408339 0.003905815419618203 0 0.0010365408554262893 0.0038940280817920401 0 0.0010308976742879454 0.0038538274501007867 0 0.0010330800288930863 0.0038573488011562156 0 0.0010616812317500463 0.0038412143936157627 0 0.0010330800288930863 0.0038573488011562156 0 0.0010583607791520109 0.0038636097053721661 0 0.0010330800288930863 0.0038573488011562156 0 0.0010583607791520109 0.0038636097053721661 0 0.0010440460364408339 0.003905815419618203 0 0.0010583607791520109 0.0038636097053721661 0 0.0010440460364408339 0.003905815419618203 0 0.0010705803382957456 0.0039024961756530664 0 0.0010416414461416178 0.0039377753383908433 0 0.0010440460364408339 0.003905815419618203 0 0.0010490408604327871 0.0039502224073061712 0 0.0010365408554262893 0.0038940280817920401 0 0.0010416414461416178 0.0039377753383908433 0 0.0010440460364408339 0.003905815419618203 0 0.0010440460364408339 0.003905815419618203 0 0.0010490408604327871 0.0039502224073061712 0 0.0010705803382957456 0.0039024961756530664 0 0.0010595500456833718 0.0039302459485484687 0 0.0010761356965409816 0.003880303863660348 0 0.0010451408634580088 0.0039716861126621213 0 0.0010490408604327871 0.0039502224073061712 0 0.0010595500456833718 0.0039302459485484687 0 0.0010774895249665551 0.0039120058435186912 0 0.0010490408604327871 0.0039502224073061712 0 0.0010595500456833718 0.0039302459485484687 0 0.0010451408634580088 0.0039716861126621213 0 0.001111167402578946 0.0038882749655227652 0 0.0010774895249665551 0.0039120058435186912 0 0.0011342744026121047 0.0039033759617168886 0 0.001111167402578946 0.0038882749655227652 0 0.0010774895249665551 0.0039120058435186912 0 0.0010761356965409816 0.003880303863660348 0 0.0010595500456833718 0.0039302459485484687 0 0.0010774895249665551 0.0039120058435186912 0 0.0010761356965409816 0.003880303863660348 0 0.0010774895249665551 0.0039120058435186912 0 0.0010705803382957456 0.0039024961756530664 0 0.0011342744026121047 0.0039033759617168886 0 0.0010490408604327871 0.0039502224073061712 0 0.0010774895249665551 0.0039120058435186912 0 0.0010705803382957456 0.0039024961756530664 0 0.0010583607791520109 0.0038636097053721661 0 0.0010705803382957456 0.0039024961756530664 0 0.0011299638630072951 0.0037792049751648763 0 0.0010705803382957456 0.0039024961756530664 0 0.0011342744026121047 0.0039033759617168886 0 0.0012258655755897998 0.0039904350151988557 0 0.0010767112119502006 0.0038990171001775167 0 0.0012117101816719023 0.0038879573346673499 0 0.0011342744026121047 0.0039033759617168886 0 0.0012111342362667267 0.0038853970769325711 0 0.0012258655755897998 0.0039904350151988557 0 0.0011342744026121047 0.0039033759617168886 0 0.0012111342362667267 0.0038853970769325711 0 0.0011665259823869813 0.0038502115114260557 0 0.001111167402578946 0.0038882749655227652 0 0.0011342744026121047 0.0039033759617168886 0 0.0011665259823869813 0.0038502115114260557 0 0.001301944963926572 0.0038990532548412562 0 0.0014752149156073717 0.0038649044719190236 0 0.0012128765042334715 0.0038032191576891938 0 0.001301944963926572 0.0038990532548412562 0 0.0012111342362667267 0.0038853970769325711 0 0.0012128765042334715 0.0038032191576891938 0 0.001301944963926572 0.0038990532548412562 0 0.0012111342362667267 0.0038853970769325711 0 0.0012258655755897998 0.0039904350151988557 0 0.001301944963926572 0.0038990532548412562 0 0.0012258655755897998 0.0039904350151988557 0 0.001371013821263077 0.0039460275870920863 0 0.0011299638630072951 0.0037792049751648763 0 0.0011768501874139998 0.0038800839462452465 0 0.0013132863068378794 0.0037618746876393887 0 0.0010583607791520109 0.0038636097053721661 0 0.0011299638630072951 0.0037792049751648763 0 0.0011768501874139998 0.0038800839462452465 0 0.0010692499465645294 0.0038554787714768892 0 0.0011485619340221365 0.0038197921229462823 0 0.0010616812317500463 0.0038412143936157627 0 0.0010583607791520109 0.0038636097053721661 0 0.0011101195609263322 0.0037605659565648139 0 0.0011329761021973803 0.0038148274767872319 0 0.0010616812317500463 0.0038412143936157627 0 0.0011101195609263322 0.0037605659565648139 0 0.0011329761021973803 0.0038148274767872319 0 0.0011101195609263322 0.0037605659565648139 0 0.001244521041217342 0.0036738527736673221 0 0.0011485619340221365 0.0038197921229462823 0 0.0012933191103309395 0.0037602259526400153 0 0.001377835133948692 0.0037443104016571358 0 0.0012381624781544736 0.0038263016977665228 0 0.001244521041217342 0.0036738527736673221 0 0.0013384079475740581 0.0038480079283829171 0 0.0013132863068378794 0.0037618746876393887 0 0.0014543037808939455 0.003733529680876172 0 0.0013335918090335442 0.0037670124448339459 0 0.0016393111441960636 0.0038534831263330512 0 0.0011768501874139998 0.0038800839462452465 0 0.0013384079475740581 0.0038480079283829171 0 0.0013132863068378794 0.0037618746876393887 0 0.0012258655755897998 0.0039904350151988557 0 0.0014910632782289795 0.0040176122769262444 0 0.001371013821263077 0.0039460275870920863 0 0.0012117101816719023 0.0038879573346673499 0 0.0013117352434219372 0.0037843495542054205 0 0.0011299638630072951 0.0037792049751648763 0 0.0013132863068378794 0.0037618746876393887 0 0.0013218611913180715 0.0036603725010826535 0 0.001301944963926572 0.0038990532548412562 0 0.001371013821263077 0.0039460275870920863 0 0.0014752149156073717 0.0038649044719190236 0 0.0014910632782289795 0.0040176122769262444 0 0.001371013821263077 0.0039460275870920863 0 0.0014752149156073717 0.0038649044719190236 0 0.0020761792798643327 0.0043765332901610759 0 0.0023151447794415993 0.0042934469884351916 0 0.002737664639956628 0.004899967338712511 0 0.0027813413964059997 0.0048779509231038996 0 0.002766046648682565 0.0048773556449357687 0 0.002737664639956628 0.004899967338712511 0 0.00279729351446084 0.0048829913730044716 0 0.0027813413964059997 0.0048779509231038996 0 0.0014910632782289795 0.0040176122769262444 0 0.0014752149156073717 0.0038649044719190236 0 0.0018277853896839296 0.0039988338376108065 0 0.0013218611913180715 0.0036603725010826535 0 0.0015995318426310118 0.0037523986414412865 0 0.0018207634616446849 0.0035786289112614282 0 0.0013117352434219372 0.0037843495542054205 0 0.0023151447794415993 0.0042934469884351916 0 0.0013132863068378794 0.0037618746876393887 0 0.0015995318426310118 0.0037523986414412865 0 0.0018142665290236911 0.0039851467956876895 0 0.0013132863068378794 0.0037618746876393887 0 0.0013218611913180715 0.0036603725010826535 0 0.0015995318426310118 0.0037523986414412865 0 0.0015995318426310118 0.0037523986414412865 0 0.0018039591142279155 0.0037838132765510516 0 0.0018142665290236911 0.0039851467956876895 0 0.0018039591142279155 0.0037838132765510516 0 0.0019802477244517131 0.0038199975736534046 0 0.0018142665290236911 0.0039851467956876895 0 0.0018039591142279155 0.0037838132765510516 0 0.0018207634616446849 0.0035786289112614282 0 0.0019802477244517131 0.0038199975736534046 0 0.0015995318426310118 0.0037523986414412865 0 0.0018039591142279155 0.0037838132765510516 0 0.0018207634616446849 0.0035786289112614282 0 0.00279729351446084 0.0048829913730044716 0 0.0027813413964059997 0.0048779509231038996 0 0.0028140217606635216 0.0048590815997196415 0 0.0028486694557594782 0.0048308875884196063 0 0.0028140217606635216 0.0048590815997196415 0 0.002834252287897202 0.0048550573323747565 0 0.00279729351446084 0.0048829913730044716 0 0.0028140217606635216 0.0048590815997196415 0 0.002834252287897202 0.0048550573323747565 0 0.0023151447794415993 0.0042934469884351916 0 0.0029729446259184476 0.0047612555884581085 0 0.0023543551287755001 0.0038088662279293982 0 0.0019802477244517131 0.0038199975736534046 0 0.0021483092271399177 0.0039359967762781908 0 0.0026478389307374468 0.0042157020292632472 0 0.0023151447794415993 0.0042934469884351916 0 0.0023543551287755001 0.0038088662279293982 0 0.0018207634616446849 0.0035786289112614282 0 0.0019802477244517131 0.0038199975736534046 0 0.002907639700324273 0.0046700188004876438 0 0.0030205880145737678 0.0047349085854739128 0 0.0029604853268492093 0.0047376387003335643 0 0.0023123738180748435 0.0041320853610781515 0 0.0021483092271399177 0.0039359967762781908 0 0.0018142665290236911 0.0039851467956876895 0 0.0019802477244517131 0.0038199975736534046 0 0.0021483092271399177 0.0039359967762781908 0 0.0018142665290236911 0.0039851467956876895 0 0.0020093220183398089 0.00388084831293247 0 0.0016393111441960636 0.0038534831263330512 0 0.0016965307959376649 0.0036224406025477962 0 0.0014543037808939455 0.003733529680876172 0 0.0014941541990168259 0.0037796673354573485 0 0.0013384079475740581 0.0038480079283829171 0 0.0014543037808939455 0.003733529680876172 0 0.0014941541990168259 0.0037796673354573485 0 0.001377835133948692 0.0037443104016571358 0 0.001244521041217342 0.0036738527736673221 0 0.0014720625700368271 0.0036037806268764249 0 0.0012933191103309395 0.0037602259526400153 0 0.0014846001316811163 0.0036898592807832978 0 0.001377835133948692 0.0037443104016571358 0 0.0014720625700368271 0.0036037806268764249 0 0.0015335297342391955 0.0037068217659685268 0 0.0017230560811459146 0.0036354501752921676 0 0.0014846001316811163 0.0036898592807832978 0 0.0014720625700368271 0.0036037806268764249 0 0.0015335297342391955 0.0037068217659685268 0 0.0016250955363008206 0.0036555310053408467 0 0.0016965307959376649 0.0036224406025477962 0 0.0017507920944414336 0.0036211153869420043 0 0.0014941541990168259 0.0037796673354573485 0 0.0017507920944414336 0.0036211153869420043 0 0.0014720625700368271 0.0036037806268764249 0 0.0016250955363008206 0.0036555310053408467 0 0.0015335297342391955 0.0037068217659685268 0 0.0016250955363008206 0.0036555310053408467 0 0.0016552685040931603 0.0037085026832973105 0 0.0017197606522586601 0.0036673745749034696 0 0.0016250955363008206 0.0036555310053408467 0 0.0016552685040931603 0.0037085026832973105 0 0.002735368420534688 0.0050288533253406379 0 0.0027614689269948147 0.0049559665432814606 0 0.0027549247112974816 0.0050238845261227575 0 0.0027614689269948147 0.0049559665432814606 0 0.0027443605598164115 0.0050284312473685934 0 0.0027549247112974816 0.0050238845261227575 0 0.0027641051544391674 0.0049075240535050588 0 0.0027614689269948147 0.0049559665432814606 0 0.0027443605598164115 0.0050284312473685934 0 0.0027641051544391674 0.0049075240535050588 0 0.0027614689269948147 0.0049559665432814606 0 0.0027896191152430609 0.0048882361321721333 0 0.0027882824096119858 0.0049141175231619434 0 0.0027644635407174261 0.0049627666551626329 0 0.0027614689269948147 0.0049559665432814606 0 0.0028198597655088812 0.0048695234935364571 0 0.0027882824096119858 0.0049141175231619434 0 0.0027896191152430609 0.0048882361321721333 0 0.0027882824096119858 0.0049141175231619434 0 0.0027614689269948147 0.0049559665432814606 0 0.0027896191152430609 0.0048882361321721333 0 0.0028198597655088812 0.0048695234935364571 0 0.0028140217606635216 0.0048590815997196415 0 0.0027896191152430609 0.0048882361321721333 0 0.0028198597655088812 0.0048695234935364571 0 0.0028486694557594782 0.0048308875884196063 0 0.0028140217606635216 0.0048590815997196415 0 0.0027873601745332164 0.0048735503596516305 0 0.0027896191152430609 0.0048882361321721333 0 0.0027676450921135182 0.004874611335212789 0 0.0028140217606635216 0.0048590815997196415 0 0.0027873601745332164 0.0048735503596516305 0 0.0027896191152430609 0.0048882361321721333 0 0.0027813413964059997 0.0048779509231038996 0 0.0028140217606635216 0.0048590815997196415 0 0.0027873601745332164 0.0048735503596516305 0 0.0027813413964059997 0.0048779509231038996 0 0.0027873601745332164 0.0048735503596516305 0 0.002766046648682565 0.0048773556449357687 0 0.0027641051544391674 0.0049075240535050588 0 0.0027896191152430609 0.0048882361321721333 0 0.0027676450921135182 0.004874611335212789 0 0.0027641051544391674 0.0049075240535050588 0 0.0027676450921135182 0.004874611335212789 0 0.0027556414709888149 0.0048756917696506702 0 0.0027676450921135182 0.004874611335212789 0 0.0027381510246279476 0.0048592768737641219 0 0.0027556414709888149 0.0048756917696506702 0 0.0027676450921135182 0.004874611335212789 0 0.0027436564207952304 0.0048706010165041084 0 0.0027381510246279476 0.0048592768737641219 0 0.0027873601745332164 0.0048735503596516305 0 0.0027676450921135182 0.004874611335212789 0 0.002766046648682565 0.0048773556449357687 0 0.0027676450921135182 0.004874611335212789 0 0.002766046648682565 0.0048773556449357687 0 0.0027436564207952304 0.0048706010165041084 0 0.002737664639956628 0.004899967338712511 0 0.002766046648682565 0.0048773556449357687 0 0.0027436564207952304 0.0048706010165041084 0 0.002737664639956628 0.004899967338712511 0 0.0027028451328382978 0.0048574300600252689 0 0.0026492668190211438 0.0048703311364782405 0 0.002737664639956628 0.004899967338712511 0 0.0027436564207952304 0.0048706010165041084 0 0.0027028451328382978 0.0048574300600252689 0 0.0027028451328382978 0.0048574300600252689 0 0.0027381510246279476 0.0048592768737641219 0 0.002713239405281617 0.0048386089706817228 0 0.0027436564207952304 0.0048706010165041084 0 0.0027028451328382978 0.0048574300600252689 0 0.0027381510246279476 0.0048592768737641219 0 0.0027381510246279476 0.0048592768737641219 0 0.002713239405281617 0.0048386089706817228 0 0.0027556414709888149 0.0048756917696506702 0 0.002713239405281617 0.0048386089706817228 0 0.0027556414709888149 0.0048756917696506702 0 0.0027364368044851613 0.0048460185329524865 0 0.002713239405281617 0.0048386089706817228 0 0.0027364368044851613 0.0048460185329524865 0 0.0026654320361198611 0.0048055722892020531 0 0.0027641051544391674 0.0049075240535050588 0 0.0027556414709888149 0.0048756917696506702 0 0.0027443605598164115 0.0050284312473685934 0 0.0027443605598164115 0.0050284312473685934 0 0.0023398200860201349 0.0053357053140062616 0 0.0025689749441457897 0.0049279242349919827 0 0.0027556414709888149 0.0048756917696506702 0 0.0027443605598164115 0.0050284312473685934 0 0.0027364368044851613 0.0048460185329524865 0 0.0027154435767186673 0.0050407555937190237 0 0.0025291191646459443 0.0050792247235282913 0 0.0025291191646459443 0.0050792247235282913 0 0.0022072615680081131 0.0051975951837672871 0 0.0023398200860201349 0.0053357053140062616 0 0.0019191072162004737 0.0052735637803812858 0 0.0018469527852265231 0.0055059545656729282 0 0.0023398200860201349 0.0053357053140062616 0 0.0019191072162004737 0.0052735637803812858 0 0.0021116166424422337 0.0050285551496700182 0 0.0019191072162004737 0.0052735637803812858 0 0.0016716964851897843 0.0053884895415961774 0 0.0016866816287347665 0.0052359004785210474 0 0.0019191072162004737 0.0052735637803812858 0 0.0018469527852265231 0.0055059545656729282 0 0.0016716964851897843 0.0053884895415961774 0 0.0025939829687992924 0.0047421597497959243 0 0.0026654320361198611 0.0048055722892020531 0 0.0026098431464471284 0.0047949042580375766 0 0.0027364368044851613 0.0048460185329524865 0 0.0025939829687992924 0.0047421597497959243 0 0.0026654320361198611 0.0048055722892020531 0 0.0027028451328382978 0.0048574300600252689 0 0.002713239405281617 0.0048386089706817228 0 0.0026621995913463413 0.004824812762638366 0 0.002713239405281617 0.0048386089706817228 0 0.0026654320361198611 0.0048055722892020531 0 0.0026621995913463413 0.004824812762638366 0 0.0026654320361198611 0.0048055722892020531 0 0.0026621995913463413 0.004824812762638366 0 0.0026098431464471284 0.0047949042580375766 0 0.0026349007186389954 0.0048269728351009273 0 0.0026621995913463413 0.004824812762638366 0 0.0026098431464471284 0.0047949042580375766 0 0.0026349007186389954 0.0048269728351009273 0 0.0026621995913463413 0.004824812762638366 0 0.0026574842555396124 0.0048439544922992657 0 0.0027028451328382978 0.0048574300600252689 0 0.0026621995913463413 0.004824812762638366 0 0.0026574842555396124 0.0048439544922992657 0 0.0020761792798643327 0.0043765332901610759 0 0.0020655821710829957 0.0045014510776165747 0 0.002737664639956628 0.004899967338712511 0 0.0026492668190211438 0.0048703311364782405 0 0.0026330253065979764 0.00487332651427555 0 0.0027028451328382978 0.0048574300600252689 0 0.0026574842555396124 0.0048439544922992657 0 0.0026492668190211438 0.0048703311364782405 0 0.0026349007186389954 0.0048269728351009273 0 0.0026574842555396124 0.0048439544922992657 0 0.002626444902602621 0.0048444683889295841 0 0.0026349007186389954 0.0048269728351009273 0 0.002626444902602621 0.0048444683889295841 0 0.002600977038266776 0.0048212656055359772 0 0.002626444902602621 0.0048444683889295841 0 0.0026492668190211438 0.0048703311364782405 0 0.0026221666680305007 0.0048674347918859261 0 0.002626444902602621 0.0048444683889295841 0 0.0026221666680305007 0.0048674347918859261 0 0.0025954382742109433 0.0048444760559523048 0 0.0026574842555396124 0.0048439544922992657 0 0.002626444902602621 0.0048444683889295841 0 0.0026492668190211438 0.0048703311364782405 0 0.0023232802947037081 0.0045385467290615959 0 0.0020655821710829957 0.0045014510776165747 0 0.0020655821710829957 0.0045014510776165747 0 0.0017514001125760331 0.0043279114108786603 0 0.0012128765042334715 0.0038032191576891938 0 0.0011665259823869813 0.0038502115114260557 0 0.0010761356965409816 0.003880303863660348 0 0.0025954382742109433 0.0048444760559523048 0 0.0025358578923313797 0.00481167996765726 0 0.0024843093133082232 0.0048177899959306447 0 0.0026148542147372555 0.004859108843182575 0 0.0025954382742109433 0.0048444760559523048 0 0.0024843093133082232 0.0048177899959306447 0 0.0012111342362667267 0.0038853970769325711 0 0.0012128765042334715 0.0038032191576891938 0 0.0011665259823869813 0.0038502115114260557 0 0.0020655821710829957 0.0045014510776165747 0 0.0023604278892393636 0.0046446110165038147 0 0.002626444902602621 0.0048444683889295841 0 0.0025954382742109433 0.0048444760559523048 0 0.002600977038266776 0.0048212656055359772 0 0.002600977038266776 0.0048212656055359772 0 0.0025751352242635124 0.0048198346005891629 0 0.0025698989233741611 0.0048007658514064256 0 0.0025954382742109433 0.0048444760559523048 0 0.002600977038266776 0.0048212656055359772 0 0.0025751352242635124 0.0048198346005891629 0 0.0025751352242635124 0.0048198346005891629 0 0.0025358578923313797 0.00481167996765726 0 0.0025698989233741611 0.0048007658514064256 0 0.0025954382742109433 0.0048444760559523048 0 0.0025751352242635124 0.0048198346005891629 0 0.0025358578923313797 0.00481167996765726 0 0.0025698989233741611 0.0048007658514064256 0 0.0026098431464471284 0.0047949042580375766 0 0.0025344838943208593 0.0047569157976609629 0 0.0025939829687992924 0.0047421597497959243 0 0.0026098431464471284 0.0047949042580375766 0 0.0025344838943208593 0.0047569157976609629 0 0.0025358578923313797 0.00481167996765726 0 0.0025698989233741611 0.0048007658514064256 0 0.0025344838943208593 0.0047569157976609629 0 0.002600977038266776 0.0048212656055359772 0 0.0025698989233741611 0.0048007658514064256 0 0.0026098431464471284 0.0047949042580375766 0 0.0026349007186389954 0.0048269728351009273 0 0.002600977038266776 0.0048212656055359772 0 0.0026098431464471284 0.0047949042580375766 0 0.0024666417938485046 0.0047347764089393889 0 0.0023586168691891347 0.0047032185508247967 0 0.0024788835421417576 0.0047146838841161474 0 0.0025344838943208593 0.0047569157976609629 0 0.0024666417938485046 0.0047347764089393889 0 0.0024788835421417576 0.0047146838841161474 0 0.0025358578923313797 0.00481167996765726 0 0.0025344838943208593 0.0047569157976609629 0 0.0024666417938485046 0.0047347764089393889 0 0.0025358578923313797 0.00481167996765726 0 0.0024666417938485046 0.0047347764089393889 0 0.0024843093133082232 0.0048177899959306447 0 0.001111167402578946 0.0038882749655227652 0 0.0011665259823869813 0.0038502115114260557 0 0.0010761356965409816 0.003880303863660348 0 0.0024666417938485046 0.0047347764089393889 0 0.0024843093133082232 0.0048177899959306447 0 0.0023586168691891347 0.0047032185508247967 0 0.0017514001125760331 0.0043279114108786603 0 0.0014678185057314511 0.0043621990878112684 0 0.0023586168691891347 0.0047032185508247967 0 0.001981691441115175 0.0044340886541875159 0 0.001846186077421257 0.0047588579032454342 0 0.0024843093133082232 0.0048177899959306447 0 0.0023586168691891347 0.0047032185508247967 0 0.001846186077421257 0.0047588579032454342 0 0.001981691441115175 0.0044340886541875159 0 0.0023468949910897194 0.0039483779433568591 0 0.0018304603677039095 0.0041187531201724668 0 0.0023586168691891347 0.0047032185508247967 0 0.001981691441115175 0.0044340886541875159 0 0.0023468949910897194 0.0039483779433568591 0 0.0024706084869937227 0.0045771623865986195 0 0.0019907080748666258 0.0046048977078799683 0 0.0015330854139322474 0.0041406370659373536 0 0.0015230019402663556 0.0041403753813777731 0 0.0014443508185720262 0.0041813776327584125 0 0.0015330854139322474 0.0041406370659373536 0 0.0015230019402663556 0.0041403753813777731 0 0.0015220341749288056 0.0041964469287269915 0 0.0019907080748666258 0.0046048977078799683 0 0.0016819949291168688 0.0041217146889605304 0 0.0018469527852265231 0.0055059545656729282 0 0.001519370498622588 0.0055651552890561449 0 0.0016716964851897843 0.0053884895415961774 0 0.0022072615680081131 0.0051975951837672871 0 0.0019907080748666258 0.0046048977078799683 0 0.0025939829687992924 0.0047421597497959243 0 0.0025344838943208593 0.0047569157976609629 0 0.0024788835421417576 0.0047146838841161474 0 0.0016716964851897843 0.0053884895415961774 0 0.0015354911501468352 0.0053129533110376952 0 0.0016866816287347665 0.0052359004785210474 0 0.001519370498622588 0.0055651552890561449 0 0.0016716964851897843 0.0053884895415961774 0 0.0015354911501468352 0.0053129533110376952 0 0.0019907080748666258 0.0046048977078799683 0 0.0014506178168108477 0.004811681359935112 0 0.0015330854139322474 0.0041406370659373536 0 0.0014443508185720262 0.0041813776327584125 0 0.0015884737787517297 0.0041243345644502169 0 0.0014506178168108477 0.004811681359935112 0 0.0014664362213796082 0.0048325272572968475 0 0.0014443508185720262 0.0041813776327584125 0 0.0015269314944106663 0.0043537043830516806 0 0.0015884737787517297 0.0041243345644502169 0 0.0014443508185720262 0.0041813776327584125 0 0.0015269314944106663 0.0043537043830516806 0 0.0013811669632805834 0.0045174682349226926 0 0.0015320440940116747 0.0051710572649267166 0 0.001655153442115022 0.0051749856014184376 0 0.0016866816287347665 0.0052359004785210474 0 0.0015354911501468352 0.0053129533110376952 0 0.0015320440940116747 0.0051710572649267166 0 0.0016866816287347665 0.0052359004785210474 0 0.0015320440940116747 0.0051710572649267166 0 0.0014777498704887141 0.0049820294433484298 0 0.001655153442115022 0.0051749856014184376 0 0.0015269314944106663 0.0043537043830516806 0 0.0013811669632805834 0.0045174682349226926 0 0.001758263960254699 0.0046754068638155078 0 0.0013811669632805834 0.0045174682349226926 0 0.0014777498704887141 0.0049820294433484298 0 0.001758263960254699 0.0046754068638155078 0 0.0014664362213796082 0.0048325272572968475 0 0.0014714052711180263 0.0049658441022344159 0 0.0016186904201290582 0.0049641668498893758 0 0.0014777498704887141 0.0049820294433484298 0 0.001758263960254699 0.0046754068638155078 0 0.0013131542050226659 0.0050000000804984214 0 0.0013150910633656114 0.005031760149455616 0 0.0011460658288199375 0.0049999967132145851 0 0.0016186904201290582 0.0049641668498893758 0 0.0014777498704887141 0.0049820294433484298 0 0.0015500537233980264 0.0050548086979667912 0 0.0014480898809780417 0.0050347166257510914 0 0.0014802350992070916 0.0050000218171675033 0 0.0013131542050226659 0.0050000000804984214 0 0.0013150910633656114 0.005031760149455616 0 0.0014802444581378195 0.0049999998585338028 0 0.0014777498704887141 0.0049820294433484298 0 0.0015500537233980264 0.0050548086979667912 0 0.0014805017251198396 0.0050000010181007002 0 0.0014777498704887141 0.0049820294433484298 0 0.0014805017251198396 0.0050000010181007002 0 0.0016287183535574439 0.005052667764606872 0 0.0014777498704887141 0.0049820294433484298 0 0.0016287183535574439 0.005052667764606872 0 0.001655153442115022 0.0051749856014184376 0 0.0016287183535574439 0.005052667764606872 0 0.0017568407372726977 0.0051592218987140618 0 0.001655153442115022 0.0051749856014184376 0 0.0014805017251198396 0.0050000010181007002 0 0.0016287183535574439 0.005052667764606872 0 0.0017309245723526297 0.0049999075019703642 0 0.0017309245723526297 0.0049999075019703642 0 0.0018479808438562804 0.00508520836111645 0 0.0019817263426144829 0.0049999463178533928 0 0.0016287183535574439 0.005052667764606872 0 0.0017309245723526297 0.0049999075019703642 0 0.0018479808438562804 0.00508520836111645 0 0.0018479808438562804 0.00508520836111645 0 0.0017568407372726977 0.0051592218987140618 0 0.0019384553986886753 0.0052055825842464839 0 0.0016287183535574439 0.005052667764606872 0 0.0018479808438562804 0.00508520836111645 0 0.0017568407372726977 0.0051592218987140618 0 0.0017568407372726977 0.0051592218987140618 0 0.0018147337966558693 0.0053133970699410287 0 0.0019384553986886753 0.0052055825842464839 0 0.0017568407372726977 0.0051592218987140618 0 0.001655153442115022 0.0051749856014184376 0 0.0018147337966558693 0.0053133970699410287 0 0.0019191072162004737 0.0052735637803812858 0 0.0016866816287347665 0.0052359004785210474 0 0.0021116166424422337 0.0050285551496700182 0 0.0017168162166061179 0.0052260711280818911 0 0.0019722514713092082 0.0051741070049699314 0 0.001655153442115022 0.0051749856014184376 0 0.0016866816287347665 0.0052359004785210474 0 0.0018147337966558693 0.0053133970699410287 0 0.0019722514713092082 0.0051741070049699314 0 0.0023048125231388285 0.0051436969844857192 0 0.0023398200860201349 0.0053357053140062616 0 0.0021116166424422337 0.0050285551496700182 0 0.0025689749441457897 0.0049279242349919827 0 0.0018147337966558693 0.0053133970699410287 0 0.0020460397267435268 0.0053496277774188567 0 0.0019384553986886753 0.0052055825842464839 0 0.0023048125231388285 0.0051436969844857192 0 0.0025321874553296806 0.0051612464337090483 0 0.0027443605598164115 0.0050284312473685934 0 0.0025689749441457897 0.0049279242349919827 0 0.0027637087014529466 0.0050172444658332892 0 0.0020460397267435268 0.0053496277774188567 0 0.0021530795728116384 0.0052228892522529942 0 0.002324820285006691 0.0053140313007055519 0 0.0020460397267435268 0.0053496277774188567 0 0.0021530795728116384 0.0052228892522529942 0 0.0019384553986886753 0.0052055825842464839 0 0.0018479808438562804 0.00508520836111645 0 0.0019384553986886753 0.0052055825842464839 0 0.0020819587696882099 0.0050969600226445028 0 0.0018479808438562804 0.00508520836111645 0 0.0019817263426144829 0.0049999463178533928 0 0.0020819587696882099 0.0050969600226445028 0 0.0019817263426144829 0.0049999463178533928 0 0.0020819587696882099 0.0050969600226445028 0 0.0022324800779198102 0.0049999283129096633 0 0.0021530795728116384 0.0052228892522529942 0 0.0019384553986886753 0.0052055825842464839 0 0.0020819587696882099 0.0050969600226445028 0 0.0021530795728116384 0.0052228892522529942 0 0.0020819587696882099 0.0050969600226445028 0 0.0023732013465515979 0.0051071443484675726 0 0.0020819587696882099 0.0050969600226445028 0 0.0023732013465515979 0.0051071443484675726 0 0.0022324800779198102 0.0049999283129096633 0 0.0023732013465515979 0.0051071443484675726 0 0.0022324800779198102 0.0049999283129096633 0 0.0024832507504200154 0.0049999002029443131 0 0.0026061819017785533 0.0050751889315978618 0 0.0023732013465515979 0.0051071443484675726 0 0.0024832507504200154 0.0049999002029443131 0 0.0026591343626573656 0.0051551031156107929 0 0.0026061819017785533 0.0050751889315978618 0 0.0023732013465515979 0.0051071443484675726 0 0.0026403909716776366 0.0051576116182812807 0 0.0025321874553296806 0.0051612464337090483 0 0.0026591343626573656 0.0051551031156107929 0 0.0023732013465515979 0.0051071443484675726 0 0.002324820285006691 0.0053140313007055519 0 0.0021530795728116384 0.0052228892522529942 0 0.0023732013465515979 0.0051071443484675726 0 0.002324820285006691 0.0053140313007055519 0 0.0027443605598164115 0.0050284312473685934 0 0.0027637087014529466 0.0050172444658332892 0 0.0027549247112974816 0.0050238845261227575 0 0.0026591343626573656 0.0051551031156107929 0 0.002735368420534688 0.0050288533253406379 0 0.0027549247112974816 0.0050238845261227575 0 0.0026591343626573656 0.0051551031156107929 0 0.0027637087014529466 0.0050172444658332892 0 0.0027549247112974816 0.0050238845261227575 0 0.00074876467591586003 0.004088117305860635 0 0.00093689494529958109 0.0041746806319025312 0 0.00085314839003208592 0.0039730746622521559 0 0.00074876467591586003 0.004088117305860635 0 0.00093689494529958109 0.0041746806319025312 0 0.000877832466943978 0.0042429460861490402 0 0.0010179324960747887 0.0040788350094328229 0 0.00093689494529958109 0.0041746806319025312 0 0.0010933768180039717 0.004235346371011953 0 0.0010179324960747887 0.0040788350094328229 0 0.00093689494529958109 0.0041746806319025312 0 0.00085314839003208592 0.0039730746622521559 0 0.0010179324960747887 0.0040788350094328229 0 0.0010059718689144289 0.0039402850581129458 0 0.00085314839003208592 0.0039730746622521559 0 0.0010179324960747887 0.0040788350094328229 0 0.0010059718689144289 0.0039402850581129458 0 0.0011651175071326725 0.0040688391608685488 0 0.00074876467591586003 0.004088117305860635 0 0.00085314839003208592 0.0039730746622521559 0 0.00058485685315943223 0.0038241573489762623 0 0.00074876467591586003 0.004088117305860635 0 0.00037738655355802777 0.0039541297939807403 0 0.00058485685315943223 0.0038241573489762623 0 0.00037738655355802777 0.0039541297939807403 0 0.00058485685315943223 0.0038241573489762623 0 0.00042510777976605048 0.0036916097043930536 0 0.00037738655355802777 0.0039541297939807403 0 0.00042510777976605048 0.0036916097043930536 0 0.00025015404598818688 0.0037991464975498266 0 0.00037738655355802777 0.0039541297939807403 0 0.00025015404598818688 0.0037991464975498266 0 0.00022255429423996342 0.0039185619880941326 0 0.00037738655355802777 0.0039541297939807403 0 0.0002194769395053419 0.0039741410344660104 0 0.00022255429423996342 0.0039185619880941326 0 0.00037738655355802777 0.0039541297939807403 0 0.00026162724006104841 0.003975003567164073 0 0.0002194769395053419 0.0039741410344660104 0 0.00037738655355802777 0.0039541297939807403 0 0.00026162724006104841 0.003975003567164073 0 0.00025665651594633466 0.0039683851250900855 0 0.00037817448781066063 0.0039547933480122361 0 0.00051280134767612629 0.00412376438125931 0 0.00074876467591586003 0.004088117305860635 0 0.00037738655355802777 0.0039541297939807403 0 0.0007731379491107117 0.0043116765064172956 0 0.00026162724006104841 0.003975003567164073 0 0.00022601359309772412 0.0039949398186959082 0 0.0002553791871169185 0.0039692961770236993 0 0.00026162724006104841 0.003975003567164073 0 0.0002553791871169185 0.0039692961770236993 0 0.00025665651594633466 0.0039683851250900855 0 0.00026162724006104841 0.003975003567164073 0 0.0002194769395053419 0.0039741410344660104 0 0.00022601359309772412 0.0039949398186959082 0 0.00022457220652627525 0.0040248808885445016 0 0.00022601359309772412 0.0039949398186959082 0 0.00015173662605214936 0.0040134287762950494 0 0.0002194769395053419 0.0039741410344660104 0 0.00022601359309772412 0.0039949398186959082 0 0.00015173662605214936 0.0040134287762950494 0 0.00019039250075822699 0.0040065513076310072 0 0.00024634954764229564 0.0039724460491382084 0 0.00016009197963678341 0.0039852877779817386 0 0.00022962777610227898 0.003985438163917018 0 0.0002553791871169185 0.0039692961770236993 0 0.00022457220652627525 0.0040248808885445016 0 0.00022601359309772412 0.0039949398186959082 0 0.0002553791871169185 0.0039692961770236993 0 0.00026397552962317529 0.0039891012935891965 0 0.00022962777610227898 0.003985438163917018 0 0.0002553791871169185 0.0039692961770236993 0 0.00066207823096299404 0.0041710267614421667 0 0.00051280134767612629 0.00412376438125931 0 0.00026397552962317529 0.0039891012935891965 0 0.0002553791871169185 0.0039692961770236993 0 0.00025665651594633466 0.0039683851250900855 0 0.0010734338660145562 0.0043716202406570382 0 0.0007731379491107117 0.0043116765064172956 0 0.00099603127595836692 0.0043107713585849887 0 0.00074876467591586003 0.004088117305860635 0 0.000877832466943978 0.0042429460861490402 0 0.0007731379491107117 0.0043116765064172956 0 0.000877832466943978 0.0042429460861490402 0 0.0007731379491107117 0.0043116765064172956 0 0.00099603127595836692 0.0043107713585849887 0 0.00093689494529958109 0.0041746806319025312 0 0.000877832466943978 0.0042429460861490402 0 0.00099603127595836692 0.0043107713585849887 0 0.00099603127595836692 0.0043107713585849887 0 0.0010913833753459195 0.0043424607925487387 0 0.0010933768180039717 0.004235346371011953 0 0.00093689494529958109 0.0041746806319025312 0 0.00099603127595836692 0.0043107713585849887 0 0.0010933768180039717 0.004235346371011953 0 0.0011091889361454733 0.004310216418248955 0 0.0010734338660145562 0.0043716202406570382 0 0.0010913833753459195 0.0043424607925487387 0 0.0010734338660145562 0.0043716202406570382 0 0.00099603127595836692 0.0043107713585849887 0 0.0010913833753459195 0.0043424607925487387 0 0.0011091889361454733 0.004310216418248955 0 0.0010913833753459195 0.0043424607925487387 0 0.0011865393555498512 0.0043613135648244393 0 0.001328324998726958 0.0045763483701587102 0 0.0011091889361454733 0.004310216418248955 0 0.0011865393555498512 0.0043613135648244393 0 0.001328324998726958 0.0045763483701587102 0 0.0011865393555498512 0.0043613135648244393 0 0.0014200224111236071 0.0042671518663460473 0 0.0011865393555498512 0.0043613135648244393 0 0.0014200224111236071 0.0042671518663460473 0 0.0012683381239663807 0.0041972638472884708 0 0.0010913833753459195 0.0043424607925487387 0 0.0011865393555498512 0.0043613135648244393 0 0.0010933768180039717 0.004235346371011953 0 0.0011865393555498512 0.0043613135648244393 0 0.0010933768180039717 0.004235346371011953 0 0.0012683381239663807 0.0041972638472884708 0 0.001981691441115175 0.0044340886541875159 0 0.001846186077421257 0.0047588579032454342 0 0.001648595593383389 0.0044580347115798485 0 0.001328324998726958 0.0045763483701587102 0 0.001846186077421257 0.0047588579032454342 0 0.001648595593383389 0.0044580347115798485 0 0.001328324998726958 0.0045763483701587102 0 0.001648595593383389 0.0044580347115798485 0 0.0014200224111236071 0.0042671518663460473 0 0.001981691441115175 0.0044340886541875159 0 0.001648595593383389 0.0044580347115798485 0 0.0018304603677039095 0.0041187531201724668 0 0.0014327673858427709 0.0042591401546331897 0 0.0016819949291168688 0.0041217146889605304 0 0.001648595593383389 0.0044580347115798485 0 0.0014200224111236071 0.0042671518663460473 0 0.0018304603677039095 0.0041187531201724668 0 0.0014200224111236071 0.0042671518663460473 0 0.0015220341749288056 0.0041964469287269915 0 0.0014890837930043416 0.0041525891501349183 0 0.0015330854139322474 0.0041406370659373536 0 0.0015220341749288056 0.0041964469287269915 0 0.0014890837930043416 0.0041525891501349183 0 0.0014200224111236071 0.0042671518663460473 0 0.0014890837930043416 0.0041525891501349183 0 0.0012683381239663807 0.0041972638472884708 0 0.0014890837930043416 0.0041525891501349183 0 0.0012683381239663807 0.0041972638472884708 0 0.0013364524161422779 0.0040933326239040758 0 0.0014890837930043416 0.0041525891501349183 0 0.0013364524161422779 0.0040933326239040758 0 0.0014341392386528499 0.0040284424140176345 0 0.0013364524161422779 0.0040933326239040758 0 0.0012848160220703599 0.0039777657994315993 0 0.0014341392386528499 0.0040284424140176345 0 0.0015330854139322474 0.0041406370659373536 0 0.0014890837930043416 0.0041525891501349183 0 0.0015884737787517297 0.0041243345644502169 0 0.0014890837930043416 0.0041525891501349183 0 0.0015884737787517297 0.0041243345644502169 0 0.0014341392386528499 0.0040284424140176345 0 0.0010933768180039717 0.004235346371011953 0 0.0012683381239663807 0.0041972638472884708 0 0.0011651175071326725 0.0040688391608685488 0 0.0010179324960747887 0.0040788350094328229 0 0.0010933768180039717 0.004235346371011953 0 0.0011651175071326725 0.0040688391608685488 0 0.0012683381239663807 0.0041972638472884708 0 0.0013364524161422779 0.0040933326239040758 0 0.0011651175071326725 0.0040688391608685488 0 0.0013364524161422779 0.0040933326239040758 0 0.0011651175071326725 0.0040688391608685488 0 0.0012848160220703599 0.0039777657994315993 0 0.0011651175071326725 0.0040688391608685488 0 0.0011447084040728413 0.0039089585662530207 0 0.0012848160220703599 0.0039777657994315993 0 0.0010059718689144289 0.0039402850581129458 0 0.0011651175071326725 0.0040688391608685488 0 0.0011447084040728413 0.0039089585662530207 0 0.0011447084040728413 0.0039089585662530207 0 0.0011501339318011764 0.0037870776946859193 0 0.0010236812078111021 0.0038383141112631621 0 0.0012848160220703599 0.0039777657994315993 0 0.001262214207223908 0.0038395749487654101 0 0.0013764824099136487 0.0038840350991511861 0 0.0011447084040728413 0.0039089585662530207 0 0.0012848160220703599 0.0039777657994315993 0 0.001262214207223908 0.0038395749487654101 0 0.001262214207223908 0.0038395749487654101 0 0.0013737911646073315 0.0037664860752304134 0 0.0012662328844532716 0.0037023876570234323 0 0.001262214207223908 0.0038395749487654101 0 0.0011501339318011764 0.0037870776946859193 0 0.0012662328844532716 0.0037023876570234323 0 0.0011447084040728413 0.0039089585662530207 0 0.001262214207223908 0.0038395749487654101 0 0.0011501339318011764 0.0037870776946859193 0 0.0011501339318011764 0.0037870776946859193 0 0.0010445647705278499 0.0036719893556987505 0 0.0010375424828663652 0.0037599314010353488 0 0.0011501339318011764 0.0037870776946859193 0 0.0010375424828663652 0.0037599314010353488 0 0.0010236812078111021 0.0038383141112631621 0 0.0015884737787517297 0.0041243345644502169 0 0.0014341392386528499 0.0040284424140176345 0 0.0015520008991765414 0.0037789207124707329 0 0.0015880118372277761 0.0041656192198293931 0 0.001693063720484247 0.0041622175010064075 0 0.0015269314944106663 0.0043537043830516806 0 0.0015884737787517297 0.0041243345644502169 0 0.001758263960254699 0.0046754068638155078 0 0.0012848160220703599 0.0039777657994315993 0 0.0014341392386528499 0.0040284424140176345 0 0.0013764824099136487 0.0038840350991511861 0 0.0014341392386528499 0.0040284424140176345 0 0.0013764824099136487 0.0038840350991511861 0 0.0015520008991765414 0.0037789207124707329 0 0.0013764824099136487 0.0038840350991511861 0 0.0013737911646073315 0.0037664860752304134 0 0.0015520008991765414 0.0037789207124707329 0 0.001262214207223908 0.0038395749487654101 0 0.0013764824099136487 0.0038840350991511861 0 0.0013737911646073315 0.0037664860752304134 0 0.0015520008991765414 0.0037789207124707329 0 0.0014175748436907447 0.0036558654715643738 0 0.0015231145724272617 0.0035267557067983281 0 0.001693063720484247 0.0041622175010064075 0 0.0013072706663046375 0.0045820330051698499 0 0.0016186904201290582 0.0049641668498893758 0 0.001758263960254699 0.0046754068638155078 0 0.0017394542079532808 0.0050808213258745367 0 0.0013737911646073315 0.0037664860752304134 0 0.0014175748436907447 0.0036558654715643738 0 0.0012662328844532716 0.0037023876570234323 0 0.0013737911646073315 0.0037664860752304134 0 0.0015520008991765414 0.0037789207124707329 0 0.0014175748436907447 0.0036558654715643738 0 0.0014175748436907447 0.0036558654715643738 0 0.0015231145724272617 0.0035267557067983281 0 0.0012807502847861328 0.0035609310398074774 0 0.0013072706663046375 0.0045820330051698499 0 0.0010940870920902301 0.0042999720737330839 0 0.00114606308623208 0.004999994605628953 0 0.0011500124740476182 0.0050617198459179955 0 0.000866866592227088 0.0049999949621118492 0 0.0011500124740476182 0.0050617198459179955 0 0.00088175900859552465 0.0051118186092325123 0 0.000866866592227088 0.0049999949621118492 0 0.0016186904201290582 0.0049641668498893758 0 0.0015500537233980264 0.0050548086979667912 0 0.0017394542079532808 0.0050808213258745367 0 0.0013150910633656114 0.005031760149455616 0 0.0011460658288199375 0.0049999967132145851 0 0.0011502368313578951 0.0050624011028581658 0 0.0014480898809780417 0.0050347166257510914 0 0.0013072706663046375 0.0045820330051698499 0 0.0011463059036515063 0.004999867999526157 0 0.0013072706663046375 0.0045820330051698499 0 0.0012355605262686011 0.0037062874304612929 0 0.0010533713902135798 0.0036738541930152703 0 0.0011501339318011764 0.0037870776946859193 0 0.0012662328844532716 0.0037023876570234323 0 0.0010445647705278499 0.0036719893556987505 0 0.0012662328844532716 0.0037023876570234323 0 0.0010003443112465392 0.0036172814124221294 0 0.00099248437523444298 0.0037145499608393453 0 0.0012662328844532716 0.0037023876570234323 0 0.0012807502847861328 0.0035609310398074774 0 0.0010003443112465392 0.0036172814124221294 0 0.0014175748436907447 0.0036558654715643738 0 0.0012662328844532716 0.0037023876570234323 0 0.0012807502847861328 0.0035609310398074774 0 0.00088175900859552465 0.0051118186092325123 0 0.000866866592227088 0.0049999949621118492 0 0.00073474466091701584 0.0050709877986587258 0 0.00088175900859552465 0.0051118186092325123 0 0.00073474466091701584 0.0050709877986587258 0 0.00061264396613943696 0.0051607533098505225 0 0.0010940870920902301 0.0042999720737330839 0 0.00079470010156991705 0.0043851605608145206 0 0.000866866592227088 0.0049999949621118492 0 0.00073474466091701584 0.0050709877986587258 0 0.00058766123856290214 0.004999994506113185 0 0.00073474466091701584 0.0050709877986587258 0 0.00058766123856290214 0.004999994506113185 0 0.00061264396613943696 0.0051607533098505225 0 0.00058766123856290214 0.004999994506113185 0 0.0004625991544540058 0.005097538788174533 0 0.00061264396613943696 0.0051607533098505225 0 0.00056311183429639091 0.0045234266945325986 0 0.00030850349825567035 0.0050008513065013605 0 0.0004625991544540058 0.005097538788174533 0 0.00034879669463456082 0.0052073392765303525 0 0.0003084790287611771 0.0049999922604300057 0 0.00058766123856290214 0.004999994506113185 0 0.0004625991544540058 0.005097538788174533 0 0.0003084790287611771 0.0049999922604300057 0 0.00068278174277684321 0.0036878930545041102 0 0.00068701623014847085 0.0037144103423519467 0 0.00099248437523444298 0.0037145499608393453 0 0.00077441263842107635 0.0040319195434442316 0 0.00079055897305820391 0.0041332806314672748 0 0.00036415470012595162 0.0041106562624571479 0 0.00056311183429639091 0.0045234266945325986 0 0.00061415593858367781 0.0038676758280276635 0 0.0004625991544540058 0.005097538788174533 0 0.00034879669463456082 0.0052073392765303525 0 0.00061264396613943696 0.0051607533098505225 0 0.00084164551911677054 0.0036634290857843117 0 0.0010445647705278499 0.0036719893556987505 0 0.00093767299485779615 0.0037413734905659747 0 0.00061415593858367781 0.0038676758280276635 0 0.0010533713902135798 0.0036738541930152703 0 0.00056311183429639091 0.0045234266945325986 0 0.00079470010156991705 0.0043851605608145206 0 0.00068278174277684321 0.0036878930545041102 0 0.0010003443112465392 0.0036172814124221294 0 0.00099248437523444298 0.0037145499608393453 0 0.00093767299485779615 0.0037413734905659747 0 0.00087083128610877727 0.0038392088655744257 0 0.0010236812078111021 0.0038383141112631621 0 0.0010445647705278499 0.0036719893556987505 0 0.0010375424828663652 0.0037599314010353488 0 0.00093767299485779615 0.0037413734905659747 0 0.0010375424828663652 0.0037599314010353488 0 0.00093767299485779615 0.0037413734905659747 0 0.0010236812078111021 0.0038383141112631621 0 0.00061415593858367781 0.0038676758280276635 0 0.00079470619090444899 0.0036780611621559014 0 0.00062742567810388406 0.0034189811508137089 0 0.00069947997689744101 0.0036398329230102684 0 0.00055611759630809813 0.0035440921028762843 0 0.00084164551911677054 0.0036634290857843117 0 0.00093767299485779615 0.0037413734905659747 0 0.00087083128610877727 0.0038392088655744257 0 0.00084649020322309654 0.0039944403633839706 0 0.00079470619090444899 0.0036780611621559014 0 0.00085314839003208592 0.0039730746622521559 0 0.00058485685315943223 0.0038241573489762623 0 0.00069947997689744101 0.0036398329230102684 0 0.0010059718689144289 0.0039402850581129458 0 0.00085314839003208592 0.0039730746622521559 0 0.00087083128610877727 0.0038392088655744257 0 0.0010059718689144289 0.0039402850581129458 0 0.0011447084040728413 0.0039089585662530207 0 0.0010236812078111021 0.0038383141112631621 0 0.0010059718689144289 0.0039402850581129458 0 0.00087083128610877727 0.0038392088655744257 0 0.0010236812078111021 0.0038383141112631621 0 0.00042510777976605048 0.0036916097043930536 0 0.00029773035529325376 0.0035886244476450581 0 0.00025015404598818688 0.0037991464975498266 0 0.00058485685315943223 0.0038241573489762623 0 0.00069947997689744101 0.0036398329230102684 0 0.00042510777976605048 0.0036916097043930536 0 0.00042510777976605048 0.0036916097043930536 0 0.00055611759630809813 0.0035440921028762843 0 0.00043500770700902251 0.0035674788090803078 0 0.00069947997689744101 0.0036398329230102684 0 0.00042510777976605048 0.0036916097043930536 0 0.00055611759630809813 0.0035440921028762843 0 0.00055611759630809813 0.0035440921028762843 0 0.00043500770700902251 0.0035674788090803078 0 0.00053205315272541629 0.0034163504924115385 0 0.00043500770700902251 0.0035674788090803078 0 0.00029773035529325376 0.0035886244476450581 0 0.00041330732291808265 0.0034491860866108031 0 0.00042510777976605048 0.0036916097043930536 0 0.00043500770700902251 0.0035674788090803078 0 0.00029773035529325376 0.0035886244476450581 0 0.00041330732291808265 0.0034491860866108031 0 0.00052130087870590127 0.0034206444074750117 0 0.00025101602291783691 0.0034325555968393539 0 0.00029773035529325376 0.0035886244476450581 0 0.00041330732291808265 0.0034491860866108031 0 0.00025101602291783691 0.0034325555968393539 0 0.00025023003942161858 0.0052219750010802524 0 0.00018611643622566283 0.0051096403320706413 0 -1.9682187945068073e-05 0.0052133100502206285 0 0.00043260279431916174 0.0040589978467234292 0 0.00010768665390500698 0.0043561492384534108 0 0.00033887740219445148 0.0052038111806931063 0 0.00025023003942161858 0.0052219750010802524 0 0.00018611643622566283 0.0051096403320706413 0 0.00061415593858367781 0.0038676758280276635 0 0.00043260279431916174 0.0040589978467234292 0 0.00062742567810388406 0.0034189811508137089 0 0.00055611759630809813 0.0035440921028762843 0 0.00053205315272541629 0.0034163504924115385 0 0.0005085013087704251 0.0036250738214005265 0 0.00043260279431916174 0.0040589978467234292 0 0.00043500770700902251 0.0035674788090803078 0 0.00041330732291808265 0.0034491860866108031 0 0.00053205315272541629 0.0034163504924115385 0 0.00056311183429639091 0.0045234266945325986 0 0.00043260279431916174 0.0040589978467234292 0 0.00018611643622566283 0.0051096403320706413 0 0.00030844803288905873 0.0049999903401524159 0 5.8625568117779656e-05 0.00499999412454107 0 0.00033887740219445148 0.0052038111806931063 0 0.00018611643622566283 0.0051096403320706413 0 0.00030844803288905873 0.0049999903401524159 0 0.00018611643622566283 0.0051096403320706413 0 5.8625568117779656e-05 0.00499999412454107 0 -1.9682187945068073e-05 0.0052133100502206285 0 5.8625568117779656e-05 0.00499999412454107 0 -0.00019122366283968835 0.0049999947512823616 0 -1.9682187945068073e-05 0.0052133100502206285 0 -0.00019122366283968835 0.0049999947512823616 0 -0.00029316510815531751 0.0052009554838039623 0 -0.00044106680529726853 0.0049999951461344632 0 -0.00019122366283968835 0.0049999947512823616 0 -0.00029316510815531751 0.0052009554838039623 0 -1.9682187945068073e-05 0.0052133100502206285 0 -0.0001469428288594517 0.0043180448594531641 0 0.00010768665390500698 0.0043561492384534108 0 -8.4529811940813198e-06 0.0034468570857766417 0 0.00025101602291783691 0.0034325555968393539 0 0.00014061387819468106 0.0035551948818332256 0 -0.00044106680529726853 0.0049999951461344632 0 -0.00056607322520586475 0.005187333461654709 0 -0.00069091203519873739 0.0049999956095904867 0 -0.00029316510815531751 0.0052009554838039623 0 -0.00044106680529726853 0.0049999951461344632 0 -0.00056607322520586475 0.005187333461654709 0 -8.4529811940813198e-06 0.0034468570857766417 0 -0.00025970985282708586 0.0034536450628189276 0 -0.00013821389561614989 0.0035527764465910186 0 -0.0001469428288594517 0.0043180448594531641 0 -0.00041653022878678452 0.0043322836607051444 0 -8.4529811940813198e-06 0.0034468570857766417 0 -0.00013821389561614989 0.0035527764465910186 0 6.6031077802661718e-06 0.0036145897918676813 0 -0.00025970985282708586 0.0034536450628189276 0 -0.00013821389561614989 0.0035527764465910186 0 -0.00031528060952504619 0.0035633827101240372 0 -0.00021538595810194962 0.0037147586283279026 0 -0.00027149896430735126 0.0037318997093315647 0 -0.00026761151331024203 0.003639544424265347 0 -0.00013821389561614989 0.0035527764465910186 0 -0.00012504226396028501 0.0036921574074180938 0 -0.00031528060952504619 0.0035633827101240372 0 -0.00012504226396028501 0.0036921574074180938 0 -0.00021538595810194962 0.0037147586283279026 0 -0.00026761151331024203 0.003639544424265347 0 -0.00012700722346264403 0.0037149552503318254 0 -0.00028618040758449955 0.0035118961999358197 0 -0.00013821389561614989 0.0035527764465910186 0 -0.00012504226396028501 0.0036921574074180938 0 6.6031077802661718e-06 0.0036145897918676813 0 -4.775314252428305e-06 0.0037522118050031107 0 -9.5285721756971917e-05 0.0037627733703380455 0 -0.00012504226396028501 0.0036921574074180938 0 -3.6395617722953924e-05 0.0037659148731855416 0 -0.00019494138860065764 0.0038090134197442051 0 -0.00012504226396028501 0.0036921574074180938 0 -3.6395617722953924e-05 0.0037659148731855416 0 6.6031077802661718e-06 0.0036145897918676813 0 -0.00012504226396028501 0.0036921574074180938 0 -0.00019494138860065764 0.0038090134197442051 0 -0.00021538595810194962 0.0037147586283279026 0 -0.00019494138860065764 0.0038090134197442051 0 -0.00021538595810194962 0.0037147586283279026 0 -0.00027149896430735126 0.0037318997093315647 0 0.00029773035529325376 0.0035886244476450581 0 0.00014061387819468106 0.0035551948818332256 0 0.00015651249830042686 0.0036941003073459062 0 0.00029773035529325376 0.0035886244476450581 0 0.00025101602291783691 0.0034325555968393539 0 0.00014061387819468106 0.0035551948818332256 0 -8.4529811940813198e-06 0.0034468570857766417 0 0.00014061387819468106 0.0035551948818332256 0 6.6031077802661718e-06 0.0036145897918676813 0 0.00014061387819468106 0.0035551948818332256 0 6.6031077802661718e-06 0.0036145897918676813 0 0.00015651249830042686 0.0036941003073459062 0 3.7512177898720551e-05 0.0037376314830146222 0 0.00015651249830042686 0.0036941003073459062 0 7.1842134366723105e-05 0.0038039670667078355 0 -4.775314252428305e-06 0.0037522118050031107 0 0.00014607719638433186 0.0036999948723280907 0 -3.6395617722953924e-05 0.0037659148731855416 0 6.6031077802661718e-06 0.0036145897918676813 0 0.00015651249830042686 0.0036941003073459062 0 0.00015651249830042686 0.0036941003073459062 0 0.00025015404598818688 0.0037991464975498266 0 0.00014351975303988803 0.0038542292618420752 0 0.00029773035529325376 0.0035886244476450581 0 0.00015651249830042686 0.0036941003073459062 0 0.00025015404598818688 0.0037991464975498266 0 0.00025015404598818688 0.0037991464975498266 0 0.00014351975303988803 0.0038542292618420752 0 0.00022255429423996342 0.0039185619880941326 0 0.00014351975303988803 0.0038542292618420752 0 0.00022255429423996342 0.0039185619880941326 0 0.00013263088102293655 0.0039476894566081435 0 0.0002194769395053419 0.0039741410344660104 0 0.00022255429423996342 0.0039185619880941326 0 0.00013263088102293655 0.0039476894566081435 0 0.00014351975303988803 0.0038542292618420752 0 0.00013263088102293655 0.0039476894566081435 0 4.2456659799249539e-05 0.003890652522065862 0 0.00013263088102293655 0.0039476894566081435 0 4.2456659799249539e-05 0.003890652522065862 0 4.5767505509314649e-05 0.0039552963025763109 0 0.00015651249830042686 0.0036941003073459062 0 0.00014351975303988803 0.0038542292618420752 0 7.1842134366723105e-05 0.0038039670667078355 0 0.00014351975303988803 0.0038542292618420752 0 7.1842134366723105e-05 0.0038039670667078355 0 4.2456659799249539e-05 0.003890652522065862 0 3.7512177898720551e-05 0.0037376314830146222 0 7.1842134366723105e-05 0.0038039670667078355 0 -7.0043098354769738e-06 0.0038184443965793261 0 3.7512177898720551e-05 0.0037376314830146222 0 -7.2194840012044915e-05 0.0037679889474411692 0 -7.0043098354769738e-06 0.0038184443965793261 0 7.1842134366723105e-05 0.0038039670667078355 0 -7.0043098354769738e-06 0.0038184443965793261 0 4.2456659799249539e-05 0.003890652522065862 0 -7.2194840012044915e-05 0.0037679889474411692 0 -7.0043098354769738e-06 0.0038184443965793261 0 -9.7298577298734698e-05 0.0038293453090710843 0 -7.0043098354769738e-06 0.0038184443965793261 0 -9.7298577298734698e-05 0.0038293453090710843 0 -6.5154703207302657e-05 0.003883078984561738 0 -7.2194840012044915e-05 0.0037679889474411692 0 -9.7298577298734698e-05 0.0038293453090710843 0 -0.00018479374236258866 0.0038001852802950807 0 -9.5285721756971917e-05 0.0037627733703380455 0 -0.00039254960223431397 0.0041182631729578048 0 -6.5154703207302657e-05 0.003883078984561738 0 -0.00014569382747332875 0.0039612699333723038 0 -0.00016016093341066138 0.0038796170213862904 0 -9.7298577298734698e-05 0.0038293453090710843 0 -6.5154703207302657e-05 0.003883078984561738 0 -0.00016016093341066138 0.0038796170213862904 0 -6.5154703207302657e-05 0.003883078984561738 0 -2.7691512269756365e-05 0.003943573910039265 0 -0.00014569382747332875 0.0039612699333723038 0 -7.0043098354769738e-06 0.0038184443965793261 0 -6.5154703207302657e-05 0.003883078984561738 0 4.2456659799249539e-05 0.003890652522065862 0 -6.5154703207302657e-05 0.003883078984561738 0 4.2456659799249539e-05 0.003890652522065862 0 -2.7691512269756365e-05 0.003943573910039265 0 4.2456659799249539e-05 0.003890652522065862 0 4.5767505509314649e-05 0.0039552963025763109 0 -2.7691512269756365e-05 0.003943573910039265 0 4.5767505509314649e-05 0.0039552963025763109 0 6.3903913956951746e-07 0.003986002193198627 0 8.5065572789878096e-05 0.0039947302213154644 0 4.5767505509314649e-05 0.0039552963025763109 0 -2.7691512269756365e-05 0.003943573910039265 0 6.3903913956951746e-07 0.003986002193198627 0 -2.7691512269756365e-05 0.003943573910039265 0 -0.00014569382747332875 0.0039612699333723038 0 -6.9901882560742485e-05 0.0039724492852621866 0 -2.7691512269756365e-05 0.003943573910039265 0 6.3903913956951746e-07 0.003986002193198627 0 -6.9901882560742485e-05 0.0039724492852621866 0 -0.00014569382747332875 0.0039612699333723038 0 -6.9901882560742485e-05 0.0039724492852621866 0 -0.00012626007521676272 0.0039566950511644907 0 -3.1332303007472369e-05 0.0040172958819950314 0 -0.00012626007521676272 0.0039566950511644907 0 -3.7444740164178933e-05 0.0040375734541630119 0 -6.9901882560742485e-05 0.0039724492852621866 0 -3.1332303007472369e-05 0.0040172958819950314 0 -0.00012626007521676272 0.0039566950511644907 0 6.3903913956951746e-07 0.003986002193198627 0 -6.9901882560742485e-05 0.0039724492852621866 0 -3.1332303007472369e-05 0.0040172958819950314 0 6.3903913956951746e-07 0.003986002193198627 0 3.0318179847217837e-05 0.0040162358387638118 0 8.5065572789878096e-05 0.0039947302213154644 0 6.3903913956951746e-07 0.003986002193198627 0 -3.1332303007472369e-05 0.0040172958819950314 0 3.0318179847217837e-05 0.0040162358387638118 0 7.4076616102298004e-05 0.0040251042992188223 0 8.5065572789878096e-05 0.0039947302213154644 0 0.00015173662605214936 0.0040134287762950494 0 3.0318179847217837e-05 0.0040162358387638118 0 7.4076616102298004e-05 0.0040251042992188223 0 8.5065572789878096e-05 0.0039947302213154644 0 8.5065572789878096e-05 0.0039947302213154644 0 0.00015173662605214936 0.0040134287762950494 0 0.00014700926197122857 0.0039844332696977259 0 0.0002194769395053419 0.0039741410344660104 0 0.00015173662605214936 0.0040134287762950494 0 0.00014700926197122857 0.0039844332696977259 0 0.0002194769395053419 0.0039741410344660104 0 0.00013263088102293655 0.0039476894566081435 0 0.00014700926197122857 0.0039844332696977259 0 0.00013263088102293655 0.0039476894566081435 0 8.5065572789878096e-05 0.0039947302213154644 0 0.00014700926197122857 0.0039844332696977259 0 0.00013263088102293655 0.0039476894566081435 0 4.5767505509314649e-05 0.0039552963025763109 0 8.5065572789878096e-05 0.0039947302213154644 0 -2.943051385049053e-05 0.0039347947153593674 0 5.9780937503137391e-05 0.0039084069523615487 0 -2.2895229996838802e-07 0.0040278951686592516 0 -2.943051385049053e-05 0.0039347947153593674 0 -0.00011712144136070184 0.0039698126676742541 0 -2.2895229996838802e-07 0.0040278951686592516 0 -0.00046812006411353922 0.0042067767888736207 0 -0.00054977873934671092 0.0048078119351758096 0 -0.001106899509495716 0.0055164689856625178 0 -0.0010405278267220023 0.0054027366322181103 0 -0.0011564070132305451 0.0053865179479553431 0 -0.001106899509495716 0.0055164689856625178 0 -0.0011564070132305451 0.0053865179479553431 0 -0.001281318569041975 0.0054706321415596976 0 -0.00046812006411353922 0.0042067767888736207 0 -0.00012687101719561318 0.0035936276194277906 0 -0.00011089255925953236 0.0035514945704346523 0 -0.00017167320812819668 0.0036762736571405263 0 -0.00030029847438932259 0.003593527820439135 0 -0.00014160368722388901 0.0036732501728767878 0 -0.00017167320812819668 0.0036762736571405263 0 -0.00010937829980458899 0.0037622749616563972 0 -0.00014160368722388901 0.0036732501728767878 0 -6.8517247758564243e-05 0.0038392719373805391 0 -0.00010937829980458899 0.0037622749616563972 0 -2.943051385049053e-05 0.0039347947153593674 0 5.9780937503137391e-05 0.0039084069523615487 0 -6.8517247758564243e-05 0.0038392719373805391 0 -0.00046812006411353922 0.0042067767888736207 0 7.6627487830665319e-05 0.0037413730303509861 0 -6.8517247758564243e-05 0.0038392719373805391 0 -0.00010742172155478638 0.003905395650298453 0 -0.00011712144136070184 0.0039698126676742541 0 -0.00010922023275971778 0.0039523542389838118 0 -5.4455934736445824e-05 0.0039398435911182509 0 -6.8517247758564243e-05 0.0038392719373805391 0 -0.00010742172155478638 0.003905395650298453 0 -6.7589020888207782e-05 0.0038406412007194377 0 -0.00010742172155478638 0.003905395650298453 0 -0.00012626007521676272 0.0039566950511644907 0 -6.7589020888207782e-05 0.0038406412007194377 0 -0.00014569382747332875 0.0039612699333723038 0 -0.00012626007521676272 0.0039566950511644907 0 -0.00014892569912747979 0.0039654784458456726 0 -0.00010742172155478638 0.003905395650298453 0 -0.00012626007521676272 0.0039566950511644907 0 -0.00014892569912747979 0.0039654784458456726 0 -0.00010742172155478638 0.003905395650298453 0 -0.00014892569912747979 0.0039654784458456726 0 -0.00011712144136070184 0.0039698126676742541 0 -0.00014892569912747979 0.0039654784458456726 0 -0.00011712144136070184 0.0039698126676742541 0 -0.00018661775554586665 0.0040293929363725651 0 -0.00014569382747332875 0.0039612699333723038 0 -0.00014892569912747979 0.0039654784458456726 0 -0.00018661775554586665 0.0040293929363725651 0 -2.943051385049053e-05 0.0039347947153593674 0 -6.8517247758564243e-05 0.0038392719373805391 0 -0.00011712144136070184 0.0039698126676742541 0 -0.00011712144136070184 0.0039698126676742541 0 -0.00015820398405952816 0.0040842605756500148 0 -2.2895229996838802e-07 0.0040278951686592516 0 -0.00011712144136070184 0.0039698126676742541 0 -0.00015820398405952816 0.0040842605756500148 0 -0.00018661775554586665 0.0040293929363725651 0 -0.00015820398405952816 0.0040842605756500148 0 -0.0002384013001574057 0.0041341035197170464 0 -0.00031167162883875978 0.0042335097777698146 0 -0.00015820398405952816 0.0040842605756500148 0 -0.00018661775554586665 0.0040293929363725651 0 -0.0002384013001574057 0.0041341035197170464 0 -0.0001625453651398755 0.003985489868898677 0 -0.00020369264520179355 0.0039830443519507886 0 -0.00014569382747332875 0.0039612699333723038 0 -0.00018661775554586665 0.0040293929363725651 0 -0.00024357104651344323 0.004095788310189483 0 -0.00018661775554586665 0.0040293929363725651 0 -0.0002384013001574057 0.0041341035197170464 0 -0.00024357104651344323 0.004095788310189483 0 -9.7298577298734698e-05 0.0038293453090710843 0 -0.00016016093341066138 0.0038796170213862904 0 -0.00018479374236258866 0.0038001852802950807 0 -0.00020369264520179355 0.0039830443519507886 0 -0.00039254960223431397 0.0041182631729578048 0 -0.0002384013001574057 0.0041341035197170464 0 -0.00024357104651344323 0.004095788310189483 0 -0.00026310740920913771 0.0041703569950701644 0 -0.00010640100345685045 0.0042529022201422996 0 -0.00058265926635696916 0.0045650141357433177 0 -0.00076305059052523877 0.0050041645227260276 0 -0.00015820398405952816 0.0040842605756500148 0 -0.00010640100345685045 0.0042529022201422996 0 -0.00031167162883875978 0.0042335097777698146 0 -0.0002384013001574057 0.0041341035197170464 0 -0.00026310740920913771 0.0041703569950701644 0 -0.00031167162883875978 0.0042335097777698146 0 -0.00039254960223431397 0.0041182631729578048 0 -0.00041959508921033919 0.0042516075675341335 0 -0.00095591030392355605 0.0045060297743824357 0 -0.00031167162883875978 0.0042335097777698146 0 -0.00058265926635696916 0.0045650141357433177 0 -0.00010640100345685045 0.0042529022201422996 0 -0.00031167162883875978 0.0042335097777698146 0 -0.00058265926635696916 0.0045650141357433177 0 -0.00093366715176708675 0.0053066164604925869 0 -0.00099399981569195666 0.0052351649580141555 0 -0.0009244738587655452 0.0051328922272597137 0 -0.00099399981569195666 0.0052351649580141555 0 -0.0010621838079266472 0.0052614985505259658 0 -0.0010464069583393007 0.0051998338709870941 0 -0.00099399981569195666 0.0052351649580141555 0 -0.0010621838079266472 0.0052614985505259658 0 -0.0010235864346913638 0.0053142012782902755 0 -0.0010621838079266472 0.0052614985505259658 0 -0.0010235864346913638 0.0053142012782902755 0 -0.0010878761594359911 0.0053338469267316538 0 -0.00093366715176708675 0.0053066164604925869 0 -0.00099399981569195666 0.0052351649580141555 0 -0.0010235864346913638 0.0053142012782902755 0 -0.0010235864346913638 0.0053142012782902755 0 -0.0010405278267220023 0.0054027366322181103 0 -0.0010878761594359911 0.0053338469267316538 0 -0.00053123494146174147 0.0047593613851969882 0 -0.00054977873934671092 0.0048078119351758096 0 -0.00015820398405952816 0.0040842605756500148 0 -0.00010640100345685045 0.0042529022201422996 0 -2.2895229996838802e-07 0.0040278951686592516 0 -0.00093366715176708675 0.0053066164604925869 0 -0.0010235864346913638 0.0053142012782902755 0 -0.0010405278267220023 0.0054027366322181103 0 -0.0011564070132305451 0.0053865179479553431 0 -0.0010878761594359911 0.0053338469267316538 0 -0.0011674885533036409 0.005280183199769516 0 -0.0010405278267220023 0.0054027366322181103 0 -0.0011564070132305451 0.0053865179479553431 0 -0.0010878761594359911 0.0053338469267316538 0 -0.0010621838079266472 0.0052614985505259658 0 -0.0010878761594359911 0.0053338469267316538 0 -0.0011674885533036409 0.005280183199769516 0 -0.0010621838079266472 0.0052614985505259658 0 -0.0011674885533036409 0.005280183199769516 0 -0.0011157280629326273 0.0052058671770873789 0 -0.0011674885533036409 0.005280183199769516 0 -0.0012117467020065222 0.0051976105145435762 0 -0.0012487311460840412 0.0052477836829646057 0 -0.0012117467020065222 0.0051976105145435762 0 -0.0011509532709418082 0.0051508423354129466 0 -0.0012855897719220714 0.0051590623453573641 0 -0.0011674885533036409 0.005280183199769516 0 -0.0012117467020065222 0.0051976105145435762 0 -0.0011157280629326273 0.0052058671770873789 0 -0.0012117467020065222 0.0051976105145435762 0 -0.0011157280629326273 0.0052058671770873789 0 -0.0011509532709418082 0.0051508423354129466 0 -0.0011157280629326273 0.0052058671770873789 0 -0.001059984737215065 0.0051530582708347178 0 -0.0011509532709418082 0.0051508423354129466 0 -0.0011157280629326273 0.0052058671770873789 0 -0.0010464069583393007 0.0051998338709870941 0 -0.001059984737215065 0.0051530582708347178 0 -0.0010621838079266472 0.0052614985505259658 0 -0.0011157280629326273 0.0052058671770873789 0 -0.0010464069583393007 0.0051998338709870941 0 -0.0010464069583393007 0.0051998338709870941 0 -0.00099028503279060078 0.0051567750875024304 0 -0.001059984737215065 0.0051530582708347178 0 -0.00099399981569195666 0.0052351649580141555 0 -0.00099028503279060078 0.0051567750875024304 0 -0.0009244738587655452 0.0051328922272597137 0 -0.00099399981569195666 0.0052351649580141555 0 -0.0010464069583393007 0.0051998338709870941 0 -0.00099028503279060078 0.0051567750875024304 0 -0.00099028503279060078 0.0051567750875024304 0 -0.00097453691376508521 0.0051310047684588788 0 -0.0009244738587655452 0.0051328922272597137 0 -0.00099028503279060078 0.0051567750875024304 0 -0.00097453691376508521 0.0051310047684588788 0 -0.001059984737215065 0.0051530582708347178 0 -0.00097453691376508521 0.0051310047684588788 0 -0.001059984737215065 0.0051530582708347178 0 -0.0010307747358197083 0.0051187321579884816 0 -0.001059984737215065 0.0051530582708347178 0 -0.0010307747358197083 0.0051187321579884816 0 -0.0011088249089041611 0.0051146607181275765 0 -0.00097453691376508521 0.0051310047684588788 0 -0.00097406653636053476 0.0051066531101871867 0 -0.00086432367633095604 0.0051091973250037065 0 -0.00097453691376508521 0.0051310047684588788 0 -0.0010307747358197083 0.0051187321579884816 0 -0.00097406653636053476 0.0051066531101871867 0 -0.0010307747358197083 0.0051187321579884816 0 -0.00097406653636053476 0.0051066531101871867 0 -0.0010458838915090333 0.0050927825746487493 0 -0.00097406653636053476 0.0051066531101871867 0 -0.00099023555472512511 0.0050895496545607776 0 -0.00093725427988802475 0.0051095573385647108 0 -0.00097406653636053476 0.0051066531101871867 0 -0.00099023555472512511 0.0050895496545607776 0 -0.0010458838915090333 0.0050927825746487493 0 -0.0010307747358197083 0.0051187321579884816 0 -0.0010458838915090333 0.0050927825746487493 0 -0.0011088249089041611 0.0051146607181275765 0 -0.0010458838915090333 0.0050927825746487493 0 -0.0011088249089041611 0.0051146607181275765 0 -0.0011308292068475561 0.0050757338272981335 0 -0.0012166469660358959 0.005116834486324601 0 -0.0011509532709418082 0.0051508423354129466 0 -0.0012855897719220714 0.0051590623453573641 0 -0.0011088249089041611 0.0051146607181275765 0 -0.0012166469660358959 0.005116834486324601 0 -0.0011308292068475561 0.0050757338272981335 0 -0.0011088249089041611 0.0051146607181275765 0 -0.0012166469660358959 0.005116834486324601 0 -0.0011509532709418082 0.0051508423354129466 0 -0.001059984737215065 0.0051530582708347178 0 -0.0011088249089041611 0.0051146607181275765 0 -0.0011509532709418082 0.0051508423354129466 0 -0.00095591030392355605 0.0045060297743824357 0 -0.00076305059052523877 0.0050041645227260276 0 -0.00083328555197072132 0.0051934218004327341 0 -0.00039254960223431397 0.0041182631729578048 0 -0.00062102713362319954 0.0044121807213655167 0 -0.00031558090595768863 0.003844050445377415 0 -0.00027149896430735126 0.0037318997093315647 0 -0.00035642539047909334 0.0036994525661364452 0 -0.00019494138860065764 0.0038090134197442051 0 -0.00031558090595768863 0.003844050445377415 0 -0.00027149896430735126 0.0037318997093315647 0 -0.00053123494146174147 0.0047593613851969882 0 -0.00072161551746323068 0.0049865886979345722 0 -0.00093366715176708675 0.0053066164604925869 0 -0.00076305059052523877 0.0050041645227260276 0 -0.0009244738587655452 0.0051328922272597137 0 -0.00076305059052523877 0.0050041645227260276 0 -0.00086432367633095604 0.0051091973250037065 0 -0.00083328555197072132 0.0051934218004327341 0 -0.00095591030392355605 0.0045060297743824357 0 -0.00058265926635696916 0.0045650141357433177 0 -0.00076305059052523877 0.0050041645227260276 0 -0.00076305059052523877 0.0050041645227260276 0 -0.0009244738587655452 0.0051328922272597137 0 -0.00086432367633095604 0.0051091973250037065 0 -0.00097453691376508521 0.0051310047684588788 0 -0.0009244738587655452 0.0051328922272597137 0 -0.00086432367633095604 0.0051091973250037065 0 -0.00093725427988802475 0.0051095573385647108 0 -0.00083328555197072132 0.0051934218004327341 0 -0.00094539001428372454 0.0049862855598754334 0 -0.00086432367633095604 0.0051091973250037065 0 -0.00093725427988802475 0.0051095573385647108 0 -0.00083328555197072132 0.0051934218004327341 0 -0.00097406653636053476 0.0051066531101871867 0 -0.00086432367633095604 0.0051091973250037065 0 -0.00093725427988802475 0.0051095573385647108 0 -0.00027149896430735126 0.0037318997093315647 0 -0.0003048386945074511 0.0036820582993806585 0 -0.00026761151331024203 0.003639544424265347 0 -0.00027149896430735126 0.0037318997093315647 0 -0.00035642539047909334 0.0036994525661364452 0 -0.0003048386945074511 0.0036820582993806585 0 -0.0003048386945074511 0.0036820582993806585 0 -0.00026761151331024203 0.003639544424265347 0 -0.00034276855782379727 0.0036376686420279362 0 -0.00035642539047909334 0.0036994525661364452 0 -0.0003048386945074511 0.0036820582993806585 0 -0.00034276855782379727 0.0036376686420279362 0 -0.00041653022878678452 0.0043322836607051444 0 -0.00064420720217783669 0.0042242468379872023 0 -0.00025970985282708586 0.0034536450628189276 0 -0.00031528060952504619 0.0035633827101240372 0 -0.0004936560982444205 0.003456734580750524 0 -0.00028618040758449955 0.0035118961999358197 0 -0.00064420720217783669 0.0042242468379872023 0 -0.00026761151331024203 0.003639544424265347 0 -0.00034276855782379727 0.0036376686420279362 0 -0.00037529701542077368 0.0035888676155280195 0 -0.00093725427988802475 0.0051095573385647108 0 -0.00094539001428372454 0.0049862855598754334 0 -0.00098827403706589693 0.0050542540235930028 0 -0.00035642539047909334 0.0036994525661364452 0 -0.00034276855782379727 0.0036376686420279362 0 -0.00039431065975048741 0.0035884589912965844 0 -0.00062102713362319954 0.0044121807213655167 0 -0.00072880944072913198 0.0044535821522718125 0 -0.00034276855782379727 0.0036376686420279362 0 -0.00037529701542077368 0.0035888676155280195 0 -0.00039431065975048741 0.0035884589912965844 0 -0.00099023555472512511 0.0050895496545607776 0 -0.00093725427988802475 0.0051095573385647108 0 -0.00098827403706589693 0.0050542540235930028 0 -0.0010015853943687093 0.0050106168126049788 0 -0.0010057001868092033 0.0050001213528653747 0 -0.0010316734978630378 0.0050122269750290513 0 -0.00094539001428372454 0.0049862855598754334 0 -0.00098827403706589693 0.0050542540235930028 0 -0.0010316734978630378 0.0050122269750290513 0 -0.00072880944072913198 0.0044535821522718125 0 -0.00099914255375397405 0.0047353712463030669 0 -0.00064420720217783669 0.0042242468379872023 0 -0.00072880944072913198 0.0044535821522718125 0 -0.00074814295123692607 0.0044685241015399047 0 -0.00072026572520263556 0.0044707663667692575 0 -0.00071301737805037479 0.0044940597141394376 0 -0.00064420720217783669 0.0042242468379872023 0 -0.00075423278270145364 0.0048078906401712819 0 -0.00072880944072913198 0.0044535821522718125 0 -0.00075423278270145364 0.0048078906401712819 0 -0.00089130790311645167 0.0051386965252345667 0 -0.00069091203519873739 0.0049999956095904867 0 -0.00094074807311298185 0.00499999554699577 0 -0.00083789712677048494 0.0051733549242373731 0 -0.00089130790311645167 0.0051386965252345667 0 -0.00069091203519873739 0.0049999956095904867 0 -0.00075423278270145364 0.0048078906401712819 0 -0.0009406483449419927 0.0050002097290849697 0 -0.00056607322520586475 0.005187333461654709 0 -0.00083789712677048494 0.0051733549242373731 0 -0.00069091203519873739 0.0049999956095904867 0 -0.0012166469660358959 0.005116834486324601 0 -0.0011308292068475561 0.0050757338272981335 0 -0.0012440937036858361 0.0050555556228068493 0 -0.0011308292068475561 0.0050757338272981335 0 -0.0011214142755780888 0.0050326383338645418 0 -0.0012440937036858361 0.0050555556228068493 0 -0.0010458838915090333 0.0050927825746487493 0 -0.0011308292068475561 0.0050757338272981335 0 -0.0010544509344621927 0.0050548363967603659 0 -0.00099023555472512511 0.0050895496545607776 0 -0.0010458838915090333 0.0050927825746487493 0 -0.0010544509344621927 0.0050548363967603659 0 -0.00099023555472512511 0.0050895496545607776 0 -0.0010544509344621927 0.0050548363967603659 0 -0.00098827403706589693 0.0050542540235930028 0 -0.0010544509344621927 0.0050548363967603659 0 -0.00098827403706589693 0.0050542540235930028 0 -0.0010316734978630378 0.0050122269750290513 0 -0.0010544509344621927 0.0050548363967603659 0 -0.0010316734978630378 0.0050122269750290513 0 -0.0011214142755780888 0.0050326383338645418 0 -0.0011308292068475561 0.0050757338272981335 0 -0.0010544509344621927 0.0050548363967603659 0 -0.0011214142755780888 0.0050326383338645418 0 -0.00089309155141236601 0.0051395709948771125 0 -0.00094076172222810667 0.0049999919638062064 0 -0.0011063916256856868 0.0050000039546538788 0 -0.0010316734978630378 0.0050122269750290513 0 -0.001106514930385134 0.0049998422071320971 0 -0.0011214142755780888 0.0050326383338645418 0 -0.0010057001868092033 0.0050001213528653747 0 -0.0010316734978630378 0.0050122269750290513 0 -0.001106514930385134 0.0049998422071320971 0 -0.00075423278270145364 0.0048078906401712819 0 -0.0011064572044800899 0.0050001294908268079 0 -0.001106514930385134 0.0049998422071320971 0 -0.0013713170477925613 0.0049999491680807213 0 -0.0012440937036858361 0.0050555556228068493 0 -0.001106514930385134 0.0049998422071320971 0 -0.0011214142755780888 0.0050326383338645418 0 -0.0012440937036858361 0.0050555556228068493 0 -0.0013713170477925613 0.0049999491680807213 0 -0.0012440937036858361 0.0050555556228068493 0 -0.0013746275061614795 0.0050725506839153119 0 -0.0012166469660358959 0.005116834486324601 0 -0.0012440937036858361 0.0050555556228068493 0 -0.0013461736190454056 0.0051236146444489858 0 -0.0012440937036858361 0.0050555556228068493 0 -0.0013746275061614795 0.0050725506839153119 0 -0.0013461736190454056 0.0051236146444489858 0 -0.0013746275061614795 0.0050725506839153119 0 -0.0013461736190454056 0.0051236146444489858 0 -0.0014530181695803729 0.0051434616337568944 0 -0.0013746275061614795 0.0050725506839153119 0 -0.0015098010065524204 0.005088749350348567 0 -0.0014530181695803729 0.0051434616337568944 0 -0.0013713170477925613 0.0049999491680807213 0 -0.0015098010065524204 0.005088749350348567 0 -0.0016363453725360543 0.0049999389018881629 0 -0.0013713170477925613 0.0049999491680807213 0 -0.0013746275061614795 0.0050725506839153119 0 -0.0015098010065524204 0.005088749350348567 0 -0.0015098010065524204 0.005088749350348567 0 -0.0016363453725360543 0.0049999389018881629 0 -0.0016691241742466856 0.0051166727785664726 0 -0.0016363453725360543 0.0049999389018881629 0 -0.0017756090486525764 0.0050543238595166882 0 -0.0019011952699500546 0.004999942579475186 0 -0.0016363453725360543 0.0049999389018881629 0 -0.0017756090486525764 0.0050543238595166882 0 -0.0016691241742466856 0.0051166727785664726 0 -0.0016691241742466856 0.0051166727785664726 0 -0.0017471919088165601 0.0052247084854137298 0 -0.0018344632133362735 0.0051188506746815479 0 -0.0017756090486525764 0.0050543238595166882 0 -0.0016691241742466856 0.0051166727785664726 0 -0.0018344632133362735 0.0051188506746815479 0 -0.0016691241742466856 0.0051166727785664726 0 -0.0015370611501327066 0.005186035345150863 0 -0.0017471919088165601 0.0052247084854137298 0 -0.0018739057740190868 0.0047747182122290293 0 -0.0019298973812861284 0.0049828219198576979 0 -0.0015098010065524204 0.005088749350348567 0 -0.0016691241742466856 0.0051166727785664726 0 -0.0015370611501327066 0.005186035345150863 0 -0.0015098010065524204 0.005088749350348567 0 -0.0015370611501327066 0.005186035345150863 0 -0.0014530181695803729 0.0051434616337568944 0 -0.0015370611501327066 0.005186035345150863 0 -0.0014530181695803729 0.0051434616337568944 0 -0.0014304381191546619 0.0051651226619402607 0 -0.0015370611501327066 0.005186035345150863 0 -0.001486691477657691 0.0051586757946268736 0 -0.0014855910653873816 0.0051709042825165341 0 -0.0015370611501327066 0.005186035345150863 0 -0.0014855910653873816 0.0051709042825165341 0 -0.0014304381191546619 0.0051651226619402607 0 -0.0018739057740190868 0.0047747182122290293 0 -0.0015895824153942446 0.0047574502040224681 0 -0.0015370611501327066 0.005186035345150863 0 -0.0014920541647585588 0.0051887028500873927 0 -0.001486691477657691 0.0051586757946268736 0 -0.0019774385002179567 0.0039178229335612861 0 -0.0016648586749326661 0.0043889168319795144 0 -0.0021582571673285306 0.0040509999736841815 0 -0.0014602967750762068 0.0051926944865428801 0 -0.0018739057740190868 0.0047747182122290293 0 -0.0016648586749326661 0.0043889168319795144 0 -0.0021582571673285306 0.0040509999736841815 0 -0.0021191168055528361 0.0048216610501712375 0 -0.0015895824153942446 0.0047574502040224681 0 -0.0014860302808070085 0.0050697550481256601 0 -0.001486691477657691 0.0051586757946268736 0 -0.0014556903078312567 0.0051633371853290451 0 -0.0014860074116020221 0.0051080531856386594 0 -0.001486691477657691 0.0051586757946268736 0 -0.0014855910653873816 0.0051709042825165341 0 -0.0014556903078312567 0.0051633371853290451 0 -0.0014855910653873816 0.0051709042825165341 0 -0.0014556903078312567 0.0051633371853290451 0 -0.0014304381191546619 0.0051651226619402607 0 -0.0014556903078312567 0.0051633371853290451 0 -0.00133711396135208 0.0051974940553862446 0 -0.0014304381191546619 0.0051651226619402607 0 -0.00133711396135208 0.0051974940553862446 0 -0.0012855897719220714 0.0051590623453573641 0 -0.0014304381191546619 0.0051651226619402607 0 -0.0012117467020065222 0.0051976105145435762 0 -0.00133711396135208 0.0051974940553862446 0 -0.0012487311460840412 0.0052477836829646057 0 -0.0012117467020065222 0.0051976105145435762 0 -0.00133711396135208 0.0051974940553862446 0 -0.0012855897719220714 0.0051590623453573641 0 -0.0012855897719220714 0.0051590623453573641 0 -0.0013461736190454056 0.0051236146444489858 0 -0.0014304381191546619 0.0051651226619402607 0 -0.0012166469660358959 0.005116834486324601 0 -0.0012855897719220714 0.0051590623453573641 0 -0.0013461736190454056 0.0051236146444489858 0 -0.0013461736190454056 0.0051236146444489858 0 -0.0014530181695803729 0.0051434616337568944 0 -0.0014304381191546619 0.0051651226619402607 0 -0.0018008924934196551 0.00400071213704138 0 -0.0017780063417177647 0.0039775884699362503 0 -0.0017649065312757082 0.0039542639203617213 0 -0.002002936267382635 0.0045392539176107548 0 -0.0021704908412999704 0.0046292726749315085 0 -0.0023967976190223585 0.0051462760116787343 0 -0.0022983317052277167 0.0052994780120088564 0 -0.0025146687425672571 0.0052865383938872452 0 -0.0023967976190223585 0.0051462760116787343 0 -0.0022551831370197935 0.0049999967417591494 0 -0.002524620797886947 0.0049999947925203157 0 -0.0023967976190223585 0.0051462760116787343 0 -0.0022551831370197935 0.0049999967417591494 0 -0.0021328955104710176 0.005174796851735582 0 -0.0023967976190223585 0.0051462760116787343 0 -0.0022983317052277167 0.0052994780120088564 0 -0.0021328955104710176 0.005174796851735582 0 -0.002002936267382635 0.0045392539176107548 0 -0.0021128798466289 0.0050563754480191037 0 -0.001954138980699488 0.0047801410014246364 0 -0.0019925458802924636 0.0048138330594189888 0 -0.0020076356956504116 0.0047789413970239286 0 -0.0019925458802924636 0.0048138330594189888 0 -0.0020186702677019307 0.0048055397204451525 0 -0.0020076356956504116 0.0047789413970239286 0 -0.0021128798466289 0.0050563754480191037 0 -0.0019767939497712787 0.0049756845588103289 0 -0.0022551831370197935 0.0049999967417591494 0 -0.0021328955104710176 0.005174796851735582 0 -0.0019857533874991793 0.0049999973973144426 0 -0.0019925458802924636 0.0048138330594189888 0 -0.0020305783179181821 0.0048461996556671411 0 -0.0020186702677019307 0.0048055397204451525 0 -0.0021328955104710176 0.005174796851735582 0 -0.0019644833164449405 0.0050474523640434742 0 -0.0019857533874991793 0.0049999973973144426 0 -0.0017756090486525764 0.0050543238595166882 0 -0.0019284808399426872 0.0050261931370917641 0 -0.0018344632133362735 0.0051188506746815479 0 -0.0017756090486525764 0.0050543238595166882 0 -0.0019284808399426872 0.0050261931370917641 0 -0.0019011952699500546 0.004999942579475186 0 -0.0020305783179181821 0.0048461996556671411 0 -0.0020453464941420558 0.0048110087136707582 0 -0.0020186702677019307 0.0048055397204451525 0 -0.0019767939497712787 0.0049756845588103289 0 -0.0019857158738190339 0.0049999945112640014 0 -0.001963843136992167 0.0050483519467091464 0 -0.0019857468633727011 0.0049999997282101265 0 -0.0019013945041050698 0.0049999999212136806 0 -0.0019767939497712787 0.0049756845588103289 0 -0.0019014609229769035 0.0049999697683426863 0 -0.0019767939497712787 0.0049756845588103289 0 -0.0019298973812861284 0.0049828219198576979 0 -0.0020592951367082732 0.0047768376918016341 0 -0.0020453464941420558 0.0048110087136707582 0 -0.0020186702677019307 0.0048055397204451525 0 -0.0020592951367082732 0.0047768376918016341 0 -0.0020186702677019307 0.0048055397204451525 0 -0.0020076356956504116 0.0047789413970239286 0 -0.0019774385002179567 0.0039178229335612861 0 -0.0021582571673285306 0.0040509999736841815 0 -0.0020997856001313147 0.0040290755759335752 0 -0.0018739057740190868 0.0047747182122290293 0 -0.0020525598080742336 0.0043452868185929073 0 -0.002172784171224575 0.0040433564509152614 0 -0.0021924634511783204 0.0043448665427622789 0 -0.0021582571673285306 0.0040509999736841815 0 -0.0020430685254608162 0.0038050073286882372 0 -0.0022476764204814267 0.003697196630000107 0 -0.0020430685254608162 0.0038050073286882372 0 -0.0019849672824544763 0.0039228279286467032 0 -0.0018787705416367915 0.0037898531919791389 0 -0.0020430685254608162 0.0038050073286882372 0 -0.0018787705416367915 0.0037898531919791389 0 -0.0019515226581887665 0.0035373640208749431 0 -0.0021582571673285306 0.0040509999736841815 0 -0.0020430685254608162 0.0038050073286882372 0 -0.0019849672824544763 0.0039228279286467032 0 -0.0021582571673285306 0.0040509999736841815 0 -0.0019849672824544763 0.0039228279286467032 0 -0.0020997856001313147 0.0040290755759335752 0 -0.002002936267382635 0.0045392539176107548 0 -0.0020525598080742336 0.0043452868185929073 0 -0.001813359330826565 0.0040169852064857745 0 -0.0019849672824544763 0.0039228279286467032 0 -0.0020997856001313147 0.0040290755759335752 0 -0.001813359330826565 0.0040169852064857745 0 -0.0018118373738522087 0.0038921320407418591 0 -0.001733820506409769 0.0038895876474729948 0 -0.0019849672824544763 0.0039228279286467032 0 -0.0018118373738522087 0.0038921320407418591 0 -0.0018787705416367915 0.0037898531919791389 0 -0.001813359330826565 0.0040169852064857745 0 -0.0019849672824544763 0.0039228279286467032 0 -0.0018118373738522087 0.0038921320407418591 0 -0.0018787705416367915 0.0037898531919791389 0 -0.0017269290030358709 0.0036700507517143316 0 -0.0017492187538198961 0.0037904102577340556 0 -0.0018118373738522087 0.0038921320407418591 0 -0.0018787705416367915 0.0037898531919791389 0 -0.0017492187538198961 0.0037904102577340556 0 -0.0016908046059569337 0.0037440533414511441 0 -0.0015650978306212509 0.0036174671228497691 0 -0.001733820506409769 0.0038895876474729948 0 -0.0017492187538198961 0.0037904102577340556 0 -0.0016908046059569337 0.0037440533414511441 0 -0.001733820506409769 0.0038895876474729948 0 -0.0017269290030358709 0.0036700507517143316 0 -0.0017492187538198961 0.0037904102577340556 0 -0.0016908046059569337 0.0037440533414511441 0 -0.0017269290030358709 0.0036700507517143316 0 -0.0016908046059569337 0.0037440533414511441 0 -0.0015650978306212509 0.0036174671228497691 0 -0.0018601876895843047 0.0037921090484657606 0 -0.0017942477893560958 0.0038871308935677119 0 -0.0017986010836865882 0.0038281777714254082 0 -0.0018601876895843047 0.0037921090484657606 0 -0.0017942477893560958 0.0038871308935677119 0 -0.0017780063417177647 0.0039775884699362503 0 -0.0015650978306212509 0.0036174671228497691 0 -0.001733820506409769 0.0038895876474729948 0 -0.0017780063417177647 0.0039775884699362503 0 -0.0017142947801286061 0.0037002015843380304 0 -0.0017694656568943625 0.0039525253838579065 0 -0.0018118373738522087 0.0038921320407418591 0 -0.0017492187538198961 0.0037904102577340556 0 -0.001733820506409769 0.0038895876474729948 0 -0.002002936267382635 0.0045392539176107548 0 -0.0016128214802896906 0.0038857368954634854 0 -0.0018008924934196551 0.00400071213704138 0 -0.001733820506409769 0.0038895876474729948 0 -0.0017780063417177647 0.0039775884699362503 0 -0.0017942477893560958 0.0038871308935677119 0 -0.0017780063417177647 0.0039775884699362503 0 -0.0017757618715111159 0.0039345176260679885 0 -0.0017780063417177647 0.0039775884699362503 0 -0.0017757618715111159 0.0039345176260679885 0 -0.0017649065312757082 0.0039542639203617213 0 -0.0015161925223664639 0.0034004176912423864 0 -0.00151127580706884 0.0034331876859086019 0 -0.0014644397961008965 0.0034370495087729402 0 -0.0015161925223664639 0.0034004176912423864 0 -0.0015731050887078952 0.0035630646962213105 0 -0.00151127580706884 0.0034331876859086019 0 -0.0018601876895843047 0.0037921090484657606 0 -0.001841520828459583 0.0035981280771638455 0 -0.0018014610492890631 0.0037018385548964585 0 -0.0015650978306212509 0.0036174671228497691 0 -0.0015161925223664639 0.0034004176912423864 0 -0.0015731050887078952 0.0035630646962213105 0 -0.0017142947801286061 0.0037002015843380304 0 -0.0016834538467896463 0.0035095634624734483 0 -0.0017269290030358709 0.0036700507517143316 0 -0.0015650978306212509 0.0036174671228497691 0 -0.0015731050887078952 0.0035630646962213105 0 -0.0015731050887078952 0.0035630646962213105 0 -0.00151127580706884 0.0034331876859086019 0 -0.001413080431590069 0.0033402750708114762 0 -0.0015305877191694288 0.0035776735032925513 0 -0.0017300308318738552 0.0033725468618164612 0 -0.0018787705416367915 0.0037898531919791389 0 -0.0017269290030358709 0.0036700507517143316 0 -0.0019515226581887665 0.0035373640208749431 0 -0.0017269290030358709 0.0036700507517143316 0 -0.0015731050887078952 0.0035630646962213105 0 -0.0019515226581887665 0.0035373640208749431 0 -0.00151127580706884 0.0034331876859086019 0 -0.001413080431590069 0.0033402750708114762 0 -0.0014644397961008965 0.0034370495087729402 0 -0.001413080431590069 0.0033402750708114762 0 -0.0012949398961561074 0.0034290990402025285 0 -0.0014644397961008965 0.0034370495087729402 0 -0.0020430685254608162 0.0038050073286882372 0 -0.0019515226581887665 0.0035373640208749431 0 -0.0022476764204814267 0.003697196630000107 0 -0.0019515226581887665 0.0035373640208749431 0 -0.0022476764204814267 0.003697196630000107 0 -0.0022815806224409799 0.0034481632925489883 0 -0.0021924634511783204 0.0043448665427622789 0 -0.0015087258638329078 0.003848865492010585 0 -0.001413080431590069 0.0033402750708114762 0 -0.0012949398961561074 0.0034290990402025285 0 -0.0011382645374463855 0.0033259959031240773 0 -0.0017300308318738552 0.0033725468618164612 0 -0.0015087258638329078 0.003848865492010585 0 -0.0012949398961561074 0.0034290990402025285 0 -0.0011382645374463855 0.0033259959031240773 0 -0.0010630356846920747 0.003452465033955957 0 -0.0011560148590976376 0.0035339975810196661 0 -0.0012949398961561074 0.0034290990402025285 0 -0.0010630356846920747 0.003452465033955957 0 -0.0011560148590976376 0.0035339975810196661 0 -0.00092791440870082509 0.0036069343224112986 0 -0.0011384533007766137 0.0036647348083692429 0 -0.0011560148590976376 0.0035339975810196661 0 -0.0013956315883823958 0.0035477646381545484 0 -0.0012949398961561074 0.0034290990402025285 0 -0.0011560148590976376 0.0035339975810196661 0 -0.0013956315883823958 0.0035477646381545484 0 -0.0011384533007766137 0.0036647348083692429 0 -0.0013956315883823958 0.0035477646381545484 0 -0.0012949398961561074 0.0034290990402025285 0 -0.0014644397961008965 0.0034370495087729402 0 -0.0013956315883823958 0.0035477646381545484 0 -0.0014644397961008965 0.0034370495087729402 0 -0.0015128142633981953 0.0034956304513412604 0 -0.0013956315883823958 0.0035477646381545484 0 -0.0015128142633981953 0.0034956304513412604 0 -0.0014314648428037028 0.0035180422642415842 0 -0.0015128171046268027 0.0034816039801773562 0 -0.0015514269672917461 0.0035010130140525524 0 -0.0015128142633981953 0.0034956304513412604 0 -0.0017097050761872158 0.0035049862631211402 0 -0.001768800025711314 0.0035252538065890593 0 -0.0015128142633981953 0.0034956304513412604 0 -0.0014314648428037028 0.0035180422642415842 0 -0.0013647331133106264 0.0035153093953046379 0 -0.0015161925223664639 0.0034004176912423864 0 -0.0015128142633981953 0.0034956304513412604 0 -0.0017097050761872158 0.0035049862631211402 0 -0.0016834538467896463 0.0035095634624734483 0 -0.0017057473782057151 0.00351864119529829 0 -0.0015161925223664639 0.0034004176912423864 0 -0.0014644397961008965 0.0034370495087729402 0 -0.0015128142633981953 0.0034956304513412604 0 -0.0012801457670748534 0.0053127668026685436 0 -0.0013971106988905373 0.0052179119705320015 0 -0.001469166920173818 0.0054318861563478465 0 -0.0012801457670748534 0.0053127668026685436 0 -0.001469166920173818 0.0054318861563478465 0 -0.001281318569041975 0.0054706321415596976 0 -0.0011564070132305451 0.0053865179479553431 0 -0.0012801457670748534 0.0053127668026685436 0 -0.001281318569041975 0.0054706321415596976 0 -0.0011564070132305451 0.0053865179479553431 0 -0.0011674885533036409 0.005280183199769516 0 -0.0012801457670748534 0.0053127668026685436 0 -0.0011674885533036409 0.005280183199769516 0 -0.0012801457670748534 0.0053127668026685436 0 -0.0012487311460840412 0.0052477836829646057 0 -0.00133711396135208 0.0051974940553862446 0 -0.0012801457670748534 0.0053127668026685436 0 -0.0012487311460840412 0.0052477836829646057 0 -0.0014556903078312567 0.0051633371853290451 0 -0.00133711396135208 0.0051974940553862446 0 -0.0013971106988905373 0.0052179119705320015 0 -0.00133711396135208 0.0051974940553862446 0 -0.0012801457670748534 0.0053127668026685436 0 -0.0013971106988905373 0.0052179119705320015 0 -0.0014556903078312567 0.0051633371853290451 0 -0.0013971106988905373 0.0052179119705320015 0 -0.0014860074116020221 0.0051080531856386594 0 -0.0021191168055528361 0.0048216610501712375 0 -0.0014860074116020221 0.0051080531856386594 0 -0.0019595391381019853 0.0053494594269501731 0 -0.0016648586749326661 0.0043889168319795144 0 -0.0021191168055528361 0.0048216610501712375 0 -0.0014860074116020221 0.0051080531856386594 0 -0.0015087258638329078 0.003848865492010585 0 -0.0010634027356765405 0.0044179262539884865 0 -0.0014860074116020221 0.0051080531856386594 0 -0.0019595391381019853 0.0053494594269501731 0 -0.001469166920173818 0.0054318861563478465 0 -0.0013971106988905373 0.0052179119705320015 0 -0.0014860074116020221 0.0051080531856386594 0 -0.001469166920173818 0.0054318861563478465 0 -0.00068962730848617026 0.0032992266824933541 0 -0.00094558538372359606 0.0034091051308979023 0 -0.00069649474092005163 0.0035181080015463544 0 -0.0015087258638329078 0.003848865492010585 0 -0.0010006652231386273 0.003343512294838803 0 -0.00098287310985736387 0.0032041687429987015 0 -0.00068962730848617026 0.0032992266824933541 0 -0.00094558538372359606 0.0034091051308979023 0 -0.0010006652231386273 0.003343512294838803 0 -0.0009386213094496193 0.0036328365821240048 0 -0.0011560148590976376 0.0035339975810196661 0 -0.0010630356846920747 0.003452465033955957 0 -0.00092791440870082509 0.0036069343224112986 0 -0.00094558538372359606 0.0034091051308979023 0 -0.00092791440870082509 0.0036069343224112986 0 -0.00069649474092005163 0.0035181080015463544 0 -0.00092791440870082509 0.0036069343224112986 0 -0.00069649474092005163 0.0035181080015463544 0 -0.0007191695214940518 0.0037611114254902504 0 -0.00069649474092005163 0.0035181080015463544 0 -0.00039631519646157097 0.0034186863693206862 0 -0.00049677142531690769 0.0036586275061204323 0 -0.00068962730848617026 0.0032992266824933541 0 -0.00069649474092005163 0.0035181080015463544 0 -0.00039631519646157097 0.0034186863693206862 0 -0.0010634027356765405 0.0044179262539884865 0 -0.00086589145867425595 0.0044745016330572547 0 -0.00046812006411353922 0.0042067767888736207 0 -0.00086589145867425595 0.0044745016330572547 0 -0.00011089255925953236 0.0035514945704346523 0 -0.00039631519646157097 0.0034186863693206862 0 -0.00030029847438932259 0.003593527820439135 0 -0.00039631519646157097 0.0034186863693206862 0 -0.00030029847438932259 0.003593527820439135 0 -0.00049677142531690769 0.0036586275061204323 0 -0.00030029847438932259 0.003593527820439135 0 -0.00030264065274369825 0.0037109940953748734 0 -0.00049677142531690769 0.0036586275061204323 0 -0.00017167320812819668 0.0036762736571405263 0 -0.00030029847438932259 0.003593527820439135 0 -0.00030264065274369825 0.0037109940953748734 0 -0.00030264065274369825 0.0037109940953748734 0 -0.00049677142531690769 0.0036586275061204323 0 -0.00041243518490300041 0.0037820451545921099 0 -0.00030264065274369825 0.0037109940953748734 0 -0.00027137589872663171 0.0038083097137214137 0 -0.00041243518490300041 0.0037820451545921099 0 -0.00030264065274369825 0.0037109940953748734 0 -0.00027137589872663171 0.0038083097137214137 0 -0.00018192869300076602 0.0037795932264380375 0 -0.00029356921099572847 0.0039074917198821729 0 -0.00044557584439142194 0.0038931327448644584 0 -0.00041243518490300041 0.0037820451545921099 0 -0.00027137589872663171 0.0038083097137214137 0 -0.00029356921099572847 0.0039074917198821729 0 -0.00041243518490300041 0.0037820451545921099 0 -0.00027137589872663171 0.0038083097137214137 0 -0.00029356921099572847 0.0039074917198821729 0 -0.00018018973254891148 0.0038672741255199876 0 -0.00044557584439142194 0.0038931327448644584 0 -0.00053434714240920152 0.0038119820773050098 0 -0.00060401693442024178 0.0039599781809457084 0 -0.00044557584439142194 0.0038931327448644584 0 -0.00053434714240920152 0.0038119820773050098 0 -0.00041243518490300041 0.0037820451545921099 0 -0.00053434714240920152 0.0038119820773050098 0 -0.00049677142531690769 0.0036586275061204323 0 -0.0007191695214940518 0.0037611114254902504 0 -0.00053434714240920152 0.0038119820773050098 0 -0.00049677142531690769 0.0036586275061204323 0 -0.00041243518490300041 0.0037820451545921099 0 -0.00069649474092005163 0.0035181080015463544 0 -0.00049677142531690769 0.0036586275061204323 0 -0.0007191695214940518 0.0037611114254902504 0 -0.00092791440870082509 0.0036069343224112986 0 -0.0007191695214940518 0.0037611114254902504 0 -0.00095923751998731291 0.0038077610725598867 0 -0.0007191695214940518 0.0037611114254902504 0 -0.00095923751998731291 0.0038077610725598867 0 -0.00080468294026119522 0.003930893370733218 0 -0.00095923751998731291 0.0038077610725598867 0 -0.00080468294026119522 0.003930893370733218 0 -0.00096722558586707409 0.0039705561982739191 0 -0.0007191695214940518 0.0037611114254902504 0 -0.00080468294026119522 0.003930893370733218 0 -0.00060401693442024178 0.0039599781809457084 0 -0.00053434714240920152 0.0038119820773050098 0 -0.0007191695214940518 0.0037611114254902504 0 -0.00060401693442024178 0.0039599781809457084 0 -0.00060401693442024178 0.0039599781809457084 0 -0.0007867574154320179 0.0040401007927463569 0 -0.00068418665284353426 0.0041414164482285352 0 -0.00080468294026119522 0.003930893370733218 0 -0.00060401693442024178 0.0039599781809457084 0 -0.0007867574154320179 0.0040401007927463569 0 -0.0007867574154320179 0.0040401007927463569 0 -0.00088863348292076588 0.0041433722305711553 0 -0.00096722558586707409 0.0039705561982739191 0 -0.00080468294026119522 0.003930893370733218 0 -0.0007867574154320179 0.0040401007927463569 0 -0.00096722558586707409 0.0039705561982739191 0 -0.0007867574154320179 0.0040401007927463569 0 -0.00088863348292076588 0.0041433722305711553 0 -0.00068418665284353426 0.0041414164482285352 0 -0.00088863348292076588 0.0041433722305711553 0 -0.00082873441656033746 0.004227178023104578 0 -0.0010396114477570642 0.0043053380662537062 0 -0.00088863348292076588 0.0041433722305711553 0 -0.00082873441656033746 0.004227178023104578 0 -0.00068418665284353426 0.0041414164482285352 0 -0.00060401693442024178 0.0039599781809457084 0 -0.00068418665284353426 0.0041414164482285352 0 -0.00049945891154576805 0.0041041966890057319 0 -0.00082873441656033746 0.004227178023104578 0 -0.00068418665284353426 0.0041414164482285352 0 -0.00069482121969517143 0.0043122911545396174 0 -0.00068418665284353426 0.0041414164482285352 0 -0.0005755386331876204 0.0041880512468738928 0 -0.00069482121969517143 0.0043122911545396174 0 -0.00068418665284353426 0.0041414164482285352 0 -0.0005755386331876204 0.0041880512468738928 0 -0.00049945891154576805 0.0041041966890057319 0 -0.0005755386331876204 0.0041880512468738928 0 -0.00049945891154576805 0.0041041966890057319 0 -0.00047284674692691275 0.0041920503887398208 0 -0.00049945891154576805 0.0041041966890057319 0 -0.00036632207749055475 0.0041110492196378438 0 -0.00037963998718587669 0.0039970104980927377 0 -0.00049945891154576805 0.0041041966890057319 0 -0.00036632207749055475 0.0041110492196378438 0 -0.00047284674692691275 0.0041920503887398208 0 -0.00036632207749055475 0.0041110492196378438 0 -0.00020591954949408396 0.0040277791640017085 0 -0.00032306770202836536 0.0042417728560863567 0 -0.00036632207749055475 0.0041110492196378438 0 -0.00020591954949408396 0.0040277791640017085 0 -0.00037963998718587669 0.0039970104980927377 0 -0.00029356921099572847 0.0039074917198821729 0 -0.00020591954949408396 0.0040277791640017085 0 -0.00037963998718587669 0.0039970104980927377 0 -0.00029356921099572847 0.0039074917198821729 0 -0.00020591954949408396 0.0040277791640017085 0 -0.00016233784969467785 0.0039375473403259293 0 -0.00029356921099572847 0.0039074917198821729 0 -0.00044557584439142194 0.0038931327448644584 0 -0.00037963998718587669 0.0039970104980927377 0 -0.00060401693442024178 0.0039599781809457084 0 -0.00049945891154576805 0.0041041966890057319 0 -0.00037963998718587669 0.0039970104980927377 0 -0.00044557584439142194 0.0038931327448644584 0 -0.00060401693442024178 0.0039599781809457084 0 -0.00037963998718587669 0.0039970104980927377 0 -0.0013906856543148141 0.0034765345686575398 0 -0.0013799070625430795 0.0034088686642496382 0 -0.0012592892119275734 0.0034223020679934684 0 -0.0013906856543148141 0.0034765345686575398 0 -0.0014291248289671887 0.0034828698535330029 0 -0.0013799070625430795 0.0034088686642496382 0 -0.0013906856543148141 0.0034765345686575398 0 -0.0014314648428037028 0.0035180422642415842 0 -0.0013647331133106264 0.0035153093953046379 0 -0.0013956315883823958 0.0035477646381545484 0 -0.0014314648428037028 0.0035180422642415842 0 -0.0014291248289671887 0.0034828698535330029 0 -0.0013906856543148141 0.0034765345686575398 0 -0.0014314648428037028 0.0035180422642415842 0 -0.0014291248289671887 0.0034828698535330029 0 -0.0014291248289671887 0.0034828698535330029 0 -0.0014473956163649796 0.0033975375620375241 0 -0.0013799070625430795 0.0034088686642496382 0 -0.0014291248289671887 0.0034828698535330029 0 -0.0014759666418842615 0.0034777816973072806 0 -0.0014473956163649796 0.0033975375620375241 0 -0.0013563931301126193 0.0036393452933067443 0 -0.0013710739819727856 0.0037190180277152326 0 -0.0013956315883823958 0.0035477646381545484 0 -0.0014291248289671887 0.0034828698535330029 0 -0.0014759666418842615 0.0034777816973072806 0 -0.0013961444779192803 0.0035474025178894777 0 -0.0013563931301126193 0.0036393452933067443 0 -0.0013956315883823958 0.0035477646381545484 0 -0.0012476447634280476 0.0038187004524591517 0 -0.0011384533007766137 0.0036647348083692429 0 -0.00092791440870082509 0.0036069343224112986 0 -0.00095923751998731291 0.0038077610725598867 0 -0.0011384533007766137 0.0036647348083692429 0 -0.00095923751998731291 0.0038077610725598867 0 -0.0012476447634280476 0.0038187004524591517 0 -0.0011384533007766137 0.0036647348083692429 0 -0.00095923751998731291 0.0038077610725598867 0 -0.0012476447634280476 0.0038187004524591517 0 -0.00096722558586707409 0.0039705561982739191 0 -0.0012476447634280476 0.0038187004524591517 0 -0.00096722558586707409 0.0039705561982739191 0 -0.001125811039851578 0.00405159959836476 0 -0.00088863348292076588 0.0041433722305711553 0 -0.00096722558586707409 0.0039705561982739191 0 -0.001125811039851578 0.00405159959836476 0 -0.0013710739819727856 0.0037190180277152326 0 -0.00085032863570621089 0.0036737073265965302 0 -0.00088863348292076588 0.0041433722305711553 0 -0.001125811039851578 0.00405159959836476 0 -0.0010396114477570642 0.0043053380662537062 0 -0.0014693897954630199 0.0033170722363950185 0 -0.0015142945068135848 0.0033647673953382984 0 -0.0015354012771427194 0.0032569885169594715 0 -0.0014759666418842615 0.0034777816973072806 0 -0.0015142945068135848 0.0033647673953382984 0 -0.0014473956163649796 0.0033975375620375241 0 -0.0014693897954630199 0.0033170722363950185 0 -0.0015142945068135848 0.0033647673953382984 0 -0.0014473956163649796 0.0033975375620375241 0 -0.0014473956163649796 0.0033975375620375241 0 -0.0014106098554190212 0.0033283927221672621 0 -0.0013799070625430795 0.0034088686642496382 0 -0.0014693897954630199 0.0033170722363950185 0 -0.0014473956163649796 0.0033975375620375241 0 -0.0014106098554190212 0.0033283927221672621 0 -0.0014106098554190212 0.0033283927221672621 0 -0.0013509714150292712 0.0032402924333962083 0 -0.0014498870727456335 0.0032534815392281846 0 -0.0014693897954630199 0.0033170722363950185 0 -0.0014106098554190212 0.0033283927221672621 0 -0.0014498870727456335 0.0032534815392281846 0 -0.0014106098554190212 0.0033283927221672621 0 -0.0013509714150292712 0.0032402924333962083 0 -0.0012961719963110819 0.0033251097792840103 0 -0.0014106098554190212 0.0033283927221672621 0 -0.0013799070625430795 0.0034088686642496382 0 -0.0012961719963110819 0.0033251097792840103 0 -0.00096134213192111944 0.0032683446958614308 0 -0.0010205958769436568 0.0032429798821549168 0 -0.00068822916907475263 0.0032323681059613744 0 -0.00099645641668023172 0.003288235202658685 0 -0.0010349092964642248 0.0032836581648053634 0 -0.0010206551243896673 0.0033084835478771508 0 -0.00099645641668023172 0.003288235202658685 0 -0.0010055650510947451 0.0032678950831398121 0 -0.00096134213192111944 0.0032683446958614308 0 -0.00099645641668023172 0.003288235202658685 0 -0.0010055650510947451 0.0032678950831398121 0 -0.0010349092964642248 0.0032836581648053634 0 -0.0010055650510947451 0.0032678950831398121 0 -0.0010349092964642248 0.0032836581648053634 0 -0.0010284414548151334 0.0032691810598145573 0 -0.0010349092964642248 0.0032836581648053634 0 -0.0010206551243896673 0.0033084835478771508 0 -0.0010651562813447145 0.0032987347623682243 0 -0.0010349092964642248 0.0032836581648053634 0 -0.0010688687048282257 0.0032959152701847578 0 -0.0010651562813447145 0.0032987347623682243 0 -0.0010206551243896673 0.0033084835478771508 0 -0.0010651562813447145 0.0032987347623682243 0 -0.0010574646303234446 0.0033369969481213384 0 -0.00099645641668023172 0.003288235202658685 0 -0.00096134213192111944 0.0032683446958614308 0 -0.00095782795887685527 0.0033143241422530162 0 -0.00099645641668023172 0.003288235202658685 0 -0.0010206551243896673 0.0033084835478771508 0 -0.00095782795887685527 0.0033143241422530162 0 -0.00096134213192111944 0.0032683446958614308 0 -0.00085519845395940841 0.0033038314013620427 0 -0.00095782795887685527 0.0033143241422530162 0 -0.0010592602472504441 0.0033343634191077922 0 -0.0010898510756480436 0.0032842553068804024 0 -0.0010198883671286225 0.0033001202845342982 0 -0.0010592602472504441 0.0033343634191077922 0 -0.0010688687048282257 0.0032959152701847578 0 -0.0010898510756480436 0.0032842553068804024 0 -0.0010055650510947451 0.0032678950831398121 0 -0.00096134213192111944 0.0032683446958614308 0 -0.0010205958769436568 0.0032429798821549168 0 -0.0010055650510947451 0.0032678950831398121 0 -0.0010205958769436568 0.0032429798821549168 0 -0.0010284414548151334 0.0032691810598145573 0 -0.0010349092964642248 0.0032836581648053634 0 -0.0010284414548151334 0.0032691810598145573 0 -0.0010688687048282257 0.0032959152701847578 0 -0.0010205958769436568 0.0032429798821549168 0 -0.0010284414548151334 0.0032691810598145573 0 -0.0010688687048282257 0.0032959152701847578 0 -0.00070852514269046448 0.0034866403082843634 0 -0.00083525468893865668 0.0034705833320154418 0 -0.0010898510756480436 0.0032842553068804024 0 -0.0010198883671286225 0.0033001202845342982 0 -0.0010028861506157602 0.0032020114103097842 0 -0.0010592602472504441 0.0033343634191077922 0 -0.0010198883671286225 0.0033001202845342982 0 -0.00091972536619619189 0.0033155656189951931 0 -0.0010198883671286225 0.0033001202845342982 0 -0.0010028861506157602 0.0032020114103097842 0 -0.00091972536619619189 0.0033155656189951931 0 -0.0010028861506157602 0.0032020114103097842 0 -0.00091972536619619189 0.0033155656189951931 0 -0.00070858841188234096 0.0032476037074138544 0 -0.0011694200817918287 0.0032279698385676565 0 -0.0011004420459288793 0.0032285045049088227 0 -0.00091972536619619189 0.0033155656189951931 0 -0.00070858841188234096 0.0032476037074138544 0 -0.00076639953951615123 0.003442308728759468 0 -0.0010592602472504441 0.0033343634191077922 0 -0.00091972536619619189 0.0033155656189951931 0 -0.00076639953951615123 0.003442308728759468 0 -0.00070852514269046448 0.0034866403082843634 0 -0.00036848178394342004 0.0035595635719520551 0 -0.00070852514269046448 0.0034866403082843634 0 -0.00031912430561253544 0.0035139891723061636 0 -0.00023855775113909802 0.0036953571878982822 0 -1.1536965031433444e-05 0.0036754646912453503 0 7.838519546751402e-06 0.0037879979188336797 0 -0.00096134213192111944 0.0032683446958614308 0 -0.00068822916907475263 0.0032323681059613744 0 -0.00085519845395940841 0.0033038314013620427 0 -1.1536965031433444e-05 0.0036754646912453503 0 8.3527754795931827e-05 0.0037278833205350282 0 0.00016188980814252552 0.0036940510989686278 0 7.838519546751402e-06 0.0037879979188336797 0 8.3527754795931827e-05 0.0037278833205350282 0 0.00016217132402801052 0.0037551055010731113 0 -0.00036848178394342004 0.0035595635719520551 0 -9.857414473920426e-05 0.0036028254402030576 0 -1.1536965031433444e-05 0.0036754646912453503 0 7.838519546751402e-06 0.0037879979188336797 0 8.3527754795931827e-05 0.0037278833205350282 0 -0.00070858841188234096 0.0032476037074138544 0 -0.00076639953951615123 0.003442308728759468 0 -0.00035785795974437165 0.0035073613446096634 0 -0.0011004420459288793 0.0032285045049088227 0 -0.00085032863570621089 0.0036737073265965302 0 -0.00070858841188234096 0.0032476037074138544 0 -0.00032500342265787222 0.0033536502984529534 0 -0.00035785795974437165 0.0035073613446096634 0 -0.0014693897954630199 0.0033170722363950185 0 -0.0014498870727456335 0.0032534815392281846 0 -0.0015354012771427194 0.0032569885169594715 0 -9.857414473920426e-05 0.0036028254402030576 0 0.0001384104333476851 0.0036740541952379464 0 -0.00032500342265787222 0.0033536502984529534 0 -0.00035785795974437165 0.0035073613446096634 0 1.5366259237942153e-05 0.0036090190402577678 0 0.00016188980814252552 0.0036940510989686278 0 0.00016217132402801052 0.0037551055010731113 0 0.00022072258497382629 0.0037570203775159636 0 8.3527754795931827e-05 0.0037278833205350282 0 0.00016188980814252552 0.0036940510989686278 0 0.00016217132402801052 0.0037551055010731113 0 0.00016217132402801052 0.0037551055010731113 0 0.00018436203900792838 0.0038187220511083889 0 0.00022072258497382629 0.0037570203775159636 0 -0.00028381195793894998 0.0033213313410107273 0 -0.00017251182839316432 0.0035777135002056349 0 -0.00052948496385996796 0.0035202904875729626 0 -0.00052948496385996796 0.0035202904875729626 0 -0.00061440649961301823 0.0033759859377771313 0 -0.00075777973571369373 0.0034703871627571473 0 7.838519546751402e-06 0.0037879979188336797 0 0.00016217132402801052 0.0037551055010731113 0 0.00018436203900792838 0.0038187220511083889 0 -0.00028381195793894998 0.0033213313410107273 0 -0.00052948496385996796 0.0035202904875729626 0 -0.00061440649961301823 0.0033759859377771313 0 -0.00068822916907475263 0.0032323681059613744 0 -0.00028381195793894998 0.0033213313410107273 0 -0.00061440649961301823 0.0033759859377771313 0 -0.00031912430561253544 0.0035139891723061636 0 -5.6229087117326265e-05 0.0035706481144112479 0 -0.00068822916907475263 0.0032323681059613744 0 -0.00061440649961301823 0.0033759859377771313 0 -0.00076841555455363039 0.0033531563012474132 0 -0.00068822916907475263 0.0032323681059613744 0 -0.00085519845395940841 0.0033038314013620427 0 -0.00076841555455363039 0.0033531563012474132 0 -0.00085519845395940841 0.0033038314013620427 0 -0.00076841555455363039 0.0033531563012474132 0 -0.00090320789149688581 0.003380903312048334 0 -0.00076841555455363039 0.0033531563012474132 0 -0.00075777973571369373 0.0034703871627571473 0 -0.00090320789149688581 0.003380903312048334 0 -0.00061440649961301823 0.0033759859377771313 0 -0.00076841555455363039 0.0033531563012474132 0 -0.00075777973571369373 0.0034703871627571473 0 -0.00052948496385996796 0.0035202904875729626 0 -0.00075777973571369373 0.0034703871627571473 0 -0.00068317673359935245 0.003622774208725288 0 -0.00075777973571369373 0.0034703871627571473 0 -0.00083521965695469681 0.0035723088233768742 0 -0.00068317673359935245 0.003622774208725288 0 -0.00075777973571369373 0.0034703871627571473 0 -0.00083521965695469681 0.0035723088233768742 0 -0.00092508451609375341 0.0034917823200055929 0 -0.00075777973571369373 0.0034703871627571473 0 -0.00092508451609375341 0.0034917823200055929 0 -0.00090320789149688581 0.003380903312048334 0 -0.00083521965695469681 0.0035723088233768742 0 -0.00092508451609375341 0.0034917823200055929 0 -0.0009505410166974266 0.0036106851497949987 0 -0.00092508451609375341 0.0034917823200055929 0 -0.0010469001096402423 0.0035273164608732571 0 -0.0009505410166974266 0.0036106851497949987 0 -0.00092508451609375341 0.0034917823200055929 0 -0.0010208904255158407 0.0034319004516063087 0 -0.0010469001096402423 0.0035273164608732571 0 -0.0010208904255158407 0.0034319004516063087 0 -0.00090320789149688581 0.003380903312048334 0 -0.00099642478705082825 0.0033521202051655071 0 -0.00092508451609375341 0.0034917823200055929 0 -0.0010208904255158407 0.0034319004516063087 0 -0.00090320789149688581 0.003380903312048334 0 -0.00085519845395940841 0.0033038314013620427 0 -0.00090320789149688581 0.003380903312048334 0 -0.00095782795887685527 0.0033143241422530162 0 -0.00090320789149688581 0.003380903312048334 0 -0.00095782795887685527 0.0033143241422530162 0 -0.00099642478705082825 0.0033521202051655071 0 -0.0010206551243896673 0.0033084835478771508 0 -0.00095782795887685527 0.0033143241422530162 0 -0.00099642478705082825 0.0033521202051655071 0 -0.0010206551243896673 0.0033084835478771508 0 -0.00099642478705082825 0.0033521202051655071 0 -0.0010574646303234446 0.0033369969481213384 0 0.00029450830369959582 0.0038111860813746824 0 0.00024099927634750907 0.0037615006467646523 0 0.00026007311558174539 0.003767547605027283 0 0.00029450830369959582 0.0038111860813746824 0 0.00025592812782100573 0.0038595767883290474 0 0.00027850102433379231 0.0038046855125134275 0 0.00029450830369959582 0.0038111860813746824 0 0.00025592812782100573 0.0038595767883290474 0 0.00033052125953116274 0.0038624098925038883 0 0.00025592812782100573 0.0038595767883290474 0 0.00033052125953116274 0.0038624098925038883 0 6.2923320579404908e-05 0.0040332699985041057 0 -0.00020591954949408396 0.0040277791640017085 0 -0.00032306770202836536 0.0042417728560863567 0 6.2923320579404908e-05 0.0040332699985041057 0 0.00033052125953116274 0.0038624098925038883 0 0.00024099927634750907 0.0037615006467646523 0 0.00011772057894705867 0.0036070997896891074 0 0.00029450830369959582 0.0038111860813746824 0 0.00033052125953116274 0.0038624098925038883 0 0.00024099927634750907 0.0037615006467646523 0 -2.5788973085215739e-05 0.0040396680717258325 0 -0.00026432152050890429 0.0039803900915294432 0 -0.00032306770202836536 0.0042417728560863567 0 -0.00047284674692691275 0.0041920503887398208 0 -0.00069482121969517143 0.0043122911545396174 0 -0.00036632207749055475 0.0041110492196378438 0 -0.00032306770202836536 0.0042417728560863567 0 -0.00047284674692691275 0.0041920503887398208 0 -0.0005755386331876204 0.0041880512468738928 0 -0.00047284674692691275 0.0041920503887398208 0 -0.00069482121969517143 0.0043122911545396174 0 0.00024099927634750907 0.0037615006467646523 0 0.00011772057894705867 0.0036070997896891074 0 1.5366259237942153e-05 0.0036090190402577678 0 0.00024185977056914308 0.0037390978143475146 0 0.0001384104333476851 0.0036740541952379464 0 0.00024099927634750907 0.0037615006467646523 0 0.00025171352465592746 0.0037360809644800793 0 0.00026007311558174539 0.003767547605027283 0 -0.00085032863570621089 0.0036737073265965302 0 -0.00026432152050890429 0.0039803900915294432 0 -0.00032500342265787222 0.0033536502984529534 0 0.00011772057894705867 0.0036070997896891074 0 1.5366259237942153e-05 0.0036090190402577678 0 -0.00082873441656033746 0.004227178023104578 0 -0.0010396114477570642 0.0043053380662537062 0 -0.00069482121969517143 0.0043122911545396174 0 0.00016188980814252552 0.0036940510989686278 0 0.00025171352465592746 0.0037360809644800793 0 0.00022072258497382629 0.0037570203775159636 0 0.00025171352465592746 0.0037360809644800793 0 0.0002562430723646044 0.0037634015223580574 0 0.00022072258497382629 0.0037570203775159636 0 0.0002562430723646044 0.0037634015223580574 0 0.00022072258497382629 0.0037570203775159636 0 0.00025256414239916829 0.0037817721633630116 0 0.00029450830369959582 0.0038111860813746824 0 0.00026007311558174539 0.003767547605027283 0 0.00028003764340364543 0.0037804784824200842 0 0.00025171352465592746 0.0037360809644800793 0 0.0002562430723646044 0.0037634015223580574 0 0.00026007311558174539 0.003767547605027283 0 0.0002562430723646044 0.0037634015223580574 0 0.00026007311558174539 0.003767547605027283 0 0.00028003764340364543 0.0037804784824200842 0 0.00028003764340364543 0.0037804784824200842 0 0.00028664565682410637 0.0037902637057036217 0 0.00029958731290170989 0.0037713469418125352 0 0.00028003764340364543 0.0037804784824200842 0 0.00025256414239916829 0.0037817721633630116 0 0.00028664565682410637 0.0037902637057036217 0 0.0002562430723646044 0.0037634015223580574 0 0.00028003764340364543 0.0037804784824200842 0 0.00025256414239916829 0.0037817721633630116 0 0.00018436203900792838 0.0038187220511083889 0 0.00025256414239916829 0.0037817721633630116 0 0.00028664565682410637 0.0037902637057036217 0 0.00018436203900792838 0.0038187220511083889 0 0.00022072258497382629 0.0037570203775159636 0 0.00025256414239916829 0.0037817721633630116 0 -5.6229087117326265e-05 0.0035706481144112479 0 0.00017297932553140828 0.0036379355897296658 0 -0.00028381195793894998 0.0033213313410107273 0 -0.00017251182839316432 0.0035777135002056349 0 7.3525975209982184e-05 0.0034880259459184972 0 0.00017297932553140828 0.0036379355897296658 0 0.00028682155692382708 0.003682025557324648 0 0.00028664565682410637 0.0037902637057036217 0 0.00029958731290170989 0.0037713469418125352 0 0.00030180378851050842 0.0036884379277754707 0 0.00029958731290170989 0.0037713469418125352 0 0.00030736084233962195 0.0037377178317125719 0 0.00030180378851050842 0.0036884379277754707 0 0.00029450830369959582 0.0038111860813746824 0 0.00028003764340364543 0.0037804784824200842 0 0.00029958731290170989 0.0037713469418125352 0 0.00029450830369959582 0.0038111860813746824 0 0.00029958731290170989 0.0037713469418125352 0 0.00027850102433379231 0.0038046855125134275 0 0.00027850102433379231 0.0038046855125134275 0 0.00030736084233962195 0.0037377178317125719 0 0.00025766897564488857 0.0037963833721156607 0 0.00029958731290170989 0.0037713469418125352 0 0.00027850102433379231 0.0038046855125134275 0 0.00030736084233962195 0.0037377178317125719 0 0.00030736084233962195 0.0037377178317125719 0 0.00033113234389625478 0.0037357441827376493 0 0.00025766897564488857 0.0037963833721156607 0 0.00033113234389625478 0.0037357441827376493 0 0.00025548083630948834 0.0037797565040000687 0 0.00025766897564488857 0.0037963833721156607 0 0.00033113234389625478 0.0037357441827376493 0 0.00025548083630948834 0.0037797565040000687 0 0.00028307559772181425 0.0037374744107501389 0 0.00025548083630948834 0.0037797565040000687 0 0.00018803428495521438 0.0037946398166842808 0 0.00028307559772181425 0.0037374744107501389 0 0.00025548083630948834 0.0037797565040000687 0 0.00019634499780843453 0.0038319557022073155 0 0.00025766897564488857 0.0037963833721156607 0 0.00025548083630948834 0.0037797565040000687 0 0.00019634499780843453 0.0038319557022073155 0 0.00018803428495521438 0.0037946398166842808 0 0.00019634499780843453 0.0038319557022073155 0 0.00013657111918964539 0.0038558956730731938 0 0.00018803428495521438 0.0037946398166842808 0 0.00019634499780843453 0.0038319557022073155 0 0.00019409053130705055 0.0038627014478679663 0 0.00011231466148132678 0.0039202483089254168 0 0.00019634499780843453 0.0038319557022073155 0 0.00011231466148132678 0.0039202483089254168 0 0.00013657111918964539 0.0038558956730731938 0 0.00027850102433379231 0.0038046855125134275 0 0.00025766897564488857 0.0037963833721156607 0 0.00019409053130705055 0.0038627014478679663 0 0.00019634499780843453 0.0038319557022073155 0 0.00025766897564488857 0.0037963833721156607 0 0.00019409053130705055 0.0038627014478679663 0 0.00025592812782100573 0.0038595767883290474 0 0.00019409053130705055 0.0038627014478679663 0 6.2923320579404908e-05 0.0040332699985041057 0 0.00011231466148132678 0.0039202483089254168 0 6.2923320579404908e-05 0.0040332699985041057 0 6.3687593696603668e-05 0.0039811094702286529 0 6.2923320579404908e-05 0.0040332699985041057 0 6.3687593696603668e-05 0.0039811094702286529 0 6.3955933992845341e-06 0.0039829085524815894 0 0.00025592812782100573 0.0038595767883290474 0 0.00027850102433379231 0.0038046855125134275 0 0.00019409053130705055 0.0038627014478679663 0 0.00019409053130705055 0.0038627014478679663 0 0.00011231466148132678 0.0039202483089254168 0 6.2923320579404908e-05 0.0040332699985041057 0 -2.5788973085215739e-05 0.0040396680717258325 0 4.8209378400124411e-05 0.0040387971593621825 0 6.3687593696603668e-05 0.0039811094702286529 0 5.1364506356124875e-05 0.0039831109717794466 0 5.5756990175680652e-05 0.0040186113090380678 0 0.00011231466148132678 0.0039202483089254168 0 6.3687593696603668e-05 0.0039811094702286529 0 9.3565978426064537e-05 0.0039137472036738109 0 6.3687593696603668e-05 0.0039811094702286529 0 6.4915736598505889e-05 0.0039243676405765334 0 9.3565978426064537e-05 0.0039137472036738109 0 6.3687593696603668e-05 0.0039811094702286529 0 6.4915736598505889e-05 0.0039243676405765334 0 5.1364506356124875e-05 0.0039831109717794466 0 6.4915736598505889e-05 0.0039243676405765334 0 9.3192481991340609e-05 0.0038779666340760114 0 7.3585703315935948e-05 0.0038620152027974658 0 6.4915736598505889e-05 0.0039243676405765334 0 9.3192481991340609e-05 0.0038779666340760114 0 9.3565978426064537e-05 0.0039137472036738109 0 0.00011231466148132678 0.0039202483089254168 0 9.3565978426064537e-05 0.0039137472036738109 0 0.00013657111918964539 0.0038558956730731938 0 9.3192481991340609e-05 0.0038779666340760114 0 9.3565978426064537e-05 0.0039137472036738109 0 0.00013657111918964539 0.0038558956730731938 0 0.00013657111918964539 0.0038558956730731938 0 0.00018803428495521438 0.0037946398166842808 0 0.00011228870064419355 0.0038243094561864199 0 9.3192481991340609e-05 0.0038779666340760114 0 0.00013657111918964539 0.0038558956730731938 0 0.00011228870064419355 0.0038243094561864199 0 0.00018803428495521438 0.0037946398166842808 0 0.00011228870064419355 0.0038243094561864199 0 0.00014330459867872145 0.0037771859812070706 0 9.3192481991340609e-05 0.0038779666340760114 0 7.3585703315935948e-05 0.0038620152027974658 0 0.00011228870064419355 0.0038243094561864199 0 0.00011228870064419355 0.0038243094561864199 0 7.9028825900261243e-05 0.0038230661165735902 0 0.00010832210270159125 0.0037796018106478545 0 7.3585703315935948e-05 0.0038620152027974658 0 0.00011228870064419355 0.0038243094561864199 0 7.9028825900261243e-05 0.0038230661165735902 0 7.3585703315935948e-05 0.0038620152027974658 0 7.9028825900261243e-05 0.0038230661165735902 0 5.7415145373410939e-05 0.0038408112636889326 0 7.3585703315935948e-05 0.0038620152027974658 0 5.7415145373410939e-05 0.0038408112636889326 0 4.9112313444330251e-05 0.0038827444986302647 0 5.7415145373410939e-05 0.0038408112636889326 0 3.9361742271172741e-05 0.0038536861566700067 0 4.9112313444330251e-05 0.0038827444986302647 0 5.7415145373410939e-05 0.0038408112636889326 0 3.9361742271172741e-05 0.0038536861566700067 0 4.4577691647676446e-05 0.0038324391138212979 0 3.9361742271172741e-05 0.0038536861566700067 0 2.5292229552728664e-05 0.0038532163434743783 0 3.5640437948860463e-05 0.0038407325726122947 0 3.9361742271172741e-05 0.0038536861566700067 0 3.0595446336821548e-05 0.0038803516838035704 0 2.5292229552728664e-05 0.0038532163434743783 0 3.9361742271172741e-05 0.0038536861566700067 0 3.0595446336821548e-05 0.0038803516838035704 0 4.9112313444330251e-05 0.0038827444986302647 0 3.0595446336821548e-05 0.0038803516838035704 0 4.9112313444330251e-05 0.0038827444986302647 0 4.2967725257750297e-05 0.0039305334815725387 0 3.0595446336821548e-05 0.0038803516838035704 0 2.3127578271883327e-05 0.0039277254999163522 0 4.2967725257750297e-05 0.0039305334815725387 0 6.4915736598505889e-05 0.0039243676405765334 0 4.9112313444330251e-05 0.0038827444986302647 0 4.2967725257750297e-05 0.0039305334815725387 0 6.4915736598505889e-05 0.0039243676405765334 0 7.3585703315935948e-05 0.0038620152027974658 0 4.9112313444330251e-05 0.0038827444986302647 0 -1.8308028686101202e-05 0.0038786717228919761 0 3.765931045772921e-06 0.0038820309867196828 0 1.2132754249730555e-05 0.003859482533945489 0 0.00043711247813575568 0.0038067741621901265 0 0.0004160542214454701 0.0037164927787305111 0 -1.8308028686101202e-05 0.0038786717228919761 0 3.765931045772921e-06 0.0038820309867196828 0 2.8898907244844214e-06 0.0039073474823829663 0 3.765931045772921e-06 0.0038820309867196828 0 1.5847335272240356e-05 0.0038825612820434668 0 2.8898907244844214e-06 0.0039073474823829663 0 1.5847335272240356e-05 0.0038825612820434668 0 2.5292229552728664e-05 0.0038532163434743783 0 1.2132754249730555e-05 0.003859482533945489 0 3.765931045772921e-06 0.0038820309867196828 0 1.5847335272240356e-05 0.0038825612820434668 0 1.2132754249730555e-05 0.003859482533945489 0 3.0595446336821548e-05 0.0038803516838035704 0 1.5847335272240356e-05 0.0038825612820434668 0 2.5292229552728664e-05 0.0038532163434743783 0 1.5847335272240356e-05 0.0038825612820434668 0 2.3127578271883327e-05 0.0039277254999163522 0 2.8898907244844214e-06 0.0039073474823829663 0 3.0595446336821548e-05 0.0038803516838035704 0 1.5847335272240356e-05 0.0038825612820434668 0 2.3127578271883327e-05 0.0039277254999163522 0 2.3127578271883327e-05 0.0039277254999163522 0 2.8898907244844214e-06 0.0039073474823829663 0 6.2437653375569074e-06 0.0039493912195610013 0 -2.0083802812968898e-05 0.0039367715313982964 0 2.8898907244844214e-06 0.0039073474823829663 0 6.2437653375569074e-06 0.0039493912195610013 0 2.3127578271883327e-05 0.0039277254999163522 0 6.2437653375569074e-06 0.0039493912195610013 0 2.3215465714813434e-05 0.0039826248560768922 0 -6.1292360461383552e-07 0.003997706944865731 0 6.2437653375569074e-06 0.0039493912195610013 0 2.3215465714813434e-05 0.0039826248560768922 0 2.3127578271883327e-05 0.0039277254999163522 0 2.3215465714813434e-05 0.0039826248560768922 0 3.6914995059207225e-05 0.0039764317201514115 0 2.3215465714813434e-05 0.0039826248560768922 0 3.6914995059207225e-05 0.0039764317201514115 0 3.8866955920753466e-05 0.0040154466212244987 0 2.3215465714813434e-05 0.0039826248560768922 0 3.3405908891734013e-05 0.0040258058126679428 0 3.8866955920753466e-05 0.0040154466212244987 0 6.4915736598505889e-05 0.0039243676405765334 0 4.2967725257750297e-05 0.0039305334815725387 0 5.1364506356124875e-05 0.0039831109717794466 0 2.3127578271883327e-05 0.0039277254999163522 0 4.2967725257750297e-05 0.0039305334815725387 0 3.6914995059207225e-05 0.0039764317201514115 0 4.2967725257750297e-05 0.0039305334815725387 0 3.6914995059207225e-05 0.0039764317201514115 0 5.1364506356124875e-05 0.0039831109717794466 0 3.6914995059207225e-05 0.0039764317201514115 0 4.174688455099162e-05 0.0040093218131573953 0 3.8866955920753466e-05 0.0040154466212244987 0 3.6914995059207225e-05 0.0039764317201514115 0 5.1364506356124875e-05 0.0039831109717794466 0 4.174688455099162e-05 0.0040093218131573953 0 5.1364506356124875e-05 0.0039831109717794466 0 4.0025820150645704e-05 0.0040242772880601666 0 5.5756990175680652e-05 0.0040186113090380678 0 5.1364506356124875e-05 0.0039831109717794466 0 4.0025820150645704e-05 0.0040242772880601666 0 4.174688455099162e-05 0.0040093218131573953 0 4.174688455099162e-05 0.0040093218131573953 0 4.2438140439801196e-05 0.0040371904823629512 0 3.8866955920753466e-05 0.0040154466212244987 0 4.0025820150645704e-05 0.0040242772880601666 0 4.174688455099162e-05 0.0040093218131573953 0 4.2438140439801196e-05 0.0040371904823629512 0 4.0025820150645704e-05 0.0040242772880601666 0 4.2438140439801196e-05 0.0040371904823629512 0 2.9203921226504126e-05 0.0040445838908673148 0 4.2438140439801196e-05 0.0040371904823629512 0 2.9203921226504126e-05 0.0040445838908673148 0 5.2952836594070783e-05 0.0040522100136223642 0 4.0025820150645704e-05 0.0040242772880601666 0 2.9203921226504126e-05 0.0040445838908673148 0 2.098073942806659e-05 0.0040451307794143075 0 3.3405908891734013e-05 0.0040258058126679428 0 3.8866955920753466e-05 0.0040154466212244987 0 5.1885017910962876e-05 0.0040470642580677629 0 4.2438140439801196e-05 0.0040371904823629512 0 3.8866955920753466e-05 0.0040154466212244987 0 5.1885017910962876e-05 0.0040470642580677629 0 5.1885017910962876e-05 0.0040470642580677629 0 8.3987750738041619e-05 0.0040559593299544991 0 5.2952836594070783e-05 0.0040522100136223642 0 4.2438140439801196e-05 0.0040371904823629512 0 5.1885017910962876e-05 0.0040470642580677629 0 5.2952836594070783e-05 0.0040522100136223642 0 0.0001010937975182538 0.0040529962032276115 0 6.07880845409867e-05 0.0040490108667648947 0 6.6433304351005274e-05 0.0040481091395020213 0 5.6945224146762516e-05 0.0040513434069481095 0 5.1885017910962876e-05 0.0040470642580677629 0 5.6945224146762516e-05 0.0040513434069481095 0 3.3405908891734013e-05 0.0040258058126679428 0 5.1885017910962876e-05 0.0040470642580677629 0 0.00013174853319429912 0.0040659136965006176 0 8.3987750738041619e-05 0.0040559593299544991 0 0.00013657040583175441 0.0040404263383168109 0 0.00013174853319429912 0.0040659136965006176 0 5.1885017910962876e-05 0.0040470642580677629 0 8.3987750738041619e-05 0.0040559593299544991 0 5.2952836594070783e-05 0.0040522100136223642 0 8.436977577941173e-05 0.0040437766857044739 0 3.3836792447955772e-05 0.0040442372466373893 0 8.3987750738041619e-05 0.0040559593299544991 0 5.2952836594070783e-05 0.0040522100136223642 0 8.436977577941173e-05 0.0040437766857044739 0 7.4076616102298004e-05 0.0040251042992188223 0 8.436977577941173e-05 0.0040437766857044739 0 3.3836792447955772e-05 0.0040442372466373893 0 7.4076616102298004e-05 0.0040251042992188223 0 0.00015173662605214936 0.0040134287762950494 0 8.436977577941173e-05 0.0040437766857044739 0 8.3987750738041619e-05 0.0040559593299544991 0 8.436977577941173e-05 0.0040437766857044739 0 0.00013657040583175441 0.0040404263383168109 0 0.00015173662605214936 0.0040134287762950494 0 8.436977577941173e-05 0.0040437766857044739 0 0.00013657040583175441 0.0040404263383168109 0 2.9203921226504126e-05 0.0040445838908673148 0 3.8723651344016591e-06 0.0040461337142443776 0 2.098073942806659e-05 0.0040451307794143075 0 2.9203921226504126e-05 0.0040445838908673148 0 5.2952836594070783e-05 0.0040522100136223642 0 3.3836792447955772e-05 0.0040442372466373893 0 2.9203921226504126e-05 0.0040445838908673148 0 3.8723651344016591e-06 0.0040461337142443776 0 3.3836792447955772e-05 0.0040442372466373893 0 -3.1332303007472369e-05 0.0040172958819950314 0 3.0318179847217837e-05 0.0040162358387638118 0 3.3836792447955772e-05 0.0040442372466373893 0 3.0318179847217837e-05 0.0040162358387638118 0 7.4076616102298004e-05 0.0040251042992188223 0 3.3836792447955772e-05 0.0040442372466373893 0 -3.1332303007472369e-05 0.0040172958819950314 0 3.8723651344016591e-06 0.0040461337142443776 0 -3.7444740164178933e-05 0.0040375734541630119 0 -3.1332303007472369e-05 0.0040172958819950314 0 3.8723651344016591e-06 0.0040461337142443776 0 3.3836792447955772e-05 0.0040442372466373893 0 3.8723651344016591e-06 0.0040461337142443776 0 -3.7444740164178933e-05 0.0040375734541630119 0 2.098073942806659e-05 0.0040451307794143075 0 -6.7589020888207782e-05 0.0038406412007194377 0 -3.3383773564281939e-06 0.0038880499469053356 0 -4.0440864501809446e-05 0.0038691150459615286 0 -5.4455934736445824e-05 0.0039398435911182509 0 6.1393216025113394e-06 0.003967103080926758 0 -3.3383773564281939e-06 0.0038880499469053356 0 -4.0440864501809446e-05 0.0038691150459615286 0 -6.9529524657690314e-06 0.0039280875685104334 0 -6.7589020888207782e-05 0.0038406412007194377 0 -4.0440864501809446e-05 0.0038691150459615286 0 -6.4515113381038012e-05 0.0038239625993743169 0 -6.8517247758564243e-05 0.0038392719373805391 0 -6.7589020888207782e-05 0.0038406412007194377 0 -6.4515113381038012e-05 0.0038239625993743169 0 -6.8517247758564243e-05 0.0038392719373805391 0 -6.4515113381038012e-05 0.0038239625993743169 0 -0.00010937829980458899 0.0037622749616563972 0 -6.4515113381038012e-05 0.0038239625993743169 0 -0.00010937829980458899 0.0037622749616563972 0 -9.9960279025511733e-05 0.0038309260656135798 0 -0.00017167320812819668 0.0036762736571405263 0 -0.00030264065274369825 0.0037109940953748734 0 -0.00018192869300076602 0.0037795932264380375 0 -0.00017167320812819668 0.0036762736571405263 0 -0.00010937829980458899 0.0037622749616563972 0 -0.00018192869300076602 0.0037795932264380375 0 -0.00010937829980458899 0.0037622749616563972 0 -0.00018192869300076602 0.0037795932264380375 0 -9.9960279025511733e-05 0.0038309260656135798 0 -0.00018018973254891148 0.0038672741255199876 0 -9.9960279025511733e-05 0.0038309260656135798 0 -8.2999853576510847e-05 0.0039128727576139936 0 -0.00027137589872663171 0.0038083097137214137 0 -0.00018192869300076602 0.0037795932264380375 0 -0.00018018973254891148 0.0038672741255199876 0 -0.00018192869300076602 0.0037795932264380375 0 -0.00018018973254891148 0.0038672741255199876 0 -9.9960279025511733e-05 0.0038309260656135798 0 -4.0440864501809446e-05 0.0038691150459615286 0 -9.9960279025511733e-05 0.0038309260656135798 0 -8.2999853576510847e-05 0.0039128727576139936 0 -4.0440864501809446e-05 0.0038691150459615286 0 -6.4515113381038012e-05 0.0038239625993743169 0 -9.9960279025511733e-05 0.0038309260656135798 0 -8.2999853576510847e-05 0.0039128727576139936 0 6.3955933992845341e-06 0.0039829085524815894 0 -6.9529524657690314e-06 0.0039280875685104334 0 -4.0440864501809446e-05 0.0038691150459615286 0 -8.2999853576510847e-05 0.0039128727576139936 0 -6.9529524657690314e-06 0.0039280875685104334 0 -8.2999853576510847e-05 0.0039128727576139936 0 -8.0373397228861848e-05 0.0039795826155317729 0 6.3955933992845341e-06 0.0039829085524815894 0 -0.00029356921099572847 0.0039074917198821729 0 -0.00018018973254891148 0.0038672741255199876 0 -0.00016233784969467785 0.0039375473403259293 0 -0.00018018973254891148 0.0038672741255199876 0 -8.2999853576510847e-05 0.0039128727576139936 0 -0.00016233784969467785 0.0039375473403259293 0 -8.2999853576510847e-05 0.0039128727576139936 0 -0.00016233784969467785 0.0039375473403259293 0 -8.0373397228861848e-05 0.0039795826155317729 0 -0.00020591954949408396 0.0040277791640017085 0 -0.00016233784969467785 0.0039375473403259293 0 -8.0373397228861848e-05 0.0039795826155317729 0 -0.00020591954949408396 0.0040277791640017085 0 6.2923320579404908e-05 0.0040332699985041057 0 -8.0373397228861848e-05 0.0039795826155317729 0 6.2923320579404908e-05 0.0040332699985041057 0 -8.0373397228861848e-05 0.0039795826155317729 0 6.3955933992845341e-06 0.0039829085524815894 0 6.3687593696603668e-05 0.0039811094702286529 0 6.3955933992845341e-06 0.0039829085524815894 0 3.3904997868753467e-05 0.003962820805653024 0 6.3955933992845341e-06 0.0039829085524815894 0 3.3904997868753467e-05 0.003962820805653024 0 -6.9529524657690314e-06 0.0039280875685104334 0 5.9673225162298633e-05 0.0039837106023663934 0 4.2939170704407732e-05 0.0039903369159230533 0 4.0025820150645704e-05 0.0040242772880601666 0 2.098073942806659e-05 0.0040451307794143075 0 5.5756990175680652e-05 0.0040186113090380678 0 6.1393216025113394e-06 0.003967103080926758 0 4.2939170704407732e-05 0.0039903369159230533 0 -3.3383773564281939e-06 0.0038880499469053356 0 3.3904997868753467e-05 0.003962820805653024 0 -6.9529524657690314e-06 0.0039280875685104334 0 -0.0052188904182516654 0.003808742247544327 0 -0.0052811919710105742 0.0040018972484332895 0 -0.0051493361676256122 0.0040720574317130807 0 -0.004999989900027698 0.0039864885179236899 0 -0.0052188904182516654 0.003808742247544327 0 -0.0051493361676256122 0.0040720574317130807 0 -0.004999989900027698 0.0039864885179236899 0 -0.0052188904182516654 0.003808742247544327 0 -0.0049999842180449379 0.0037056080614086091 0 -0.0052188904182516654 0.003808742247544327 0 -0.0053978199159144622 0.0039294915548522096 0 -0.0054451516629499281 0.0037310887606730944 0 -0.0053978199159144622 0.0039294915548522096 0 -0.0054717974477331687 0.0038793832686405288 0 -0.0054451516629499281 0.0037310887606730944 0 -0.0053978199159144622 0.0039294915548522096 0 -0.0053533940426722607 0.0040764877452954852 0 -0.0054761263085405121 0.0040445933874155866 0 -0.0053978199159144622 0.0039294915548522096 0 -0.0054761263085405121 0.0040445933874155866 0 -0.0054735708096864686 0.0039560482797714224 0 -0.0053978199159144622 0.0039294915548522096 0 -0.0054735708096864686 0.0039560482797714224 0 -0.0054717974477331687 0.0038793832686405288 0 -0.0053978199159144622 0.0039294915548522096 0 -0.0052811919710105742 0.0040018972484332895 0 -0.0053533940426722607 0.0040764877452954852 0 -0.0052188904182516654 0.003808742247544327 0 -0.0053978199159144622 0.0039294915548522096 0 -0.0052811919710105742 0.0040018972484332895 0 -0.0052811919710105742 0.0040018972484332895 0 -0.0053533940426722607 0.0040764877452954852 0 -0.0052445866165457622 0.0041568719670885199 0 -0.0053533940426722607 0.0040764877452954852 0 -0.0053545029501690204 0.0042626119243808613 0 -0.0052445866165457622 0.0041568719670885199 0 -0.0055524196651696939 0.0038344354479504521 0 -0.0051354025175289249 0.0044550153352803995 0 -0.0053533940426722607 0.0040764877452954852 0 -0.0054761263085405121 0.0040445933874155866 0 -0.0053545029501690204 0.0042626119243808613 0 -0.0054896112124087721 0.0038125087940182128 0 -0.0054987333611887772 0.0037906495721586105 0 -0.0054708018691315054 0.0037806377803694309 0 -0.0051354025175289249 0.0044550153352803995 0 -0.0049367401757198877 0.0047298538408727022 0 -0.0046076211153940018 0.0055752811808197824 0 -0.0044439579273050167 0.0054844458350747308 0 -0.0043297848611750971 0.0056146767036669345 0 -0.0051354025175289249 0.0044550153352803995 0 -0.0052657879608367262 0.0043222735481570941 0 -0.0053545029501690204 0.0042626119243808613 0 -0.0052161106695973146 0.0043045931710473159 0 -0.0052445866165457622 0.0041568719670885199 0 -0.0052657879608367262 0.0043222735481570941 0 -0.005070592950810685 0.0043598437050914483 0 -0.0052161106695973146 0.0043045931710473159 0 -0.0051332322238727386 0.0042336644965988218 0 -0.0050717747616223843 0.0043641184909879128 0 -0.0052161106695973146 0.0043045931710473159 0 -0.0052445866165457622 0.0041568719670885199 0 -0.0051332322238727386 0.0042336644965988218 0 -0.0052811919710105742 0.0040018972484332895 0 -0.0051493361676256122 0.0040720574317130807 0 -0.0052445866165457622 0.0041568719670885199 0 -0.0051493361676256122 0.0040720574317130807 0 -0.0052445866165457622 0.0041568719670885199 0 -0.0051332322238727386 0.0042336644965988218 0 -0.0051493361676256122 0.0040720574317130807 0 -0.0049999854744668584 0.0042673592018119396 0 -0.0051332322238727386 0.0042336644965988218 0 -0.004999989900027698 0.0039864885179236899 0 -0.0051493361676256122 0.0040720574317130807 0 -0.0049999854744668584 0.0042673592018119396 0 -0.0049999854744668584 0.0042673592018119396 0 -0.0051332322238727386 0.0042336644965988218 0 -0.0050717747616223843 0.0043641184909879128 0 -0.0050717747616223843 0.0043641184909879128 0 -0.0051317729910197165 0.0045004109814245378 0 -0.0049999930183169594 0.0045483000280995044 0 -0.0049999854744668584 0.0042673592018119396 0 -0.0050717747616223843 0.0043641184909879128 0 -0.0049999930183169594 0.0045483000280995044 0 -0.0052372690755021723 0.0043508482508785602 0 -0.0050717747616223843 0.0043641184909879128 0 -0.0051317729910197165 0.0045004109814245378 0 -0.0052372690755021723 0.0043508482508785602 0 -0.0051317729910197165 0.0045004109814245378 0 -0.0052668645609444207 0.0044884496385194927 0 -0.0049671179831662048 0.0050167265108563815 0 -0.0050237083327960824 0.0048914070523733639 0 -0.0051317729910197165 0.0045004109814245378 0 -0.0052668645609444207 0.0044884496385194927 0 -0.0051368008850485323 0.0046575217334507389 0 -0.0047690512378564089 0.00537709941160118 0 -0.0047469237199838903 0.0051758318559009522 0 -0.0049050480999770028 0.0051535238579407923 0 -0.0051317729910197165 0.0045004109814245378 0 -0.0051368008850485323 0.0046575217334507389 0 -0.0049999930183169594 0.0045483000280995044 0 -0.0051368008850485323 0.0046575217334507389 0 -0.0049999930183169594 0.0045483000280995044 0 -0.0050000005042373672 0.0048291935137010251 0 -0.0049050480999770028 0.0051535238579407923 0 -0.0049998765041279827 0.0048300452891878055 0 -0.0048559642181428744 0.004981578821634431 0 -0.0050237083327960824 0.0048914070523733639 0 -0.0049999851423962642 0.0048292657048527232 0 -0.0047469237199838903 0.0051758318559009522 0 -0.0049050480999770028 0.0051535238579407923 0 -0.0048559642181428744 0.004981578821634431 0 -0.0047469237199838903 0.0051758318559009522 0 -0.0048559642181428744 0.004981578821634431 0 -0.0046767687082319605 0.0050231980832380193 0 -0.004775004662625963 0.0050000089845632012 0 -0.0046321943924152922 0.0051068198455877546 0 -0.0048559642181428744 0.004981578821634431 0 -0.0047753797459618649 0.0049998569711338162 0 -0.0046767687082319605 0.0050231980832380193 0 -0.0048559642181428744 0.004981578821634431 0 -0.0047753797459618649 0.0049998569711338162 0 -0.0049998825157930504 0.0049996811946399133 0 -0.0049998765041279827 0.0048300452891878055 0 -0.0048559642181428744 0.004981578821634431 0 -0.0049998825157930504 0.0049996811946399133 0 -0.0045038246129245453 0.0049999777337203224 0 -0.0044166355108575918 0.0051457468017446833 0 -0.0042326437957424679 0.0049999825076781157 0 -0.0045038246129245453 0.0049999777337203224 0 -0.0045915311587350106 0.0051765493110127181 0 -0.0044166355108575918 0.0051457468017446833 0 -0.0047750034060748091 0.0049999982941124968 0 -0.0045038246129245453 0.0049999777337203224 0 -0.0045915311587350106 0.0051765493110127181 0 -0.0046321943924152922 0.0051068198455877546 0 -0.0044660230305046018 0.0052925907888713118 0 -0.0045915311587350106 0.0051765493110127181 0 -0.0044166355108575918 0.0051457468017446833 0 -0.004452861543245046 0.0053059466867416936 0 -0.0047469237199838903 0.0051758318559009522 0 -0.0046767687082319605 0.0050231980832380193 0 -0.004452861543245046 0.0053059466867416936 0 -0.0047690512378564089 0.00537709941160118 0 -0.0047469237199838903 0.0051758318559009522 0 -0.004452861543245046 0.0053059466867416936 0 -0.0051354025175289249 0.0044550153352803995 0 -0.0049671179831662048 0.0050167265108563815 0 -0.0053916846299298061 0.0043303531143988935 0 -0.0052372690755021723 0.0043508482508785602 0 -0.0052668645609444207 0.0044884496385194927 0 -0.0046076211153940018 0.0055752811808197824 0 -0.0047690512378564089 0.00537709941160118 0 -0.0044439579273050167 0.0054844458350747308 0 -0.0047690512378564089 0.00537709941160118 0 -0.004452861543245046 0.0053059466867416936 0 -0.0044439579273050167 0.0054844458350747308 0 -0.004452861543245046 0.0053059466867416936 0 -0.0044439579273050167 0.0054844458350747308 0 -0.0042768076226851115 0.0053884663717521566 0 -0.0044439579273050167 0.0054844458350747308 0 -0.0042768076226851115 0.0053884663717521566 0 -0.0042501916132089848 0.0055290681335009679 0 -0.0042768076226851115 0.0053884663717521566 0 -0.0041890430365952216 0.0054555564064999451 0 -0.0042501916132089848 0.0055290681335009679 0 -0.0041890430365952216 0.0054555564064999451 0 -0.0041008923554563042 0.0053552110190093804 0 -0.0041318015360265036 0.0055547004976208812 0 -0.0042768076226851115 0.0053884663717521566 0 -0.0041890430365952216 0.0054555564064999451 0 -0.0041008923554563042 0.0053552110190093804 0 -0.0040774354012163986 0.0053680485852177868 0 -0.0041275851194218878 0.0055437397503763338 0 -0.0040518028510730716 0.0053706296254193344 0 -0.004040233222968757 0.0055506019318171031 0 -0.0041318015360265036 0.0055547004976208812 0 -0.0041890430365952216 0.0054555564064999451 0 -0.0041318015360265036 0.0055547004976208812 0 -0.0042501916132089848 0.0055290681335009679 0 -0.0042768076226851115 0.0053884663717521566 0 -0.0041008923554563042 0.0053552110190093804 0 -0.0042548771489747533 0.0052314936670164892 0 -0.0041008923554563042 0.0053552110190093804 0 -0.0042548771489747533 0.0052314936670164892 0 -0.004043583064477033 0.0051818758157971805 0 -0.004452861543245046 0.0053059466867416936 0 -0.0042768076226851115 0.0053884663717521566 0 -0.0042548771489747533 0.0052314936670164892 0 -0.0044166355108575918 0.0051457468017446833 0 -0.004452861543245046 0.0053059466867416936 0 -0.0042548771489747533 0.0052314936670164892 0 -0.0042548771489747533 0.0052314936670164892 0 -0.0042326437957424679 0.0049999825076781157 0 -0.004043583064477033 0.0051818758157971805 0 -0.0042326437957424679 0.0049999825076781157 0 -0.0039614996937541863 0.004999980801423571 0 -0.004043583064477033 0.0051818758157971805 0 -0.0044166355108575918 0.0051457468017446833 0 -0.0042548771489747533 0.0052314936670164892 0 -0.0042326437957424679 0.0049999825076781157 0 -0.0037519541469090575 0.0049999901047064824 0 -0.0039613888816392431 0.0049999952031776424 0 -0.0037920506005898113 0.0051988069587345313 0 -0.0039614507714325091 0.00500003361438894 0 -0.0040204813404656576 0.0051832728456457679 0 -0.0039613888816392431 0.0049999952031776424 0 -0.0039996322097999217 0.005191117953120908 0 -0.0037920506005898113 0.0051988069587345313 0 -0.0039996322097999217 0.005191117953120908 0 -0.0037920506005898113 0.0051988069587345313 0 -0.0038711988934103307 0.0053473821424418122 0 -0.0038711988934103307 0.0053473821424418122 0 -0.0037910252209766974 0.0054959608150997258 0 -0.0036493156247542915 0.005341407624762577 0 -0.0037920506005898113 0.0051988069587345313 0 -0.0038711988934103307 0.0053473821424418122 0 -0.0036493156247542915 0.005341407624762577 0 -0.0040518028510730716 0.0053706296254193344 0 -0.0039996322097999217 0.005191117953120908 0 -0.0038711988934103307 0.0053473821424418122 0 -0.0040774354012163986 0.0053680485852177868 0 -0.0040204813404656576 0.0051832728456457679 0 -0.0040518028510730716 0.0053706296254193344 0 -0.0038711988934103307 0.0053473821424418122 0 -0.0039389714749051355 0.005486039408236232 0 -0.0040518028510730716 0.0053706296254193344 0 -0.0039389714749051355 0.005486039408236232 0 -0.004040233222968757 0.0055506019318171031 0 -0.0038711988934103307 0.0053473821424418122 0 -0.0039389714749051355 0.005486039408236232 0 -0.0037910252209766974 0.0054959608150997258 0 -0.0033981452329654004 0.0051342870078902913 0 -0.0034777318937091145 0.0046797577386912936 0 -0.0039389714749051355 0.005486039408236232 0 -0.0037910252209766974 0.0054959608150997258 0 -0.0039302097771577353 0.0056642448039412379 0 -0.002994153379157274 0.004655015562619263 0 -0.0028292904659698919 0.0044293079050174624 0 -0.0031648568800077123 0.0043662128852191284 0 -0.003566961512671708 0.0042186956621307276 0 -0.003552861741616706 0.0042363970956619743 0 -0.0035277251998393645 0.0042323346940309125 0 -0.0034777318937091145 0.0046797577386912936 0 -0.0032887836724713702 0.0042500392082168506 0 -0.0053733948837709549 0.0038224185659422503 0 -0.0053815052282880239 0.00375893041285993 0 -0.0052579219735705996 0.0038241734587706197 0 -0.0035756415592455839 0.0042243463264929372 0 -0.003566961512671708 0.0042186956621307276 0 -0.003552861741616706 0.0042363970956619743 0 -0.0035756415592455839 0.0042243463264929372 0 -0.0035982226978333105 0.0042206815622164214 0 -0.003552861741616706 0.0042363970956619743 0 -0.0044356520228559142 0.0046199028548705896 0 -0.0044442667076194549 0.0039085658479770724 0 -0.0034261583043982955 0.0044820188696863689 0 -0.0034777318937091145 0.0046797577386912936 0 -0.0035756415592455839 0.0042243463264929372 0 -0.0035708278777739516 0.0042188965792724032 0 -0.0035982226978333105 0.0042206815622164214 0 -0.0039389714749051355 0.005486039408236232 0 -0.0039302097771577353 0.0056642448039412379 0 -0.004040233222968757 0.0055506019318171031 0 -0.0039302097771577353 0.0056642448039412379 0 -0.004040233222968757 0.0055506019318171031 0 -0.0040615992771705521 0.0056495672153956721 0 -0.0034777318937091145 0.0046797577386912936 0 -0.0044356520228559142 0.0046199028548705896 0 -0.0041257664371541821 0.0055936489174246082 0 -0.0040666480678192328 0.0056478540831474671 0 -0.0043297848611750971 0.0056146767036669345 0 -0.004040233222968757 0.0055506019318171031 0 -0.0041318015360265036 0.0055547004976208812 0 -0.0041257664371541821 0.0055936489174246082 0 -0.0044356520228559142 0.0046199028548705896 0 -0.0049367401757198877 0.0047298538408727022 0 -0.0041318015360265036 0.0055547004976208812 0 -0.0041257664371541821 0.0055936489174246082 0 -0.0042501916132089848 0.0055290681335009679 0 -0.004040233222968757 0.0055506019318171031 0 -0.0041257664371541821 0.0055936489174246082 0 -0.0040615992771705521 0.0056495672153956721 0 -0.0039483752004006931 0.005412214625333295 0 -0.0044356520228559142 0.0046199028548705896 0 -0.0041257664371541821 0.0055936489174246082 0 -0.0043297848611750971 0.0056146767036669345 0 -0.0042501916132089848 0.0055290681335009679 0 -0.0044439579273050167 0.0054844458350747308 0 -0.0043297848611750971 0.0056146767036669345 0 -0.0042501916132089848 0.0055290681335009679 0 -0.0054896112124087721 0.0038125087940182128 0 -0.0054708018691315054 0.0037806377803694309 0 -0.0054410042683833999 0.0038045718170379855 0 -0.0054896112124087721 0.0038125087940182128 0 -0.0054410042683833999 0.0038045718170379855 0 -0.0054488166051013982 0.0038412020567884638 0 -0.0053815052282880239 0.00375893041285993 0 -0.0054708018691315054 0.0037806377803694309 0 -0.0054410042683833999 0.0038045718170379855 0 -0.0053733948837709549 0.0038224185659422503 0 -0.0053815052282880239 0.00375893041285993 0 -0.0054410042683833999 0.0038045718170379855 0 -0.0053733948837709549 0.0038224185659422503 0 -0.0054410042683833999 0.0038045718170379855 0 -0.0054488166051013982 0.0038412020567884638 0 -0.0053733948837709549 0.0038224185659422503 0 -0.0054488166051013982 0.0038412020567884638 0 -0.0053843226640581388 0.0038908858026024868 0 -0.0054488166051013982 0.0038412020567884638 0 -0.0053843226640581388 0.0038908858026024868 0 -0.0054929228887142349 0.0038960288991197844 0 -0.0054761263085405121 0.0040445933874155866 0 -0.0054735708096864686 0.0039560482797714224 0 -0.0054929228887142349 0.0038960288991197844 0 -0.0055524196651696939 0.0038344354479504521 0 -0.0054571289249882903 0.003945172833723266 0 -0.0054896112124087721 0.0038125087940182128 0 -0.0054488166051013982 0.0038412020567884638 0 -0.0054929228887142349 0.0038960288991197844 0 -0.0054735708096864686 0.0039560482797714224 0 -0.0054969345603170161 0.003899675739855381 0 -0.0054929228887142349 0.0038960288991197844 0 -0.005407105671575616 0.0036866962171414057 0 -0.0053434486880362059 0.0033500196237084045 0 -0.0054717974477331687 0.0038793832686405288 0 -0.0055276956840234152 0.0038790875522847516 0 -0.0054451516629499281 0.0037310887606730944 0 -0.0054735708096864686 0.0039560482797714224 0 -0.0054717974477331687 0.0038793832686405288 0 -0.0054969345603170161 0.003899675739855381 0 -0.0054717974477331687 0.0038793832686405288 0 -0.0054969345603170161 0.003899675739855381 0 -0.0055276956840234152 0.0038790875522847516 0 -0.0054969345603170161 0.003899675739855381 0 -0.0054929228887142349 0.0038960288991197844 0 -0.0054805466962096032 0.0039253592442408869 0 -0.0054109520406655717 0.003791508637964798 0 -0.005407105671575616 0.0036866962171414057 0 -0.0053843226640581388 0.0038908858026024868 0 -0.0054588759010937987 0.0039417371372155547 0 -0.0053393128261113179 0.0040562364872299764 0 -0.0054502289644520752 0.0039130355044924422 0 -0.005407105671575616 0.0036866962171414057 0 -0.0053843226640581388 0.0038908858026024868 0 -0.0054929228887142349 0.0038960288991197844 0 -0.0054805466962096032 0.0039253592442408869 0 -0.0053843226640581388 0.0038908858026024868 0 -0.0052578167769305635 0.0039448141752048633 0 -0.0053393128261113179 0.0040562364872299764 0 -0.0052578167769305635 0.0039448141752048633 0 -0.0051121134569457717 0.003930387718259167 0 -0.0052045652742579761 0.0040443908568325668 0 -0.0052578167769305635 0.0039448141752048633 0 -0.0052579219735705996 0.0038241734587706197 0 -0.0051121134569457717 0.003930387718259167 0 -0.0044442667076194549 0.0039085658479770724 0 -0.0043206285803625774 0.0041397727879667178 0 -0.0053843226640581388 0.0038908858026024868 0 -0.0052578167769305635 0.0039448141752048633 0 -0.0052579219735705996 0.0038241734587706197 0 -0.0053733948837709549 0.0038224185659422503 0 -0.0053843226640581388 0.0038908858026024868 0 -0.0052579219735705996 0.0038241734587706197 0 -0.003532559977032368 0.0042310738452010534 0 -0.003554701219793871 0.0042195322974215221 0 -0.0035358167858681104 0.0042503165557206636 0 -0.003532559977032368 0.0042310738452010534 0 -0.0035488587657341265 0.0041968862810673052 0 -0.003554701219793871 0.0042195322974215221 0 -0.003532559977032368 0.0042310738452010534 0 -0.0035351899475577126 0.0042316808279761527 0 -0.0035277251998393645 0.0042323346940309125 0 -0.003532559977032368 0.0042310738452010534 0 -0.0035351899475577126 0.0042316808279761527 0 -0.0035277582588637332 0.0042170760200445972 0 -0.003552861741616706 0.0042363970956619743 0 -0.0035351899475577126 0.0042316808279761527 0 -0.0035277582588637332 0.0042170760200445972 0 -0.0043206285803625774 0.0041397727879667178 0 -0.0041217507164830469 0.0038238860637488008 0 -0.0035277582588637332 0.0042170760200445972 0 -0.0035488587657341265 0.0041968862810673052 0 -0.0035473359888791153 0.0041677596838683587 0 -0.003532559977032368 0.0042310738452010534 0 -0.0035277582588637332 0.0042170760200445972 0 -0.0035488587657341265 0.0041968862810673052 0 -0.0035488587657341265 0.0041968862810673052 0 -0.0035722024643224737 0.0042037701216889791 0 -0.0035757240032339159 0.0041655673733497628 0 -0.0035488587657341265 0.0041968862810673052 0 -0.0035722024643224737 0.0042037701216889791 0 -0.003554701219793871 0.0042195322974215221 0 -0.003178842591624547 0.0039681132490400218 0 -0.0036429213117684287 0.0042308341655723624 0 -0.0035757240032339159 0.0041655673733497628 0 -0.0036033375569479425 0.004200955307393635 0 -0.0035853591163358999 0.0041200371027415514 0 -0.0035722024643224737 0.0042037701216889791 0 -0.0035757240032339159 0.0041655673733497628 0 -0.0036033375569479425 0.004200955307393635 0 -0.003178842591624547 0.0039681132490400218 0 -0.0036856882479277494 0.0042668650814139371 0 -0.0035722024643224737 0.0042037701216889791 0 -0.0036033375569479425 0.004200955307393635 0 -0.0035725687474134674 0.0042597546625793405 0 -0.0036741867180642555 0.003977054015355282 0 -0.0035725687474134674 0.0042597546625793405 0 -0.0037483337621152038 0.0042302796500166117 0 -0.003178842591624547 0.0039681132490400218 0 -0.0026071234086619917 0.0038636118466537019 0 -0.0035722024643224737 0.0042037701216889791 0 -0.003554701219793871 0.0042195322974215221 0 -0.0035725687474134674 0.0042597546625793405 0 -0.003554701219793871 0.0042195322974215221 0 -0.0035358167858681104 0.0042503165557206636 0 -0.0035725687474134674 0.0042597546625793405 0 -0.0035358167858681104 0.0042503165557206636 0 -0.0035725687474134674 0.0042597546625793405 0 -0.0035407141329565333 0.0042845218455077041 0 -0.0035407141329565333 0.0042845218455077041 0 -0.0035503330897467501 0.0043889126121688486 0 -0.0034530857546457914 0.0044266189624660368 0 -0.0035407141329565333 0.0042845218455077041 0 -0.0035503330897467501 0.0043889126121688486 0 -0.0036343401293217701 0.0043728844649530653 0 -0.0035725687474134674 0.0042597546625793405 0 -0.0035407141329565333 0.0042845218455077041 0 -0.0036343401293217701 0.0043728844649530653 0 -0.0037483337621152038 0.0042302796500166117 0 -0.0036343401293217701 0.0043728844649530653 0 -0.0038227988467420871 0.0044891872207688237 0 -0.0035725687474134674 0.0042597546625793405 0 -0.0037483337621152038 0.0042302796500166117 0 -0.0036343401293217701 0.0043728844649530653 0 -0.0036343401293217701 0.0043728844649530653 0 -0.003665570938514173 0.0045211013564108405 0 -0.0038227988467420871 0.0044891872207688237 0 -0.0036343401293217701 0.0043728844649530653 0 -0.003665570938514173 0.0045211013564108405 0 -0.003564043422366458 0.0044721497034715891 0 -0.003665570938514173 0.0045211013564108405 0 -0.003564043422366458 0.0044721497034715891 0 -0.003590264581730587 0.0046072813902434213 0 -0.003665570938514173 0.0045211013564108405 0 -0.0037183325684308015 0.0046653106396097347 0 -0.0038227988467420871 0.0044891872207688237 0 -0.0034530857546457914 0.0044266189624660368 0 -0.003564043422366458 0.0044721497034715891 0 -0.0034579372865206756 0.004566129591598086 0 -0.0034530857546457914 0.0044266189624660368 0 -0.0034579372865206756 0.004566129591598086 0 -0.0033573589068164249 0.0045099944006963943 0 -0.0035503330897467501 0.0043889126121688486 0 -0.0036343401293217701 0.0043728844649530653 0 -0.003564043422366458 0.0044721497034715891 0 -0.0035503330897467501 0.0043889126121688486 0 -0.0034530857546457914 0.0044266189624660368 0 -0.003564043422366458 0.0044721497034715891 0 -0.003564043422366458 0.0044721497034715891 0 -0.0034579372865206756 0.004566129591598086 0 -0.003590264581730587 0.0046072813902434213 0 -0.0034530857546457914 0.0044266189624660368 0 -0.0033573589068164249 0.0045099944006963943 0 -0.0031648568800077123 0.0043662128852191284 0 -0.0034579372865206756 0.004566129591598086 0 -0.0033573589068164249 0.0045099944006963943 0 -0.0033083586827885414 0.0046712040723757035 0 -0.0033573589068164249 0.0045099944006963943 0 -0.0031648568800077123 0.0043662128852191284 0 -0.0033083586827885414 0.0046712040723757035 0 -0.0035358167858681104 0.0042503165557206636 0 -0.0035407141329565333 0.0042845218455077041 0 -0.0035277251998393645 0.0042323346940309125 0 -0.003532559977032368 0.0042310738452010534 0 -0.0035358167858681104 0.0042503165557206636 0 -0.0035277251998393645 0.0042323346940309125 0 -0.0035614855919439701 0.0042959884998678083 0 -0.0032887836724713702 0.0042500392082168506 0 -0.0035407141329565333 0.0042845218455077041 0 -0.0034530857546457914 0.0044266189624660368 0 -0.0031648568800077123 0.0043662128852191284 0 -0.003552861741616706 0.0042363970956619743 0 -0.0035351899475577126 0.0042316808279761527 0 -0.0035277251998393645 0.0042323346940309125 0 -0.002994153379157274 0.004655015562619263 0 -0.0031648568800077123 0.0043662128852191284 0 -0.0033083586827885414 0.0046712040723757035 0 -0.002994153379157274 0.004655015562619263 0 -0.0033083586827885414 0.0046712040723757035 0 -0.0031671140627407856 0.0048985509136035138 0 -0.0033981452329654004 0.0051342870078902913 0 -0.0034051955080403843 0.0051087398315307472 0 -0.0033083586827885414 0.0046712040723757035 0 -0.0033539551181915746 0.0048689412123904627 0 -0.0034768995872466102 0.0048149669281349295 0 -0.0033539551181915746 0.0048689412123904627 0 -0.0033446363929284391 0.0049922415571213401 0 -0.0031671140627407856 0.0048985509136035138 0 -0.0033083586827885414 0.0046712040723757035 0 -0.0033539551181915746 0.0048689412123904627 0 -0.0031671140627407856 0.0048985509136035138 0 -0.0033539551181915746 0.0048689412123904627 0 -0.0033446363929284391 0.0049922415571213401 0 -0.0034712045871431651 0.00494988881842965 0 -0.0037920506005898113 0.0051988069587345313 0 -0.0036493156247542915 0.005341407624762577 0 -0.0036488541876369168 0.0051246256808260456 0 -0.0036493156247542915 0.005341407624762577 0 -0.0034944101016660331 0.005178741389452699 0 -0.0036488541876369168 0.0051246256808260456 0 -0.0034051955080403843 0.0051087398315307472 0 -0.0034258165191310527 0.0051422107913272315 0 -0.0033446363929284391 0.0049922415571213401 0 -0.0031671140627407856 0.0048985509136035138 0 -0.0033654596266577304 0.0051197425293493977 0 -0.0033446363929284391 0.0049922415571213401 0 -0.0033779199864613879 0.0050962607192202572 0 -0.0033654596266577304 0.0051197425293493977 0 -0.0034944101016660331 0.005178741389452699 0 -0.0035424459178948309 0.0049999894542033987 0 -0.0036488541876369168 0.0051246256808260456 0 -0.0034944101016660331 0.005178741389452699 0 -0.0035424459178948309 0.0049999894542033987 0 -0.0033329489666223565 0.0050000012633548653 0 -0.0037519541469090575 0.0049999901047064824 0 -0.0035424459178948309 0.0049999894542033987 0 -0.0036488541876369168 0.0051246256808260456 0 -0.0037519541469090575 0.0049999901047064824 0 -0.0037920506005898113 0.0051988069587345313 0 -0.0036488541876369168 0.0051246256808260456 0 -0.0032014093484615826 0.0050848755090620399 0 -0.0033328465256824568 0.0050000092859346767 0 -0.0030635428995066886 0.0049999663437886631 0 -0.0033654596266577304 0.0051197425293493977 0 -0.0033328465256824568 0.0050000092859346767 0 -0.0033106135588561831 0.0050989251976513647 0 -0.0034258165191310527 0.0051422107913272315 0 -0.0033329505155333264 0.0050000283747215412 0 -0.0032014093484615826 0.0050848755090620399 0 -0.0033328465256824568 0.0050000092859346767 0 -0.0033106135588561831 0.0050989251976513647 0 -0.0033166475732878667 0.0050979674365732204 0 -0.0035810367678160361 0.0051549717875136814 0 -0.0033779199864613879 0.0050962607192202572 0 -0.0033106135588561831 0.0050989251976513647 0 -0.0032099973716271969 0.0052021888792500469 0 -0.0033779199864613879 0.0050962607192202572 0 -0.0036769664868946026 0.005042714234744265 0 -0.0034712045871431651 0.00494988881842965 0 -0.0033779199864613879 0.0050962607192202572 0 -0.0033654596266577304 0.0051197425293493977 0 -0.0033106135588561831 0.0050989251976513647 0 -0.0033446363929284391 0.0049922415571213401 0 -0.0033779199864613879 0.0050962607192202572 0 -0.0034712045871431651 0.00494988881842965 0 -0.0032014093484615826 0.0050848755090620399 0 -0.0033106135588561831 0.0050989251976513647 0 -0.0032099973716271969 0.0052021888792500469 0 -0.0032014093484615826 0.0050848755090620399 0 -0.0032099973716271969 0.0052021888792500469 0 -0.0030693137051538235 0.0051191499016879603 0 -0.0036769664868946026 0.005042714234744265 0 -0.0035917742974345469 0.0048938039782319897 0 -0.0037381860051455395 0.0048575523763265778 0 -0.0035917742974345469 0.0048938039782319897 0 -0.0037381860051455395 0.0048575523763265778 0 -0.0035996294326236075 0.0047587431858950114 0 -0.0036769664868946026 0.005042714234744265 0 -0.0035917742974345469 0.0048938039782319897 0 -0.0034712045871431651 0.00494988881842965 0 -0.0035917742974345469 0.0048938039782319897 0 -0.0034768995872466102 0.0048149669281349295 0 -0.0035996294326236075 0.0047587431858950114 0 -0.0035917742974345469 0.0048938039782319897 0 -0.0034712045871431651 0.00494988881842965 0 -0.0034768995872466102 0.0048149669281349295 0 -0.0033539551181915746 0.0048689412123904627 0 -0.0034712045871431651 0.00494988881842965 0 -0.0034768995872466102 0.0048149669281349295 0 -0.0033083586827885414 0.0046712040723757035 0 -0.0034768995872466102 0.0048149669281349295 0 -0.0034881332724632265 0.0046872943218899338 0 -0.0034768995872466102 0.0048149669281349295 0 -0.0034881332724632265 0.0046872943218899338 0 -0.0035996294326236075 0.0047587431858950114 0 -0.0034579372865206756 0.004566129591598086 0 -0.0034881332724632265 0.0046872943218899338 0 -0.003590264581730587 0.0046072813902434213 0 -0.0034881332724632265 0.0046872943218899338 0 -0.0035996294326236075 0.0047587431858950114 0 -0.003590264581730587 0.0046072813902434213 0 -0.0034579372865206756 0.004566129591598086 0 -0.0033083586827885414 0.0046712040723757035 0 -0.0034881332724632265 0.0046872943218899338 0 -0.0037381860051455395 0.0048575523763265778 0 -0.0035996294326236075 0.0047587431858950114 0 -0.0037183325684308015 0.0046653106396097347 0 -0.003665570938514173 0.0045211013564108405 0 -0.003590264581730587 0.0046072813902434213 0 -0.0037183325684308015 0.0046653106396097347 0 -0.0035996294326236075 0.0047587431858950114 0 -0.003590264581730587 0.0046072813902434213 0 -0.0037183325684308015 0.0046653106396097347 0 -0.0037381860051455395 0.0048575523763265778 0 -0.0037183325684308015 0.0046653106396097347 0 -0.00388679602359181 0.0047593193794276609 0 -0.0027415570121391741 0.004252044990582641 0 -0.0027165288269253873 0.0041378114599977048 0 -0.0037183325684308015 0.0046653106396097347 0 -0.00388679602359181 0.0047593193794276609 0 -0.0038227988467420871 0.0044891872207688237 0 -0.0016140382792343892 0.0038535430289927466 0 -0.0016600355459018487 0.0037917096209406859 0 -0.0015914145679356765 0.0037359800032982439 0 -0.0016140382792343892 0.0038535430289927466 0 -0.0016600355459018487 0.0037917096209406859 0 -0.0016914183179809552 0.0038668332061993801 0 -0.0016600355459018487 0.0037917096209406859 0 -0.0016914183179809552 0.0038668332061993801 0 -0.0017168674412592461 0.0037850980128611772 0 -0.0016914183179809552 0.0038668332061993801 0 -0.0016452338459670983 0.0039519132485849942 0 -0.0017240207378189949 0.0039419634202290327 0 -0.0016140382792343892 0.0038535430289927466 0 -0.0016914183179809552 0.0038668332061993801 0 -0.0016452338459670983 0.0039519132485849942 0 -0.0037381860051455395 0.0048575523763265778 0 -0.00388679602359181 0.0047593193794276609 0 -0.0039442565659758523 0.0050131944027634262 0 -0.0027415570121391741 0.004252044990582641 0 -0.0027967852786088781 0.0047334155777400367 0 -0.0029650571724438644 0.0052403020375163195 0 -0.0029136048031122713 0.0050907527799693214 0 -0.0030693137051538235 0.0051191499016879603 0 -0.0036769664868946026 0.005042714234744265 0 -0.0037381860051455395 0.0048575523763265778 0 -0.0039442565659758523 0.0050131944027634262 0 -0.0032099973716271969 0.0052021888792500469 0 -0.0029650571724438644 0.0052403020375163195 0 -0.0030693137051538235 0.0051191499016879603 0 -0.0035810367678160361 0.0051549717875136814 0 -0.0027967852786088781 0.0047334155777400367 0 -0.0029529563513743797 0.0052564789120581028 0 -0.0029136048031122713 0.0050907527799693214 0 -0.0028099352268888271 0.0051463250511692244 0 -0.0029529563513743797 0.0052564789120581028 0 -0.0028099352268888271 0.0051463250511692244 0 -0.0027327695121799936 0.0052722385473217073 0 -0.0027967852786088781 0.0047334155777400367 0 -0.0029657549971868077 0.0052810875898808415 0 -0.0027967852786088781 0.0047334155777400367 0 -0.0021261414538658076 0.0046025110758220788 0 -0.0029136048031122713 0.0050907527799693214 0 -0.0030635428995066886 0.0049999663437886631 0 -0.0027940526554383074 0.0049999941669916391 0 -0.0029136048031122713 0.0050907527799693214 0 -0.0027940526554383074 0.0049999941669916391 0 -0.0028099352268888271 0.0051463250511692244 0 -0.0032014093484615826 0.0050848755090620399 0 -0.0030635428995066886 0.0049999663437886631 0 -0.0030693137051538235 0.0051191499016879603 0 -0.0029136048031122713 0.0050907527799693214 0 -0.0030635428995066886 0.0049999663437886631 0 -0.0030693137051538235 0.0051191499016879603 0 -0.0023967976190223585 0.0051462760116787343 0 -0.002524620797886947 0.0049999947925203157 0 -0.0026576420467828831 0.0051151061146337135 0 -0.002524620797886947 0.0049999947925203157 0 -0.0027940526554383074 0.0049999941669916391 0 -0.0026576420467828831 0.0051151061146337135 0 -0.0027940526554383074 0.0049999941669916391 0 -0.0028099352268888271 0.0051463250511692244 0 -0.0026576420467828831 0.0051151061146337135 0 -0.0028099352268888271 0.0051463250511692244 0 -0.0026576420467828831 0.0051151061146337135 0 -0.0027327695121799936 0.0052722385473217073 0 -0.0026576420467828831 0.0051151061146337135 0 -0.0027327695121799936 0.0052722385473217073 0 -0.0025146687425672571 0.0052865383938872452 0 -0.0021261414538658076 0.0046025110758220788 0 -0.0021704908412999704 0.0046292726749315085 0 -0.0023967976190223585 0.0051462760116787343 0 -0.0026576420467828831 0.0051151061146337135 0 -0.0025146687425672571 0.0052865383938872452 0 -0.0017240207378189949 0.0039419634202290327 0 -0.0017649065312757082 0.0039542639203617213 0 -0.001759103855104058 0.0039154589536806311 0 -0.0017757618715111159 0.0039345176260679885 0 -0.0017649065312757082 0.0039542639203617213 0 -0.001759103855104058 0.0039154589536806311 0 -0.001759103855104058 0.0039154589536806311 0 -0.001736456159820548 0.0038864068981106308 0 -0.0017667798463380858 0.0038634298652296725 0 -0.0017942477893560958 0.0038871308935677119 0 -0.001759103855104058 0.0039154589536806311 0 -0.0017667798463380858 0.0038634298652296725 0 -0.0017942477893560958 0.0038871308935677119 0 -0.0017757618715111159 0.0039345176260679885 0 -0.001759103855104058 0.0039154589536806311 0 -0.0016914183179809552 0.0038668332061993801 0 -0.0017240207378189949 0.0039419634202290327 0 -0.001736456159820548 0.0038864068981106308 0 -0.0017240207378189949 0.0039419634202290327 0 -0.001759103855104058 0.0039154589536806311 0 -0.001736456159820548 0.0038864068981106308 0 -0.0016914183179809552 0.0038668332061993801 0 -0.0017351539154751051 0.0038364533127413962 0 -0.0017168674412592461 0.0037850980128611772 0 -0.0016914183179809552 0.0038668332061993801 0 -0.001736456159820548 0.0038864068981106308 0 -0.0017351539154751051 0.0038364533127413962 0 -0.001736456159820548 0.0038864068981106308 0 -0.0017351539154751051 0.0038364533127413962 0 -0.0017667798463380858 0.0038634298652296725 0 -0.0017351539154751051 0.0038364533127413962 0 -0.0017168674412592461 0.0037850980128611772 0 -0.001772013472791886 0.003810664746095295 0 -0.0017168674412592461 0.0037850980128611772 0 -0.001772013472791886 0.003810664746095295 0 -0.00176305263783794 0.0037549681872504977 0 -0.0017667798463380858 0.0038634298652296725 0 -0.001772013472791886 0.003810664746095295 0 -0.0017986010836865882 0.0038281777714254082 0 -0.0017942477893560958 0.0038871308935677119 0 -0.0017667798463380858 0.0038634298652296725 0 -0.0017986010836865882 0.0038281777714254082 0 -0.0017351539154751051 0.0038364533127413962 0 -0.0017667798463380858 0.0038634298652296725 0 -0.001772013472791886 0.003810664746095295 0 -0.0018601876895843047 0.0037921090484657606 0 -0.0017986010836865882 0.0038281777714254082 0 -0.0017970250939905673 0.003777778684449948 0 -0.001772013472791886 0.003810664746095295 0 -0.0017986010836865882 0.0038281777714254082 0 -0.0017970250939905673 0.003777778684449948 0 -0.0018601876895843047 0.0037921090484657606 0 -0.0017970250939905673 0.003777778684449948 0 -0.0018014610492890631 0.0037018385548964585 0 -0.0017970250939905673 0.003777778684449948 0 -0.00176305263783794 0.0037549681872504977 0 -0.0018014610492890631 0.0037018385548964585 0 -0.001772013472791886 0.003810664746095295 0 -0.0017970250939905673 0.003777778684449948 0 -0.00176305263783794 0.0037549681872504977 0 -0.00176305263783794 0.0037549681872504977 0 -0.0018014610492890631 0.0037018385548964585 0 -0.0017403316790591682 0.0037022299986536234 0 -0.001841520828459583 0.0035981280771638455 0 -0.0018014610492890631 0.0037018385548964585 0 -0.0017698810467203906 0.0036191406910898055 0 -0.0018014610492890631 0.0037018385548964585 0 -0.0017698810467203906 0.0036191406910898055 0 -0.0017403316790591682 0.0037022299986536234 0 -0.0017698810467203906 0.0036191406910898055 0 -0.001717337958696377 0.003641164688178343 0 -0.0017403316790591682 0.0037022299986536234 0 -0.001717337958696377 0.003641164688178343 0 -0.0017403316790591682 0.0037022299986536234 0 -0.0016814724141279622 0.0037144730960037347 0 -0.0017168674412592461 0.0037850980128611772 0 -0.0017403316790591682 0.0037022299986536234 0 -0.0016814724141279622 0.0037144730960037347 0 -0.0017168674412592461 0.0037850980128611772 0 -0.00176305263783794 0.0037549681872504977 0 -0.0017403316790591682 0.0037022299986536234 0 -0.0016600355459018487 0.0037917096209406859 0 -0.0016814724141279622 0.0037144730960037347 0 -0.0015914145679356765 0.0037359800032982439 0 -0.0016600355459018487 0.0037917096209406859 0 -0.0017168674412592461 0.0037850980128611772 0 -0.0016814724141279622 0.0037144730960037347 0 -0.0026071234086619917 0.0038636118466537019 0 -0.0027165288269253873 0.0041378114599977048 0 -0.0015798461086534664 0.0036197172711121199 0 -0.0015914145679356765 0.0037359800032982439 0 -0.0016614218879424107 0.0036197873645097355 0 -0.0016814724141279622 0.0037144730960037347 0 -0.0015914145679356765 0.0037359800032982439 0 -0.0016614218879424107 0.0036197873645097355 0 -0.001717337958696377 0.003641164688178343 0 -0.0016814724141279622 0.0037144730960037347 0 -0.0016614218879424107 0.0036197873645097355 0 -0.0016614218879424107 0.0036197873645097355 0 -0.0016387290407861661 0.0035514579058615187 0 -0.0017473013418241436 0.0035308607208703294 0 -0.001717337958696377 0.003641164688178343 0 -0.0016614218879424107 0.0036197873645097355 0 -0.0017473013418241436 0.0035308607208703294 0 -0.0015798461086534664 0.0036197172711121199 0 -0.0016614218879424107 0.0036197873645097355 0 -0.0016387290407861661 0.0035514579058615187 0 -0.0015722773257441209 0.0035193324422731877 0 -0.0015798461086534664 0.0036197172711121199 0 -0.0016387290407861661 0.0035514579058615187 0 -0.0015722773257441209 0.0035193324422731877 0 -0.0016387290407861661 0.0035514579058615187 0 -0.0016706337658593227 0.0034809200118945125 0 -0.0016387290407861661 0.0035514579058615187 0 -0.0016706337658593227 0.0034809200118945125 0 -0.0017473013418241436 0.0035308607208703294 0 -0.0018192987779345048 0.0034707499497754414 0 -0.0017473013418241436 0.0035308607208703294 0 -0.0017969876710377274 0.0034809628431555586 0 -0.0016357469152628989 0.00340564618515255 0 -0.0017954193742257373 0.0035612751595090059 0 -0.0017765866210184022 0.0035064117509574556 0 -0.0017473013418241436 0.0035308607208703294 0 -0.0017969876710377274 0.0034809628431555586 0 -0.0017765866210184022 0.0035064117509574556 0 -0.0017762928345149639 0.0035422447305657359 0 -0.0017473013418241436 0.0035308607208703294 0 -0.0017765866210184022 0.0035064117509574556 0 -0.0017723531006253877 0.0035065086001541371 0 -0.0017969876710377274 0.0034809628431555586 0 -0.0017097050761872158 0.0035049862631211402 0 -0.0017765866210184022 0.0035064117509574556 0 -0.0017762928345149639 0.0035422447305657359 0 -0.0017097050761872158 0.0035049862631211402 0 -0.0017765866210184022 0.0035064117509574556 0 -0.0017723531006253877 0.0035065086001541371 0 -0.001841520828459583 0.0035981280771638455 0 -0.0017698810467203906 0.0036191406910898055 0 -0.0017762928345149639 0.0035422447305657359 0 -0.001841520828459583 0.0035981280771638455 0 -0.0017097050761872158 0.0035049862631211402 0 -0.0017762928345149639 0.0035422447305657359 0 -0.0017698810467203906 0.0036191406910898055 0 -0.001717337958696377 0.003641164688178343 0 -0.0017473013418241436 0.0035308607208703294 0 -0.0017698810467203906 0.0036191406910898055 0 -0.0017762928345149639 0.0035422447305657359 0 -0.0017473013418241436 0.0035308607208703294 0 -0.0018107080135914258 0.0034427618994821709 0 -0.0018213451006630125 0.0034528804313327544 0 -0.0018544761077874958 0.0034168439835236463 0 -0.0018107080135914258 0.0034427618994821709 0 -0.0017937351402297936 0.0034831067454111414 0 -0.0018213451006630125 0.0034528804313327544 0 -0.0018107080135914258 0.0034427618994821709 0 -0.0018544761077874958 0.0034168439835236463 0 -0.0018600568239092172 0.0034364438410970826 0 -0.0018213451006630125 0.0034528804313327544 0 -0.0018434780331921361 0.0034413430910153085 0 -0.0018544761077874958 0.0034168439835236463 0 -0.0015566444209149765 0.0034518105113079925 0 -0.0015514269672917461 0.0035010130140525524 0 -0.0013906856543148141 0.0034765345686575398 0 -0.0012592892119275734 0.0034223020679934684 0 -0.0013647331133106264 0.0035153093953046379 0 -0.0018107080135914258 0.0034427618994821709 0 -0.0017937351402297936 0.0034831067454111414 0 -0.001768800025711314 0.0035252538065890593 0 -0.0017097050761872158 0.0035049862631211402 0 -0.001768800025711314 0.0035252538065890593 0 -0.0017723531006253877 0.0035065086001541371 0 -0.0017937351402297936 0.0034831067454111414 0 -0.001768800025711314 0.0035252538065890593 0 -0.0017723531006253877 0.0035065086001541371 0 -0.0017937351402297936 0.0034831067454111414 0 -0.0017723531006253877 0.0035065086001541371 0 -0.0017969876710377274 0.0034809628431555586 0 -0.0017937351402297936 0.0034831067454111414 0 -0.0017969876710377274 0.0034809628431555586 0 -0.0018213451006630125 0.0034528804313327544 0 -0.0017969876710377274 0.0034809628431555586 0 -0.0018213451006630125 0.0034528804313327544 0 -0.0018434780331921361 0.0034413430910153085 0 -0.0018192987779345048 0.0034707499497754414 0 -0.0017969876710377274 0.0034809628431555586 0 -0.0018434780331921361 0.0034413430910153085 0 -0.0018192987779345048 0.0034707499497754414 0 -0.0018434780331921361 0.0034413430910153085 0 -0.0018464854463180909 0.0034276615479598735 0 -0.0018434780331921361 0.0034413430910153085 0 -0.0018464854463180909 0.0034276615479598735 0 -0.0019070766359875248 0.0033823904926085142 0 -0.0015722773257441209 0.0035193324422731877 0 -0.0016706337658593227 0.0034809200118945125 0 -0.0016178064261532293 0.0034254248308016448 0 -0.0018192987779345048 0.0034707499497754414 0 -0.0018464854463180909 0.0034276615479598735 0 -0.0018105665936795688 0.0034267009234270084 0 -0.0016357469152628989 0.00340564618515255 0 -0.0023991428441521947 0.0036190681556002319 0 -0.0027961934145585491 0.002954268032356286 0 -0.0026845942634394883 0.0032321835462845545 0 -0.0030196825511019775 0.0033661965649167268 0 -0.0023991428441521947 0.0036190681556002319 0 -0.0022947200337867968 0.0030993875967621634 0 -0.0018464854463180909 0.0034276615479598735 0 -0.0018253765075098845 0.0033621268076897996 0 -0.0019070766359875248 0.0033823904926085142 0 -0.0018464854463180909 0.0034276615479598735 0 -0.0018105665936795688 0.0034267009234270084 0 -0.0018253765075098845 0.0033621268076897996 0 -0.0019229668290970054 0.0033300094389805603 0 -0.0019788115809286299 0.0033257206708973146 0 -0.0019070766359875248 0.0033823904926085142 0 -0.0022947200337867968 0.0030993875967621634 0 -0.0018778746621281102 0.0032755491000809535 0 -0.0022947200337867968 0.0030993875967621634 0 -0.0030088648226648199 0.0029354796240933369 0 -0.0018434780331921361 0.0034413430910153085 0 -0.0018544761077874958 0.0034168439835236463 0 -0.0019070766359875248 0.0033823904926085142 0 -0.0019788115809286299 0.0033257206708973146 0 -0.0019070766359875248 0.0033823904926085142 0 -0.001903990384251133 0.003392134049198445 0 -0.0018544761077874958 0.0034168439835236463 0 -0.0019070766359875248 0.0033823904926085142 0 -0.001903990384251133 0.003392134049198445 0 -0.0018544761077874958 0.0034168439835236463 0 -0.001903990384251133 0.003392134049198445 0 -0.0018600568239092172 0.0034364438410970826 0 -0.001903990384251133 0.003392134049198445 0 -0.0019271135155261216 0.0035011391267528481 0 -0.0018600568239092172 0.0034364438410970826 0 -0.0019788115809286299 0.0033257206708973146 0 -0.0021548418002753349 0.0030164466722870792 0 -0.0022467257558935454 0.0029667339948579348 0 -0.0019271135155261216 0.0035011391267528481 0 -0.0018434132326266516 0.0034924556536089393 0 -0.0018600568239092172 0.0034364438410970826 0 -0.0019788115809286299 0.0033257206708973146 0 -0.001903990384251133 0.003392134049198445 0 -0.0019271135155261216 0.0035011391267528481 0 -0.0020214601874745677 0.0032680039423934825 0 -0.0020016468934568005 0.0033224040672475909 0 -0.0024165970273503641 0.0022570519377523245 0 -0.0025540522481645213 0.0027219596905057957 0 -0.0030257426804778257 0.0025205094519708802 0 -0.0019229668290970054 0.0033300094389805603 0 -0.0019788115809286299 0.0033257206708973146 0 -0.0021548418002753349 0.0030164466722870792 0 -0.0024165970273503641 0.0022570519377523245 0 -0.0025540522481645213 0.0027219596905057957 0 -0.0021548418002753349 0.0030164466722870792 0 -0.0022947200337867968 0.0030993875967621634 0 -0.0021767398314396893 0.0029232894806395251 0 -0.0021548418002753349 0.0030164466722870792 0 -0.0023381318757985446 0.0030545336837767881 0 -0.0022467257558935454 0.0029667339948579348 0 -0.0025540522481645213 0.0027219596905057957 0 -0.0021548418002753349 0.0030164466722870792 0 -0.0024607692578894431 0.0029751070031797588 0 -0.0021548418002753349 0.0030164466722870792 0 -0.0024607692578894431 0.0029751070031797588 0 -0.0023381318757985446 0.0030545336837767881 0 -0.0025540522481645213 0.0027219596905057957 0 -0.0024607692578894431 0.0029751070031797588 0 -0.0027406146444681114 0.0029141592276783639 0 -0.0024607692578894431 0.0029751070031797588 0 -0.0027406146444681114 0.0029141592276783639 0 -0.0025503502303670369 0.0031035096779197082 0 -0.0027406146444681114 0.0029141592276783639 0 -0.0025503502303670369 0.0031035096779197082 0 -0.0027758197744537768 0.003140829231353749 0 -0.0025503502303670369 0.0031035096779197082 0 -0.0025993390893108235 0.0032717669996025216 0 -0.0027758197744537768 0.003140829231353749 0 -0.0025503502303670369 0.0031035096779197082 0 -0.0024231388619353469 0.0031873610284480431 0 -0.0025993390893108235 0.0032717669996025216 0 -0.0023381318757985446 0.0030545336837767881 0 -0.0023300789521558674 0.0031179079700714815 0 -0.0022467257558935454 0.0029667339948579348 0 -0.0025503502303670369 0.0031035096779197082 0 -0.0024231388619353469 0.0031873610284480431 0 -0.0023381318757985446 0.0030545336837767881 0 -0.0024607692578894431 0.0029751070031797588 0 -0.0025503502303670369 0.0031035096779197082 0 -0.0023381318757985446 0.0030545336837767881 0 -0.0024231388619353469 0.0031873610284480431 0 -0.0023381318757985446 0.0030545336837767881 0 -0.0023300789521558674 0.0031179079700714815 0 -0.0024231388619353469 0.0031873610284480431 0 -0.0023300789521558674 0.0031179079700714815 0 -0.0023063602799353491 0.0032948936678900702 0 -0.0024231388619353469 0.0031873610284480431 0 -0.0024633766154162329 0.0033339773541885987 0 -0.0023063602799353491 0.0032948936678900702 0 -0.0023664252167787492 0.0034061188392984737 0 -0.0024633766154162329 0.0033339773541885987 0 -0.0023063602799353491 0.0032948936678900702 0 -0.0023664252167787492 0.0034061188392984737 0 -0.0024633766154162329 0.0033339773541885987 0 -0.002528997396913537 0.0034867336790939838 0 -0.0024231388619353469 0.0031873610284480431 0 -0.0024633766154162329 0.0033339773541885987 0 -0.0025993390893108235 0.0032717669996025216 0 -0.0024633766154162329 0.0033339773541885987 0 -0.0026105273586337955 0.0033897722111179366 0 -0.002528997396913537 0.0034867336790939838 0 -0.0024633766154162329 0.0033339773541885987 0 -0.0025993390893108235 0.0032717669996025216 0 -0.0026105273586337955 0.0033897722111179366 0 -0.0025993390893108235 0.0032717669996025216 0 -0.0026105273586337955 0.0033897722111179366 0 -0.0027498088058120198 0.0033517178670858573 0 -0.0026105273586337955 0.0033897722111179366 0 -0.0027498088058120198 0.0033517178670858573 0 -0.0027471813604899951 0.0034945769782837189 0 -0.0025993390893108235 0.0032717669996025216 0 -0.0027498088058120198 0.0033517178670858573 0 -0.0027758197744537768 0.003140829231353749 0 -0.0020016468934568005 0.0033224040672475909 0 -0.0028583043606613709 0.0033445980005593428 0 -0.0013616257750798109 0.0033437210733521404 0 -0.0028583043606613709 0.0033445980005593428 0 -0.0019271135155261216 0.0035011391267528481 0 -0.0018434132326266516 0.0034924556536089393 0 -0.0019131808990422129 0.0035917170364119289 0 -0.0022467257558935454 0.0029667339948579348 0 -0.0023063602799353491 0.0032948936678900702 0 -0.0020661434016561774 0.0035760095880800757 0 -0.0023300789521558674 0.0031179079700714815 0 -0.0022467257558935454 0.0029667339948579348 0 -0.0023063602799353491 0.0032948936678900702 0 -0.0011879944143606493 0.0032995441697400668 0 -0.0012080227137676838 0.0032543364496424548 0 -0.001231114438125235 0.0032482934452447232 0 -0.0011879944143606493 0.0032995441697400668 0 -0.0012095486423564171 0.0032338850636981727 0 -0.0012080227137676838 0.0032543364496424548 0 -0.0015566444209149765 0.0034518105113079925 0 -0.0013616257750798109 0.0033437210733521404 0 -0.0018107080135914258 0.0034427618994821709 0 -0.0018434132326266516 0.0034924556536089393 0 -0.0018600568239092172 0.0034364438410970826 0 -0.0012592892119275734 0.0034223020679934684 0 -0.0011879944143606493 0.0032995441697400668 0 -0.0012961719963110819 0.0033251097792840103 0 -0.0013799070625430795 0.0034088686642496382 0 -0.0012592892119275734 0.0034223020679934684 0 -0.0012961719963110819 0.0033251097792840103 0 -0.0013509714150292712 0.0032402924333962083 0 -0.0012961719963110819 0.0033251097792840103 0 -0.0012095486423564171 0.0032338850636981727 0 -0.0011879944143606493 0.0032995441697400668 0 -0.0012961719963110819 0.0033251097792840103 0 -0.0012095486423564171 0.0032338850636981727 0 -0.0010898510756480436 0.0032842553068804024 0 -0.0010028861506157602 0.0032020114103097842 0 -0.0012095486423564171 0.0032338850636981727 0 -0.0011694200817918287 0.0032279698385676565 0 -0.0012054156328793455 0.0032297065301902191 0 -0.0011490814276015236 0.0032746812401331085 0 -0.0011976892992346946 0.003261638742585437 0 -0.0011565881692030264 0.0032841880178895709 0 -0.0012095486423564171 0.0032338850636981727 0 -0.0011490814276015236 0.0032746812401331085 0 -0.0011976892992346946 0.003261638742585437 0 -0.0010898510756480436 0.0032842553068804024 0 -0.0012095486423564171 0.0032338850636981727 0 -0.0011490814276015236 0.0032746812401331085 0 -0.0010898510756480436 0.0032842553068804024 0 -0.0011490814276015236 0.0032746812401331085 0 -0.0011002409196019052 0.0032886003337404598 0 -0.0012095486423564171 0.0032338850636981727 0 -0.0012080227137676838 0.0032543364496424548 0 -0.0011976892992346946 0.003261638742585437 0 -0.0011976892992346946 0.003261638742585437 0 -0.0012219914281094315 0.0032639600689209304 0 -0.0012174289570456474 0.0032846675553668391 0 -0.0012080227137676838 0.0032543364496424548 0 -0.0011976892992346946 0.003261638742585437 0 -0.0012219914281094315 0.0032639600689209304 0 -0.0011887313061357773 0.0032994636418139487 0 -0.0011728299468050794 0.0033375100637926076 0 -0.001276012506869756 0.0033343440302215999 0 -0.0012219914281094315 0.0032639600689209304 0 -0.0012174289570456474 0.0032846675553668391 0 -0.001276012506869756 0.0033343440302215999 0 -0.0011976892992346946 0.003261638742585437 0 -0.0011887313061357773 0.0032994636418139487 0 -0.0011565881692030264 0.0032841880178895709 0 -0.0011976892992346946 0.003261638742585437 0 -0.0012174289570456474 0.0032846675553668391 0 -0.0011887313061357773 0.0032994636418139487 0 -0.0011887313061357773 0.0032994636418139487 0 -0.0011474318478770552 0.0033031005610136065 0 -0.0011728299468050794 0.0033375100637926076 0 -0.0012174289570456474 0.0032846675553668391 0 -0.0011887313061357773 0.0032994636418139487 0 -0.001276012506869756 0.0033343440302215999 0 -0.0010688687048282257 0.0032959152701847578 0 -0.0010898510756480436 0.0032842553068804024 0 -0.0011002409196019052 0.0032886003337404598 0 -0.0011194814537380912 0.0032921074698730891 0 -0.0010873714613818476 0.0032947862207752632 0 -0.0011002409196019052 0.0032886003337404598 0 -0.0011194814537380912 0.0032921074698730891 0 -0.0010873714613818476 0.0032947862207752632 0 -0.0011004410615239816 0.0033126546047276295 0 -0.0010688687048282257 0.0032959152701847578 0 -0.0010873714613818476 0.0032947862207752632 0 -0.0011002409196019052 0.0032886003337404598 0 -0.0010688687048282257 0.0032959152701847578 0 -0.0010873714613818476 0.0032947862207752632 0 -0.0010651562813447145 0.0032987347623682243 0 -0.0011490814276015236 0.0032746812401331085 0 -0.0011194814537380912 0.0032921074698730891 0 -0.0011002409196019052 0.0032886003337404598 0 -0.0011490814276015236 0.0032746812401331085 0 -0.0011194814537380912 0.0032921074698730891 0 -0.0011565881692030264 0.0032841880178895709 0 -0.0011887313061357773 0.0032994636418139487 0 -0.0011565881692030264 0.0032841880178895709 0 -0.0011474318478770552 0.0033031005610136065 0 -0.0011194814537380912 0.0032921074698730891 0 -0.0011565881692030264 0.0032841880178895709 0 -0.0011474318478770552 0.0033031005610136065 0 -0.0011194814537380912 0.0032921074698730891 0 -0.0011474318478770552 0.0033031005610136065 0 -0.0011004410615239816 0.0033126546047276295 0 -0.0011474318478770552 0.0033031005610136065 0 -0.0011004410615239816 0.0033126546047276295 0 -0.0011728299468050794 0.0033375100637926076 0 -0.0010873714613818476 0.0032947862207752632 0 -0.0011004410615239816 0.0033126546047276295 0 -0.0010651562813447145 0.0032987347623682243 0 -0.0011004410615239816 0.0033126546047276295 0 -0.0010651562813447145 0.0032987347623682243 0 -0.0010574646303234446 0.0033369969481213384 0 -0.0010959327611993852 0.003382437601966431 0 -0.0012194884196100166 0.0034029640943089448 0 -0.0011342390207275549 0.0034603244246689722 0 -0.0010959327611993852 0.003382437601966431 0 -0.0011728299468050794 0.0033375100637926076 0 -0.0012194884196100166 0.0034029640943089448 0 -0.00099642478705082825 0.0033521202051655071 0 -0.0010574646303234446 0.0033369969481213384 0 -0.0010959327611993852 0.003382437601966431 0 -0.0011004410615239816 0.0033126546047276295 0 -0.0010574646303234446 0.0033369969481213384 0 -0.0010959327611993852 0.003382437601966431 0 -0.0010208904255158407 0.0034319004516063087 0 -0.00099642478705082825 0.0033521202051655071 0 -0.0010959327611993852 0.003382437601966431 0 -0.0010208904255158407 0.0034319004516063087 0 -0.0010959327611993852 0.003382437601966431 0 -0.0011342390207275549 0.0034603244246689722 0 -0.0011004410615239816 0.0033126546047276295 0 -0.0010959327611993852 0.003382437601966431 0 -0.0011728299468050794 0.0033375100637926076 0 -0.0034990316942990199 0.0029635652254075893 0 -0.0035382125630742715 0.0029518459262065037 0 -0.0011728299468050794 0.0033375100637926076 0 -0.0012194884196100166 0.0034029640943089448 0 -0.001276012506869756 0.0033343440302215999 0 -0.0012194884196100166 0.0034029640943089448 0 -0.0012826961087646085 0.0035440334493037351 0 -0.001276012506869756 0.0033343440302215999 0 -0.0012194884196100166 0.0034029640943089448 0 -0.0011993078368785438 0.0034878849875744212 0 -0.0011342390207275549 0.0034603244246689722 0 -0.0012194884196100166 0.0034029640943089448 0 -0.0011993078368785438 0.0034878849875744212 0 -0.0012826961087646085 0.0035440334493037351 0 -0.0011993078368785438 0.0034878849875744212 0 -0.0012826961087646085 0.0035440334493037351 0 -0.0011597668878630563 0.003550305510913696 0 -0.0011597668878630563 0.003550305510913696 0 -0.0010469001096402423 0.0035273164608732571 0 -0.0011342390207275549 0.0034603244246689722 0 -0.0011597668878630563 0.003550305510913696 0 -0.0010469001096402423 0.0035273164608732571 0 -0.0010752261189385639 0.0036414432584577906 0 -0.0010208904255158407 0.0034319004516063087 0 -0.0010469001096402423 0.0035273164608732571 0 -0.0011342390207275549 0.0034603244246689722 0 -0.0011993078368785438 0.0034878849875744212 0 -0.0011597668878630563 0.003550305510913696 0 -0.0011342390207275549 0.0034603244246689722 0 -0.0060011478366290508 0.0022800428437318924 0 -0.0059349097383999535 0.0022438141360632616 0 -0.0059792678823398096 0.0023402332048982027 0 -0.0060011478366290508 0.0022800428437318924 0 -0.0060506127722912894 0.0022649509473922952 0 -0.0060538637898781633 0.0023521758036815785 0 -0.0057545261514918688 0.0023854980276963342 0 -0.0056012260322645703 0.0024574113419771407 0 -0.0057879386058893945 0.002376369533308284 0 -0.0058885047750856095 0.0022312555694805375 0 -0.0057332593927748796 0.0024352683066230238 0 -0.0057545261514918688 0.0023854980276963342 0 -0.0056012260322645703 0.0024574113419771407 0 -0.0056521902849711019 0.0026677538393351822 0 -0.0056012260322645703 0.0024574113419771407 0 -0.0056521902849711019 0.0026677538393351822 0 -0.0053804565457014559 0.002709123941381569 0 -0.0058885047750856095 0.0022312555694805375 0 -0.0049885918968012215 0.0029213972650869494 0 -0.0060011478366290508 0.0022800428437318924 0 -0.005991845666632468 0.0021778107682178015 0 -0.0060506127722912894 0.0022649509473922952 0 -0.0060011478366290508 0.0022800428437318924 0 -0.0059349097383999535 0.0022438141360632616 0 -0.005991845666632468 0.0021778107682178015 0 -0.0049885918968012215 0.0029213972650869494 0 -0.0061626713147206131 0.0023338367125992098 0 -0.0025953546811832593 0.0043776576949195404 0 -0.0020661434016561774 0.0035760095880800757 0 -0.002491912480978643 0.0037783336766250308 0 -0.0049885918968012215 0.0029213972650869494 0 -0.0038040761140765893 0.0033217424643460476 0 -0.0025953546811832593 0.0043776576949195404 0 -0.002491912480978643 0.0037783336766250308 0 -0.0030970482552411015 0.0036231068857891921 0 -0.0056521902849711019 0.0026677538393351822 0 -0.0053804565457014559 0.002709123941381569 0 -0.005541140237658948 0.0030312295409336901 0 -0.0012219914281094315 0.0032639600689209304 0 -0.001276012506869756 0.0033343440302215999 0 -0.001231114438125235 0.0032482934452447232 0 -0.0049885918968012215 0.0029213972650869494 0 -0.0028583043606613709 0.0033445980005593428 0 -0.0035382125630742715 0.0029518459262065037 0 -0.0028583043606613709 0.0033445980005593428 0 -0.0023664252167787492 0.0034061188392984737 0 -0.0023063602799353491 0.0032948936678900702 0 -0.0022226563544712947 0.0035351946611943824 0 -0.0022226563544712947 0.0035351946611943824 0 -0.0020661434016561774 0.0035760095880800757 0 -0.002491912480978643 0.0037783336766250308 0 -0.0023063602799353491 0.0032948936678900702 0 -0.0022226563544712947 0.0035351946611943824 0 -0.0020661434016561774 0.0035760095880800757 0 -0.0012080227137676838 0.0032543364496424548 0 -0.0012219914281094315 0.0032639600689209304 0 -0.001231114438125235 0.0032482934452447232 0 -0.0022226563544712947 0.0035351946611943824 0 -0.002491912480978643 0.0037783336766250308 0 -0.0030970482552411015 0.0036231068857891921 0 -0.0022226563544712947 0.0035351946611943824 0 -0.002528997396913537 0.0034867336790939838 0 -0.0029426576184272937 0.0037085654971262677 0 -0.0019626133394968852 0.0035984367759664894 0 -0.0038040761140765893 0.0033217424643460476 0 -0.0023664252167787492 0.0034061188392984737 0 -0.0022226563544712947 0.0035351946611943824 0 -0.002528997396913537 0.0034867336790939838 0 -0.002528997396913537 0.0034867336790939838 0 -0.0027471813604899951 0.0034945769782837189 0 -0.0029426576184272937 0.0037085654971262677 0 -0.0026105273586337955 0.0033897722111179366 0 -0.002528997396913537 0.0034867336790939838 0 -0.0027471813604899951 0.0034945769782837189 0 -0.0027471813604899951 0.0034945769782837189 0 -0.0029426576184272937 0.0037085654971262677 0 -0.0029466603551096117 0.0034155379083967256 0 -0.003165913549183066 0.0035232892624760493 0 -0.0032337444647481542 0.0034823602477224605 0 -0.0033789427871515382 0.0031373970563313815 0 -0.0032337444647481542 0.0034823602477224605 0 -0.0032758593707335679 0.0035480299829042886 0 -0.0034401090181355445 0.0033599938094106296 0 -0.003165913549183066 0.0035232892624760493 0 -0.0032337444647481542 0.0034823602477224605 0 -0.0032788561511681493 0.0035337717825831626 0 -0.0046315766401561339 0.0030703735508433665 0 -0.0048842370943112529 0.0031685543096611158 0 -0.0038040761140765893 0.0033217424643460476 0 -0.0048842370943112529 0.0031685543096611158 0 -0.0060529914775900723 0.0026504740392704943 0 -0.0060348815398164526 0.0026465203954634717 0 -0.0060512903561845107 0.0025993884264671327 0 -0.0048842370943112529 0.0031685543096611158 0 -0.0050028358436509665 0.0032385160982414149 0 -0.0034401090181355445 0.0033599938094106296 0 -0.0040591965411584472 0.0035852207469255874 0 -0.0038552649577172243 0.0032747915961893847 0 -0.0032758593707335679 0.0035480299829042886 0 -0.0034401090181355445 0.0033599938094106296 0 -0.0040591965411584472 0.0035852207469255874 0 -0.0061559193482203902 0.0029015711221902296 0 -0.0061058232431977326 0.0028065870610577402 0 -0.00603594938077473 0.0028920012921777446 0 -0.0048842370943112529 0.0031685543096611158 0 -0.0062074456411291478 0.0026834494320003314 0 -0.0060348815398164526 0.0026465203954634717 0 -0.0059947170390715352 0.0025636652430937696 0 -0.0060512903561845107 0.0025993884264671327 0 -0.0061186773151280602 0.0025609201465774489 0 -0.0060529914775900723 0.0026504740392704943 0 -0.0060512903561845107 0.0025993884264671327 0 -0.0061186773151280602 0.0025609201465774489 0 -0.0060512903561845107 0.0025993884264671327 0 -0.0060542851670140367 0.0025417233401176355 0 -0.0059947170390715352 0.0025636652430937696 0 -0.0060512903561845107 0.0025993884264671327 0 -0.0060542851670140367 0.0025417233401176355 0 -0.0060542851670140367 0.0025417233401176355 0 -0.0060216928391248863 0.0024824241649987967 0 -0.0060911074964126854 0.0024767926914289785 0 -0.0061186773151280602 0.0025609201465774489 0 -0.0060542851670140367 0.0025417233401176355 0 -0.0060911074964126854 0.0024767926914289785 0 -0.0059947170390715352 0.0025636652430937696 0 -0.0060542851670140367 0.0025417233401176355 0 -0.0060216928391248863 0.0024824241649987967 0 -0.0059947170390715352 0.0025636652430937696 0 -0.0060216928391248863 0.0024824241649987967 0 -0.0059521034078993855 0.0024824302814838049 0 -0.0060216928391248863 0.0024824241649987967 0 -0.0059986519363377233 0.0024287063771530749 0 -0.0060587613984722771 0.0023716850839038059 0 -0.0060216928391248863 0.0024824241649987967 0 -0.0059986519363377233 0.0024287063771530749 0 -0.0059521034078993855 0.0024824302814838049 0 -0.0060216928391248863 0.0024824241649987967 0 -0.0060911074964126854 0.0024767926914289785 0 -0.0060587613984722771 0.0023716850839038059 0 -0.0061626713147206131 0.0023338367125992098 0 -0.0060406124333957801 0.0023684854879553489 0 -0.0059703257824686197 0.002561948933024302 0 -0.0059310004100989293 0.0024706987120693669 0 -0.0059270423007954914 0.0026428208674387482 0 -0.0060438189758418928 0.0026642426172515522 0 -0.0059206057565191423 0.0024588265101930548 0 -0.0059521034078993855 0.0024824302814838049 0 -0.00595964991751747 0.0024313440912407426 0 -0.0059206057565191423 0.0024588265101930548 0 -0.0059270423007954914 0.0026428208674387482 0 -0.0058398936267854062 0.0025869685325400414 0 -0.0059206057565191423 0.0024588265101930548 0 -0.0059986519363377233 0.0024287063771530749 0 -0.0059521034078993855 0.0024824302814838049 0 -0.00595964991751747 0.0024313440912407426 0 -0.0061058232431977326 0.0028065870610577402 0 -0.0060438189758418928 0.0026642426172515522 0 -0.005975757853630745 0.0027858227724739879 0 -0.0062074456411291478 0.0026834494320003314 0 -0.0059703257824686197 0.002561948933024302 0 -0.0059270423007954914 0.0026428208674387482 0 -0.0060438189758418928 0.0026642426172515522 0 -0.005975757853630745 0.0027858227724739879 0 -0.0059270423007954914 0.0026428208674387482 0 -0.005975757853630745 0.0027858227724739879 0 -0.0058502671889506357 0.0027215265899620932 0 -0.005975757853630745 0.0027858227724739879 0 -0.0058657924187678085 0.0028984772919516955 0 -0.0058502671889506357 0.0027215265899620932 0 -0.005975757853630745 0.0027858227724739879 0 -0.00603594938077473 0.0028920012921777446 0 -0.0058657924187678085 0.0028984772919516955 0 -0.0061058232431977326 0.0028065870610577402 0 -0.005975757853630745 0.0027858227724739879 0 -0.00603594938077473 0.0028920012921777446 0 -0.0040591965411584472 0.0035852207469255874 0 -0.0043089696657583809 0.0032515663782702168 0 -0.0038552649577172243 0.0032747915961893847 0 -0.0040591965411584472 0.0035852207469255874 0 -0.0043089696657583809 0.0032515663782702168 0 -0.0047723057728433641 0.0034741786068714438 0 -0.0043089696657583809 0.0032515663782702168 0 -0.004711143434897422 0.0030995595008931538 0 -0.0047723057728433641 0.0034741786068714438 0 -0.0050028358436509665 0.0032385160982414149 0 -0.0053132309366794783 0.0031850705411228522 0 -0.0043734138819314025 0.0029481102146204359 0 -0.0046705162073092128 0.0030885299913698122 0 -0.0043089696657583809 0.0032515663782702168 0 -0.00417170678734203 0.0029051655987852444 0 -0.004711143434897422 0.0030995595008931538 0 -0.0045990058377155313 0.0029492198398975507 0 -0.0044826181441056856 0.0029958240283863898 0 -0.004711143434897422 0.0030995595008931538 0 -0.0045990058377155313 0.0029492198398975507 0 -0.004559818896516756 0.0028773933140813675 0 -0.0047101393450517757 0.0028402245559623852 0 -0.0045990058377155313 0.0029492198398975507 0 -0.004559818896516756 0.0028773933140813675 0 -0.0044826181441056856 0.0029958240283863898 0 -0.0046137411290408763 0.0028760086356028965 0 -0.0049767632730557503 0.0031702628693914552 0 -0.004559818896516756 0.0028773933140813675 0 -0.0044826181441056856 0.0029958240283863898 0 -0.0044257442578359372 0.0028553285896044099 0 -0.00417170678734203 0.0029051655987852444 0 -0.0037874303598345802 0.0028964249660787139 0 -0.0035730099184698868 0.0026957098350275681 0 -0.0044826181441056856 0.0029958240283863898 0 -0.0043006363885583505 0.0029285053966500983 0 -0.0044257442578359372 0.0028553285896044099 0 -0.0043734138819314025 0.0029481102146204359 0 -0.0036946770111265358 0.0029887610364042489 0 -0.0040018793412215864 0.0030702502923582254 0 -0.00417170678734203 0.0029051655987852444 0 -0.0037874303598345802 0.0028964249660787139 0 -0.0043089696657583809 0.0032515663782702168 0 -0.0040018793412215864 0.0030702502923582254 0 -0.0038552649577172243 0.0032747915961893847 0 -0.0040018793412215864 0.0030702502923582254 0 -0.0038552649577172243 0.0032747915961893847 0 -0.0037874303598345802 0.0028964249660787139 0 -0.0043089696657583809 0.0032515663782702168 0 -0.0040018793412215864 0.0030702502923582254 0 -0.00417170678734203 0.0029051655987852444 0 -0.0034401090181355445 0.0033599938094106296 0 -0.0038552649577172243 0.0032747915961893847 0 -0.0033789427871515382 0.0031373970563313815 0 -0.0038552649577172243 0.0032747915961893847 0 -0.0033789427871515382 0.0031373970563313815 0 -0.0037874303598345802 0.0028964249660787139 0 -0.0029426576184272937 0.0037085654971262677 0 -0.0033789427871515382 0.0031373970563313815 0 -0.0029466603551096117 0.0034155379083967256 0 -0.0038040761140765893 0.0033217424643460476 0 -0.0031860148009218341 0.0033534642040619288 0 -0.0027498088058120198 0.0033517178670858573 0 -0.0029746082337725574 0.0032309119929765429 0 -0.0027758197744537768 0.003140829231353749 0 -0.0027498088058120198 0.0033517178670858573 0 -0.0027471813604899951 0.0034945769782837189 0 -0.0029466603551096117 0.0034155379083967256 0 -0.0027498088058120198 0.0033517178670858573 0 -0.0029466603551096117 0.0034155379083967256 0 -0.0029746082337725574 0.0032309119929765429 0 -0.0032337444647481542 0.0034823602477224605 0 -0.0034401090181355445 0.0033599938094106296 0 -0.0033789427871515382 0.0031373970563313815 0 -0.0033789427871515382 0.0031373970563313815 0 -0.0029466603551096117 0.0034155379083967256 0 -0.0029746082337725574 0.0032309119929765429 0 -0.0033789427871515382 0.0031373970563313815 0 -0.0029746082337725574 0.0032309119929765429 0 -0.0030750407551339053 0.0029524493670982032 0 -0.0027406146444681114 0.0029141592276783639 0 -0.0027758197744537768 0.003140829231353749 0 -0.0030750407551339053 0.0029524493670982032 0 -0.0029746082337725574 0.0032309119929765429 0 -0.0027758197744537768 0.003140829231353749 0 -0.0030750407551339053 0.0029524493670982032 0 -0.0027406146444681114 0.0029141592276783639 0 -0.0030750407551339053 0.0029524493670982032 0 -0.0030257426804778257 0.0025205094519708802 0 -0.0030750407551339053 0.0029524493670982032 0 -0.0030257426804778257 0.0025205094519708802 0 -0.0035472926373560838 0.0026901906721232822 0 -0.0030196825511019775 0.0033661965649167268 0 -0.0033579802585778991 0.0034967974497312681 0 -0.0031515442948740627 0.0032996822076661941 0 -0.0030088648226648199 0.0029354796240933369 0 -0.0036946770111265358 0.0029887610364042489 0 -0.0025540522481645213 0.0027219596905057957 0 -0.0027406146444681114 0.0029141592276783639 0 -0.0030257426804778257 0.0025205094519708802 0 -0.0043006363885583505 0.0029285053966500983 0 -0.0042180331518449233 0.0028502348437073177 0 -0.0044257442578359372 0.0028553285896044099 0 -0.0036726704741235185 0.0028509453803026979 0 -0.0036946770111265358 0.0029887610364042489 0 -0.0033789427871515382 0.0031373970563313815 0 -0.0037874303598345802 0.0028964249660787139 0 -0.0035472926373560838 0.0026901906721232822 0 -0.0033789427871515382 0.0031373970563313815 0 -0.0030750407551339053 0.0029524493670982032 0 -0.0035472926373560838 0.0026901906721232822 0 -0.0036946770111265358 0.0029887610364042489 0 -0.0037343142906371245 0.0033021278332299236 0 -0.0042180331518449233 0.0028502348437073177 0 -0.0043979980596050693 0.0026813085903062972 0 -0.0044257442578359372 0.0028553285896044099 0 -0.0037343142906371245 0.0033021278332299236 0 -0.0041217507164830469 0.0038238860637488008 0 -0.0035789461435645205 0.004036819388851331 0 -0.0035853591163358999 0.0041200371027415514 0 -0.0035033040440819582 0.0041127014508551369 0 -0.003624091520775999 0.0041022313151502674 0 -0.0035789461435645205 0.004036819388851331 0 -0.0035853591163358999 0.0041200371027415514 0 -0.0023991428441521947 0.0036190681556002319 0 -0.0037343142906371245 0.0033021278332299236 0 -0.0027961934145585491 0.002954268032356286 0 -0.0030196825511019775 0.0033661965649167268 0 -0.0031515442948740627 0.0032996822076661941 0 -0.003178842591624547 0.0039681132490400218 0 -0.0023991428441521947 0.0036190681556002319 0 -0.0035916022957015975 0.0041650890602032749 0 -0.003624091520775999 0.0041022313151502674 0 -0.0035853591163358999 0.0041200371027415514 0 -0.00340783243054869 0.0041656847963327977 0 -0.0041217507164830469 0.0038238860637488008 0 -0.0035757240032339159 0.0041655673733497628 0 -0.0035853591163358999 0.0041200371027415514 0 -0.0035033040440819582 0.0041127014508551369 0 -0.0035488587657341265 0.0041968862810673052 0 -0.0035757240032339159 0.0041655673733497628 0 -0.0035473359888791153 0.0041677596838683587 0 -0.0041217507164830469 0.0038238860637488008 0 -0.0049052618043719503 0.0034591116167507941 0 -0.0051121134569457717 0.003930387718259167 0 -0.0049682475826225503 0.0040520757421521614 0 -0.0050945101038138551 0.0041151910807129162 0 -0.0051121134569457717 0.003930387718259167 0 -0.0050945101038138551 0.0041151910807129162 0 -0.0052045652742579761 0.0040443908568325668 0 -0.0049052618043719503 0.0034591116167507941 0 -0.0049767632730557503 0.0031702628693914552 0 -0.004559818896516756 0.0028773933140813675 0 -0.0045600403722692038 0.0027599080327039721 0 -0.0047101393450517757 0.0028402245559623852 0 -0.004559818896516756 0.0028773933140813675 0 -0.0045600403722692038 0.0027599080327039721 0 -0.0044257442578359372 0.0028553285896044099 0 -0.0043979980596050693 0.0026813085903062972 0 -0.0045600403722692038 0.0027599080327039721 0 -0.0044257442578359372 0.0028553285896044099 0 -0.0052733837835153684 0.0030447513806487921 0 -0.0052700299481860712 0.0030524341491370188 0 -0.0052692901213224445 0.0030388981797818825 0 -0.0049767632730557503 0.0031702628693914552 0 -0.0053302022932252254 0.0035852480675631244 0 -0.0052700299481860712 0.0030524341491370188 0 -0.0052632271365729046 0.0030423788234427963 0 -0.0052692901213224445 0.0030388981797818825 0 -0.0050945101038138551 0.0041151910807129162 0 -0.0052135772545809098 0.0041726613457397071 0 -0.0052045652742579761 0.0040443908568325668 0 -0.0052135772545809098 0.0041726613457397071 0 -0.0052045652742579761 0.0040443908568325668 0 -0.0053393128261113179 0.0040562364872299764 0 -0.0052578167769305635 0.0039448141752048633 0 -0.0052045652742579761 0.0040443908568325668 0 -0.0053393128261113179 0.0040562364872299764 0 -0.005407105671575616 0.0036866962171414057 0 -0.0053302022932252254 0.0035852480675631244 0 -0.0052700908470090044 0.0030554915993654167 0 -0.0052700299481860712 0.0030524341491370188 0 -0.0052688713869087295 0.0030492926310619049 0 -0.0052700908470090044 0.0030554915993654167 0 -0.0052688713869087295 0.0030492926310619049 0 -0.0052759299463307138 0.0030498825703637496 0 -0.0052688713869087295 0.0030492926310619049 0 -0.0052761439600666985 0.0030495399171784625 0 -0.0052759299463307138 0.0030498825703637496 0 -0.0052688713869087295 0.0030492926310619049 0 -0.0052761439600666985 0.0030495399171784625 0 -0.0052632271365729046 0.0030423788234427963 0 -0.0052700299481860712 0.0030524341491370188 0 -0.0052688713869087295 0.0030492926310619049 0 -0.0052632271365729046 0.0030423788234427963 0 -0.0052446210397510068 0.0030187971307998212 0 -0.0051476001161008004 0.0029415827734427039 0 -0.0052632271365729046 0.0030423788234427963 0 -0.0052489581481170167 0.0030256364499227752 0 -0.0052692901213224445 0.0030388981797818825 0 -0.0052632271365729046 0.0030423788234427963 0 -0.0052820316282597242 0.0030454990917437369 0 -0.0052489581481170167 0.0030256364499227752 0 -0.0052761439600666985 0.0030495399171784625 0 -0.0052632271365729046 0.0030423788234427963 0 -0.0052820316282597242 0.0030454990917437369 0 -0.0052820316282597242 0.0030454990917437369 0 -0.0052489581481170167 0.0030256364499227752 0 -0.0052962224847146145 0.0031171982710852578 0 -0.0052820316282597242 0.0030454990917437369 0 -0.0052962224847146145 0.0031171982710852578 0 -0.0053028169799411119 0.0030729153639739459 0 -0.0052489581481170167 0.0030256364499227752 0 -0.005051961679236756 0.0031237407606156176 0 -0.0052962224847146145 0.0031171982710852578 0 -0.0052489581481170167 0.0030256364499227752 0 -0.005051961679236756 0.0031237407606156176 0 -0.0050466778625465076 0.0028752757172286225 0 -0.005051961679236756 0.0031237407606156176 0 -0.0050466778625465076 0.0028752757172286225 0 -0.0048391344448671225 0.0029559464955708123 0 -0.0049767632730557503 0.0031702628693914552 0 -0.0051476001161008004 0.0029415827734427039 0 -0.0045990058377155313 0.0029492198398975507 0 -0.0048012434760628568 0.0027370253476875204 0 -0.0048391344448671225 0.0029559464955708123 0 -0.0048012434760628568 0.0027370253476875204 0 -0.0050466778625465076 0.0028752757172286225 0 -0.0048391344448671225 0.0029559464955708123 0 -0.0045990058377155313 0.0029492198398975507 0 -0.0048391344448671225 0.0029559464955708123 0 -0.004711143434897422 0.0030995595008931538 0 -0.005051961679236756 0.0031237407606156176 0 -0.0048391344448671225 0.0029559464955708123 0 -0.004711143434897422 0.0030995595008931538 0 -0.005051961679236756 0.0031237407606156176 0 -0.004711143434897422 0.0030995595008931538 0 -0.0047723057728433641 0.0034741786068714438 0 -0.005051961679236756 0.0031237407606156176 0 -0.0047723057728433641 0.0034741786068714438 0 -0.0051757371417256335 0.0032962923853986372 0 -0.0057783561343822103 0.0028290346943686496 0 -0.0055794133166279566 0.0028073310194407478 0 -0.0056643020896379025 0.0029277969908701523 0 -0.0057783561343822103 0.0028290346943686496 0 -0.0058657924187678085 0.0028984772919516955 0 -0.0056643020896379025 0.0029277969908701523 0 -0.0053132309366794783 0.0031850705411228522 0 -0.0053989783452807263 0.0031074861748059466 0 -0.0057783561343822103 0.0028290346943686496 0 -0.0058657924187678085 0.0028984772919516955 0 -0.0058502671889506357 0.0027215265899620932 0 -0.0057783561343822103 0.0028290346943686496 0 -0.0057249925469410297 0.0026428819156381483 0 -0.0055794133166279566 0.0028073310194407478 0 -0.0057783561343822103 0.0028290346943686496 0 -0.0058502671889506357 0.0027215265899620932 0 -0.0057249925469410297 0.0026428819156381483 0 -0.0057249925469410297 0.0026428819156381483 0 -0.0058398936267854062 0.0025869685325400414 0 -0.0057761442086131515 0.0024717221772179491 0 -0.0057249925469410297 0.0026428819156381483 0 -0.0056328786579603173 0.0024677909760391155 0 -0.0057761442086131515 0.0024717221772179491 0 -0.0058502671889506357 0.0027215265899620932 0 -0.0057249925469410297 0.0026428819156381483 0 -0.0058398936267854062 0.0025869685325400414 0 -0.0058398936267854062 0.0025869685325400414 0 -0.0057761442086131515 0.0024717221772179491 0 -0.0059206057565191423 0.0024588265101930548 0 -0.0059270423007954914 0.0026428208674387482 0 -0.0058502671889506357 0.0027215265899620932 0 -0.0058398936267854062 0.0025869685325400414 0 -0.005450464788865828 0.002662307140578708 0 -0.0053376577290064923 0.0027250707721543361 0 -0.005451324687256294 0.0025191072922931797 0 -0.0055538008627911365 0.0026492011096645508 0 -0.0056328786579603173 0.0024677909760391155 0 -0.005451324687256294 0.0025191072922931797 0 -0.005450464788865828 0.002662307140578708 0 -0.0055538008627911365 0.0026492011096645508 0 -0.0054567708735430943 0.0027555775200549097 0 -0.005450464788865828 0.002662307140578708 0 -0.0055538008627911365 0.0026492011096645508 0 -0.005451324687256294 0.0025191072922931797 0 -0.0057249925469410297 0.0026428819156381483 0 -0.0055538008627911365 0.0026492011096645508 0 -0.0056328786579603173 0.0024677909760391155 0 -0.0057249925469410297 0.0026428819156381483 0 -0.0055538008627911365 0.0026492011096645508 0 -0.0055794133166279566 0.0028073310194407478 0 -0.0055794133166279566 0.0028073310194407478 0 -0.0054567708735430943 0.0027555775200549097 0 -0.005400591809613952 0.0028571364600395379 0 -0.0055538008627911365 0.0026492011096645508 0 -0.0055794133166279566 0.0028073310194407478 0 -0.0054567708735430943 0.0027555775200549097 0 -0.005450464788865828 0.002662307140578708 0 -0.0054567708735430943 0.0027555775200549097 0 -0.0053376577290064923 0.0027250707721543361 0 -0.0054567708735430943 0.0027555775200549097 0 -0.005400591809613952 0.0028571364600395379 0 -0.0053376577290064923 0.0027250707721543361 0 -0.005369393803829817 0.0030180584597606698 0 -0.0051757371417256335 0.0032962923853986372 0 -0.0052962224847146145 0.0031171982710852578 0 -0.0055794133166279566 0.0028073310194407478 0 -0.005400591809613952 0.0028571364600395379 0 -0.005369393803829817 0.0030180584597606698 0 -0.0053525988739820309 0.0030301179227255389 0 -0.0053989783452807263 0.0031074861748059466 0 -0.0055794133166279566 0.0028073310194407478 0 -0.005369393803829817 0.0030180584597606698 0 -0.0056643020896379025 0.0029277969908701523 0 -0.005051961679236756 0.0031237407606156176 0 -0.0051757371417256335 0.0032962923853986372 0 -0.0052962224847146145 0.0031171982710852578 0 -0.005369393803829817 0.0030180584597606698 0 -0.0052962224847146145 0.0031171982710852578 0 -0.0053201059268664875 0.0030622116958772742 0 -0.0052962224847146145 0.0031171982710852578 0 -0.0053201059268664875 0.0030622116958772742 0 -0.0053028169799411119 0.0030729153639739459 0 -0.005289706187194515 0.0030703609875317116 0 -0.0053201059268664875 0.0030622116958772742 0 -0.0053028169799411119 0.0030729153639739459 0 -0.005289706187194515 0.0030703609875317116 0 -0.0053026759573417161 0.0030342941944493038 0 -0.0053201059268664875 0.0030622116958772742 0 -0.0053026759573417161 0.0030342941944493038 0 -0.0053201059268664875 0.0030622116958772742 0 -0.0053283298015079587 0.0030158860854018164 0 -0.005289706187194515 0.0030703609875317116 0 -0.0052633065279475404 0.003067459873257451 0 -0.0052769068751806749 0.0030673470428432704 0 -0.005289706187194515 0.0030703609875317116 0 -0.0053026759573417161 0.0030342941944493038 0 -0.0052633065279475404 0.003067459873257451 0 -0.0051990933292130155 0.003015028759304423 0 -0.0051849030207299631 0.0029051830428081741 0 -0.0053096366345336907 0.0029197450720161761 0 -0.0051990933292130155 0.003015028759304423 0 -0.0051849030207299631 0.0029051830428081741 0 -0.0051159552292561342 0.0029320679578358978 0 -0.0052327105635372349 0.0030367847779949469 0 -0.0053109369795507509 0.0029254346484223234 0 -0.0053026759573417161 0.0030342941944493038 0 -0.0052633065279475404 0.003067459873257451 0 -0.0053096366345336907 0.0029197450720161761 0 -0.0053026759573417161 0.0030342941944493038 0 -0.0053283298015079587 0.0030158860854018164 0 -0.0053096366345336907 0.0029197450720161761 0 -0.005369393803829817 0.0030180584597606698 0 -0.0053201059268664875 0.0030622116958772742 0 -0.0053283298015079587 0.0030158860854018164 0 -0.005400591809613952 0.0028571364600395379 0 -0.005369393803829817 0.0030180584597606698 0 -0.0053096366345336907 0.0029197450720161761 0 -0.005369393803829817 0.0030180584597606698 0 -0.0053283298015079587 0.0030158860854018164 0 -0.0053096366345336907 0.0029197450720161761 0 -0.0053096366345336907 0.0029197450720161761 0 -0.0053376577290064923 0.0027250707721543361 0 -0.0052058907564747669 0.0027997029365904808 0 -0.005400591809613952 0.0028571364600395379 0 -0.0053096366345336907 0.0029197450720161761 0 -0.0053376577290064923 0.0027250707721543361 0 -0.0051849030207299631 0.0029051830428081741 0 -0.0053096366345336907 0.0029197450720161761 0 -0.0052058907564747669 0.0027997029365904808 0 -0.0051849030207299631 0.0029051830428081741 0 -0.0052058907564747669 0.0027997029365904808 0 -0.0050657744174149181 0.0028391493642317685 0 -0.0052058907564747669 0.0027997029365904808 0 -0.0051596118095318865 0.0026000602455073128 0 -0.0050657744174149181 0.0028391493642317685 0 -0.0053376577290064923 0.0027250707721543361 0 -0.0052058907564747669 0.0027997029365904808 0 -0.0051596118095318865 0.0026000602455073128 0 -0.0053376577290064923 0.0027250707721543361 0 -0.0051596118095318865 0.0026000602455073128 0 -0.005451324687256294 0.0025191072922931797 0 -0.005129563974136467 0.0025422086319522425 0 -0.0049999804563465736 0.0027046488012971532 0 -0.0049999809102794701 0.0024288746697027001 0 -0.005230690808374963 0.0025472385120076635 0 -0.0051147394739311557 0.0027869711278607928 0 -0.005293928150412042 0.0024959297709913021 0 -0.005129563974136467 0.0025422086319522425 0 -0.0051669251608817612 0.0027407376169537416 0 -0.005129563974136467 0.0025422086319522425 0 -0.0051669251608817612 0.0027407376169537416 0 -0.0049999804563465736 0.0027046488012971532 0 -0.0050657744174149181 0.0028391493642317685 0 -0.0051159552292561342 0.0029320679578358978 0 -0.0049999610166974332 0.0029805507573129933 0 -0.0051159552292561342 0.0029320679578358978 0 -0.0051309428248207849 0.0030119650610214883 0 -0.0049999610166974332 0.0029805507573129933 0 -0.0051669251608817612 0.0027407376169537416 0 -0.0049999804563465736 0.0027046488012971532 0 -0.0050000061722208899 0.0029804604054113086 0 -0.0051147394739311557 0.0027869711278607928 0 -0.0050000187941749898 0.0029804266261935436 0 -0.0051849030207299631 0.0029051830428081741 0 -0.0050657744174149181 0.0028391493642317685 0 -0.0051159552292561342 0.0029320679578358978 0 -0.0051990933292130155 0.003015028759304423 0 -0.0051309428248207849 0.0030119650610214883 0 -0.0051116462386275466 0.0031143737267143269 0 -0.0051307697218106558 0.0030285561289584459 0 -0.0050838283295255903 0.0031585257139728606 0 -0.0051990933292130155 0.003015028759304423 0 -0.0051159552292561342 0.0029320679578358978 0 -0.0051309428248207849 0.0030119650610214883 0 -0.0051309428248207849 0.0030119650610214883 0 -0.0049999610166974332 0.0029805507573129933 0 -0.005053623245893521 0.0030829936650988974 0 -0.0049999610166974332 0.0029805507573129933 0 -0.005053623245893521 0.0030829936650988974 0 -0.0049999746835072004 0.0031984947609509915 0 -0.0051309428248207849 0.0030119650610214883 0 -0.005053623245893521 0.0030829936650988974 0 -0.0050989720565531461 0.0032062436730878846 0 -0.005053623245893521 0.0030829936650988974 0 -0.0049999746835072004 0.0031984947609509915 0 -0.0050989720565531461 0.0032062436730878846 0 -0.0049999746835072004 0.0031984947609509915 0 -0.0050989720565531461 0.0032062436730878846 0 -0.0050000107155981025 0.003424710409381851 0 -0.0051308933024535883 0.0031873961778912559 0 -0.0052043002676602735 0.0030851922916920456 0 -0.0050747803574318498 0.0031104794435642255 0 -0.0050591550572450274 0.003174439599043791 0 -0.0051116462386275466 0.0031143737267143269 0 -0.0050747803574318498 0.0031104794435642255 0 -0.0050591550572450274 0.003174439599043791 0 -0.0050128243727421131 0.0032246324931152061 0 -0.0050838283295255903 0.0031585257139728606 0 -0.0050021846779272506 0.00332027936445116 0 -0.005076607793627487 0.0033523576495478359 0 -0.0049999849868474508 0.0034247758357134721 0 -0.0051227669841688505 0.0035520619006542483 0 -0.0051308933024535883 0.0031873961778912559 0 -0.0050021846779272506 0.00332027936445116 0 -0.0052885423151571662 0.0030637156352187785 0 -0.0052842915266266529 0.0030623824682922433 0 -0.0052852110738637759 0.0030572130073465661 0 -0.0052885423151571662 0.0030637156352187785 0 -0.0052842915266266529 0.0030623824682922433 0 -0.0052866926426936387 0.0030662628923559332 0 -0.0051308933024535883 0.0031873961778912559 0 -0.0052943052838586155 0.0033115882324673152 0 -0.0052327105635372349 0.0030367847779949469 0 -0.0052043002676602735 0.0030851922916920456 0 -0.0052842915266266529 0.0030623824682922433 0 -0.0052818535490401627 0.0030649809183393153 0 -0.0052866926426936387 0.0030662628923559332 0 -0.0052818535490401627 0.0030649809183393153 0 -0.0052866926426936387 0.0030662628923559332 0 -0.0052769068751806749 0.0030673470428432704 0 -0.0052633065279475404 0.003067459873257451 0 -0.0052866926426936387 0.0030662628923559332 0 -0.0052769068751806749 0.0030673470428432704 0 -0.0051309428248207849 0.0030119650610214883 0 -0.0050747803574318498 0.0031104794435642255 0 -0.0051116462386275466 0.0031143737267143269 0 -0.005289706187194515 0.0030703609875317116 0 -0.0052769068751806749 0.0030673470428432704 0 -0.0052830750757046751 0.0030647064804055352 0 -0.0052818535490401627 0.0030649809183393153 0 -0.0052769068751806749 0.0030673470428432704 0 -0.0052830750757046751 0.0030647064804055352 0 -0.0052842915266266529 0.0030623824682922433 0 -0.0052818535490401627 0.0030649809183393153 0 -0.0052830750757046751 0.0030647064804055352 0 -0.005289706187194515 0.0030703609875317116 0 -0.0053028169799411119 0.0030729153639739459 0 -0.0052886777451327544 0.0030599440487447914 0 -0.005289706187194515 0.0030703609875317116 0 -0.0052830750757046751 0.0030647064804055352 0 -0.0052886777451327544 0.0030599440487447914 0 -0.0052820316282597242 0.0030454990917437369 0 -0.0053028169799411119 0.0030729153639739459 0 -0.0052886777451327544 0.0030599440487447914 0 -0.0052761439600666985 0.0030495399171784625 0 -0.0052886777451327544 0.0030599440487447914 0 -0.0052831658872027586 0.0030572437020813174 0 -0.0052761439600666985 0.0030495399171784625 0 -0.0052820316282597242 0.0030454990917437369 0 -0.0052886777451327544 0.0030599440487447914 0 -0.0052842915266266529 0.0030623824682922433 0 -0.0052830750757046751 0.0030647064804055352 0 -0.0052831658872027586 0.0030572437020813174 0 -0.0052842915266266529 0.0030623824682922433 0 -0.0052831658872027586 0.0030572437020813174 0 -0.0052852110738637759 0.0030572130073465661 0 -0.0052830750757046751 0.0030647064804055352 0 -0.0052886777451327544 0.0030599440487447914 0 -0.0052831658872027586 0.0030572437020813174 0 -0.0052943052838586155 0.0033115882324673152 0 -0.0053434486880362059 0.0033500196237084045 0 -0.0052831658872027586 0.0030572437020813174 0 -0.0052852110738637759 0.0030572130073465661 0 -0.0052759299463307138 0.0030498825703637496 0 -0.0052761439600666985 0.0030495399171784625 0 -0.0052831658872027586 0.0030572437020813174 0 -0.0052759299463307138 0.0030498825703637496 0 -0.0052188904182516654 0.003808742247544327 0 -0.0052791502144006967 0.0035434356553344531 0 -0.0054451516629499281 0.0037310887606730944 0 -0.0052188904182516654 0.003808742247544327 0 -0.0052791502144006967 0.0035434356553344531 0 -0.0051227669841688505 0.0035520619006542483 0 -0.0052188904182516654 0.003808742247544327 0 -0.0049999842180449379 0.0037056080614086091 0 -0.0051227669841688505 0.0035520619006542483 0 -0.0049999849868474508 0.0034247758357134721 0 -0.0049999842180449379 0.0037056080614086091 0 -0.0051227669841688505 0.0035520619006542483 0 -0.005076607793627487 0.0033523576495478359 0 -0.0052791502144006967 0.0035434356553344531 0 -0.0051227669841688505 0.0035520619006542483 0 -0.0051490694434440532 0.001470691055343986 0 -0.0052943940500268715 0.0014116757631895153 0 -0.0053140412266729203 0.0016059132756467015 0 -0.0051490694434440532 0.001470691055343986 0 -0.0049999781061620023 0.0013257570739120446 0 -0.0049999753047369677 0.0016015404339335705 0 -0.0051490694434440532 0.001470691055343986 0 -0.0049999781061620023 0.0013257570739120446 0 -0.0051868051498783294 0.0012702372878592694 0 -0.0051490694434440532 0.001470691055343986 0 -0.0051868051498783294 0.0012702372878592694 0 -0.0052943940500268715 0.0014116757631895153 0 -0.0051868051498783294 0.0012702372878592694 0 -0.0052943940500268715 0.0014116757631895153 0 -0.0053853946239715636 0.0012750762069620321 0 -0.0052943940500268715 0.0014116757631895153 0 -0.0053853946239715636 0.0012750762069620321 0 -0.0054207260432854558 0.0014721245710723147 0 -0.0055095161449545517 0.0013556321855831294 0 -0.0053853946239715636 0.0012750762069620321 0 -0.0054207260432854558 0.0014721245710723147 0 -0.0055095161449545517 0.0013556321855831294 0 -0.0053853946239715636 0.0012750762069620321 0 -0.0055338327742607872 0.0012098282139195505 0 -0.0054207260432854558 0.0014721245710723147 0 -0.0053140412266729203 0.0016059132756467015 0 -0.0054905325208287458 0.0016113726492630186 0 -0.0055095161449545517 0.0013556321855831294 0 -0.0054207260432854558 0.0014721245710723147 0 -0.0055704155628397275 0.0014983298293731963 0 -0.0054207260432854558 0.0014721245710723147 0 -0.0054905325208287458 0.0016113726492630186 0 -0.0055704155628397275 0.0014983298293731963 0 -0.0052943940500268715 0.0014116757631895153 0 -0.0054207260432854558 0.0014721245710723147 0 -0.0053140412266729203 0.0016059132756467015 0 -0.0053140412266729203 0.0016059132756467015 0 -0.0054905325208287458 0.0016113726492630186 0 -0.0054501677883555394 0.0017681148809659017 0 -0.0054128275653765323 0.0018221582094849163 0 -0.0052178396752486211 0.0018822603570712248 0 -0.0053140412266729203 0.0016059132756467015 0 -0.0054501677883555394 0.0017681148809659017 0 -0.0052115127618345318 0.0018846880386024698 0 -0.0053140412266729203 0.0016059132756467015 0 -0.0052115127618345318 0.0018846880386024698 0 -0.0051453728589577067 0.0016893900286984575 0 -0.0051490694434440532 0.001470691055343986 0 -0.0053140412266729203 0.0016059132756467015 0 -0.0051453728589577067 0.0016893900286984575 0 -0.0051490694434440532 0.001470691055343986 0 -0.0051453728589577067 0.0016893900286984575 0 -0.0049999753047369677 0.0016015404339335705 0 -0.0051453728589577067 0.0016893900286984575 0 -0.0049999753047369677 0.0016015404339335705 0 -0.0049999665753045876 0.0018773465536355012 0 -0.0052115127618345318 0.0018846880386024698 0 -0.0051453728589577067 0.0016893900286984575 0 -0.0049999665753045876 0.0018773465536355012 0 -0.0052115127618345318 0.0018846880386024698 0 -0.0049999665753045876 0.0018773465536355012 0 -0.0051085444734110521 0.0020177189847171433 0 -0.0049999665753045876 0.0018773465536355012 0 -0.0051085444734110521 0.0020177189847171433 0 -0.0049999809775159807 0.0021531209507780038 0 -0.0052115127618345318 0.0018846880386024698 0 -0.0051085444734110521 0.0020177189847171433 0 -0.0052201367709448707 0.0021527958020594738 0 -0.0051085444734110521 0.0020177189847171433 0 -0.0052201367709448707 0.0021527958020594738 0 -0.0049999809775159807 0.0021531209507780038 0 -0.0049999809775159807 0.0021531209507780038 0 -0.0051770555477292247 0.0023511914938509825 0 -0.0049999809102794701 0.0024288746697027001 0 -0.0052201367709448707 0.0021527958020594738 0 -0.0049999809775159807 0.0021531209507780038 0 -0.0051770555477292247 0.0023511914938509825 0 -0.005293928150412042 0.0024959297709913021 0 -0.005129563974136467 0.0025422086319522425 0 -0.0051770555477292247 0.0023511914938509825 0 -0.005129563974136467 0.0025422086319522425 0 -0.0051770555477292247 0.0023511914938509825 0 -0.0049999809102794701 0.0024288746697027001 0 -0.005293928150412042 0.0024959297709913021 0 -0.0051770555477292247 0.0023511914938509825 0 -0.0053784645443188291 0.0023113980257774666 0 -0.0052201367709448707 0.0021527958020594738 0 -0.0051770555477292247 0.0023511914938509825 0 -0.0053784645443188291 0.0023113980257774666 0 -0.0051596118095318865 0.0026000602455073128 0 -0.0053784645443188291 0.0023113980257774666 0 -0.005451324687256294 0.0025191072922931797 0 -0.005230690808374963 0.0025472385120076635 0 -0.0053716177657172383 0.0023259150173713392 0 -0.0053784645443188291 0.0023113980257774666 0 -0.0053551594701933426 0.0020566886039356858 0 -0.0055453286539558777 0.0020378795690224431 0 -0.0052201367709448707 0.0021527958020594738 0 -0.0053784645443188291 0.0023113980257774666 0 -0.0053551594701933426 0.0020566886039356858 0 -0.0053870032245124932 0.0018746884837318265 0 -0.0052115127618345318 0.0018846880386024698 0 -0.0053551594701933426 0.0020566886039356858 0 -0.0052115127618345318 0.0018846880386024698 0 -0.0052201367709448707 0.0021527958020594738 0 -0.0053551594701933426 0.0020566886039356858 0 -0.0053870032245124932 0.0018746884837318265 0 -0.0053551594701933426 0.0020566886039356858 0 -0.0055453286539558777 0.0020378795690224431 0 -0.0053784645443188291 0.0023113980257774666 0 -0.0055453286539558777 0.0020378795690224431 0 -0.0055921670692437586 0.0022706375224230972 0 -0.0055453286539558777 0.0020378795690224431 0 -0.0056668320870274964 0.0019546096140776641 0 -0.0057637473636625138 0.0020869428543035949 0 -0.0055453286539558777 0.0020378795690224431 0 -0.0055921670692437586 0.0022706375224230972 0 -0.0057637473636625138 0.0020869428543035949 0 -0.0053784645443188291 0.0023113980257774666 0 -0.0055921670692437586 0.0022706375224230972 0 -0.005451324687256294 0.0025191072922931797 0 -0.0055921670692437586 0.0022706375224230972 0 -0.0056328786579603173 0.0024677909760391155 0 -0.0057777304791609375 0.0022780184610095818 0 -0.0055921670692437586 0.0022706375224230972 0 -0.0056328786579603173 0.0024677909760391155 0 -0.005451324687256294 0.0025191072922931797 0 -0.0057823573779724816 0.0024606417263964876 0 -0.005918988758420651 0.0023350245908216947 0 -0.0057761442086131515 0.0024717221772179491 0 -0.0058964128769878107 0.002366497957990018 0 -0.0059206057565191423 0.0024588265101930548 0 -0.0056328786579603173 0.0024677909760391155 0 -0.0057761442086131515 0.0024717221772179491 0 -0.0057777304791609375 0.0022780184610095818 0 -0.0057777304791609375 0.0022780184610095818 0 -0.0059138279131666152 0.0021604652351941197 0 -0.0059521859711854121 0.0022976795321502956 0 -0.0057761442086131515 0.0024717221772179491 0 -0.0057777304791609375 0.0022780184610095818 0 -0.0059521859711854121 0.0022976795321502956 0 -0.0059138279131666152 0.0021604652351941197 0 -0.0057637473636625138 0.0020869428543035949 0 -0.005965447209604075 0.0020249164295483226 0 -0.0057777304791609375 0.0022780184610095818 0 -0.0059138279131666152 0.0021604652351941197 0 -0.0057637473636625138 0.0020869428543035949 0 -0.0055921670692437586 0.0022706375224230972 0 -0.0057777304791609375 0.0022780184610095818 0 -0.0057637473636625138 0.0020869428543035949 0 -0.0056668320870274964 0.0019546096140776641 0 -0.0057637473636625138 0.0020869428543035949 0 -0.0058177870002292789 0.0019124134930584773 0 -0.0057637473636625138 0.0020869428543035949 0 -0.0058177870002292789 0.0019124134930584773 0 -0.005965447209604075 0.0020249164295483226 0 -0.005942599056360142 0.0019075454463681036 0 -0.0059424675679278166 0.0017693960575254242 0 -0.0058177870002292789 0.0019124134930584773 0 -0.005942599056360142 0.0019075454463681036 0 -0.0058177870002292789 0.0019124134930584773 0 -0.005965447209604075 0.0020249164295483226 0 -0.0059424675679278166 0.0017693960575254242 0 -0.0059190909680352562 0.0016209722288719271 0 -0.0060833727659518853 0.0016229620906426561 0 -0.0059424675679278166 0.0017693960575254242 0 -0.0058310746332195301 0.0016889642503542847 0 -0.0058177870002292789 0.0019124134930584773 0 -0.0059424675679278166 0.0017693960575254242 0 -0.0059190909680352562 0.0016209722288719271 0 -0.0058310746332195301 0.0016889642503542847 0 -0.0058242486584073813 0.0016908833168404701 0 -0.00561984613148359 0.0017510138213223561 0 -0.0058310746332195301 0.0016889642503542847 0 -0.0056478240346425146 0.0016962535259697484 0 -0.0057916629822762425 0.0015372248736130031 0 -0.0059190909680352562 0.0016209722288719271 0 -0.0058310746332195301 0.0016889642503542847 0 -0.0057916629822762425 0.0015372248736130031 0 -0.0058310746332195301 0.0016889642503542847 0 -0.0058177870002292789 0.0019124134930584773 0 -0.005579853284811637 0.0018067785559020078 0 -0.0056668320870274964 0.0019546096140776641 0 -0.0058177870002292789 0.0019124134930584773 0 -0.005579853284811637 0.0018067785559020078 0 -0.0055453286539558777 0.0020378795690224431 0 -0.0056668320870274964 0.0019546096140776641 0 -0.005579853284811637 0.0018067785559020078 0 -0.0053870032245124932 0.0018746884837318265 0 -0.0055453286539558777 0.0020378795690224431 0 -0.005579853284811637 0.0018067785559020078 0 -0.0054128275653765323 0.0018221582094849163 0 -0.00561984613148359 0.0017510138213223561 0 -0.0054905325208287458 0.0016113726492630186 0 -0.0056478240346425146 0.0016962535259697484 0 -0.0055704155628397275 0.0014983298293731963 0 -0.0054905325208287458 0.0016113726492630186 0 -0.0054501677883555394 0.0017681148809659017 0 -0.0056478240346425146 0.0016962535259697484 0 -0.0056478240346425146 0.0016962535259697484 0 -0.0056793297935188889 0.0014929001667316466 0 -0.0057916629822762425 0.0015372248736130031 0 -0.0056478240346425146 0.0016962535259697484 0 -0.0056793297935188889 0.0014929001667316466 0 -0.0055704155628397275 0.0014983298293731963 0 -0.0056793297935188889 0.0014929001667316466 0 -0.0057531294275883615 0.0013521532654002463 0 -0.0057916629822762425 0.0015372248736130031 0 -0.0056793297935188889 0.0014929001667316466 0 -0.0055704155628397275 0.0014983298293731963 0 -0.0056350943943087768 0.0013202155105325084 0 -0.0055095161449545517 0.0013556321855831294 0 -0.0056350943943087768 0.0013202155105325084 0 -0.0055338327742607872 0.0012098282139195505 0 -0.0055095161449545517 0.0013556321855831294 0 -0.0055704155628397275 0.0014983298293731963 0 -0.0056350943943087768 0.0013202155105325084 0 -0.0056350943943087768 0.0013202155105325084 0 -0.0057531294275883615 0.0013521532654002463 0 -0.0057582904247864275 0.0011950726922663754 0 -0.0056793297935188889 0.0014929001667316466 0 -0.0056350943943087768 0.0013202155105325084 0 -0.0057531294275883615 0.0013521532654002463 0 -0.0057531294275883615 0.0013521532654002463 0 -0.0058690287799440201 0.0013875904038288642 0 -0.0057916629822762425 0.0015372248736130031 0 -0.0057531294275883615 0.0013521532654002463 0 -0.0058690287799440201 0.0013875904038288642 0 -0.0058337370070059846 0.0012884031062838012 0 -0.0058690287799440201 0.0013875904038288642 0 -0.0059435394155872533 0.0013001748270449259 0 -0.0058337370070059846 0.0012884031062838012 0 -0.0058690287799440201 0.0013875904038288642 0 -0.0059435394155872533 0.0013001748270449259 0 -0.005971577056230591 0.0014097558999003085 0 -0.0059435394155872533 0.0013001748270449259 0 -0.005971577056230591 0.0014097558999003085 0 -0.006065626606811092 0.0013227180539574705 0 -0.0058690287799440201 0.0013875904038288642 0 -0.005971577056230591 0.0014097558999003085 0 -0.0059058432207565823 0.0014937763617498387 0 -0.0059190909680352562 0.0016209722288719271 0 -0.0059058432207565823 0.0014937763617498387 0 -0.0057916629822762425 0.0015372248736130031 0 -0.0059190909680352562 0.0016209722288719271 0 -0.0059805875364059274 0.001518535383633589 0 -0.0060833727659518853 0.0016229620906426561 0 -0.005971577056230591 0.0014097558999003085 0 -0.0059058432207565823 0.0014937763617498387 0 -0.0059805875364059274 0.001518535383633589 0 -0.0059190909680352562 0.0016209722288719271 0 -0.0059058432207565823 0.0014937763617498387 0 -0.0059805875364059274 0.001518535383633589 0 -0.0058690287799440201 0.0013875904038288642 0 -0.0059058432207565823 0.0014937763617498387 0 -0.0057916629822762425 0.0015372248736130031 0 -0.0061842426043729635 0.0014998663615525282 0 -0.0062864570992482906 0.0014421698151923464 0 -0.0062716720728120366 0.0016128738017384149 0 -0.0061842426043729635 0.0014998663615525282 0 -0.0062716720728120366 0.0016128738017384149 0 -0.0060833727659518853 0.0016229620906426561 0 -0.0061842426043729635 0.0014998663615525282 0 -0.0060825982132656203 0.0014562668502495276 0 -0.0060833727659518853 0.0016229620906426561 0 -0.0059805875364059274 0.001518535383633589 0 -0.0060825982132656203 0.0014562668502495276 0 -0.0060833727659518853 0.0016229620906426561 0 -0.005971577056230591 0.0014097558999003085 0 -0.0059805875364059274 0.001518535383633589 0 -0.0060825982132656203 0.0014562668502495276 0 -0.0060825982132656203 0.0014562668502495276 0 -0.006065626606811092 0.0013227180539574705 0 -0.0061885991500112173 0.0013836336386680878 0 -0.005971577056230591 0.0014097558999003085 0 -0.0060825982132656203 0.0014562668502495276 0 -0.006065626606811092 0.0013227180539574705 0 -0.006065626606811092 0.0013227180539574705 0 -0.0061885991500112173 0.0013836336386680878 0 -0.0061784678577588526 0.0012605074396691974 0 -0.0061842426043729635 0.0014998663615525282 0 -0.0060825982132656203 0.0014562668502495276 0 -0.0061885991500112173 0.0013836336386680878 0 -0.0061842426043729635 0.0014998663615525282 0 -0.0061885991500112173 0.0013836336386680878 0 -0.0062864570992482906 0.0014421698151923464 0 -0.0061885991500112173 0.0013836336386680878 0 -0.0062793733818725774 0.0013233526523455089 0 -0.0062864570992482906 0.0014421698151923464 0 -0.0061885991500112173 0.0013836336386680878 0 -0.0062793733818725774 0.0013233526523455089 0 -0.0061784678577588526 0.0012605074396691974 0 -0.0062793733818725774 0.0013233526523455089 0 -0.0063739942409354253 0.0013775092440085556 0 -0.0063619784852423089 0.0012583000880756132 0 -0.0062793733818725774 0.0013233526523455089 0 -0.0063739942409354253 0.0013775092440085556 0 -0.0062864570992482906 0.0014421698151923464 0 -0.0063739942409354253 0.0013775092440085556 0 -0.0064728828408614873 0.0014504653216833672 0 -0.0064737658091275282 0.0012828827906814805 0 -0.0063739942409354253 0.0013775092440085556 0 -0.0064728828408614873 0.0014504653216833672 0 -0.0063804685338008493 0.0015308101914567088 0 -0.0064728828408614873 0.0014504653216833672 0 -0.0063804685338008493 0.0015308101914567088 0 -0.0064686900488212734 0.001562792051263486 0 -0.0063804685338008493 0.0015308101914567088 0 -0.0064686900488212734 0.001562792051263486 0 -0.0064202429277946064 0.0016511139799315071 0 -0.0062864570992482906 0.0014421698151923464 0 -0.0063804685338008493 0.0015308101914567088 0 -0.0062716720728120366 0.0016128738017384149 0 -0.0063739942409354253 0.0013775092440085556 0 -0.0062864570992482906 0.0014421698151923464 0 -0.0063804685338008493 0.0015308101914567088 0 -0.0062716720728120366 0.0016128738017384149 0 -0.0063361250807496671 0.0017286724623767531 0 -0.006169486213386974 0.0017301116410925071 0 -0.0063804685338008493 0.0015308101914567088 0 -0.0062716720728120366 0.0016128738017384149 0 -0.0063502310886698679 0.001635340829189748 0 -0.0062716720728120366 0.0016128738017384149 0 -0.0063502310886698679 0.001635340829189748 0 -0.0063361250807496671 0.0017286724623767531 0 -0.0064202429277946064 0.0016511139799315071 0 -0.0063361250807496671 0.0017286724623767531 0 -0.0064858144502292535 0.0017641381051392308 0 -0.0064686900488212734 0.001562792051263486 0 -0.0064202429277946064 0.0016511139799315071 0 -0.0065035622957408815 0.0016504370622813327 0 -0.0063804685338008493 0.0015308101914567088 0 -0.0063502310886698679 0.001635340829189748 0 -0.0064202429277946064 0.0016511139799315071 0 -0.0063502310886698679 0.001635340829189748 0 -0.0064202429277946064 0.0016511139799315071 0 -0.0063361250807496671 0.0017286724623767531 0 -0.006121855958133666 0.0020534518599989006 0 -0.006345196301946336 0.0020588028756600711 0 -0.0063323613476356094 0.0018931005398221423 0 -0.006098445963090897 0.0019382150227741618 0 -0.006121855958133666 0.0020534518599989006 0 -0.0063323613476356094 0.0018931005398221423 0 -0.0062213774693830465 0.0018303048229574221 0 -0.0064206151784696091 0.0018341270503075581 0 -0.006098445963090897 0.0019382150227741618 0 -0.0060750978876980893 0.0020168139680473737 0 -0.0060333468439933407 0.0019004615715619599 0 -0.006098445963090897 0.0019382150227741618 0 -0.0060750978876980893 0.0020168139680473737 0 -0.006121855958133666 0.0020534518599989006 0 -0.0060333468439933407 0.0019004615715619599 0 -0.005965447209604075 0.0020249164295483226 0 -0.0060470698645760422 0.0020509537790630653 0 -0.0060750978876980893 0.0020168139680473737 0 -0.0060333468439933407 0.0019004615715619599 0 -0.0060470698645760422 0.0020509537790630653 0 -0.0062213774693830465 0.0018303048229574221 0 -0.0060904134284209535 0.0018112704830723781 0 -0.0062716720728120366 0.0016128738017384149 0 -0.006169486213386974 0.0017301116410925071 0 -0.0060833727659518853 0.0016229620906426561 0 -0.0059428643108821828 0.0017754846153258765 0 -0.0060904134284209535 0.0018112704830723781 0 -0.0059424675679278166 0.0017693960575254242 0 -0.006169486213386974 0.0017301116410925071 0 -0.0060833727659518853 0.0016229620906426561 0 -0.005942599056360142 0.0019075454463681036 0 -0.0060333468439933407 0.0019004615715619599 0 -0.005965447209604075 0.0020249164295483226 0 -0.005942599056360142 0.0019075454463681036 0 -0.0059424675679278166 0.0017693960575254242 0 -0.0060333468439933407 0.0019004615715619599 0 -0.005965447209604075 0.0020249164295483226 0 -0.0060470698645760422 0.0020509537790630653 0 -0.0060585986631756412 0.0021622772892574077 0 -0.0059138279131666152 0.0021604652351941197 0 -0.005965447209604075 0.0020249164295483226 0 -0.0060585986631756412 0.0021622772892574077 0 -0.0060124795399974099 0.0022204778002821229 0 -0.005918988758420651 0.0023350245908216947 0 -0.0059138279131666152 0.0021604652351941197 0 -0.0060585986631756412 0.0021622772892574077 0 -0.0059521859711854121 0.0022976795321502956 0 -0.0059615225634718815 0.0022790986886411478 0 -0.0058964128769878107 0.002366497957990018 0 -0.0059451148267841564 0.0023858816762323621 0 -0.0059615225634718815 0.0022790986886411478 0 -0.0059867181804071998 0.0023807197980637283 0 -0.0060242454282334731 0.0023364528897652096 0 -0.0059615225634718815 0.0022790986886411478 0 -0.0059867181804071998 0.0023807197980637283 0 -0.0059451148267841564 0.0023858816762323621 0 -0.0059867181804071998 0.0023807197980637283 0 -0.00595964991751747 0.0024313440912407426 0 -0.0059451148267841564 0.0023858816762323621 0 -0.0059986519363377233 0.0024287063771530749 0 -0.0059867181804071998 0.0023807197980637283 0 -0.00595964991751747 0.0024313440912407426 0 -0.00595964991751747 0.0024313440912407426 0 -0.0059206057565191423 0.0024588265101930548 0 -0.0059451148267841564 0.0023858816762323621 0 -0.0058964128769878107 0.002366497957990018 0 -0.0059206057565191423 0.0024588265101930548 0 -0.0059451148267841564 0.0023858816762323621 0 -0.0060506127722912894 0.0022649509473922952 0 -0.0060587613984722771 0.0023716850839038059 0 -0.0060538637898781633 0.0023521758036815785 0 -0.0060587613984722771 0.0023716850839038059 0 -0.0060772092226765518 0.0023008375911816917 0 -0.0060538637898781633 0.0023521758036815785 0 -0.0059867181804071998 0.0023807197980637283 0 -0.0060587613984722771 0.0023716850839038059 0 -0.0060242454282334731 0.0023364528897652096 0 -0.0059986519363377233 0.0024287063771530749 0 -0.0059867181804071998 0.0023807197980637283 0 -0.0060587613984722771 0.0023716850839038059 0 -0.0059615225634718815 0.0022790986886411478 0 -0.0060242454282334731 0.0023364528897652096 0 -0.0060772092226765518 0.0023008375911816917 0 -0.0060587613984722771 0.0023716850839038059 0 -0.0060242454282334731 0.0023364528897652096 0 -0.0060772092226765518 0.0023008375911816917 0 -0.0060772092226765518 0.0023008375911816917 0 -0.0060746276780900502 0.002364317671110588 0 -0.0060538637898781633 0.0023521758036815785 0 -0.0060772092226765518 0.0023008375911816917 0 -0.0061041774905946471 0.0022442780430435064 0 -0.0060746276780900502 0.002364317671110588 0 -0.0060772092226765518 0.0023008375911816917 0 -0.0061041774905946471 0.0022442780430435064 0 -0.0060818274797361871 0.0021405258021955547 0 -0.0061041774905946471 0.0022442780430435064 0 -0.0060818274797361871 0.0021405258021955547 0 -0.0061242075667472026 0.0021612010390245416 0 -0.0060124795399974099 0.0022204778002821229 0 -0.0060813977883614834 0.0021461549388482521 0 -0.0059615225634718815 0.0022790986886411478 0 -0.0060772092226765518 0.0023008375911816917 0 -0.0060818274797361871 0.0021405258021955547 0 -0.0060470698645760422 0.0020509537790630653 0 -0.0060585986631756412 0.0021622772892574077 0 -0.0060818274797361871 0.0021405258021955547 0 -0.0060750978876980893 0.0020168139680473737 0 -0.0060470698645760422 0.0020509537790630653 0 -0.0060818274797361871 0.0021405258021955547 0 -0.0060750978876980893 0.0020168139680473737 0 -0.0060818274797361871 0.0021405258021955547 0 -0.006121855958133666 0.0020534518599989006 0 -0.0060892311677273603 0.0020529828118700292 0 -0.0063459459897752483 0.0021027435591083076 0 -0.0061242075667472026 0.0021612010390245416 0 -0.006121855958133666 0.0020534518599989006 0 -0.0061483123444876116 0.0021218419689805388 0 -0.0060818274797361871 0.0021405258021955547 0 -0.0061242075667472026 0.0021612010390245416 0 -0.006121855958133666 0.0020534518599989006 0 -0.0061483123444876116 0.0021218419689805388 0 -0.006167767814321567 0.0021676198556436085 0 -0.0062313717207562614 0.0021377509288983982 0 -0.006345196301946336 0.0020588028756600711 0 -0.00661087441668086 0.0020692487678773733 0 -0.0064842482988004876 0.0019702049128793994 0 -0.0063459459897752483 0.0021027435591083076 0 -0.0058887311900431413 0.0019908962312041607 0 -0.0061242075667472026 0.0021612010390245416 0 -0.0061483123444876116 0.0021218419689805388 0 -0.006167767814321567 0.0021676198556436085 0 -0.0057671023576726186 0.0023379697608591683 0 -0.0059255310125835474 0.0019954732825594752 0 -0.0053390152767947546 0.0022668693515427918 0 -0.0060620859438565051 0.002256774272412753 0 -0.0050886121357981472 0.0022587372542745131 0 -0.0058887311900431413 0.0019908962312041607 0 -0.0060620859438565051 0.002256774272412753 0 -0.006167767814321567 0.0021676198556436085 0 -0.0062313717207562614 0.0021377509288983982 0 -0.0062107144906130658 0.0021965313850399247 0 -0.0058887311900431413 0.0019908962312041607 0 -0.0050886121357981472 0.0022587372542745131 0 -0.0059781415929798781 0.0025725988594783285 0 -0.0058534086701603986 0.002504775912437526 0 -0.0058034468330039404 0.00264863526811199 0 -0.0059781415929798781 0.0025725988594783285 0 -0.0059453426172983038 0.0024571245467369576 0 -0.0058534086701603986 0.002504775912437526 0 -0.0062401375926823084 0.0021940162134013513 0 -0.0061383617609773976 0.0022343808500311832 0 -0.0060746276780900502 0.002364317671110588 0 -0.0061041774905946471 0.0022442780430435064 0 -0.0061383617609773976 0.0022343808500311832 0 -0.0060746276780900502 0.002364317671110588 0 -0.0059781415929798781 0.0025725988594783285 0 -0.0059453426172983038 0.0024571245467369576 0 -0.0060746276780900502 0.002364317671110588 0 -0.0060620859438565051 0.002256774272412753 0 -0.0060833885683992299 0.0024035136394677018 0 -0.0061041774905946471 0.0022442780430435064 0 -0.0061242075667472026 0.0021612010390245416 0 -0.0061383617609773976 0.0022343808500311832 0 -0.0061242075667472026 0.0021612010390245416 0 -0.006167767814321567 0.0021676198556436085 0 -0.0061383617609773976 0.0022343808500311832 0 -0.0060620859438565051 0.002256774272412753 0 -0.006182534765430737 0.0022103386644778274 0 -0.006167767814321567 0.0021676198556436085 0 -0.0062107144906130658 0.0021965313850399247 0 -0.0061383617609773976 0.0022343808500311832 0 -0.0059453426172983038 0.0024571245467369576 0 -0.0058989173365179212 0.0023894087626412752 0 -0.0058534086701603986 0.002504775912437526 0 -0.0060746276780900502 0.002364317671110588 0 -0.0058989173365179212 0.0023894087626412752 0 -0.0059792678823398096 0.0023402332048982027 0 -0.0059453426172983038 0.0024571245467369576 0 -0.0060746276780900502 0.002364317671110588 0 -0.0058989173365179212 0.0023894087626412752 0 -0.0059349097383999535 0.0022438141360632616 0 -0.0058992238744577383 0.0023452775608990275 0 -0.0059792678823398096 0.0023402332048982027 0 -0.0059349097383999535 0.0022438141360632616 0 -0.0058992238744577383 0.0023452775608990275 0 -0.0057879386058893945 0.002376369533308284 0 -0.0058989173365179212 0.0023894087626412752 0 -0.0058992238744577383 0.0023452775608990275 0 -0.0059792678823398096 0.0023402332048982027 0 -0.0058989173365179212 0.0023894087626412752 0 -0.0058992238744577383 0.0023452775608990275 0 -0.0057879386058893945 0.002376369533308284 0 -0.0060011478366290508 0.0022800428437318924 0 -0.0059792678823398096 0.0023402332048982027 0 -0.0060538637898781633 0.0023521758036815785 0 -0.0060746276780900502 0.002364317671110588 0 -0.0059792678823398096 0.0023402332048982027 0 -0.0060538637898781633 0.0023521758036815785 0 -0.0010752261189385639 0.0036414432584577906 0 -0.0011801131364799784 0.0036560221875151172 0 -0.0011349963097654733 0.0037408282472231082 0 -0.0010752261189385639 0.0036414432584577906 0 -0.0011349963097654733 0.0037408282472231082 0 -0.0010360650559627794 0.0037561869567129002 0 -0.0010752261189385639 0.0036414432584577906 0 -0.0010360650559627794 0.0037561869567129002 0 -0.00097227770013202409 0.0036999544213002023 0 -0.0010469001096402423 0.0035273164608732571 0 -0.0010752261189385639 0.0036414432584577906 0 -0.0009505410166974266 0.0036106851497949987 0 -0.0011597668878630563 0.003550305510913696 0 -0.0010752261189385639 0.0036414432584577906 0 -0.0011801131364799784 0.0036560221875151172 0 -0.0057545261514918688 0.0023854980276963342 0 -0.0057879386058893945 0.002376369533308284 0 -0.0058040159973093428 0.0023892018050862508 0 -0.0012826961087646085 0.0035440334493037351 0 -0.0011597668878630563 0.003550305510913696 0 -0.0011801131364799784 0.0036560221875151172 0 -0.0012826961087646085 0.0035440334493037351 0 -0.0011801131364799784 0.0036560221875151172 0 -0.0012490863497913423 0.0038096095272717651 0 -0.0034990316942990199 0.0029635652254075893 0 -0.0035950532884153875 0.0031815754674047445 0 -0.0058989173365179212 0.0023894087626412752 0 -0.0057879386058893945 0.002376369533308284 0 -0.0058040159973093428 0.0023892018050862508 0 -0.0058989173365179212 0.0023894087626412752 0 -0.0058040159973093428 0.0023892018050862508 0 -0.0058534086701603986 0.002504775912437526 0 -0.0011801131364799784 0.0036560221875151172 0 -0.0012490863497913423 0.0038096095272717651 0 -0.0011349963097654733 0.0037408282472231082 0 -0.0012490863497913423 0.0038096095272717651 0 -0.0011062289524298072 0.0038292873377316692 0 -0.0011006309277888841 0.0039702573959648386 0 -0.0012490863497913423 0.0038096095272717651 0 -0.0011062289524298072 0.0038292873377316692 0 -0.0011349963097654733 0.0037408282472231082 0 -0.0011062289524298072 0.0038292873377316692 0 -0.0011349963097654733 0.0037408282472231082 0 -0.0010360650559627794 0.0037561869567129002 0 -0.0011062289524298072 0.0038292873377316692 0 -0.0010360650559627794 0.0037561869567129002 0 -0.0010113099812439576 0.0038713987044088861 0 -0.0011006309277888841 0.0039702573959648386 0 -0.0012006045246290831 0.0040829680016772297 0 -0.0009713261466485735 0.0040549593112524642 0 -0.0011062289524298072 0.0038292873377316692 0 -0.0011006309277888841 0.0039702573959648386 0 -0.0010113099812439576 0.0038713987044088861 0 -0.0012490863497913423 0.0038096095272717651 0 -0.0011006309277888841 0.0039702573959648386 0 -0.0012006045246290831 0.0040829680016772297 0 -0.0011006309277888841 0.0039702573959648386 0 -0.0010113099812439576 0.0038713987044088861 0 -0.00099325862692993582 0.0039613115585779082 0 -0.0011006309277888841 0.0039702573959648386 0 -0.0009713261466485735 0.0040549593112524642 0 -0.00099325862692993582 0.0039613115585779082 0 -0.0058040159973093428 0.0023892018050862508 0 -0.0058534086701603986 0.002504775912437526 0 -0.0056986409929657101 0.0026316166346704007 0 -0.0035950532884153875 0.0031815754674047445 0 -0.0028437526014898811 0.0029324435722766443 0 -0.0058534086701603986 0.002504775912437526 0 -0.0058034468330039404 0.00264863526811199 0 -0.0056986409929657101 0.0026316166346704007 0 -0.0043391198425954958 0.0022463599607527012 0 -0.0033436783666136055 0.0020812534124889119 0 -0.0031969473209335184 0.0027755048835609972 0 -0.0050886121357981472 0.0022587372542745131 0 -0.0028437526014898811 0.0029324435722766443 0 -0.0050886121357981472 0.0022587372542745131 0 -0.0030799777766586205 0.001994490945564155 0 -0.0047705060038089556 0.0017911090421101068 0 -0.0046944889620998027 0.0018252394882491022 0 -0.0047556269563504873 0.0018738789418988482 0 -0.0048598336788336187 0.0018059932893351002 0 -0.0047705060038089556 0.0017911090421101068 0 -0.0047556269563504873 0.0018738789418988482 0 -0.0021248087566836864 0.0019282550334952706 0 -0.0018390982636523284 0.0017736386147244512 0 -0.0018186262426727201 0.0020560856382453854 0 -0.0028437526014898811 0.0029324435722766443 0 -0.0011904199714771935 0.0028615063602046129 0 -0.0021473678544765046 0.0018273555170352576 0 -0.0021248087566836864 0.0019282550334952706 0 -0.0018390982636523284 0.0017736386147244512 0 -0.0028437526014898811 0.0029324435722766443 0 -0.0030799777766586205 0.001994490945564155 0 -0.0022525537863510767 0.0018327907837329671 0 -0.0021479090712811823 0.0022735754433254613 0 -0.0018917176967486119 0.0019993982251338069 0 -0.0030799777766586205 0.001994490945564155 0 -0.0016869746479436043 0.0020641785977230441 0 -0.0030799777766586205 0.001994490945564155 0 -0.0034614397070517207 0.0020619115011966853 0 -0.0046671404090763684 0.0019722663773124607 0 -0.0047732504524236937 0.0019597943432127199 0 -0.0046979071282070572 0.0020877738500366294 0 -0.0048598336788336187 0.0018059932893351002 0 -0.0047732504524236937 0.0019597943432127199 0 -0.0047556269563504873 0.0018738789418988482 0 -0.0046944889620998027 0.0018252394882491022 0 -0.0046671404090763684 0.0019722663773124607 0 -0.0047556269563504873 0.0018738789418988482 0 -0.0046671404090763684 0.0019722663773124607 0 -0.0047732504524236937 0.0019597943432127199 0 -0.0047556269563504873 0.0018738789418988482 0 -0.0058887311900431413 0.0019908962312041607 0 -0.0057368484214493426 0.0018202146676707665 0 -0.00661087441668086 0.0020692487678773733 0 -0.0067600320968289425 0.0016903046010087331 0 -0.0066555730313924057 0.0018638507188995282 0 -0.00661087441668086 0.0020692487678773733 0 -0.0066555730313924057 0.0018638507188995282 0 -0.0064842482988004876 0.0019702049128793994 0 -0.0066555730313924057 0.0018638507188995282 0 -0.0064842482988004876 0.0019702049128793994 0 -0.0063323613476356094 0.0018931005398221423 0 -0.0066459440349765598 0.001861056791191114 0 -0.0064206151784696091 0.0018341270503075581 0 -0.0066555730313924057 0.0018638507188995282 0 -0.0064858144502292535 0.0017641381051392308 0 -0.006585367887957258 0.0016840682658933585 0 -0.006345196301946336 0.0020588028756600711 0 -0.0064842482988004876 0.0019702049128793994 0 -0.0063323613476356094 0.0018931005398221423 0 -0.0064202429277946064 0.0016511139799315071 0 -0.0064858144502292535 0.0017641381051392308 0 -0.0065035622957408815 0.0016504370622813327 0 -0.0064858144502292535 0.0017641381051392308 0 -0.0065035622957408815 0.0016504370622813327 0 -0.006585367887957258 0.0016840682658933585 0 -0.0065035622957408815 0.0016504370622813327 0 -0.006585367887957258 0.0016840682658933585 0 -0.0065582039002727247 0.0015431932184254108 0 -0.0067600320968289425 0.0016903046010087331 0 -0.0066555730313924057 0.0018638507188995282 0 -0.006585367887957258 0.0016840682658933585 0 -0.0067600320968289425 0.0016903046010087331 0 -0.006585367887957258 0.0016840682658933585 0 -0.0066741155983114702 0.0015228314921798625 0 -0.006585367887957258 0.0016840682658933585 0 -0.0066741155983114702 0.0015228314921798625 0 -0.0065582039002727247 0.0015431932184254108 0 -0.0066741155983114702 0.0015228314921798625 0 -0.0065582039002727247 0.0015431932184254108 0 -0.0065891020810233403 0.001416119596030983 0 -0.0064686900488212734 0.001562792051263486 0 -0.0065035622957408815 0.0016504370622813327 0 -0.0065582039002727247 0.0015431932184254108 0 -0.0064728828408614873 0.0014504653216833672 0 -0.0065582039002727247 0.0015431932184254108 0 -0.0065891020810233403 0.001416119596030983 0 -0.0064728828408614873 0.0014504653216833672 0 -0.0064686900488212734 0.001562792051263486 0 -0.0065582039002727247 0.0015431932184254108 0 -0.0064728828408614873 0.0014504653216833672 0 -0.0065891020810233403 0.001416119596030983 0 -0.0064737658091275282 0.0012828827906814805 0 -0.0065891020810233403 0.001416119596030983 0 -0.0066294950983735272 0.0012995086863255895 0 -0.0064737658091275282 0.0012828827906814805 0 -0.0065891020810233403 0.001416119596030983 0 -0.0067014486606672774 0.0013955222339600581 0 -0.0066294950983735272 0.0012995086863255895 0 -0.0066741155983114702 0.0015228314921798625 0 -0.0065891020810233403 0.001416119596030983 0 -0.0067014486606672774 0.0013955222339600581 0 -0.0067014486606672774 0.0013955222339600581 0 -0.0068190353722526404 0.0014577912672176154 0 -0.006760937562480758 0.0013015942154297072 0 -0.0066741155983114702 0.0015228314921798625 0 -0.0067014486606672774 0.0013955222339600581 0 -0.0068190353722526404 0.0014577912672176154 0 -0.0046415245805815205 0.002094341992875416 0 -0.0046979071282070572 0.0020877738500366294 0 -0.0046325586533376767 0.0021894901544848243 0 -0.0033386014606099136 0.0024749223089187452 0 -0.0032195059774844793 0.0022984854468135222 0 -0.0057992033130664939 0.0017809321693211678 0 -0.005500132812681852 0.0016723023748712582 0 -0.0021479090712811823 0.0022735754433254613 0 -0.0020472410974354551 0.002688254363738853 0 -0.0017954905604810004 0.002391327497088337 0 -0.0046671404090763684 0.0019722663773124607 0 -0.0046415245805815205 0.002094341992875416 0 -0.0046979071282070572 0.0020877738500366294 0 -0.0034614397070517207 0.0020619115011966853 0 -0.0033386014606099136 0.0024749223089187452 0 -0.0067600320968289425 0.0016903046010087331 0 -0.0066741155983114702 0.0015228314921798625 0 -0.0068190353722526404 0.0014577912672176154 0 -0.0057368484214493426 0.0018202146676707665 0 -0.0057992033130664939 0.0017809321693211678 0 -0.0062349144282807939 0.00127132897763212 0 -0.0061108436325297607 0.0012876812646013854 0 -0.0060455220873449596 0.0012164797696975916 0 -0.0062884773681698017 0.0012613687253699149 0 -0.0060640227766281547 0.0012190372203962523 0 -0.0062349144282807939 0.00127132897763212 0 -0.006214888149823055 0.0013481950036393455 0 -0.0061624266073066593 0.0013128232819358883 0 -0.006214888149823055 0.0013481950036393455 0 -0.0061624266073066593 0.0013128232819358883 0 -0.006108574638311777 0.0013665764602298432 0 -0.0061624266073066593 0.0013128232819358883 0 -0.0061108436325297607 0.0012876812646013854 0 -0.006108574638311777 0.0013665764602298432 0 -0.0062349144282807939 0.00127132897763212 0 -0.0061624266073066593 0.0013128232819358883 0 -0.0061108436325297607 0.0012876812646013854 0 -0.0060455220873449596 0.0012164797696975916 0 -0.0060061108783554988 0.001167278932853785 0 -0.0059124138180442461 0.0013445271357057152 0 -0.0060377432589900273 0.0013154979023193827 0 -0.0061108436325297607 0.0012876812646013854 0 -0.006108574638311777 0.0013665764602298432 0 -0.0060377432589900273 0.0013154979023193827 0 -0.0060126472708991324 0.0013772195540125919 0 -0.006108574638311777 0.0013665764602298432 0 -0.0060377432589900273 0.0013154979023193827 0 -0.0060126472708991324 0.0013772195540125919 0 -0.0059124138180442461 0.0013445271357057152 0 -0.0060377432589900273 0.0013154979023193827 0 -0.0060455220873449596 0.0012164797696975916 0 -0.0059124138180442461 0.0013445271357057152 0 -0.0060377432589900273 0.0013154979023193827 0 -0.0061108436325297607 0.0012876812646013854 0 -0.0060455220873449596 0.0012164797696975916 0 -0.0060455220873449596 0.0012164797696975916 0 -0.0060061108783554988 0.001167278932853785 0 -0.0062924910357503141 0.001130854926850341 0 -0.0046415245805815205 0.002094341992875416 0 -0.0046325586533376767 0.0021894901544848243 0 -0.0046115255788082374 0.0021923352283054038 0 -0.0068190353722526404 0.0014577912672176154 0 -0.0068672701320555861 0.00129076044167024 0 -0.006760937562480758 0.0013015942154297072 0 -0.005500132812681852 0.0016723023748712582 0 -0.0067106613964243661 0.0011761601813055995 0 -0.005500132812681852 0.0016723023748712582 0 -0.0032195059774844793 0.0022984854468135222 0 -0.0063645997778234969 0.0012657579895708484 0 -0.0062924910357503141 0.001130854926850341 0 -0.0064428409763059823 0.0012131593799643622 0 -0.0063645997778234969 0.0012657579895708484 0 -0.0060455220873449596 0.0012164797696975916 0 -0.0062924910357503141 0.001130854926850341 0 -0.0064428409763059823 0.0012131593799643622 0 -0.0064612417089159116 0.0011774890754072927 0 -0.0064810066138098702 0.001210804163688319 0 -0.0067106613964243661 0.0011761601813055995 0 -0.0064945278853810687 0.001248480977176652 0 -0.0062924910357503141 0.001130854926850341 0 -0.0064428409763059823 0.0012131593799643622 0 -0.0064612417089159116 0.0011774890754072927 0 -0.0067014486606672774 0.0013955222339600581 0 -0.006760937562480758 0.0013015942154297072 0 -0.0066294950983735272 0.0012995086863255895 0 -0.0064945278853810687 0.001248480977176652 0 -0.0064856925775338753 0.0012719156719059052 0 -0.0064612417089159116 0.0011774890754072927 0 -0.0064810066138098702 0.001210804163688319 0 -0.0064737658091275282 0.0012828827906814805 0 -0.0064428409763059823 0.0012131593799643622 0 -0.0064810066138098702 0.001210804163688319 0 -0.0064869347049715609 0.0012059487304990194 0 -0.0064810066138098702 0.001210804163688319 0 -0.0064869347049715609 0.0012059487304990194 0 -0.0064495837319449275 0.0011706394047291196 0 -0.0062884773681698017 0.0012613687253699149 0 -0.006461399170715137 0.0012762560085637009 0 -0.0062349144282807939 0.00127132897763212 0 -0.0064322970262134637 0.001322181104938728 0 -0.006324491197886529 0.0013587523854309508 0 -0.0063645997778234969 0.0012657579895708484 0 -0.0064428409763059823 0.0012131593799643622 0 -0.0064869347049715609 0.0012059487304990194 0 -0.0062349144282807939 0.00127132897763212 0 -0.006214888149823055 0.0013481950036393455 0 -0.006324491197886529 0.0013587523854309508 0 -0.0062731088458068216 0.0014038167203227619 0 -0.0064058438330860251 0.0014348993557386099 0 -0.0061801522117881378 0.0015119544520679621 0 -0.006490428995215485 0.00077973151746280446 0 -0.006482999295819805 0.00079817251959766371 0 -0.0065003192105165435 0.000757682931509739 0 -0.0064201602688684105 0.0011167442939157681 0 -0.0064974372630250488 0.0011604881133445576 0 -0.006214888149823055 0.0013481950036393455 0 -0.0062731088458068216 0.0014038167203227619 0 -0.006324491197886529 0.0013587523854309508 0 -0.0064322970262134637 0.001322181104938728 0 -0.006324491197886529 0.0013587523854309508 0 -0.0064058438330860251 0.0014348993557386099 0 -0.0062731088458068216 0.0014038167203227619 0 -0.006324491197886529 0.0013587523854309508 0 -0.0064058438330860251 0.0014348993557386099 0 -0.0064322970262134637 0.001322181104938728 0 -0.0064058438330860251 0.0014348993557386099 0 -0.0066170058728562053 0.0013666895372377087 0 -0.0064201602688684105 0.0011167442939157681 0 -0.0064885221869671345 0.0011008074691388503 0 -0.0065003275296915833 0.00077189457768315486 0 -0.0064978004387454841 0.00080204994836546514 0 -0.006482999295819805 0.00079817251959766371 0 -0.0064758071018643044 0.00080992849602075357 0 -0.0064618837021263188 0.00083689598428127545 0 -0.006490428995215485 0.00077973151746280446 0 -0.006482999295819805 0.00079817251959766371 0 -0.0064758071018643044 0.00080992849602075357 0 -0.0065127346378763881 0.00075815347226223791 0 -0.0065121806607236253 0.00080508303028750086 0 -0.0065100284336252843 0.00076607356257514221 0 -0.0065121806607236253 0.00080508303028750086 0 -0.0065100284336252843 0.00076607356257514221 0 -0.0064990733880587641 0.00077429066682262388 0 -0.0065028240062475224 0.00073969059442618513 0 -0.0064865328631662465 0.00071619088786521788 0 -0.0064990733880587641 0.00077429066682262388 0 -0.0065100284336252843 0.00076607356257514221 0 -0.0065028240062475224 0.00073969059442618513 0 -0.0064990733880587641 0.00077429066682262388 0 -0.0065100284336252843 0.00076607356257514221 0 -0.0065028240062475224 0.00073969059442618513 0 -0.0065091593249407796 0.00075098595744876287 0 -0.0065028240062475224 0.00073969059442618513 0 -0.0065091593249407796 0.00075098595744876287 0 -0.0065039737316172951 0.00073794577854269044 0 -0.0065127346378763881 0.00075815347226223791 0 -0.0065091593249407796 0.00075098595744876287 0 -0.006506694641427082 0.00074958696058409155 0 -0.0065127346378763881 0.00075815347226223791 0 -0.0065100284336252843 0.00076607356257514221 0 -0.0065091593249407796 0.00075098595744876287 0 -0.0065091593249407796 0.00075098595744876287 0 -0.006506694641427082 0.00074958696058409155 0 -0.0065039737316172951 0.00073794577854269044 0 -0.0065003275296915833 0.00077189457768315486 0 -0.006504619892515346 0.00075553163156433462 0 -0.006506694641427082 0.00074958696058409155 0 -0.0065049786071118771 0.00074332737935066861 0 -0.0065039737316172951 0.00073794577854269044 0 -0.006490428995215485 0.00077973151746280446 0 -0.0065003192105165435 0.000757682931509739 0 -0.0065020402584718079 0.00075220428458757087 0 -0.0065127346378763881 0.00075815347226223791 0 -0.006506694641427082 0.00074958696058409155 0 -0.0065020402584718079 0.00075220428458757087 0 -0.006506694641427082 0.00074958696058409155 0 -0.0065049786071118771 0.00074332737935066861 0 -0.0065020402584718079 0.00075220428458757087 0 -0.0062731088458068216 0.0014038167203227619 0 -0.0061801522117881378 0.0015119544520679621 0 -0.0061782305629762592 0.0014156485898748335 0 -0.0061801522117881378 0.0015119544520679621 0 -0.0061782305629762592 0.0014156485898748335 0 -0.0061121525617791623 0.0014497218513459128 0 -0.0061782305629762592 0.0014156485898748335 0 -0.006108574638311777 0.0013665764602298432 0 -0.0061121525617791623 0.0014497218513459128 0 -0.006214888149823055 0.0013481950036393455 0 -0.0061782305629762592 0.0014156485898748335 0 -0.006108574638311777 0.0013665764602298432 0 -0.006214888149823055 0.0013481950036393455 0 -0.0062731088458068216 0.0014038167203227619 0 -0.0061782305629762592 0.0014156485898748335 0 -0.0059632707715320653 0.0014149954103988621 0 -0.0060126472708991324 0.0013772195540125919 0 -0.0060349974470208043 0.0014444320120343104 0 -0.006108574638311777 0.0013665764602298432 0 -0.0061121525617791623 0.0014497218513459128 0 -0.0060349974470208043 0.0014444320120343104 0 -0.0060126472708991324 0.0013772195540125919 0 -0.006108574638311777 0.0013665764602298432 0 -0.0060349974470208043 0.0014444320120343104 0 -0.0060407938835094228 0.0015000071796279343 0 -0.0061121525617791623 0.0014497218513459128 0 -0.0060349974470208043 0.0014444320120343104 0 -0.0061801522117881378 0.0015119544520679621 0 -0.0060407938835094228 0.0015000071796279343 0 -0.0061121525617791623 0.0014497218513459128 0 -0.0059632707715320653 0.0014149954103988621 0 -0.0060349974470208043 0.0014444320120343104 0 -0.0059520756284794779 0.001484259361864435 0 -0.0060407938835094228 0.0015000071796279343 0 -0.0060349974470208043 0.0014444320120343104 0 -0.0059520756284794779 0.001484259361864435 0 -0.0065003192105165435 0.000757682931509739 0 -0.0065020402584718079 0.00075220428458757087 0 -0.0065062830970454349 0.00073926950324979738 0 -0.0061801522117881378 0.0015119544520679621 0 -0.0060407938835094228 0.0015000071796279343 0 -0.0059222921688008891 0.0015897188827852936 0 -0.0065020402584718079 0.00075220428458757087 0 -0.0065050147194467391 0.00074139108544743558 0 -0.0065062830970454349 0.00073926950324979738 0 -0.0064974372630250488 0.0011604881133445576 0 -0.0054286182690985348 0.00082894711755974744 0 -0.0060407938835094228 0.0015000071796279343 0 -0.0059222921688008891 0.0015897188827852936 0 -0.0059520756284794779 0.001484259361864435 0 -0.0065049786071118771 0.00074332737935066861 0 -0.0065020402584718079 0.00075220428458757087 0 -0.0065050147194467391 0.00074139108544743558 0 -0.0065050147194467391 0.00074139108544743558 0 -0.0065059635943830471 0.00073468558308281457 0 -0.0065062830970454349 0.00073926950324979738 0 -0.0048733922985243041 0.00033133800360610953 0 -0.0047665177940559647 0.00022560807432246048 0 -0.0047600252947893589 0.00032694509671413744 0 -0.0056840396125169054 0.00048479045380338216 0 -0.0054286182690985348 0.00082894711755974744 0 -0.0065049786071118771 0.00074332737935066861 0 -0.0065050147194467391 0.00074139108544743558 0 -0.0065059635943830471 0.00073468558308281457 0 -0.0048733922985243041 0.00033133800360610953 0 -0.0048494314533652737 0.00041683761603790616 0 -0.0047600252947893589 0.00032694509671413744 0 -0.0065049786071118771 0.00074332737935066861 0 -0.0065059635943830471 0.00073468558308281457 0 -0.0065039737316172951 0.00073794577854269044 0 -0.0065059635943830471 0.00073468558308281457 0 -0.0065032746019866609 0.00071585573068242456 0 -0.0065039737316172951 0.00073794577854269044 0 -0.0056840396125169054 0.00048479045380338216 0 -0.0058229077724301056 0.00063809818539495495 0 -0.0047741043057313408 0.00046032200411889266 0 -0.0047644662062401649 0.00044148454928938841 0 -0.0050073241513682457 0.0004624804794754553 0 -0.0048494314533652737 0.00041683761603790616 0 -0.0049208541516755147 0.00053196419764190784 0 -0.0048733922985243041 0.00033133800360610953 0 -0.0050073241513682457 0.0004624804794754553 0 -0.0048494314533652737 0.00041683761603790616 0 -0.0048494314533652737 0.00041683761603790616 0 -0.0049208541516755147 0.00053196419764190784 0 -0.0047266849754177579 0.00042597502510852538 0 -0.0047545511150040394 0.00045948883584545191 0 -0.0047704972222344516 0.00043295269541611663 0 -0.0047362182953658389 0.00044947936845664792 0 -0.0047704972222344516 0.00043295269541611663 0 -0.0047266849754177579 0.00042597502510852538 0 -0.0047362182953658389 0.00044947936845664792 0 -0.0047545511150040394 0.00045948883584545191 0 -0.0047704972222344516 0.00043295269541611663 0 -0.0047813673605630073 0.00047310916785312922 0 -0.0047741043057313408 0.00046032200411889266 0 -0.0053287557842869281 0.00059105640564828478 0 -0.0050073241513682457 0.0004624804794754553 0 -0.0049208541516755147 0.00053196419764190784 0 -0.0051514083570432922 0.00062805989015399743 0 -0.0047704972222344516 0.00043295269541611663 0 -0.0047813673605630073 0.00047310916785312922 0 -0.0048340225476875267 0.00044638953415515321 0 -0.0047813673605630073 0.00047310916785312922 0 -0.0048316823720144534 0.00048777889645182566 0 -0.0048022806437328152 0.00051115103325622606 0 -0.0047545511150040394 0.00045948883584545191 0 -0.004730688740399485 0.00048347865213862806 0 -0.0047362182953658389 0.00044947936845664792 0 -0.0047813673605630073 0.00047310916785312922 0 -0.004730688740399485 0.00048347865213862806 0 -0.0047556493398936877 0.00051645532914997862 0 -0.0047545511150040394 0.00045948883584545191 0 -0.0047813673605630073 0.00047310916785312922 0 -0.004730688740399485 0.00048347865213862806 0 -0.0057195705946335197 0.00060218672609913362 0 -0.0053287557842869281 0.00059105640564828478 0 -0.0048937164820311036 0.00048025097306464594 0 -0.0048958023499610969 0.00048005054491547785 0 -0.004884508143090412 0.00049045672123506734 0 -0.0048937164820311036 0.00048025097306464594 0 -0.0049061577918728238 0.00049830165506268241 0 -0.004884508143090412 0.00049045672123506734 0 -0.0048316823720144534 0.00048777889645182566 0 -0.0048340225476875267 0.00044638953415515321 0 -0.004884508143090412 0.00049045672123506734 0 -0.0047813673605630073 0.00047310916785312922 0 -0.0048316823720144534 0.00048777889645182566 0 -0.0048340225476875267 0.00044638953415515321 0 -0.0053287557842869281 0.00059105640564828478 0 -0.0047379505938444089 0.00040037695391476801 0 -0.0058229077724301056 0.00063809818539495495 0 -0.0053287557842869281 0.00059105640564828478 0 -0.0065032746019866609 0.00071585573068242456 0 -0.0064892733050477651 0.00069396774917129659 0 -0.0064875912524386672 0.00071546515965273492 0 -0.0064892733050477651 0.00069396774917129659 0 -0.0064817187055227531 0.00069927036302375352 0 -0.0064875912524386672 0.00071546515965273492 0 -0.0064735672960803421 0.00068285718399499441 0 -0.0064892733050477651 0.00069396774917129659 0 -0.0064817187055227531 0.00069927036302375352 0 -0.0064735672960803421 0.00068285718399499441 0 -0.0064817187055227531 0.00069927036302375352 0 -0.0064675402090848882 0.00070633581788131985 0 -0.0064817187055227531 0.00069927036302375352 0 -0.0064875912524386672 0.00071546515965273492 0 -0.0064675402090848882 0.00070633581788131985 0 -0.0065032746019866609 0.00071585573068242456 0 -0.0064875912524386672 0.00071546515965273492 0 -0.0065039737316172951 0.00073794577854269044 0 -0.0065028240062475224 0.00073969059442618513 0 -0.0064875912524386672 0.00071546515965273492 0 -0.0065039737316172951 0.00073794577854269044 0 -0.0065028240062475224 0.00073969059442618513 0 -0.0064875912524386672 0.00071546515965273492 0 -0.0064865328631662465 0.00071619088786521788 0 -0.0064651643049121041 0.00070046283173005311 0 -0.0065711191724552006 0.00056353403180092905 0 -0.0063252739909893489 0.00058340114486796657 0 -0.0062691014694379746 0.00071360870723061523 0 -0.0063792120695708833 0.00075249479457479423 0 -0.0064865328631662465 0.00071619088786521788 0 -0.0063252739909893489 0.00058340114486796657 0 -0.0065129246182355147 0.00040086625717498838 0 -0.0064865328631662465 0.00071619088786521788 0 -0.0063252739909893489 0.00058340114486796657 0 -0.0063792120695708833 0.00075249479457479423 0 -0.0063252739909893489 0.00058340114486796657 0 -0.0065129246182355147 0.00040086625717498838 0 -0.0062918474190976799 0.0003967620724160071 0 -0.0064875912524386672 0.00071546515965273492 0 -0.0064865328631662465 0.00071619088786521788 0 -0.0064675402090848882 0.00070633581788131985 0 -0.0065711191724552006 0.00056353403180092905 0 -0.0059061051348963736 0.00036333898748347194 0 -0.0065129246182355147 0.00040086625717498838 0 -0.0064973386423920979 0.0001121828285998702 0 -0.0063235670665817874 0.00021210043061241173 0 -0.0065129246182355147 0.00040086625717498838 0 -0.0063235670665817874 0.00021210043061241173 0 -0.0062918474190976799 0.0003967620724160071 0 -0.0064973386423920979 0.0001121828285998702 0 -0.0063235670665817874 0.00021210043061241173 0 -0.0062706038480539938 1.3397848614366512e-05 0 -0.0048937164820311036 0.00048025097306464594 0 -0.0049310656669645089 0.00048360188001457657 0 -0.0049061577918728238 0.00049830165506268241 0 -0.0057195705946335197 0.00060218672609913362 0 -0.0059061051348963736 0.00036333898748347194 0 -0.0064735672960803421 0.00068285718399499441 0 -0.0064675402090848882 0.00070633581788131985 0 -0.0064507613988999801 0.00067062476869204652 0 -0.0061161304641676089 8.9931027382728561e-05 0 -0.0061349131862639414 0.00030148792469729949 0 -0.0059868044828816072 0.00015402740325766605 0 -0.0061161304641676089 8.9931027382728561e-05 0 -0.0063235670665817874 0.00021210043061241173 0 -0.0061349131862639414 0.00030148792469729949 0 -0.0061161304641676089 8.9931027382728561e-05 0 -0.0063235670665817874 0.00021210043061241173 0 -0.0062706038480539938 1.3397848614366512e-05 0 -0.0063235670665817874 0.00021210043061241173 0 -0.0061349131862639414 0.00030148792469729949 0 -0.0062918474190976799 0.0003967620724160071 0 -0.0061349131862639414 0.00030148792469729949 0 -0.0060550905694501814 0.00045492204372232786 0 -0.0059716529485666168 0.00033271926470407201 0 -0.0061818629291188294 0.00048066090230051419 0 -0.0060550905694501814 0.00045492204372232786 0 -0.0061458942727199524 0.00062748766440734157 0 -0.0061349131862639414 0.00030148792469729949 0 -0.0061818629291188294 0.00048066090230051419 0 -0.0060550905694501814 0.00045492204372232786 0 -0.0063252739909893489 0.00058340114486796657 0 -0.0061818629291188294 0.00048066090230051419 0 -0.0062918474190976799 0.0003967620724160071 0 -0.0061349131862639414 0.00030148792469729949 0 -0.0061818629291188294 0.00048066090230051419 0 -0.0062918474190976799 0.0003967620724160071 0 -0.0063252739909893489 0.00058340114486796657 0 -0.0061458942727199524 0.00062748766440734157 0 -0.0062691014694379746 0.00071360870723061523 0 -0.0063252739909893489 0.00058340114486796657 0 -0.0061818629291188294 0.00048066090230051419 0 -0.0061458942727199524 0.00062748766440734157 0 -0.0060550905694501814 0.00045492204372232786 0 -0.0061458942727199524 0.00062748766440734157 0 -0.0060096458126571248 0.00062159346037616149 0 -0.0061458942727199524 0.00062748766440734157 0 -0.0060731950717432485 0.00072781305898049812 0 -0.0060096458126571248 0.00062159346037616149 0 -0.0060731950717432485 0.00072781305898049812 0 -0.0061697936717555364 0.00080612006756032334 0 -0.00606314931218463 0.00089337833444298081 0 -0.0061458942727199524 0.00062748766440734157 0 -0.0060731950717432485 0.00072781305898049812 0 -0.0061697936717555364 0.00080612006756032334 0 -0.0060731950717432485 0.00072781305898049812 0 -0.00606314931218463 0.00089337833444298081 0 -0.0059814471183312484 0.00080222195025910371 0 -0.0061697936717555364 0.00080612006756032334 0 -0.00606314931218463 0.00089337833444298081 0 -0.0061471630725845145 0.00094329916531285974 0 -0.00606314931218463 0.00089337833444298081 0 -0.0061471630725845145 0.00094329916531285974 0 -0.0060698065120574117 0.0010474182216753209 0 -0.00606314931218463 0.00089337833444298081 0 -0.0060698065120574117 0.0010474182216753209 0 -0.005980448258069297 0.00098725022472832672 0 -0.0061697936717555364 0.00080612006756032334 0 -0.0062383839994179392 0.00092220879235897595 0 -0.0063124182309226172 0.00082650813400309963 0 -0.0062383839994179392 0.00092220879235897595 0 -0.00619514217215404 0.0010473430657113028 0 -0.0062877245428210179 0.0010390201992578176 0 -0.0062383839994179392 0.00092220879235897595 0 -0.0063344114837334759 0.00091320714535168075 0 -0.0062877245428210179 0.0010390201992578176 0 -0.0061471630725845145 0.00094329916531285974 0 -0.0062383839994179392 0.00092220879235897595 0 -0.00619514217215404 0.0010473430657113028 0 -0.0061697936717555364 0.00080612006756032334 0 -0.0061471630725845145 0.00094329916531285974 0 -0.0062383839994179392 0.00092220879235897595 0 -0.0062383839994179392 0.00092220879235897595 0 -0.0063124182309226172 0.00082650813400309963 0 -0.0063344114837334759 0.00091320714535168075 0 -0.0061697936717555364 0.00080612006756032334 0 -0.0062691014694379746 0.00071360870723061523 0 -0.0063124182309226172 0.00082650813400309963 0 -0.0061458942727199524 0.00062748766440734157 0 -0.0061697936717555364 0.00080612006756032334 0 -0.0062691014694379746 0.00071360870723061523 0 -0.0063792120695708833 0.00075249479457479423 0 -0.0064535012035018087 0.00080002190199292441 0 -0.0063962095888622176 0.00085478019944855974 0 -0.0063792120695708833 0.00075249479457479423 0 -0.0063124182309226172 0.00082650813400309963 0 -0.0063962095888622176 0.00085478019944855974 0 -0.0062691014694379746 0.00071360870723061523 0 -0.0063792120695708833 0.00075249479457479423 0 -0.0063124182309226172 0.00082650813400309963 0 -0.0064865328631662465 0.00071619088786521788 0 -0.0063792120695708833 0.00075249479457479423 0 -0.0064535012035018087 0.00080002190199292441 0 -0.0064865328631662465 0.00071619088786521788 0 -0.0064535012035018087 0.00080002190199292441 0 -0.0064990733880587641 0.00077429066682262388 0 -0.0064535012035018087 0.00080002190199292441 0 -0.0064990733880587641 0.00077429066682262388 0 -0.0064733735493812507 0.00082527357474594871 0 -0.0064758071018643044 0.00080992849602075357 0 -0.0064594319515849461 0.0008385906645946167 0 -0.0064618837021263188 0.00083689598428127545 0 -0.0065121806607236253 0.00080508303028750086 0 -0.0064733735493812507 0.00082527357474594871 0 -0.0064456497932229269 0.00090324880596346008 0 -0.0064978004387454841 0.00080204994836546514 0 -0.0064341928458118711 0.00099078576022453035 0 -0.0065121806607236253 0.00080508303028750086 0 -0.0064990733880587641 0.00077429066682262388 0 -0.0064733735493812507 0.00082527357474594871 0 -0.0064535012035018087 0.00080002190199292441 0 -0.0064733735493812507 0.00082527357474594871 0 -0.0064421896204556765 0.00086225442592093536 0 -0.0064733735493812507 0.00082527357474594871 0 -0.0064421896204556765 0.00086225442592093536 0 -0.0064456497932229269 0.00090324880596346008 0 -0.0064341928458118711 0.00099078576022453035 0 -0.0064885221869671345 0.0011008074691388503 0 -0.0064599866398980773 0.00091465540216664472 0 -0.0064295138901874511 0.00091531484461674121 0 -0.0062877245428210179 0.0010390201992578176 0 -0.0064341928458118711 0.00099078576022453035 0 -0.0062866909983351838 0.001038996535827347 0 -0.0063124182309226172 0.00082650813400309963 0 -0.0063962095888622176 0.00085478019944855974 0 -0.0063344114837334759 0.00091320714535168075 0 -0.0064535012035018087 0.00080002190199292441 0 -0.0064421896204556765 0.00086225442592093536 0 -0.0063962095888622176 0.00085478019944855974 0 -0.0064421896204556765 0.00086225442592093536 0 -0.0063962095888622176 0.00085478019944855974 0 -0.0064295138901874511 0.00091531484461674121 0 -0.0064885221869671345 0.0011008074691388503 0 -0.0063651251216722497 0.0011027790770626682 0 -0.0063962095888622176 0.00085478019944855974 0 -0.0064295138901874511 0.00091531484461674121 0 -0.0063344114837334759 0.00091320714535168075 0 -0.0063972575201736992 0.0010822083879361379 0 -0.0064130334583399331 0.001091887764325331 0 -0.0063519394496708405 0.0010744602367830736 0 -0.0064421896204556765 0.00086225442592093536 0 -0.0064456497932229269 0.00090324880596346008 0 -0.0064295138901874511 0.00091531484461674121 0 -0.0064341928458118711 0.00099078576022453035 0 -0.0064300991663404691 0.00098260709715787369 0 -0.0064295138901874511 0.00091531484461674121 0 -0.0063344114837334759 0.00091320714535168075 0 -0.0062877245428210179 0.0010390201992578176 0 -0.0063519394496708405 0.0010744602367830736 0 -0.0063353298510324275 0.001151718598978763 0 -0.0062877245428210179 0.0010390201992578176 0 -0.0063972575201736992 0.0010822083879361379 0 -0.0063519394496708405 0.0010744602367830736 0 -0.0062877245428210179 0.0010390201992578176 0 -0.0063519394496708405 0.0010744602367830736 0 -0.0063353298510324275 0.001151718598978763 0 -0.0063940820388626108 0.0011374792215814442 0 -0.0064132210027165772 0.001096656410560418 0 -0.0063519394496708405 0.0010744602367830736 0 -0.0063940820388626108 0.0011374792215814442 0 -0.0063353298510324275 0.001151718598978763 0 -0.0063940820388626108 0.0011374792215814442 0 -0.006418674865248301 0.0011940539510018439 0 -0.006461399170715137 0.0012762560085637009 0 -0.0064885221869671345 0.0011008074691388503 0 -0.0064810066138098702 0.001210804163688319 0 -0.0064495837319449275 0.0011706394047291196 0 -0.006418674865248301 0.0011940539510018439 0 -0.0064869347049715609 0.0012059487304990194 0 -0.0064132210027165772 0.001096656410560418 0 -0.0064495837319449275 0.0011706394047291196 0 -0.0064132210027165772 0.001096656410560418 0 -0.0063940820388626108 0.0011374792215814442 0 -0.0064188795375017113 0.0011494535920843637 0 -0.0064132210027165772 0.001096656410560418 0 -0.0064495837319449275 0.0011706394047291196 0 -0.0064188795375017113 0.0011494535920843637 0 -0.0063940820388626108 0.0011374792215814442 0 -0.0064188795375017113 0.0011494535920843637 0 -0.006418674865248301 0.0011940539510018439 0 -0.0064495837319449275 0.0011706394047291196 0 -0.0064188795375017113 0.0011494535920843637 0 -0.006418674865248301 0.0011940539510018439 0 -0.006418674865248301 0.0011940539510018439 0 -0.0064737658091275282 0.0012828827906814805 0 -0.0063619784852423089 0.0012583000880756132 0 -0.0064810066138098702 0.001210804163688319 0 -0.006418674865248301 0.0011940539510018439 0 -0.0064737658091275282 0.0012828827906814805 0 -0.0063739942409354253 0.0013775092440085556 0 -0.0064737658091275282 0.0012828827906814805 0 -0.0063619784852423089 0.0012583000880756132 0 -0.0063353298510324275 0.001151718598978763 0 -0.0063619784852423089 0.0012583000880756132 0 -0.0062758122514727926 0.0012261857332437306 0 -0.0063353298510324275 0.001151718598978763 0 -0.006418674865248301 0.0011940539510018439 0 -0.0063619784852423089 0.0012583000880756132 0 -0.0062793733818725774 0.0013233526523455089 0 -0.0063619784852423089 0.0012583000880756132 0 -0.0062758122514727926 0.0012261857332437306 0 -0.0062793733818725774 0.0013233526523455089 0 -0.0062758122514727926 0.0012261857332437306 0 -0.0061784678577588526 0.0012605074396691974 0 -0.0062758122514727926 0.0012261857332437306 0 -0.0061784678577588526 0.0012605074396691974 0 -0.0062298096792499256 0.0011438282381788776 0 -0.0061784678577588526 0.0012605074396691974 0 -0.0061265527026562157 0.001149506024893301 0 -0.0062298096792499256 0.0011438282381788776 0 -0.006065626606811092 0.0013227180539574705 0 -0.0061784678577588526 0.0012605074396691974 0 -0.0060963283702457601 0.0012318141806418846 0 -0.006065626606811092 0.0013227180539574705 0 -0.0060963283702457601 0.0012318141806418846 0 -0.006017617437667125 0.0011963713328775147 0 -0.0060963283702457601 0.0012318141806418846 0 -0.0061265527026562157 0.001149506024893301 0 -0.006017617437667125 0.0011963713328775147 0 -0.0061784678577588526 0.0012605074396691974 0 -0.0060963283702457601 0.0012318141806418846 0 -0.0061265527026562157 0.001149506024893301 0 -0.0061265527026562157 0.001149506024893301 0 -0.0060698065120574117 0.0010474182216753209 0 -0.00619514217215404 0.0010473430657113028 0 -0.0061265527026562157 0.001149506024893301 0 -0.0060698065120574117 0.0010474182216753209 0 -0.006017617437667125 0.0011963713328775147 0 -0.0061471630725845145 0.00094329916531285974 0 -0.0060698065120574117 0.0010474182216753209 0 -0.00619514217215404 0.0010473430657113028 0 -0.00619514217215404 0.0010473430657113028 0 -0.0062877245428210179 0.0010390201992578176 0 -0.0062298096792499256 0.0011438282381788776 0 -0.0063353298510324275 0.001151718598978763 0 -0.0062877245428210179 0.0010390201992578176 0 -0.0062298096792499256 0.0011438282381788776 0 -0.0063353298510324275 0.001151718598978763 0 -0.0062758122514727926 0.0012261857332437306 0 -0.0062298096792499256 0.0011438282381788776 0 -0.0061265527026562157 0.001149506024893301 0 -0.00619514217215404 0.0010473430657113028 0 -0.0062298096792499256 0.0011438282381788776 0 -0.0058507867594317694 0.0010429893846658179 0 -0.0056916478993802111 0.00099747317436044299 0 -0.0057940017418509678 0.00092339249149058552 0 -0.0058507867594317694 0.0010429893846658179 0 -0.0057582904247864275 0.0011950726922663754 0 -0.0056916478993802111 0.00099747317436044299 0 -0.0058507867594317694 0.0010429893846658179 0 -0.0059575043975070392 0.001102852141200805 0 -0.005980448258069297 0.00098725022472832672 0 -0.0060698065120574117 0.0010474182216753209 0 -0.0059575043975070392 0.001102852141200805 0 -0.005980448258069297 0.00098725022472832672 0 -0.0060698065120574117 0.0010474182216753209 0 -0.0059575043975070392 0.001102852141200805 0 -0.006017617437667125 0.0011963713328775147 0 -0.0058507867594317694 0.0010429893846658179 0 -0.0059575043975070392 0.001102852141200805 0 -0.0058934939765347277 0.0011963095934273364 0 -0.0059575043975070392 0.001102852141200805 0 -0.0058934939765347277 0.0011963095934273364 0 -0.006017617437667125 0.0011963713328775147 0 -0.0059435394155872533 0.0013001748270449259 0 -0.006065626606811092 0.0013227180539574705 0 -0.006017617437667125 0.0011963713328775147 0 -0.0059435394155872533 0.0013001748270449259 0 -0.0058934939765347277 0.0011963095934273364 0 -0.006017617437667125 0.0011963713328775147 0 -0.0059435394155872533 0.0013001748270449259 0 -0.0058934939765347277 0.0011963095934273364 0 -0.0058337370070059846 0.0012884031062838012 0 -0.0058934939765347277 0.0011963095934273364 0 -0.0058337370070059846 0.0012884031062838012 0 -0.0057582904247864275 0.0011950726922663754 0 -0.0058507867594317694 0.0010429893846658179 0 -0.0058934939765347277 0.0011963095934273364 0 -0.0057582904247864275 0.0011950726922663754 0 -0.0057531294275883615 0.0013521532654002463 0 -0.0058337370070059846 0.0012884031062838012 0 -0.0057582904247864275 0.0011950726922663754 0 -0.0056350943943087768 0.0013202155105325084 0 -0.0057582904247864275 0.0011950726922663754 0 -0.0056374617509624006 0.0011438764341805149 0 -0.0056350943943087768 0.0013202155105325084 0 -0.0056374617509624006 0.0011438764341805149 0 -0.0055338327742607872 0.0012098282139195505 0 -0.0056374617509624006 0.0011438764341805149 0 -0.0055338327742607872 0.0012098282139195505 0 -0.00553931122237474 0.0010183468367132135 0 -0.0056374617509624006 0.0011438764341805149 0 -0.00553931122237474 0.0010183468367132135 0 -0.0056916478993802111 0.00099747317436044299 0 -0.0057582904247864275 0.0011950726922663754 0 -0.0056374617509624006 0.0011438764341805149 0 -0.0056916478993802111 0.00099747317436044299 0 -0.0056916478993802111 0.00099747317436044299 0 -0.0057116086897481613 0.00085913985220931069 0 -0.0055828136500108184 0.00082606198573194573 0 -0.0056916478993802111 0.00099747317436044299 0 -0.0057116086897481613 0.00085913985220931069 0 -0.0057940017418509678 0.00092339249149058552 0 -0.00553931122237474 0.0010183468367132135 0 -0.0056916478993802111 0.00099747317436044299 0 -0.0055828136500108184 0.00082606198573194573 0 -0.0055828136500108184 0.00082606198573194573 0 -0.0056484444749637843 0.00060220595510391639 0 -0.0054634150725854811 0.00063940214286351861 0 -0.0057116086897481613 0.00085913985220931069 0 -0.0055828136500108184 0.00082606198573194573 0 -0.005732225865524858 0.00072875114749173435 0 -0.0055828136500108184 0.00082606198573194573 0 -0.005732225865524858 0.00072875114749173435 0 -0.0056484444749637843 0.00060220595510391639 0 -0.0057116086897481613 0.00085913985220931069 0 -0.005732225865524858 0.00072875114749173435 0 -0.005828128749937757 0.00080301777632941617 0 -0.005828128749937757 0.00080301777632941617 0 -0.0059814471183312484 0.00080222195025910371 0 -0.0058486577159634449 0.00064802016254314259 0 -0.005732225865524858 0.00072875114749173435 0 -0.005828128749937757 0.00080301777632941617 0 -0.0058486577159634449 0.00064802016254314259 0 -0.0057116086897481613 0.00085913985220931069 0 -0.005828128749937757 0.00080301777632941617 0 -0.0057940017418509678 0.00092339249149058552 0 -0.005828128749937757 0.00080301777632941617 0 -0.0058883707475476769 0.00091316844526259211 0 -0.0059814471183312484 0.00080222195025910371 0 -0.005828128749937757 0.00080301777632941617 0 -0.0058883707475476769 0.00091316844526259211 0 -0.0057940017418509678 0.00092339249149058552 0 -0.0058507867594317694 0.0010429893846658179 0 -0.0058883707475476769 0.00091316844526259211 0 -0.0057940017418509678 0.00092339249149058552 0 -0.0058883707475476769 0.00091316844526259211 0 -0.005980448258069297 0.00098725022472832672 0 -0.0059814471183312484 0.00080222195025910371 0 -0.00606314931218463 0.00089337833444298081 0 -0.005980448258069297 0.00098725022472832672 0 -0.0059814471183312484 0.00080222195025910371 0 -0.0058507867594317694 0.0010429893846658179 0 -0.0058883707475476769 0.00091316844526259211 0 -0.005980448258069297 0.00098725022472832672 0 -0.0060731950717432485 0.00072781305898049812 0 -0.0059814471183312484 0.00080222195025910371 0 -0.0060096458126571248 0.00062159346037616149 0 -0.0059814471183312484 0.00080222195025910371 0 -0.0060096458126571248 0.00062159346037616149 0 -0.0058486577159634449 0.00064802016254314259 0 -0.0060096458126571248 0.00062159346037616149 0 -0.0058486577159634449 0.00064802016254314259 0 -0.0059230154431670441 0.00047954192190650317 0 -0.0058486577159634449 0.00064802016254314259 0 -0.0059230154431670441 0.00047954192190650317 0 -0.0057750631225770331 0.00049631168184248236 0 -0.0059230154431670441 0.00047954192190650317 0 -0.0059716529485666168 0.00033271926470407201 0 -0.0058396768053789782 0.00030628634749169776 0 -0.0059230154431670441 0.00047954192190650317 0 -0.0058396768053789782 0.00030628634749169776 0 -0.0057750631225770331 0.00049631168184248236 0 -0.0060550905694501814 0.00045492204372232786 0 -0.0060096458126571248 0.00062159346037616149 0 -0.0059230154431670441 0.00047954192190650317 0 -0.0060550905694501814 0.00045492204372232786 0 -0.0059230154431670441 0.00047954192190650317 0 -0.0059716529485666168 0.00033271926470407201 0 -0.0061349131862639414 0.00030148792469729949 0 -0.0059716529485666168 0.00033271926470407201 0 -0.0059868044828816072 0.00015402740325766605 0 -0.0059716529485666168 0.00033271926470407201 0 -0.0058396768053789782 0.00030628634749169776 0 -0.0059868044828816072 0.00015402740325766605 0 -0.0058396768053789782 0.00030628634749169776 0 -0.0058767040690238118 4.197593642622882e-05 0 -0.0059868044828816072 0.00015402740325766605 0 -0.0058396768053789782 0.00030628634749169776 0 -0.0058767040690238118 4.197593642622882e-05 0 -0.0056907743468503757 0.00022344125164475861 0 -0.0055210386644934974 9.9785022533719432e-05 0 -0.0057027700649903909 3.8572065791569474e-05 0 -0.0056907743468503757 0.00022344125164475861 0 -0.0055210386644934974 9.9785022533719432e-05 0 -0.0057027700649903909 3.8572065791569474e-05 0 -0.0056016709933358437 -6.6323386624830196e-05 0 -0.0058767040690238118 4.197593642622882e-05 0 -0.0057027700649903909 3.8572065791569474e-05 0 -0.0056907743468503757 0.00022344125164475861 0 -0.0058396768053789782 0.00030628634749169776 0 -0.0056907743468503757 0.00022344125164475861 0 -0.0056380358314583471 0.00040501405072141219 0 -0.0056907743468503757 0.00022344125164475861 0 -0.0056380358314583471 0.00040501405072141219 0 -0.0054811761664200478 0.00028799721707804734 0 -0.0055210386644934974 9.9785022533719432e-05 0 -0.0056907743468503757 0.00022344125164475861 0 -0.0054811761664200478 0.00028799721707804734 0 -0.0056380358314583471 0.00040501405072141219 0 -0.0056484444749637843 0.00060220595510391639 0 -0.0054988622451597911 0.00047262653663095221 0 -0.0056380358314583471 0.00040501405072141219 0 -0.0054988622451597911 0.00047262653663095221 0 -0.0054811761664200478 0.00028799721707804734 0 -0.0058396768053789782 0.00030628634749169776 0 -0.0056380358314583471 0.00040501405072141219 0 -0.0057750631225770331 0.00049631168184248236 0 -0.0056380358314583471 0.00040501405072141219 0 -0.0057750631225770331 0.00049631168184248236 0 -0.0056484444749637843 0.00060220595510391639 0 -0.005732225865524858 0.00072875114749173435 0 -0.0058486577159634449 0.00064802016254314259 0 -0.0056484444749637843 0.00060220595510391639 0 -0.0058486577159634449 0.00064802016254314259 0 -0.0057750631225770331 0.00049631168184248236 0 -0.0056484444749637843 0.00060220595510391639 0 -0.0056484444749637843 0.00060220595510391639 0 -0.0054634150725854811 0.00063940214286351861 0 -0.0054988622451597911 0.00047262653663095221 0 -0.0054634150725854811 0.00063940214286351861 0 -0.0053198736496539575 0.00045328696719143595 0 -0.0054988622451597911 0.00047262653663095221 0 -0.0053137224620449239 0.00063541335850392071 0 -0.0053198736496539575 0.00045328696719143595 0 -0.0051567893742694229 0.0004947158676326882 0 -0.0054634150725854811 0.00063940214286351861 0 -0.0053137224620449239 0.00063541335850392071 0 -0.0053198736496539575 0.00045328696719143595 0 -0.0053198736496539575 0.00045328696719143595 0 -0.0054988622451597911 0.00047262653663095221 0 -0.0054811761664200478 0.00028799721707804734 0 -0.0053198736496539575 0.00045328696719143595 0 -0.0054811761664200478 0.00028799721707804734 0 -0.00534071036200961 0.00020247579644719208 0 -0.0055210386644934974 9.9785022533719432e-05 0 -0.0054811761664200478 0.00028799721707804734 0 -0.00534071036200961 0.00020247579644719208 0 -0.00534071036200961 0.00020247579644719208 0 -0.0052099446268101821 2.2072185448119739e-05 0 -0.0052037184075590737 0.00026149580296862463 0 -0.0053198736496539575 0.00045328696719143595 0 -0.00534071036200961 0.00020247579644719208 0 -0.0052037184075590737 0.00026149580296862463 0 -0.00534071036200961 0.00020247579644719208 0 -0.0053600322625511343 3.1365919762943619e-05 0 -0.0052099446268101821 2.2072185448119739e-05 0 -0.0055210386644934974 9.9785022533719432e-05 0 -0.00534071036200961 0.00020247579644719208 0 -0.0053600322625511343 3.1365919762943619e-05 0 -0.0055210386644934974 9.9785022533719432e-05 0 -0.0053600322625511343 3.1365919762943619e-05 0 -0.0054588864499118001 -4.8003059774933031e-05 0 -0.0050980698986650731 0.00011617725423284187 0 -0.0052099446268101821 2.2072185448119739e-05 0 -0.0049999564771709588 -5.6925614801424676e-05 0 -0.0050980698986650731 0.00011617725423284187 0 -0.0049999677919107689 0.00022075486960702954 0 -0.0049999564771709588 -5.6925614801424676e-05 0 -0.0050980698986650731 0.00011617725423284187 0 -0.0052099446268101821 2.2072185448119739e-05 0 -0.0052037184075590737 0.00026149580296862463 0 -0.0050980698986650731 0.00011617725423284187 0 -0.0052037184075590737 0.00026149580296862463 0 -0.005109109158197133 0.00031278864041699731 0 -0.0050980698986650731 0.00011617725423284187 0 -0.0049999677919107689 0.00022075486960702954 0 -0.005109109158197133 0.00031278864041699731 0 -0.0049999677919107689 0.00022075486960702954 0 -0.005109109158197133 0.00031278864041699731 0 -0.0049999816082224582 0.00049834479312061612 0 -0.005109109158197133 0.00031278864041699731 0 -0.0051591112184513274 0.0004568055870582608 0 -0.0049999816082224582 0.00049834479312061612 0 -0.005308688632255385 0.0004543809035226103 0 -0.0051602106600151893 0.00047555016363862022 0 -0.0053198736496539575 0.00045328696719143595 0 -0.0052037184075590737 0.00026149580296862463 0 -0.0051591112184513274 0.0004568055870582608 0 -0.0052037184075590737 0.00026149580296862463 0 -0.005109109158197133 0.00031278864041699731 0 -0.0051591112184513274 0.0004568055870582608 0 -0.0051567893742694229 0.0004947158676326882 0 -0.0050970910118423142 0.00062296790133052062 0 -0.0052004120805082829 0.00073152085907198471 0 -0.0053137224620449239 0.00063541335850392071 0 -0.0051567893742694229 0.0004947158676326882 0 -0.0052004120805082829 0.00073152085907198471 0 -0.0051567893742694229 0.0004947158676326882 0 -0.0049999736340084434 0.00049847042986077533 0 -0.0050970910118423142 0.00062296790133052062 0 -0.0051602106600151893 0.00047555016363862022 0 -0.0050000268964515851 0.00049839269568807817 0 -0.0050970910118423142 0.00062296790133052062 0 -0.0049999747850865486 0.00077418119174097236 0 -0.0052004120805082829 0.00073152085907198471 0 -0.0049999736340084434 0.00049847042986077533 0 -0.0050970910118423142 0.00062296790133052062 0 -0.0049999747850865486 0.00077418119174097236 0 -0.0049999747850865486 0.00077418119174097236 0 -0.0051299848508650128 0.00089818996453536562 0 -0.0049999748047175017 0.0010499808508480401 0 -0.0049999747850865486 0.00077418119174097236 0 -0.0051299848508650128 0.00089818996453536562 0 -0.0052004120805082829 0.00073152085907198471 0 -0.0051299848508650128 0.00089818996453536562 0 -0.0052004120805082829 0.00073152085907198471 0 -0.0052685860980572798 0.0009186907983444576 0 -0.0053137224620449239 0.00063541335850392071 0 -0.0052004120805082829 0.00073152085907198471 0 -0.0053920184883147681 0.00084860304960464154 0 -0.0054634150725854811 0.00063940214286351861 0 -0.0053137224620449239 0.00063541335850392071 0 -0.0053920184883147681 0.00084860304960464154 0 -0.0055828136500108184 0.00082606198573194573 0 -0.0054634150725854811 0.00063940214286351861 0 -0.0053920184883147681 0.00084860304960464154 0 -0.00553931122237474 0.0010183468367132135 0 -0.0055828136500108184 0.00082606198573194573 0 -0.0053920184883147681 0.00084860304960464154 0 -0.0053920184883147681 0.00084860304960464154 0 -0.0052685860980572798 0.0009186907983444576 0 -0.0053905467432973295 0.001050659982448982 0 -0.0052004120805082829 0.00073152085907198471 0 -0.0053920184883147681 0.00084860304960464154 0 -0.0052685860980572798 0.0009186907983444576 0 -0.0052685860980572798 0.0009186907983444576 0 -0.0053905467432973295 0.001050659982448982 0 -0.0052298129918404443 0.0010637288579579455 0 -0.00553931122237474 0.0010183468367132135 0 -0.0053920184883147681 0.00084860304960464154 0 -0.0053905467432973295 0.001050659982448982 0 -0.0055338327742607872 0.0012098282139195505 0 -0.00553931122237474 0.0010183468367132135 0 -0.0053905467432973295 0.001050659982448982 0 -0.0053853946239715636 0.0012750762069620321 0 -0.0055338327742607872 0.0012098282139195505 0 -0.0053905467432973295 0.001050659982448982 0 -0.0053853946239715636 0.0012750762069620321 0 -0.0053905467432973295 0.001050659982448982 0 -0.0052298129918404443 0.0010637288579579455 0 -0.0051868051498783294 0.0012702372878592694 0 -0.0053853946239715636 0.0012750762069620321 0 -0.0052298129918404443 0.0010637288579579455 0 -0.0051868051498783294 0.0012702372878592694 0 -0.0049999748047175017 0.0010499808508480401 0 -0.0052298129918404443 0.0010637288579579455 0 -0.0049999781061620023 0.0013257570739120446 0 -0.0051868051498783294 0.0012702372878592694 0 -0.0049999748047175017 0.0010499808508480401 0 -0.0051299848508650128 0.00089818996453536562 0 -0.0049999748047175017 0.0010499808508480401 0 -0.0052298129918404443 0.0010637288579579455 0 -0.0051299848508650128 0.00089818996453536562 0 -0.0052685860980572798 0.0009186907983444576 0 -0.0052298129918404443 0.0010637288579579455 0 0.00074725897979942767 0.0040136206068026471 0 0.0007302791958986478 0.0040173301432998229 0 0.00075804970550539987 0.0039956138953635249 0 0.0010390422521440144 0.0032830048247883829 0 0.0010349372639717233 0.0033625579682629251 0 0.001005806128174389 0.0032957275491149228 0 0.0010989805896445056 0.0032977881960407894 0 0.0010390422521440144 0.0032830048247883829 0 0.0010349372639717233 0.0033625579682629251 0 0.0010349372639717233 0.0033625579682629251 0 0.001005806128174389 0.0032957275491149228 0 0.00097835691411777724 0.0034759502533857475 0 0.0010349372639717233 0.0033625579682629251 0 0.0010765324655463036 0.0034798029524223668 0 0.00097835691411777724 0.0034759502533857475 0 0.00095237322980097595 0.0037043668788709606 0 0.00092350762543659461 0.003708062727620066 0 0.0010989805896445056 0.0032977881960407894 0 0.0010349372639717233 0.0033625579682629251 0 0.0010765324655463036 0.0034798029524223668 0 0.00074725897979942767 0.0040136206068026471 0 0.0007302791958986478 0.0040173301432998229 0 0.0007890377089764235 0.0039838075048460129 0 0.0007302791958986478 0.0040173301432998229 0 0.00063133278427789747 0.0039354713182898271 0 0.00072116854390086359 0.0039588431169097797 0 0.00066761575087250001 0.0038850860050522714 0 0.0006414997269115054 0.0039320049411003741 0 0.0007302791958986478 0.0040173301432998229 0 0.0007890377089764235 0.0039838075048460129 0 0.00072116854390086359 0.0039588431169097797 0 0.00060668927080522773 0.0037692174845694337 0 0.00074236027379615227 0.0038965601434241036 0 0.00063133278427789747 0.0039354713182898271 0 0.00060668927080522773 0.0037692174845694337 0 0.00074236027379615227 0.0038965601434241036 0 0.00085374201741576555 0.0035901888973719023 0 0.00074236027379615227 0.0038965601434241036 0 0.00085374201741576555 0.0035901888973719023 0 0.0010093497086385655 0.0037561564555182287 0 0.00085374201741576555 0.0035901888973719023 0 0.00071468741701098443 0.0034520646015038046 0 0.00086344599032998719 0.0032593932973451717 0 0.00066761575087250001 0.0038850860050522714 0 0.00064444492447436131 0.0037064943868545287 0 0.00060668927080522773 0.0037692174845694337 0 0.00071468741701098443 0.0034520646015038046 0 0.00054004980219349188 0.0033649311086427674 0 0.00060668927080522773 0.0037692174845694337 0 0.00085374201741576555 0.0035901888973719023 0 0.00071468741701098443 0.0034520646015038046 0 0.00071468741701098443 0.0034520646015038046 0 0.00069995832581275881 0.0032756492892111757 0 0.00054004980219349188 0.0033649311086427674 0 0.00071468741701098443 0.0034520646015038046 0 0.00069995832581275881 0.0032756492892111757 0 0.00086344599032998719 0.0032593932973451717 0 0.00069995832581275881 0.0032756492892111757 0 0.00067155995324787816 0.0031108676971811347 0 0.00082947367280311601 0.0030798300882206712 0 0.00069995832581275881 0.0032756492892111757 0 0.00086344599032998719 0.0032593932973451717 0 0.00082947367280311601 0.0030798300882206712 0 0.00069995832581275881 0.0032756492892111757 0 0.00067155995324787816 0.0031108676971811347 0 0.00054004980219349188 0.0033649311086427674 0 0.00086344599032998719 0.0032593932973451717 0 0.0010044371699781368 0.0030531281520260385 0 0.0012066838560910106 0.0031968553507373239 0 0.00086344599032998719 0.0032593932973451717 0 0.0010274020812151613 0.0033942891046685993 0 0.0012066838560910106 0.0031968553507373239 0 0.00085374201741576555 0.0035901888973719023 0 0.00086344599032998719 0.0032593932973451717 0 0.0010274020812151613 0.0033942891046685993 0 0.0010044371699781368 0.0030531281520260385 0 0.0012152321434370573 0.002870727237620076 0 0.00095156970804646888 0.0028747586572713804 0 0.00086344599032998719 0.0032593932973451717 0 0.0010044371699781368 0.0030531281520260385 0 0.00082947367280311601 0.0030798300882206712 0 0.0010044371699781368 0.0030531281520260385 0 0.00082947367280311601 0.0030798300882206712 0 0.00095156970804646888 0.0028747586572713804 0 0.00067155995324787816 0.0031108676971811347 0 0.00082947367280311601 0.0030798300882206712 0 0.00079305874333119046 0.0029301693955094432 0 0.00082947367280311601 0.0030798300882206712 0 0.00079305874333119046 0.0029301693955094432 0 0.00095156970804646888 0.0028747586572713804 0 0.00067155995324787816 0.0031108676971811347 0 0.00079305874333119046 0.0029301693955094432 0 0.00065754931663922342 0.0029511403418152099 0 0.00079305874333119046 0.0029301693955094432 0 0.00065754931663922342 0.0029511403418152099 0 0.00073509152590130807 0.0028281769193309572 0 0.00056696257227283628 0.0029543040080108086 0 0.00065754931663922342 0.0029511403418152099 0 0.00061395897606010097 0.0028333314281902139 0 0.00056696257227283628 0.0029543040080108086 0 0.00065754931663922342 0.0029511403418152099 0 0.00058239195792554089 0.0030759948658050889 0 0.00056696257227283628 0.0029543040080108086 0 0.00049925376506521437 0.0029012960447600596 0 0.00061395897606010097 0.0028333314281902139 0 0.00056696257227283628 0.0029543040080108086 0 0.00049925376506521437 0.0029012960447600596 0 0.00048487341398958424 0.0030070882603884155 0 0.00062097716069520941 0.0030068460759852976 0 0.00070687160301656493 0.0033413227752378994 0 0.00056696257227283628 0.0029543040080108086 0 0.00048487341398958424 0.0030070882603884155 0 0.00058239195792554089 0.0030759948658050889 0 0.00067155995324787816 0.0031108676971811347 0 0.00065754931663922342 0.0029511403418152099 0 0.00058239195792554089 0.0030759948658050889 0 0.0010989805896445056 0.0032977881960407894 0 0.0010910542208197652 0.0031813745295757602 0 0.0010568605106279234 0.0032391017252789318 0 0.00070687160301656493 0.0033413227752378994 0 0.00064444492447436131 0.0037064943868545287 0 0.00048487341398958424 0.0030070882603884155 0 0.00058239195792554089 0.0030759948658050889 0 0.00054004980219349188 0.0033649311086427674 0 0.00074725897979942767 0.0040136206068026471 0 0.00072501342168335029 0.0039236580784860467 0 0.00075804970550539987 0.0039956138953635249 0 0.00095237322980097595 0.0037043668788709606 0 0.00070687160301656493 0.0033413227752378994 0 0.00067155995324787816 0.0031108676971811347 0 0.00058239195792554089 0.0030759948658050889 0 0.00054004980219349188 0.0033649311086427674 0 0.0010390422521440144 0.0032830048247883829 0 0.0010568605106279234 0.0032391017252789318 0 0.0010159736285363268 0.0032228361504819075 0 0.0010989805896445056 0.0032977881960407894 0 0.0010390422521440144 0.0032830048247883829 0 0.0010568605106279234 0.0032391017252789318 0 0.0010568605106279234 0.0032391017252789318 0 0.0010159736285363268 0.0032228361504819075 0 0.0010548491661347347 0.0032053284166345809 0 0.0011550505163228245 0.0030823823252488199 0 0.0010102422345171836 0.0025837215693911677 0 0.0012533988321243035 0.0028782782488423948 0 0.0013787135947054912 0.0024188760401326935 0 0.0011311626699220018 0.0025766416607059992 0 0.0010159736285363268 0.0032228361504819075 0 0.0010548491661347347 0.0032053284166345809 0 0.0010510431588687571 0.0030908496061334699 0 0.0010910542208197652 0.0031813745295757602 0 0.0010548491661347347 0.0032053284166345809 0 0.0010510431588687571 0.0030908496061334699 0 0.0010910542208197652 0.0031813745295757602 0 0.0010568605106279234 0.0032391017252789318 0 0.0010548491661347347 0.0032053284166345809 0 0.00098057625737667329 0.0027095140428538005 0 0.0010281785981443021 0.0029178324835039526 0 0.0011311626699220018 0.0025766416607059992 0 0.0012533988321243035 0.0028782782488423948 0 0.0010281785981443021 0.0029178324835039526 0 0.0011311626699220018 0.0025766416607059992 0 0.00098057625737667329 0.0027095140428538005 0 0.00084197277178304738 0.0027335749777463469 0 0.00091582588680755533 0.0025020174323261354 0 0.00098057625737667329 0.0027095140428538005 0 0.00090994775187492477 0.0028913116165015691 0 0.00084197277178304738 0.0027335749777463469 0 0.00098057625737667329 0.0027095140428538005 0 0.00090994775187492477 0.0028913116165015691 0 0.0010281785981443021 0.0029178324835039526 0 0.00087797464289897972 0.0031022739552271535 0 0.0010281785981443021 0.0029178324835039526 0 0.001005806128174389 0.0032957275491149228 0 0.00090994775187492477 0.0028913116165015691 0 0.00087797464289897972 0.0031022739552271535 0 0.0010281785981443021 0.0029178324835039526 0 0.00090994775187492477 0.0028913116165015691 0 0.00087797464289897972 0.0031022739552271535 0 0.00081756822028139042 0.0029821422856393474 0 0.0011550505163228245 0.0030823823252488199 0 0.00101314011364692 0.0032682337349765308 0 0.0012533988321243035 0.0028782782488423948 0 0.0010281785981443021 0.0029178324835039526 0 0.001005806128174389 0.0032957275491149228 0 0.0006024094543882829 0.002806740728180403 0 0.00071008372089890277 0.0029898088284458788 0 0.00065191328253936403 0.0026151714230989195 0 0.00076202859618760242 0.0028400948878436359 0 0.00071249479274463213 0.0030018846849935959 0 0.00044416579088906149 0.0025667296474212935 0 0.00065191328253936403 0.0026151714230989195 0 0.00071249479274463213 0.0030018846849935959 0 0.00074473020701750056 0.0030364727566620829 0 0.00073354427735827646 0.0030584670538788793 0 0.00071249479274463213 0.0030018846849935959 0 0.00065191328253936403 0.0026151714230989195 0 0.00076202859618760242 0.0028400948878436359 0 0.00084197277178304738 0.0027335749777463469 0 0.00076202859618760242 0.0028400948878436359 0 0.00084197277178304738 0.0027335749777463469 0 0.00081756822028139042 0.0029821422856393474 0 0.00090994775187492477 0.0028913116165015691 0 0.00084197277178304738 0.0027335749777463469 0 0.00081756822028139042 0.0029821422856393474 0 0.00087797464289897972 0.0031022739552271535 0 0.00081756822028139042 0.0029821422856393474 0 0.00076046730978667463 0.0030809915431349861 0 0.00081756822028139042 0.0029821422856393474 0 0.00076046730978667463 0.0030809915431349861 0 0.00071249479274463213 0.0030018846849935959 0 0.00076202859618760242 0.0028400948878436359 0 0.00081756822028139042 0.0029821422856393474 0 0.00071249479274463213 0.0030018846849935959 0 0.00073354427735827646 0.0030584670538788793 0 0.00071249479274463213 0.0030018846849935959 0 0.00073251124160078455 0.0030837296110985289 0 0.00076046730978667463 0.0030809915431349861 0 0.00071249479274463213 0.0030018846849935959 0 0.00073251124160078455 0.0030837296110985289 0 0.00073070752808380925 0.0031359718757361164 0 0.00073251124160078455 0.0030837296110985289 0 0.0007619880815837092 0.0031888424186889276 0 0.00076046730978667463 0.0030809915431349861 0 0.00073251124160078455 0.0030837296110985289 0 0.0007619880815837092 0.0031888424186889276 0 0.00076046730978667463 0.0030809915431349861 0 0.0007619880815837092 0.0031888424186889276 0 0.00090316649318508669 0.0032318260136339795 0 0.00076805659349789388 0.0030997123673930814 0 0.00086095674475663555 0.0032563438283870674 0 0.00087797464289897972 0.0031022739552271535 0 0.00076046730978667463 0.0030809915431349861 0 0.00081839092515213741 0.0032807920017314226 0 0.00090316649318508669 0.0032318260136339795 0 0.00097353182031026896 0.0033444881867736773 0 0.00084375798912123402 0.0033399354525084921 0 0.0007619880815837092 0.0031888424186889276 0 0.00090316649318508669 0.0032318260136339795 0 0.00084375798912123402 0.0033399354525084921 0 0.00076598192967379779 0.0032970325247377742 0 0.0007619880815837092 0.0031888424186889276 0 0.00084375798912123402 0.0033399354525084921 0 0.0010390422521440144 0.0032830048247883829 0 0.0010159736285363268 0.0032228361504819075 0 0.001005806128174389 0.0032957275491149228 0 0.00087797464289897972 0.0031022739552271535 0 0.00081839092515213741 0.0032807920017314226 0 0.001005806128174389 0.0032957275491149228 0 0.00081839092515213741 0.0032807920017314226 0 0.001005806128174389 0.0032957275491149228 0 0.00089768476956741375 0.0034659058583933369 0 0.00086095674475663555 0.0032563438283870674 0 0.0009335327134462405 0.003404788432697572 0 0.001005806128174389 0.0032957275491149228 0 0.00089768476956741375 0.0034659058583933369 0 0.00097835691411777724 0.0034759502533857475 0 0.00089768476956741375 0.0034659058583933369 0 0.00093161463206793108 0.0035987527205913559 0 0.00097835691411777724 0.0034759502533857475 0 0.0009335327134462405 0.003404788432697572 0 0.0010023967612303843 0.0035222056143973828 0 0.00097353182031026896 0.0033444881867736773 0 0.0009639756276085058 0.0034667537693106585 0 0.00089501941235726307 0.0034416421681645322 0 0.0009639756276085058 0.0034667537693106585 0 0.00089501941235726307 0.0034416421681645322 0 0.00093479770794847427 0.0035045292668221899 0 0.0009639756276085058 0.0034667537693106585 0 0.0010329456728186107 0.0034377816997865043 0 0.00098412367827437888 0.0035100167716941607 0 0.00097353182031026896 0.0033444881867736773 0 0.0009639756276085058 0.0034667537693106585 0 0.0010329456728186107 0.0034377816997865043 0 0.00077058683775782348 0.0034044684748792283 0 0.00084375798912123402 0.0033399354525084921 0 0.00082214801979067732 0.0034300477913689256 0 0.00076598192967379779 0.0032970325247377742 0 0.00077058683775782348 0.0034044684748792283 0 0.00084375798912123402 0.0033399354525084921 0 0.00097353182031026896 0.0033444881867736773 0 0.00084375798912123402 0.0033399354525084921 0 0.00089501941235726307 0.0034416421681645322 0 0.00084375798912123402 0.0033399354525084921 0 0.00089501941235726307 0.0034416421681645322 0 0.00082214801979067732 0.0034300477913689256 0 0.00089501941235726307 0.0034416421681645322 0 0.00082214801979067732 0.0034300477913689256 0 0.00083245602624984396 0.0034899166742568474 0 0.00077058683775782348 0.0034044684748792283 0 0.00082214801979067732 0.0034300477913689256 0 0.00078303169945465078 0.0034735346811769728 0 0.00082214801979067732 0.0034300477913689256 0 0.00078303169945465078 0.0034735346811769728 0 0.00083245602624984396 0.0034899166742568474 0 0.00075983747588598879 0.0035365080628456855 0 0.00078303169945465078 0.0034735346811769728 0 0.00080256359633348927 0.0035255936200379568 0 0.00078303169945465078 0.0034735346811769728 0 0.00083245602624984396 0.0034899166742568474 0 0.00080256359633348927 0.0035255936200379568 0 0.00083245602624984396 0.0034899166742568474 0 0.00080256359633348927 0.0035255936200379568 0 0.00083637196457172667 0.0035532440917266333 0 0.00088784233786004443 0.0035065422083767569 0 0.00083637196457172667 0.0035532440917266333 0 0.00094137354743085587 0.0035480540571280537 0 0.00083245602624984396 0.0034899166742568474 0 0.00088784233786004443 0.0035065422083767569 0 0.00083637196457172667 0.0035532440917266333 0 0.00089501941235726307 0.0034416421681645322 0 0.00088784233786004443 0.0035065422083767569 0 0.00093479770794847427 0.0035045292668221899 0 0.00089501941235726307 0.0034416421681645322 0 0.00083245602624984396 0.0034899166742568474 0 0.00088784233786004443 0.0035065422083767569 0 0.0004160542214454701 0.0037164927787305111 0 0.00040619455325080587 0.0037032948071565354 0 0.00081747784753215182 0.0035557403637871466 0 0.00095057773550803163 0.0035504998582397479 0 0.00083128214735601847 0.0035830077454315056 0 0.00083637196457172667 0.0035532440917266333 0 0.00084462634748191272 0.0035638783931150764 0 2.5292229552728664e-05 0.0038532163434743783 0 1.2132754249730555e-05 0.003859482533945489 0 3.4671692036194125e-05 0.0038240675387938294 0 0.00075292749816800936 0.0036241735771323259 0 0.00083128214735601847 0.0035830077454315056 0 0.00080118197803500486 0.0035689703510597345 0 0.00080256359633348927 0.0035255936200379568 0 0.00083637196457172667 0.0035532440917266333 0 0.00080118197803500486 0.0035689703510597345 0 0.00083128214735601847 0.0035830077454315056 0 0.00083637196457172667 0.0035532440917266333 0 0.00080118197803500486 0.0035689703510597345 0 0.00075985436553613328 0.0035909619951087213 0 0.00075292749816800936 0.0036241735771323259 0 0.00080118197803500486 0.0035689703510597345 0 0.00075983747588598879 0.0035365080628456855 0 0.00075985436553613328 0.0035909619951087213 0 0.00080118197803500486 0.0035689703510597345 0 0.00075983747588598879 0.0035365080628456855 0 0.00080256359633348927 0.0035255936200379568 0 0.00080118197803500486 0.0035689703510597345 0 0.00098412367827437888 0.0035100167716941607 0 0.0010326312125064614 0.0035434303505031814 0 0.00094137354743085587 0.0035480540571280537 0 0.0010329456728186107 0.0034377816997865043 0 0.00098412367827437888 0.0035100167716941607 0 0.0010326312125064614 0.0035434303505031814 0 0.0009639756276085058 0.0034667537693106585 0 0.00098412367827437888 0.0035100167716941607 0 0.00093479770794847427 0.0035045292668221899 0 0.00088784233786004443 0.0035065422083767569 0 0.00093479770794847427 0.0035045292668221899 0 0.00094137354743085587 0.0035480540571280537 0 0.00098412367827437888 0.0035100167716941607 0 0.00093479770794847427 0.0035045292668221899 0 0.00094137354743085587 0.0035480540571280537 0 0.00083637196457172667 0.0035532440917266333 0 0.00084384228665404981 0.0035662459366403482 0 0.00084462634748191272 0.0035638783931150764 0 0.00081420504382966454 0.003567707944791049 0 0.00084384228665404981 0.0035662459366403482 0 0.00084462634748191272 0.0035638783931150764 0 2.5292229552728664e-05 0.0038532163434743783 0 3.4671692036194125e-05 0.0038240675387938294 0 3.5640437948860463e-05 0.0038407325726122947 0 3.4671692036194125e-05 0.0038240675387938294 0 4.4577691647676446e-05 0.0038324391138212979 0 6.2099655974838565e-05 0.0038094309123839947 0 3.4671692036194125e-05 0.0038240675387938294 0 3.5640437948860463e-05 0.0038407325726122947 0 4.4577691647676446e-05 0.0038324391138212979 0 3.9361742271172741e-05 0.0038536861566700067 0 3.5640437948860463e-05 0.0038407325726122947 0 4.4577691647676446e-05 0.0038324391138212979 0 5.7415145373410939e-05 0.0038408112636889326 0 4.4577691647676446e-05 0.0038324391138212979 0 6.2099655974838565e-05 0.0038094309123839947 0 0.00062983963171833084 0.0036360298064810272 0 0.00040619455325080587 0.0037032948071565354 0 7.4205931953151178e-05 0.003772981130437733 0 3.4671692036194125e-05 0.0038240675387938294 0 6.2099655974838565e-05 0.0038094309123839947 0 0.00062983963171833084 0.0036360298064810272 0 0.00095057773550803163 0.0035504998582397479 0 7.4205931953151178e-05 0.003772981130437733 0 6.2099655974838565e-05 0.0038094309123839947 0 8.8915668181645239e-05 0.0037851083396929488 0 7.9028825900261243e-05 0.0038230661165735902 0 5.7415145373410939e-05 0.0038408112636889326 0 6.2099655974838565e-05 0.0038094309123839947 0 7.9028825900261243e-05 0.0038230661165735902 0 6.2099655974838565e-05 0.0038094309123839947 0 8.8915668181645239e-05 0.0037851083396929488 0 7.4205931953151178e-05 0.003772981130437733 0 8.8915668181645239e-05 0.0037851083396929488 0 0.00011618733065037586 0.0037421778908174851 0 7.9028825900261243e-05 0.0038230661165735902 0 0.00010832210270159125 0.0037796018106478545 0 8.8915668181645239e-05 0.0037851083396929488 0 0.00011228870064419355 0.0038243094561864199 0 0.00010832210270159125 0.0037796018106478545 0 0.00014330459867872145 0.0037771859812070706 0 0.00010832210270159125 0.0037796018106478545 0 8.8915668181645239e-05 0.0037851083396929488 0 0.00011618733065037586 0.0037421778908174851 0 0.00010832210270159125 0.0037796018106478545 0 0.00012588277710674133 0.003741502684286491 0 0.00011618733065037586 0.0037421778908174851 0 0.000328033052509403 0.0036150598960558596 0 0.00051505082796799058 0.0036433092153084143 0 0.00012588277710674133 0.003741502684286491 0 0.0002139668266776525 0.0036617441524295956 0 9.7306757967707391e-05 0.003702696604244932 0 0.00018803428495521438 0.0037946398166842808 0 0.00018552484396933908 0.003743560292000632 0 0.00014330459867872145 0.0037771859812070706 0 0.00010832210270159125 0.0037796018106478545 0 0.00014330459867872145 0.0037771859812070706 0 0.00012588277710674133 0.003741502684286491 0 0.00018552484396933908 0.003743560292000632 0 0.00014330459867872145 0.0037771859812070706 0 0.00012588277710674133 0.003741502684286491 0 0.00018552484396933908 0.003743560292000632 0 0.00012588277710674133 0.003741502684286491 0 0.0002139668266776525 0.0036617441524295956 0 0.00087147825539228259 0.0036479286657504907 0 0.0010534618027388935 0.003517799471395488 0 0.0010938116607797988 0.0035725902860987129 0 0.00092832054661993297 0.0036297772287955162 0 0.0008757406000718754 0.0035972134419583216 0 0.00087147825539228259 0.0036479286657504907 0 0.00094241114714817417 0.0036365013982453719 0 0.00093747225862731961 0.0036469082348853628 0 0.00079595595114371033 0.0035222763964330196 0 0.00087147825539228259 0.0036479286657504907 0 0.0010534618027388935 0.003517799471395488 0 0.00052080928638998433 0.0036040511697530884 0 0.00051505082796799058 0.0036433092153084143 0 0.00079595595114371033 0.0035222763964330196 0 0.00087147825539228259 0.0036479286657504907 0 0.00069468945021504327 0.003658228209886016 0 0.00087147825539228259 0.0036479286657504907 0 0.00089356304080506212 0.003692030230307891 0 0.00093747225862731961 0.0036469082348853628 0 0.00087147825539228259 0.0036479286657504907 0 0.00089356304080506212 0.003692030230307891 0 0.00075351377263502847 0.0037072677850740281 0 0.00093161463206793108 0.0035987527205913559 0 0.00094241114714817417 0.0036365013982453719 0 0.00093747225862731961 0.0036469082348853628 0 0.0010329456728186107 0.0034377816997865043 0 0.0010326312125064614 0.0035434303505031814 0 0.0010911185770865132 0.0035241966323005121 0 0.00065050447988560737 0.0036545804293485087 0 0.00070055039794900543 0.0036525253615501815 0 0.0006919247143624067 0.0036407106103821568 0 0.00062983963171833084 0.0036360298064810272 0 0.00051505082796799058 0.0036433092153084143 0 0.0010023967612303843 0.0035222056143973828 0 0.0008757406000718754 0.0035972134419583216 0 0.00062983963171833084 0.0036360298064810272 0 0.0008757406000718754 0.0035972134419583216 0 0.00051505082796799058 0.0036433092153084143 0 0.0008757406000718754 0.0035972134419583216 0 0.00093161463206793108 0.0035987527205913559 0 0.00093747225862731961 0.0036469082348853628 0 0.00096570370539366052 0.0035962557759981438 0 0.00089356304080506212 0.003692030230307891 0 0.0007348307540846631 0.0038649829356921942 0 0.00075351377263502847 0.0037072677850740281 0 0.00090074258361448893 0.0036840315228105396 0 0.00092350762543659461 0.003708062727620066 0 0.00089356304080506212 0.003692030230307891 0 0.00093747225862731961 0.0036469082348853628 0 0.00096570370539366052 0.0035962557759981438 0 0.00089356304080506212 0.003692030230307891 0 0.00096570370539366052 0.0035962557759981438 0 0.0010765324655463036 0.0034798029524223668 0 0.00089356304080506212 0.003692030230307891 0 0.0007890377089764235 0.0039838075048460129 0 0.0007348307540846631 0.0038649829356921942 0 0.00096570370539366052 0.0035962557759981438 0 0.0010765324655463036 0.0034798029524223668 0 0.00097835691411777724 0.0034759502533857475 0 0.00093161463206793108 0.0035987527205913559 0 0.00096570370539366052 0.0035962557759981438 0 0.00097835691411777724 0.0034759502533857475 0 0.00063133278427789747 0.0039354713182898271 0 0.00056745154790056201 0.003913713175124736 0 0.00052279160199868483 0.0038622132734293948 0 0.00074236027379615227 0.0038965601434241036 0 0.00063133278427789747 0.0039354713182898271 0 0.00056745154790056201 0.003913713175124736 0 0.0007890377089764235 0.0039838075048460129 0 0.00072116854390086359 0.0039588431169097797 0 0.0007348307540846631 0.0038649829356921942 0 0.00063133278427789747 0.0039354713182898271 0 0.00072116854390086359 0.0039588431169097797 0 0.0007348307540846631 0.0038649829356921942 0 0.0007348307540846631 0.0038649829356921942 0 0.00075351377263502847 0.0037072677850740281 0 0.00061865065637412996 0.0037439280259870945 0 0.0007348307540846631 0.0038649829356921942 0 0.00056973405043446662 0.0038315580202602628 0 0.00061865065637412996 0.0037439280259870945 0 0.00063133278427789747 0.0039354713182898271 0 0.0007348307540846631 0.0038649829356921942 0 0.00056973405043446662 0.0038315580202602628 0 0.00056973405043446662 0.0038315580202602628 0 0.00045265215083013273 0.003733823430735899 0 0.00061865065637412996 0.0037439280259870945 0 0.00063133278427789747 0.0039354713182898271 0 0.00056973405043446662 0.0038315580202602628 0 0.00052279160199868483 0.0038622132734293948 0 0.00056973405043446662 0.0038315580202602628 0 0.00052279160199868483 0.0038622132734293948 0 0.00045315146722525133 0.0038079178106990045 0 0.00056973405043446662 0.0038315580202602628 0 0.00045265215083013273 0.003733823430735899 0 0.00045315146722525133 0.0038079178106990045 0 0.00045265215083013273 0.003733823430735899 0 0.00043750252683846927 0.0036490417267693856 0 0.00036783343345937075 0.0037030034623443332 0 0.00045265215083013273 0.003733823430735899 0 0.00043750252683846927 0.0036490417267693856 0 0.00061865065637412996 0.0037439280259870945 0 0.00079595595114371033 0.0035222763964330196 0 0.00043750252683846927 0.0036490417267693856 0 0.00069468945021504327 0.003658228209886016 0 0.00052080928638998433 0.0036040511697530884 0 0.00045126589767764539 0.0036303343595373116 0 0.00075351377263502847 0.0037072677850740281 0 0.00069468945021504327 0.003658228209886016 0 0.00061865065637412996 0.0037439280259870945 0 0.00087147825539228259 0.0036479286657504907 0 0.00075351377263502847 0.0037072677850740281 0 0.00069468945021504327 0.003658228209886016 0 0.00043750252683846927 0.0036490417267693856 0 0.00069468945021504327 0.003658228209886016 0 0.00061865065637412996 0.0037439280259870945 0 0.0002139668266776525 0.0036617441524295956 0 0.00043750252683846927 0.0036490417267693856 0 0.00028307559772181425 0.0037374744107501389 0 0.00018552484396933908 0.003743560292000632 0 0.0002139668266776525 0.0036617441524295956 0 0.00028307559772181425 0.0037374744107501389 0 0.00018803428495521438 0.0037946398166842808 0 0.00018552484396933908 0.003743560292000632 0 0.00028307559772181425 0.0037374744107501389 0 0.00033113234389625478 0.0037357441827376493 0 0.00043750252683846927 0.0036490417267693856 0 0.00028307559772181425 0.0037374744107501389 0 0.00033113234389625478 0.0037357441827376493 0 0.00043750252683846927 0.0036490417267693856 0 0.00036783343345937075 0.0037030034623443332 0 0.00030736084233962195 0.0037377178317125719 0 0.00033113234389625478 0.0037357441827376493 0 0.00036783343345937075 0.0037030034623443332 0 0.00030736084233962195 0.0037377178317125719 0 0.00036783343345937075 0.0037030034623443332 0 0.00030180378851050842 0.0036884379277754707 0 0.00045265215083013273 0.003733823430735899 0 0.00036783343345937075 0.0037030034623443332 0 0.00034497608827429715 0.0037657041768141704 0 0.00045265215083013273 0.003733823430735899 0 0.00034497608827429715 0.0037657041768141704 0 0.00045315146722525133 0.0038079178106990045 0 0.00034497608827429715 0.0037657041768141704 0 0.00021016754679492578 0.0037116430899451947 0 0.00021815267018975316 0.0038106737522284368 0 0.00034497608827429715 0.0037657041768141704 0 0.00021815267018975316 0.0038106737522284368 0 0.00034805386836024468 0.0038447741237836643 0 0.00036783343345937075 0.0037030034623443332 0 0.00034497608827429715 0.0037657041768141704 0 0.00021016754679492578 0.0037116430899451947 0 0.00036783343345937075 0.0037030034623443332 0 0.00030180378851050842 0.0036884379277754707 0 0.00021016754679492578 0.0037116430899451947 0 7.3525975209982184e-05 0.0034880259459184972 0 0.00030180378851050842 0.0036884379277754707 0 0.00021016754679492578 0.0037116430899451947 0 7.3525975209982184e-05 0.0034880259459184972 0 0.00021016754679492578 0.0037116430899451947 0 -1.9708484900892993e-05 0.0037466683061350126 0 -0.00017251182839316432 0.0035777135002056349 0 7.3525975209982184e-05 0.0034880259459184972 0 -1.9708484900892993e-05 0.0037466683061350126 0 -1.9708484900892993e-05 0.0037466683061350126 0 4.0308284023181453e-05 0.0039143139188436175 0 -0.00018660502182180706 0.0038908049102065198 0 -1.9708484900892993e-05 0.0037466683061350126 0 0.00021815267018975316 0.0038106737522284368 0 4.0308284023181453e-05 0.0039143139188436175 0 0.00021016754679492578 0.0037116430899451947 0 -1.9708484900892993e-05 0.0037466683061350126 0 0.00021815267018975316 0.0038106737522284368 0 0.00021815267018975316 0.0038106737522284368 0 4.0308284023181453e-05 0.0039143139188436175 0 0.00023199855056214286 0.0039482948112447057 0 4.0308284023181453e-05 0.0039143139188436175 0 -0.00018660502182180706 0.0038908049102065198 0 -9.8079455847430692e-05 0.0040371158565153473 0 4.0308284023181453e-05 0.0039143139188436175 0 9.7838894799269681e-05 0.0040562369799129697 0 -9.8079455847430692e-05 0.0040371158565153473 0 -0.00013304029976540977 0.0031228596371963842 0 -0.00033582616196011151 0.0030789746045977737 0 -0.00029604595830184092 0.0031827264132885747 0 -1.2771200372973408e-05 0.0035903747569292909 0 -0.00035307349299776585 0.0036372492344426493 0 -0.00035307349299776585 0.0036372492344426493 0 -0.00072199092043323467 0.0027049440304596486 0 -1.2771200372973408e-05 0.0035903747569292909 0 0.00029540308036829483 0.0035342043289871561 0 9.7838894799269681e-05 0.0040562369799129697 0 0.00023199855056214286 0.0039482948112447057 0 0.00031711554860626987 0.0040731329031168774 0 4.0308284023181453e-05 0.0039143139188436175 0 9.7838894799269681e-05 0.0040562369799129697 0 0.00023199855056214286 0.0039482948112447057 0 0.00023199855056214286 0.0039482948112447057 0 0.00040169008711575944 0.0039567102267693078 0 0.00034805386836024468 0.0038447741237836643 0 0.00026505329202719188 0.0039302330818077186 0 0.00029540308036829483 0.0035342043289871561 0 0.00040169008711575944 0.0039567102267693078 0 0.00043720164157648223 0.0039845304439788789 0 0.000385023349371073 0.0039881109099660274 0 0.00023199855056214286 0.0039482948112447057 0 0.00040169008711575944 0.0039567102267693078 0 0.00031711554860626987 0.0040731329031168774 0 0.00040169008711575944 0.0039567102267693078 0 0.00043720164157648223 0.0039845304439788789 0 0.00050147055562869026 0.0039433529669538215 0 0.00043720164157648223 0.0039845304439788789 0 0.00050147055562869026 0.0039433529669538215 0 0.00044425968463236715 0.0040137917161267847 0 0.00074236027379615227 0.0038965601434241036 0 0.00056745154790056201 0.003913713175124736 0 0.00050147055562869026 0.0039433529669538215 0 0.00056745154790056201 0.003913713175124736 0 0.00050147055562869026 0.0039433529669538215 0 0.00046723857153828846 0.0038878093798949053 0 0.00056745154790056201 0.003913713175124736 0 0.00052279160199868483 0.0038622132734293948 0 0.00046723857153828846 0.0038878093798949053 0 0.00040169008711575944 0.0039567102267693078 0 0.00050147055562869026 0.0039433529669538215 0 0.00046723857153828846 0.0038878093798949053 0 0.00046723857153828846 0.0038878093798949053 0 0.00045315146722525133 0.0038079178106990045 0 0.00034805386836024468 0.0038447741237836643 0 0.00040169008711575944 0.0039567102267693078 0 0.00046723857153828846 0.0038878093798949053 0 0.00034805386836024468 0.0038447741237836643 0 0.00052279160199868483 0.0038622132734293948 0 0.00046723857153828846 0.0038878093798949053 0 0.00045315146722525133 0.0038079178106990045 0 0.00034497608827429715 0.0037657041768141704 0 0.00045315146722525133 0.0038079178106990045 0 0.00034805386836024468 0.0038447741237836643 0 0.00021815267018975316 0.0038106737522284368 0 0.00023199855056214286 0.0039482948112447057 0 0.00034805386836024468 0.0038447741237836643 0 -0.0010113099812439576 0.0038713987044088861 0 -0.00092848171401254862 0.0038081517689535229 0 -0.0009341225779976091 0.0039136603106753052 0 -0.0010360650559627794 0.0037561869567129002 0 -0.0010113099812439576 0.0038713987044088861 0 -0.00092848171401254862 0.0038081517689535229 0 -0.00092848171401254862 0.0038081517689535229 0 -0.00082560277455039489 0.0038263464231938845 0 -0.00086313825613674598 0.0038923200405822389 0 -0.00092848171401254862 0.0038081517689535229 0 -0.00086313825613674598 0.0038923200405822389 0 -0.0009341225779976091 0.0039136603106753052 0 -0.00092848171401254862 0.0038081517689535229 0 -0.00097227770013202409 0.0036999544213002023 0 -0.00088427318899897758 0.0037185782972649147 0 -0.00092848171401254862 0.0038081517689535229 0 -0.00088427318899897758 0.0037185782972649147 0 -0.00082560277455039489 0.0038263464231938845 0 -0.0010360650559627794 0.0037561869567129002 0 -0.00092848171401254862 0.0038081517689535229 0 -0.00097227770013202409 0.0036999544213002023 0 -0.00097227770013202409 0.0036999544213002023 0 -0.0009505410166974266 0.0036106851497949987 0 -0.00088427318899897758 0.0037185782972649147 0 -0.0010752261189385639 0.0036414432584577906 0 -0.00097227770013202409 0.0036999544213002023 0 -0.0009505410166974266 0.0036106851497949987 0 -0.00083521965695469681 0.0035723088233768742 0 -0.0009505410166974266 0.0036106851497949987 0 -0.00080918640824760211 0.0036682282391900935 0 -0.0009505410166974266 0.0036106851497949987 0 -0.00088427318899897758 0.0037185782972649147 0 -0.00080918640824760211 0.0036682282391900935 0 -0.00080918640824760211 0.0036682282391900935 0 -0.00069125477287290454 0.0037367458293206266 0 -0.00078762996741403232 0.0037526255473694183 0 -0.00088427318899897758 0.0037185782972649147 0 -0.00080918640824760211 0.0036682282391900935 0 -0.00078762996741403232 0.0037526255473694183 0 -0.00083521965695469681 0.0035723088233768742 0 -0.00080918640824760211 0.0036682282391900935 0 -0.00068317673359935245 0.003622774208725288 0 -0.00080918640824760211 0.0036682282391900935 0 -0.00068317673359935245 0.003622774208725288 0 -0.00069125477287290454 0.0037367458293206266 0 -0.00069125477287290454 0.0037367458293206266 0 -0.0007318085757878109 0.0038273758401140335 0 -0.0006150173185215964 0.0038317830397532277 0 -0.00069125477287290454 0.0037367458293206266 0 -0.00078762996741403232 0.0037526255473694183 0 -0.0007318085757878109 0.0038273758401140335 0 -0.00088427318899897758 0.0037185782972649147 0 -0.00078762996741403232 0.0037526255473694183 0 -0.00082560277455039489 0.0038263464231938845 0 -0.00078762996741403232 0.0037526255473694183 0 -0.00082560277455039489 0.0038263464231938845 0 -0.0007318085757878109 0.0038273758401140335 0 -0.00082560277455039489 0.0038263464231938845 0 -0.0007318085757878109 0.0038273758401140335 0 -0.00078327483444810494 0.0038952381369816371 0 -0.00082560277455039489 0.0038263464231938845 0 -0.00078327483444810494 0.0038952381369816371 0 -0.00086313825613674598 0.0038923200405822389 0 -0.0007318085757878109 0.0038273758401140335 0 -0.0006150173185215964 0.0038317830397532277 0 -0.00069127310974555179 0.0039094983566266527 0 -0.0007318085757878109 0.0038273758401140335 0 -0.00069127310974555179 0.0039094983566266527 0 -0.00078327483444810494 0.0038952381369816371 0 -0.00069125477287290454 0.0037367458293206266 0 -0.0006150173185215964 0.0038317830397532277 0 -0.00051525079791757021 0.003726073037942478 0 -0.0006150173185215964 0.0038317830397532277 0 -0.00051525079791757021 0.003726073037942478 0 -0.00046205958830445112 0.0039120033223613987 0 -0.00052948496385996796 0.0035202904875729626 0 -0.00068317673359935245 0.003622774208725288 0 -0.00051525079791757021 0.003726073037942478 0 -0.00051715447140432576 0.0035330934205648015 0 -0.00043123603842884869 0.0037021766005526347 0 -0.00068317673359935245 0.003622774208725288 0 -0.00069125477287290454 0.0037367458293206266 0 -0.00051525079791757021 0.003726073037942478 0 -0.00017251182839316432 0.0035777135002056349 0 -0.00052948496385996796 0.0035202904875729626 0 -0.00032523438636579156 0.0037384740244854734 0 -0.00017251182839316432 0.0035777135002056349 0 -1.9708484900892993e-05 0.0037466683061350126 0 -0.00032523438636579156 0.0037384740244854734 0 -1.9708484900892993e-05 0.0037466683061350126 0 -0.00032523438636579156 0.0037384740244854734 0 -0.00018660502182180706 0.0038908049102065198 0 -0.00043123603842884869 0.0037021766005526347 0 -0.00029939653598440882 0.0039828624126924082 0 -0.00029939653598440882 0.0039828624126924082 0 -0.00035307349299776585 0.0036372492344426493 0 -0.00046205958830445112 0.0039120033223613987 0 -0.0003949430113065948 0.0040918974741385684 0 -0.00058649701163871956 0.003945877392507108 0 -0.00035307349299776585 0.0036372492344426493 0 -0.0010419836751105987 0.0030938800567996052 0 -0.00071403812093770891 0.0029763173921312997 0 -0.00081228746672132475 0.0029962811109521931 0 -0.00094525900620600841 0.0029273912730227343 0 -0.0011833704710486662 0.00185861679613992 0 -0.0013662377472132344 0.0019239958060365098 0 -0.0011104051799028297 0.0020464351713394306 0 -0.0010898856439271075 0.0023680863672685877 0 -0.00072199092043323467 0.0027049440304596486 0 -0.0011833704710486662 0.00185861679613992 0 -0.0011104051799028297 0.0020464351713394306 0 -0.00092990135772532789 0.0019770442839478785 0 -0.00071403812093770891 0.0029763173921312997 0 -0.00081228746672132475 0.0029962811109521931 0 -0.00067995221353909249 0.0030641247441515105 0 -0.0010898856439271075 0.0023680863672685877 0 -0.0010419836751105987 0.0030938800567996052 0 -0.0011833704710486662 0.00185861679613992 0 -0.0013662377472132344 0.0019239958060365098 0 -0.0014164594200872143 0.001747838828672701 0 -0.0013662377472132344 0.0019239958060365098 0 -0.0014164594200872143 0.001747838828672701 0 -0.0015107186158473515 0.0018378860025684432 0 -0.0003949430113065948 0.0040918974741385684 0 -0.00065227456601138999 0.0040411051521127657 0 -0.00058649701163871956 0.003945877392507108 0 -0.0006150173185215964 0.0038317830397532277 0 -0.00046205958830445112 0.0039120033223613987 0 -0.00058649701163871956 0.003945877392507108 0 -0.00065227456601138999 0.0040411051521127657 0 -0.00065311551421735913 0.0039753992820816646 0 -0.00058649701163871956 0.003945877392507108 0 -0.00065227456601138999 0.0040411051521127657 0 -0.00065311551421735913 0.0039753992820816646 0 -0.00070245836064382978 0.0040195084868070285 0 -0.0010419836751105987 0.0030938800567996052 0 -0.00086049739974779595 0.0035567746547414433 0 -0.00065311551421735913 0.0039753992820816646 0 -0.00058649701163871956 0.003945877392507108 0 -0.00069127310974555179 0.0039094983566266527 0 -0.0006150173185215964 0.0038317830397532277 0 -0.00058649701163871956 0.003945877392507108 0 -0.00069127310974555179 0.0039094983566266527 0 -0.00065311551421735913 0.0039753992820816646 0 -0.00069127310974555179 0.0039094983566266527 0 -0.00069762216942286838 0.0039724489727676372 0 -0.00074047772353947759 0.0039502394019029349 0 -0.00069127310974555179 0.0039094983566266527 0 -0.00078327483444810494 0.0038952381369816371 0 -0.00074047772353947759 0.0039502394019029349 0 -0.00069127310974555179 0.0039094983566266527 0 -0.00069762216942286838 0.0039724489727676372 0 -0.00078327483444810494 0.0038952381369816371 0 -0.0008286802119513724 0.0039571203968616674 0 -0.00086313825613674598 0.0038923200405822389 0 -0.00074047772353947759 0.0039502394019029349 0 -0.00078327483444810494 0.0038952381369816371 0 -0.0008286802119513724 0.0039571203968616674 0 -0.0010758127950477691 0.0033517647899127439 0 -0.0007354500779215103 0.0038159830344346862 0 -0.0008286802119513724 0.0039571203968616674 0 -0.00077321058909529661 0.0040091220671441396 0 -0.00086296550317143512 0.0039944390721993522 0 -0.0010419836751105987 0.0030938800567996052 0 -0.0010758127950477691 0.0033517647899127439 0 -0.0010048111929586892 0.0032598726885967929 0 -0.0009583992626366973 0.0032733027812308496 0 -0.00097908102791772729 0.0032758212370057136 0 -0.0010758127950477691 0.0033517647899127439 0 -0.00086049739974779595 0.0035567746547414433 0 -0.00070812746872296367 0.0039378608839455605 0 -0.00086049739974779595 0.0035567746547414433 0 -0.00074047772353947759 0.0039502394019029349 0 -0.0008286802119513724 0.0039571203968616674 0 -0.00070245836064382978 0.0040195084868070285 0 -0.0008286802119513724 0.0039571203968616674 0 -0.00077321058909529661 0.0040091220671441396 0 -0.0007421312595258092 0.0040029943789196476 0 -0.00065311551421735913 0.0039753992820816646 0 -0.00069762216942286838 0.0039724489727676372 0 -0.00070245836064382978 0.0040195084868070285 0 -0.00074047772353947759 0.0039502394019029349 0 -0.00069762216942286838 0.0039724489727676372 0 -0.00070245836064382978 0.0040195084868070285 0 -0.0014164594200872143 0.001747838828672701 0 -0.001543670024950991 0.0017230791677054415 0 -0.0015107186158473515 0.0018378860025684432 0 -0.0013662377472132344 0.0019239958060365098 0 -0.0015107186158473515 0.0018378860025684432 0 -0.0015594688685982281 0.0019581505277499749 0 -0.0015107186158473515 0.0018378860025684432 0 -0.0015594688685982281 0.0019581505277499749 0 -0.0016754964835005394 0.0018467224377536038 0 -0.001543670024950991 0.0017230791677054415 0 -0.0015107186158473515 0.0018378860025684432 0 -0.0016754964835005394 0.0018467224377536038 0 -0.001543670024950991 0.0017230791677054415 0 -0.0016754964835005394 0.0018467224377536038 0 -0.0018390982636523284 0.0017736386147244512 0 -0.0016754964835005394 0.0018467224377536038 0 -0.0018390982636523284 0.0017736386147244512 0 -0.0018186262426727201 0.0020560856382453854 0 -0.0015594688685982281 0.0019581505277499749 0 -0.0016754964835005394 0.0018467224377536038 0 -0.0018186262426727201 0.0020560856382453854 0 -0.0009713261466485735 0.0040549593112524642 0 -0.00092759805459733768 0.0039748792968994102 0 -0.00099325862692993582 0.0039613115585779082 0 -0.0010758127950477691 0.0033517647899127439 0 -0.0011904199714771935 0.0028615063602046129 0 -0.00075532160462900874 0.0040147365748992936 0 -0.0009713261466485735 0.0040549593112524642 0 -0.00086296550317143512 0.0039944390721993522 0 -0.0009713261466485735 0.0040549593112524642 0 -0.00086296550317143512 0.0039944390721993522 0 -0.00092759805459733768 0.0039748792968994102 0 -0.00086296550317143512 0.0039944390721993522 0 -0.00092759805459733768 0.0039748792968994102 0 -0.00088289801920696156 0.003947049089243434 0 -0.00092759805459733768 0.0039748792968994102 0 -0.00088289801920696156 0.003947049089243434 0 -0.0009341225779976091 0.0039136603106753052 0 -0.0008286802119513724 0.0039571203968616674 0 -0.00086296550317143512 0.0039944390721993522 0 -0.00088289801920696156 0.003947049089243434 0 -0.0008286802119513724 0.0039571203968616674 0 -0.00088289801920696156 0.003947049089243434 0 -0.00086313825613674598 0.0038923200405822389 0 -0.00088289801920696156 0.003947049089243434 0 -0.00086313825613674598 0.0038923200405822389 0 -0.0009341225779976091 0.0039136603106753052 0 -0.0010113099812439576 0.0038713987044088861 0 -0.0009341225779976091 0.0039136603106753052 0 -0.00099325862692993582 0.0039613115585779082 0 -0.00092759805459733768 0.0039748792968994102 0 -0.0009341225779976091 0.0039136603106753052 0 -0.00099325862692993582 0.0039613115585779082 0 -0.0021479090712811823 0.0022735754433254613 0 -0.0017954905604810004 0.002391327497088337 0 -0.0018917176967486119 0.0019993982251338069 0 -0.0017954905604810004 0.002391327497088337 0 -0.0018917176967486119 0.0019993982251338069 0 -0.0015388276962523626 0.0021781411129249604 0 -0.0016869746479436043 0.0020641785977230441 0 -0.0016247107754016456 0.0021442656012560235 0 -0.0013662377472132344 0.0019239958060365098 0 -0.0015594688685982281 0.0019581505277499749 0 -0.0015388276962523626 0.0021781411129249604 0 -0.0015594688685982281 0.0019581505277499749 0 -0.0018186262426727201 0.0020560856382453854 0 -0.0015388276962523626 0.0021781411129249604 0 -0.0017954905604810004 0.002391327497088337 0 -0.0015388276962523626 0.0021781411129249604 0 -0.0015205434598707548 0.0024166567421256735 0 -0.0015205434598707548 0.0024166567421256735 0 -0.0013076819579381292 0.0022040868268529239 0 -0.001276453409024035 0.002506440410751608 0 -0.0015388276962523626 0.0021781411129249604 0 -0.0015205434598707548 0.0024166567421256735 0 -0.0013076819579381292 0.0022040868268529239 0 -0.0013662377472132344 0.0019239958060365098 0 -0.0015388276962523626 0.0021781411129249604 0 -0.0013076819579381292 0.0022040868268529239 0 -0.0013662377472132344 0.0019239958060365098 0 -0.0013076819579381292 0.0022040868268529239 0 -0.0011104051799028297 0.0020464351713394306 0 -0.0013076819579381292 0.0022040868268529239 0 -0.0011104051799028297 0.0020464351713394306 0 -0.0010764513750064549 0.0022552744278590462 0 -0.0011104051799028297 0.0020464351713394306 0 -0.00092990135772532789 0.0019770442839478785 0 -0.000957442022549133 0.0021438829841986945 0 -0.0011104051799028297 0.0020464351713394306 0 -0.0010764513750064549 0.0022552744278590462 0 -0.000957442022549133 0.0021438829841986945 0 -0.0010764513750064549 0.0022552744278590462 0 -0.0010333159843519512 0.002476022222883162 0 -0.001276453409024035 0.002506440410751608 0 -0.0013076819579381292 0.0022040868268529239 0 -0.0010764513750064549 0.0022552744278590462 0 -0.001276453409024035 0.002506440410751608 0 -0.00098924226216613492 0.0026903791335736974 0 -0.0013388791199294198 0.0027441209384099791 0 -0.001276453409024035 0.002506440410751608 0 -0.0010333159843519512 0.002476022222883162 0 -0.00098924226216613492 0.0026903791335736974 0 -0.001276453409024035 0.002506440410751608 0 6.3536570070320779e-05 0.001860827896053213 0 -0.00020929461760425068 0.0021816622434926514 0 2.2660264473729914e-05 0.0022805753444063289 0 -0.00098924226216613492 0.0026903791335736974 0 -0.0013388791199294198 0.0027441209384099791 0 -0.0011922617550031843 0.0029322983521256432 0 -0.00043208632142188139 0.0022131957997131666 0 -0.00073571604807390551 0.0026209820173897121 0 -0.0013388791199294198 0.0027441209384099791 0 -0.0015004928880606558 0.0029287290375856283 0 -0.0011922617550031843 0.0029322983521256432 0 -0.0013388791199294198 0.0027441209384099791 0 -0.001276453409024035 0.002506440410751608 0 -0.0016105530929363863 0.0026624477648585689 0 -0.0015205434598707548 0.0024166567421256735 0 -0.001276453409024035 0.002506440410751608 0 -0.0016105530929363863 0.0026624477648585689 0 -0.0017954905604810004 0.002391327497088337 0 -0.0015205434598707548 0.0024166567421256735 0 -0.0016105530929363863 0.0026624477648585689 0 -0.0016105530929363863 0.0026624477648585689 0 -0.0017814597528369555 0.0028876301802197623 0 -0.0015004928880606558 0.0029287290375856283 0 -0.0013388791199294198 0.0027441209384099791 0 -0.0016105530929363863 0.0026624477648585689 0 -0.0015004928880606558 0.0029287290375856283 0 -0.0020472410974354551 0.002688254363738853 0 -0.0017814597528369555 0.0028876301802197623 0 -0.0019607416297965051 0.0030930806622957389 0 -0.0020472410974354551 0.002688254363738853 0 -0.0016105530929363863 0.0026624477648585689 0 -0.0017814597528369555 0.0028876301802197623 0 -0.0020472410974354551 0.002688254363738853 0 -0.0017954905604810004 0.002391327497088337 0 -0.0016105530929363863 0.0026624477648585689 0 0.00040774405572627909 0.0028970387803523541 0 0.00040022880963532816 0.0028832224905298424 0 0.00040355308263281353 0.0028893488488902943 0 0.00042004346066389623 0.0029374242071140812 0 0.00040774405572627909 0.0028970387803523541 0 0.00049377048911542658 0.0029428478588918389 0 0.00056125835688456424 0.0029734208108461312 0 4.6735907760886559e-05 0.0027429459353367973 0 0.00085374201741576555 0.0035901888973719023 0 0.0011903447365080601 0.0035520689793037776 0 0.0010274020812151613 0.0033942891046685993 0 0.00085374201741576555 0.0035901888973719023 0 0.0011903447365080601 0.0035520689793037776 0 0.0010093497086385655 0.0037561564555182287 0 0.00040774405572627909 0.0028970387803523541 0 0.00039636970574985297 0.0029046171030229551 0 0.0004095435421876309 0.0028883680948835057 0 0.00042004346066389623 0.0029374242071140812 0 0.00040774405572627909 0.0028970387803523541 0 0.00039636970574985297 0.0029046171030229551 0 0.00074236027379615227 0.0038965601434241036 0 0.00050147055562869026 0.0039433529669538215 0 0.00044425968463236715 0.0040137917161267847 0 0.00042004346066389623 0.0029374242071140812 0 0.00039636970574985297 0.0029046171030229551 0 0.00039340926001812563 0.0030060939470002174 0 0.00080581943001749919 0.0032018770024724022 0 0.0006172434178193894 0.0036307745135273455 0 0.00074236027379615227 0.0038965601434241036 0 0.0010093497086385655 0.0037561564555182287 0 0.0012270080532969495 0.0040078543629990413 0 0.0011903447365080601 0.0035520689793037776 0 0.0010093497086385655 0.0037561564555182287 0 0.0012270080532969495 0.0040078543629990413 0 0.00083107174906789686 0.0039631781844196093 0 0.0006172434178193894 0.0036307745135273455 0 0.00060707780301060552 0.0037358241912567791 0 0.0006172434178193894 0.0036307745135273455 0 0.00042371120996250296 0.0029817555210734023 0 0.00043917030420748631 0.0030161389031277235 0 0.00044225291175768885 0.0029674976447659298 0 0.00042004346066389623 0.0029374242071140812 0 0.00044225291175768885 0.0029674976447659298 0 0.00049377048911542658 0.0029428478588918389 0 0.0006172434178193894 0.0036307745135273455 0 0.00029540308036829483 0.0035342043289871561 0 0.00039340926001812563 0.0030060939470002174 0 0.00042371120996250296 0.0029817555210734023 0 0.00043917030420748631 0.0030161389031277235 0 0.00043720164157648223 0.0039845304439788789 0 0.00043861677127195891 0.0040003275085246353 0 0.000385023349371073 0.0039881109099660274 0 0.00042004346066389623 0.0029374242071140812 0 0.00042371120996250296 0.0029817555210734023 0 0.00044225291175768885 0.0029674976447659298 0 0.00042004346066389623 0.0029374242071140812 0 0.00039340926001812563 0.0030060939470002174 0 0.00042371120996250296 0.0029817555210734023 0 0.00043917030420748631 0.0030161389031277235 0 0.00044225291175768885 0.0029674976447659298 0 0.00049377048911542658 0.0029428478588918389 0 0.00029540308036829483 0.0035342043289871561 0 4.6735907760886559e-05 0.0027429459353367973 0 -0.00013304029976540977 0.0031228596371963842 0 6.9758807326689392e-05 0.0031696718711504575 0 -5.3676747704728989e-05 0.0033125473108289601 0 -0.00013304029976540977 0.0031228596371963842 0 -5.3676747704728989e-05 0.0033125473108289601 0 -0.00029604595830184092 0.0031827264132885747 0 -0.00050640092868630944 0.002198312690681571 0 -0.00092990135772532789 0.0019770442839478785 0 -0.0008020662047657053 0.0022230974977660843 0 4.6735907760886559e-05 0.0027429459353367973 0 -0.00072199092043323467 0.0027049440304596486 0 -0.00092990135772532789 0.0019770442839478785 0 -0.000957442022549133 0.0021438829841986945 0 -0.0008020662047657053 0.0022230974977660843 0 -0.0012405028427019131 0.0022183772236265505 0 -0.00017811496959574202 0.0024217586893214051 0 -0.0010764513750064549 0.0022552744278590462 0 -0.0010333159843519512 0.002476022222883162 0 -0.00079263016309397594 0.0024546453690146991 0 -0.0010764513750064549 0.0022552744278590462 0 -0.000957442022549133 0.0021438829841986945 0 -0.0008020662047657053 0.0022230974977660843 0 -0.0010764513750064549 0.0022552744278590462 0 -0.0008020662047657053 0.0022230974977660843 0 -0.0007592302105345985 0.0024992156304375714 0 0.00040022880963532816 0.0028832224905298424 0 0.00040355308263281353 0.0028893488488902943 0 0.00039338519431230269 0.0028867877422978591 0 4.6735907760886559e-05 0.0027429459353367973 0 -0.00017811496959574202 0.0024217586893214051 0 -0.00050640092868630944 0.002198312690681571 0 -0.0008020662047657053 0.0022230974977660843 0 -0.0007592302105345985 0.0024992156304375714 0 0.00040355308263281353 0.0028893488488902943 0 0.00039338519431230269 0.0028867877422978591 0 0.00040697363011637448 0.002889949103601748 0 0.00033159122431787624 0.0015411559130789061 0 0.00040784335767240164 0.0019105315799520333 0 0.00077808417920524587 0.0018515453408160549 0 -0.00017811496959574202 0.0024217586893214051 0 0.00065033714974572674 0.0023411253448436427 0 -0.0010333159843519512 0.002476022222883162 0 -0.00098924226216613492 0.0026903791335736974 0 -0.00079263016309397594 0.0024546453690146991 0 6.3536570070320779e-05 0.001860827896053213 0 0.00033159122431787624 0.0015411559130789061 0 0.00040784335767240164 0.0019105315799520333 0 -0.00043208632142188139 0.0022131957997131666 0 -0.00017811496959574202 0.0024217586893214051 0 6.3536570070320779e-05 0.001860827896053213 0 0.0003020849486264731 0.0021760982134629023 0 2.2660264473729914e-05 0.0022805753444063289 0 6.3536570070320779e-05 0.001860827896053213 0 0.00040784335767240164 0.0019105315799520333 0 0.0003020849486264731 0.0021760982134629023 0 0.00040784335767240164 0.0019105315799520333 0 0.0005678773094574751 0.0021245984164655466 0 0.00077808417920524587 0.0018515453408160549 0 0.0005678773094574751 0.0021245984164655466 0 0.00077808417920524587 0.0018515453408160549 0 0.0008262788364313806 0.0023316179545670506 0 0.00040784335767240164 0.0019105315799520333 0 0.0005678773094574751 0.0021245984164655466 0 0.0003020849486264731 0.0021760982134629023 0 0.00077808417920524587 0.0018515453408160549 0 0.0012443814520735545 0.0021781625347113889 0 0.0008262788364313806 0.0023316179545670506 0 0.00065033714974572674 0.0023411253448436427 0 0.00095987583286593703 0.0026576406862059958 0 0.00040697363011637448 0.002889949103601748 0 0.0004095435421876309 0.0028883680948835057 0 0.00041534890994788533 0.0028885508310651804 0 0.00040697363011637448 0.002889949103601748 0 0.00040767855047655157 0.002890834379768554 0 0.0004095435421876309 0.0028883680948835057 0 0.00040774405572627909 0.0028970387803523541 0 0.00040355308263281353 0.0028893488488902943 0 0.00040767855047655157 0.002890834379768554 0 0.00040774405572627909 0.0028970387803523541 0 0.00040767855047655157 0.002890834379768554 0 0.0004095435421876309 0.0028883680948835057 0 0.00040355308263281353 0.0028893488488902943 0 0.00040697363011637448 0.002889949103601748 0 0.00040767855047655157 0.002890834379768554 0 0.00080581943001749919 0.0032018770024724022 0 0.00080091396236108166 0.0030862240059652849 0 0.0011903447365080601 0.0035520689793037776 0 0.0010274020812151613 0.0033942891046685993 0 0.0012066838560910106 0.0031968553507373239 0 0.00080091396236108166 0.0030862240059652849 0 0.00095987583286593703 0.0026576406862059958 0 0.0010044371699781368 0.0030531281520260385 0 0.0012066838560910106 0.0031968553507373239 0 0.0012152321434370573 0.002870727237620076 0 0.001288950122260716 0.0025285670041897837 0 0.0012480636749130026 0.0024602750324178358 0 0.0011750105604605766 0.0024874293183103405 0 0.00095987583286593703 0.0026576406862059958 0 0.0011741130429526487 0.0023900060047286568 0 0.00095987583286593703 0.0026576406862059958 0 0.0011368444200058505 0.0025999923017232199 0 0.0012443814520735545 0.0021781625347113889 0 0.0011091477650562911 0.0024556479069196839 0 0.0012790406181201507 0.0024482915223008016 0 0.0011091477650562911 0.0024556479069196839 0 0.0012790406181201507 0.0024482915223008016 0 0.0012791684727529744 0.0024630467363400497 0 0.001288950122260716 0.0025285670041897837 0 0.0012790406181201507 0.0024482915223008016 0 0.0012480636749130026 0.0024602750324178358 0 0.0012790406181201507 0.0024482915223008016 0 0.0012791684727529744 0.0024630467363400497 0 0.0012480636749130026 0.0024602750324178358 0 0.0012791684727529744 0.0024630467363400497 0 0.001359431153594617 0.0022227139106212449 0 0.0012180085920135478 0.0023482057580293475 0 0.0012791684727529744 0.0024630467363400497 0 0.0011141037769984328 0.0026909277139986003 0 0.0012611489988372715 0.0028976034365877437 0 0.0012821016834949454 0.0024516713692006929 0 0.0013294955198937569 0.0025776022765242731 0 0.0012791684727529744 0.0024630467363400497 0 0.0012480636749130026 0.0024602750324178358 0 0.0012180085920135478 0.0023482057580293475 0 0.0011091477650562911 0.0024556479069196839 0 0.0012791684727529744 0.0024630467363400497 0 0.0011141037769984328 0.0026909277139986003 0 0.00092271408159961556 0.0026084539682200642 0 0.00070684120620067203 0.00262499066540858 0 0.0008770017511243143 0.0028626858320240926 0 0.0011141037769984328 0.0026909277139986003 0 0.00092271408159961556 0.0026084539682200642 0 0.0008770017511243143 0.0028626858320240926 0 0.0011091477650562911 0.0024556479069196839 0 0.0011141037769984328 0.0026909277139986003 0 0.00092271408159961556 0.0026084539682200642 0 0.00092271408159961556 0.0026084539682200642 0 0.0008262788364313806 0.0023316179545670506 0 0.00070684120620067203 0.00262499066540858 0 0.0012443814520735545 0.0021781625347113889 0 0.0011091477650562911 0.0024556479069196839 0 0.0008262788364313806 0.0023316179545670506 0 0.0011091477650562911 0.0024556479069196839 0 0.00092271408159961556 0.0026084539682200642 0 0.0008262788364313806 0.0023316179545670506 0 0.0005678773094574751 0.0021245984164655466 0 0.0008262788364313806 0.0023316179545670506 0 0.00053024357489132921 0.0023977319016374511 0 0.0005678773094574751 0.0021245984164655466 0 0.00053024357489132921 0.0023977319016374511 0 0.0003020849486264731 0.0021760982134629023 0 0.0008262788364313806 0.0023316179545670506 0 0.00053024357489132921 0.0023977319016374511 0 0.00070684120620067203 0.00262499066540858 0 0.0003020849486264731 0.0021760982134629023 0 0.00025713343176937513 0.0024132400524420282 0 2.2660264473729914e-05 0.0022805753444063289 0 0.00053024357489132921 0.0023977319016374511 0 0.0003020849486264731 0.0021760982134629023 0 0.00025713343176937513 0.0024132400524420282 0 0.00025713343176937513 0.0024132400524420282 0 2.2660264473729914e-05 0.0022805753444063289 0 -1.8250831125679323e-05 0.0025770757020596264 0 0.00043742097033194196 0.0026294011371137105 0 0.00033057354030702554 0.0029722848245004579 0 -7.1132407764263038e-05 0.0025947580635334415 0 0.00043742097033194196 0.0026294011371137105 0 -8.7667396317561762e-05 0.0025196961455673456 0 -7.1132407764263038e-05 0.0025947580635334415 0 0.00034502972463059084 0.0026137836080962719 0 8.4376788366110424e-05 0.0025704752837703679 0 0.00025713343176937513 0.0024132400524420282 0 0.00043742097033194196 0.0026294011371137105 0 -1.8250831125679323e-05 0.0025770757020596264 0 0.00053024357489132921 0.0023977319016374511 0 0.00070684120620067203 0.00262499066540858 0 0.00043742097033194196 0.0026294011371137105 0 0.00053024357489132921 0.0023977319016374511 0 0.00025713343176937513 0.0024132400524420282 0 0.00043742097033194196 0.0026294011371137105 0 0.00070684120620067203 0.00262499066540858 0 0.00043742097033194196 0.0026294011371137105 0 0.00064768075122415946 0.0029268648712590484 0 0.00064768075122415946 0.0029268648712590484 0 0.00033057354030702554 0.0029722848245004579 0 0.00069283058627642082 0.0032671951557166862 0 0.00013553192333525026 0.0027867603772275887 0 0.00041647397152327296 0.0030988068894856244 0 0.00064768075122415946 0.0029268648712590484 0 0.00069283058627642082 0.0032671951557166862 0 0.00085879277784856154 0.0030747625587139184 0 0.00043742097033194196 0.0026294011371137105 0 0.00064768075122415946 0.0029268648712590484 0 0.00033057354030702554 0.0029722848245004579 0 0.00013553192333525026 0.0027867603772275887 0 -4.771227275951275e-05 0.0026203939066360466 0 -2.2449380384022601e-05 0.002653507135407315 0 -7.1132407764263038e-05 0.0025947580635334415 0 -7.6584144035315641e-05 0.0026428316827395719 0 -2.2449380384022601e-05 0.002653507135407315 0 -6.3536214565012794e-05 0.002679042455433313 0 -2.4575494498361815e-05 0.0027013927585007552 0 -2.2449380384022601e-05 0.002653507135407315 0 -6.3536214565012794e-05 0.002679042455433313 0 -7.6584144035315641e-05 0.0026428316827395719 0 -2.4575494498361815e-05 0.0027013927585007552 0 -8.5938113255868364e-05 0.0027297942143753619 0 7.969105637639003e-06 0.0027377488877360118 0 -0.00018064124913860406 0.0016407801840405353 0 -9.8529799725276674e-05 0.0017001913363325829 0 -6.3536214565012794e-05 0.002679042455433313 0 -2.4575494498361815e-05 0.0027013927585007552 0 -8.5938113255868364e-05 0.0027297942143753619 0 -2.4575494498361815e-05 0.0027013927585007552 0 4.0788205075912994e-05 0.0027046395891749913 0 7.969105637639003e-06 0.0027377488877360118 0 -2.2449380384022601e-05 0.002653507135407315 0 -2.4575494498361815e-05 0.0027013927585007552 0 4.0788205075912994e-05 0.0027046395891749913 0 0.00069283058627642082 0.0032671951557166862 0 0.00099125260086614414 0.0032636689703646892 0 0.0010196173403214986 0.0035437256978857962 0 0.00041647397152327296 0.0030988068894856244 0 0.00060641713477424335 0.0022689547247171076 0 0.00069283058627642082 0.0032671951557166862 0 0.00099125260086614414 0.0032636689703646892 0 0.00085879277784856154 0.0030747625587139184 0 0.00099125260086614414 0.0032636689703646892 0 0.0010778939646782803 0.0030472247022491667 0 0.00085879277784856154 0.0030747625587139184 0 0.00099125260086614414 0.0032636689703646892 0 0.0012749342783034488 0.0033184740019906928 0 0.0010196173403214986 0.0035437256978857962 0 0.0013701505399864779 0.0019300865600820327 0 0.0013226645841266989 0.0019309038635195457 0 0.0012893133063062437 0.0019627021495343296 0 0.0013701505399864779 0.0019300865600820327 0 0.0013226645841266989 0.0019309038635195457 0 0.0012976109921714626 0.0018926814044477125 0 0.0013701505399864779 0.0019300865600820327 0 0.0012893133063062437 0.0019627021495343296 0 0.0012748921856574422 0.0020910204054876381 0 0.00099125260086614414 0.0032636689703646892 0 0.0012749342783034488 0.0033184740019906928 0 0.0010778939646782803 0.0030472247022491667 0 0.0013701505399864779 0.0019300865600820327 0 0.001359431153594617 0.0022227139106212449 0 0.0012748921856574422 0.0020910204054876381 0 0.0010124722147553924 0.0025144901298218432 0 0.0013294955198937569 0.0025776022765242731 0 0.0012749342783034488 0.0033184740019906928 0 0.0012611489988372715 0.0028976034365877437 0 0.0010778939646782803 0.0030472247022491667 0 0.0011141037769984328 0.0026909277139986003 0 0.0012611489988372715 0.0028976034365877437 0 0.0010778939646782803 0.0030472247022491667 0 0.0011141037769984328 0.0026909277139986003 0 0.0010778939646782803 0.0030472247022491667 0 0.0008770017511243143 0.0028626858320240926 0 0.00070684120620067203 0.00262499066540858 0 0.00064768075122415946 0.0029268648712590484 0 0.0008770017511243143 0.0028626858320240926 0 0.00064768075122415946 0.0029268648712590484 0 0.0008770017511243143 0.0028626858320240926 0 0.00085879277784856154 0.0030747625587139184 0 0.0010778939646782803 0.0030472247022491667 0 0.0008770017511243143 0.0028626858320240926 0 0.00085879277784856154 0.0030747625587139184 0 -0.005500132812681852 0.0016723023748712582 0 -0.0040945705599900357 0.0016523728793062268 0 -0.002464657945879703 0.0021287305408124024 0 -0.0022437952141228885 0.0019450664804485389 0 -0.0025725457337093345 0.0016388374848942918 0 -0.0041539150599359245 0.0021094595384595367 0 -0.0043174061186660381 0.0017241311244788114 0 -0.0042490031446109086 0.0020942399425281934 0 -0.0040945705599900357 0.0016523728793062268 0 -0.0032195059774844793 0.0022984854468135222 0 -0.0022437952141228885 0.0019450664804485389 0 -0.0025725457337093345 0.0016388374848942918 0 -0.0020727044434301887 0.0017128758725688462 0 -0.002464657945879703 0.0021287305408124024 0 -0.0022437952141228885 0.0019450664804485389 0 -0.0022150075486222481 0.0022345951222982334 0 -0.0017814597528369555 0.0028876301802197623 0 -0.0019607416297965051 0.0030930806622957389 0 -0.0016791557179769124 0.0031374193499773568 0 -0.0032195059774844793 0.0022984854468135222 0 -0.0018042489905188879 0.0024363934522411953 0 -0.0017814597528369555 0.0028876301802197623 0 -0.0016791557179769124 0.0031374193499773568 0 -0.0015004928880606558 0.0029287290375856283 0 -0.0016791557179769124 0.0031374193499773568 0 -0.0015004928880606558 0.0029287290375856283 0 -0.0013985230608983738 0.0031775625286169363 0 -0.0020727044434301887 0.0017128758725688462 0 -0.001877785601738394 0.0021476965212255642 0 -0.001571801915934269 0.0017919043760595524 0 -0.0011215294711488435 0.0023784185287256455 0 -0.00095251337310759765 0.0024302730855797357 0 -0.0018042489905188879 0.0024363934522411953 0 -0.00095251337310759765 0.0024302730855797357 0 -0.0022437952141228885 0.0019450664804485389 0 -0.0020727044434301887 0.0017128758725688462 0 -0.001877785601738394 0.0021476965212255642 0 -0.0022437952141228885 0.0019450664804485389 0 -0.001877785601738394 0.0021476965212255642 0 -0.0022150075486222481 0.0022345951222982334 0 -0.00024589220678810665 0.0025812198547667813 0 -0.00018887146243057136 0.0025797656827413256 0 -0.00024929334142205685 0.0025078085158825522 0 -0.0003158205291383111 0.0025840927069276354 0 -0.00024589220678810665 0.0025812198547667813 0 -0.00024929334142205685 0.0025078085158825522 0 -0.00024589220678810665 0.0025812198547667813 0 -0.00018887146243057136 0.0025797656827413256 0 -0.00019865621582208342 0.0026360655326311748 0 -0.00018887146243057136 0.0025797656827413256 0 -0.00024929334142205685 0.0025078085158825522 0 -0.00014561819110153461 0.0025616265711381229 0 -0.0015004928880606558 0.0029287290375856283 0 -0.0013985230608983738 0.0031775625286169363 0 -0.0011922617550031843 0.0029322983521256432 0 -0.00048812887811615764 0.0025088949575175715 0 -0.0001820678077969282 0.0023966764017043663 0 -0.00020929461760425068 0.0021816622434926514 0 -0.00095251337310759765 0.0024302730855797357 0 -0.00073571604807390551 0.0026209820173897121 0 -0.0001820678077969282 0.0023966764017043663 0 -0.00020929461760425068 0.0021816622434926514 0 2.2660264473729914e-05 0.0022805753444063289 0 -0.0001820678077969282 0.0023966764017043663 0 2.2660264473729914e-05 0.0022805753444063289 0 -1.8250831125679323e-05 0.0025770757020596264 0 -0.00095251337310759765 0.0024302730855797357 0 8.4376788366110424e-05 0.0025704752837703679 0 -0.00048812887811615764 0.0025088949575175715 0 -0.0001820678077969282 0.0023966764017043663 0 -1.8250831125679323e-05 0.0025770757020596264 0 -8.7667396317561762e-05 0.0025196961455673456 0 -0.00014561819110153461 0.0025616265711381229 0 -7.1132407764263038e-05 0.0025947580635334415 0 -0.00024929334142205685 0.0025078085158825522 0 -8.7667396317561762e-05 0.0025196961455673456 0 -0.00014561819110153461 0.0025616265711381229 0 -0.00018887146243057136 0.0025797656827413256 0 -0.00014561819110153461 0.0025616265711381229 0 -0.00013276029852244976 0.0026165539744440807 0 -0.00014561819110153461 0.0025616265711381229 0 -7.1132407764263038e-05 0.0025947580635334415 0 -0.00013276029852244976 0.0026165539744440807 0 -7.1132407764263038e-05 0.0025947580635334415 0 -7.6584144035315641e-05 0.0026428316827395719 0 -0.00013276029852244976 0.0026165539744440807 0 -7.6584144035315641e-05 0.0026428316827395719 0 -0.00013276029852244976 0.0026165539744440807 0 -0.00012358031621898614 0.0026695893982622352 0 -0.00013276029852244976 0.0026165539744440807 0 -0.00012358031621898614 0.0026695893982622352 0 -0.00019865621582208342 0.0026360655326311748 0 -6.3536214565012794e-05 0.002679042455433313 0 -7.6584144035315641e-05 0.0026428316827395719 0 -0.00012358031621898614 0.0026695893982622352 0 -6.3536214565012794e-05 0.002679042455433313 0 -0.00012358031621898614 0.0026695893982622352 0 -8.5938113255868364e-05 0.0027297942143753619 0 -0.00018064124913860406 0.0016407801840405353 0 -9.4219618832385482e-05 0.0016242927092077022 0 -0.00012358031621898614 0.0026695893982622352 0 -8.5938113255868364e-05 0.0027297942143753619 0 -0.00022569366045636875 0.0027123788815712297 0 -0.00020413568954459748 0.00057030771882264348 0 -0.00035742776776366932 0.00052183754221506509 0 -0.00032274413678614038 0.00063809913511076236 0 -0.00035742776776366932 0.00052183754221506509 0 -0.00051018178517474679 0.00061098374253183609 0 -0.00032274413678614038 0.00063809913511076236 0 -0.00022569366045636875 0.0027123788815712297 0 -0.00019865621582208342 0.0026360655326311748 0 -0.00027507959085252859 0.0026350481554798131 0 -0.00012358031621898614 0.0026695893982622352 0 -0.00022569366045636875 0.0027123788815712297 0 -0.00019865621582208342 0.0026360655326311748 0 -0.00018887146243057136 0.0025797656827413256 0 -0.00013276029852244976 0.0026165539744440807 0 -0.00019865621582208342 0.0026360655326311748 0 -0.00024589220678810665 0.0025812198547667813 0 -0.00019865621582208342 0.0026360655326311748 0 -0.00027507959085252859 0.0026350481554798131 0 -9.4219618832385482e-05 0.0016242927092077022 0 -0.001529187636646832 0.0018520517152438064 0 -0.00022569366045636875 0.0027123788815712297 0 -0.00027507959085252859 0.0026350481554798131 0 -0.00039533607636743634 0.0026644316434863832 0 -0.0003158205291383111 0.0025840927069276354 0 -0.00027507959085252859 0.0026350481554798131 0 -0.00039533607636743634 0.0026644316434863832 0 -0.0003158205291383111 0.0025840927069276354 0 -0.00024589220678810665 0.0025812198547667813 0 -0.00027507959085252859 0.0026350481554798131 0 -0.001877785601738394 0.0021476965212255642 0 -0.0021789110278023524 0.0024958733489778809 0 -0.0022150075486222481 0.0022345951222982334 0 -0.0011215294711488435 0.0023784185287256455 0 -0.001529187636646832 0.0018520517152438064 0 -0.0004946256112560055 0.00053024127997179931 0 -0.00057720858884231611 0.00049239353332429178 0 -0.00055574975682879356 0.00046737209354116773 0 -0.00035742776776366932 0.00052183754221506509 0 -0.0004946256112560055 0.00053024127997179931 0 -0.00055574975682879356 0.00046737209354116773 0 -0.00035742776776366932 0.00052183754221506509 0 -0.00051018178517474679 0.00061098374253183609 0 -0.0004946256112560055 0.00053024127997179931 0 -0.0013969589718241112 0.00063015624519618593 0 -0.0024286996847323753 0.0012462078174593286 0 -0.00051018178517474679 0.00061098374253183609 0 -0.0004946256112560055 0.00053024127997179931 0 -0.00057720858884231611 0.00049239353332429178 0 -0.0041998687921714498 0.00078899967151573676 0 -0.0041928416941461001 0.00081908391060880718 0 -0.00422272687913928 0.00081188480125964785 0 -0.0024928925139481618 0.00091170668351296116 0 -0.0025100910534556686 0.00081913732241853648 0 -0.0025237968971229849 0.00095015171975326371 0 -0.0025871831065191965 0.00079440154324589263 0 -0.0025100910534556686 0.00081913732241853648 0 -0.0025237968971229849 0.00095015171975326371 0 -0.0039216669790508437 0.0012455017546294371 0 -0.0036195609858087276 0.00057745359382797368 0 -0.0039216669790508437 0.0012455017546294371 0 -0.0024286996847323753 0.0012462078174593286 0 -0.0013969589718241112 0.00063015624519618593 0 -0.0036195609858087276 0.00057745359382797368 0 -0.0047112704405094458 0.00024163763760741265 0 -0.0047665177940559647 0.00022560807432246048 0 -0.0047600252947893589 0.00032694509671413744 0 -0.0036195609858087276 0.00057745359382797368 0 -0.0054286182690985348 0.00082894711755974744 0 -0.0058632227529931673 0.0015232575105135235 0 -0.0059222921688008891 0.0015897188827852936 0 -0.0059520756284794779 0.001484259361864435 0 -0.0039216669790508437 0.0012455017546294371 0 -0.0054286182690985348 0.00082894711755974744 0 -0.0058632227529931673 0.0015232575105135235 0 -0.0059520756284794779 0.001484259361864435 0 -0.0058842840059771693 0.0014352111183151544 0 -0.0059632707715320653 0.0014149954103988621 0 -0.0059520756284794779 0.001484259361864435 0 -0.0058842840059771693 0.0014352111183151544 0 -0.0037212345024638179 0.001127498052239844 0 -0.0039298226185434356 0.0013797847162116243 0 -0.0037948607122850701 0.0016777101158587137 0 -0.0039216669790508437 0.0012455017546294371 0 -0.0044816376140070753 0.0013844375637575973 0 -0.0037212345024638179 0.001127498052239844 0 -0.0035935223391564859 0.0017446194667534861 0 -0.0037948607122850701 0.0016777101158587137 0 -0.0024286996847323753 0.0012462078174593286 0 -0.001529187636646832 0.0018520517152438064 0 -0.0024809293239518608 0.0018162358609225108 0 -0.0025111606122147152 0.0018541848811745132 0 -0.0024566130329941884 0.0018728977557271778 0 -0.001529187636646832 0.0018520517152438064 0 -0.0029559862797870801 0.0016971872216122567 0 -0.0024286996847323753 0.0012462078174593286 0 -0.0029559862797870801 0.0016971872216122567 0 -0.0044816376140070753 0.0013844375637575973 0 -0.0029559862797870801 0.0016971872216122567 0 -0.0040945705599900357 0.0016523728793062268 0 -0.0029559862797870801 0.0016971872216122567 0 -0.0021789110278023524 0.0024958733489778809 0 -0.0023098224767154258 0.0024530738464243339 0 -0.0022150075486222481 0.0022345951222982334 0 -0.0038034656095716161 0.0016009716285934081 0 -0.0038391189740361485 0.0013985773011211148 0 -0.003895704402636336 0.0013790347292273637 0 -0.002464657945879703 0.0021287305408124024 0 -0.0023098224767154258 0.0024530738464243339 0 -0.0022150075486222481 0.0022345951222982334 0 -0.0059632707715320653 0.0014149954103988621 0 -0.0059124138180442461 0.0013445271357057152 0 -0.0058849864597264418 0.0014403724227547772 0 -0.0040945705599900357 0.0016523728793062268 0 -0.0044816376140070753 0.0013844375637575973 0 -0.0059632707715320653 0.0014149954103988621 0 -0.0060126472708991324 0.0013772195540125919 0 -0.0059124138180442461 0.0013445271357057152 0 -0.0057789305327400732 0.0011885169500409647 0 -0.0044816376140070753 0.0013844375637575973 0 -0.0047266849754177579 0.00042597502510852538 0 -0.0046853455137584312 0.0003921036520335195 0 -0.0047126020402088482 0.0004431331687924477 0 -0.0047266849754177579 0.00042597502510852538 0 -0.0047600252947893589 0.00032694509671413744 0 -0.0046853455137584312 0.0003921036520335195 0 -0.0048494314533652737 0.00041683761603790616 0 -0.0047266849754177579 0.00042597502510852538 0 -0.0047600252947893589 0.00032694509671413744 0 -0.0036195609858087276 0.00057745359382797368 0 -0.003648539562874459 0.00042379413624692419 0 -0.0047112704405094458 0.00024163763760741265 0 -0.0047600252947893589 0.00032694509671413744 0 -0.0046853455137584312 0.0003921036520335195 0 -0.0013969589718241112 0.00063015624519618593 0 -0.0014550903592420276 0.00059366451002575561 0 -0.0025790186241032142 0.0004917422401791399 0 -0.0026115024532085843 0.00048401792571476547 0 -0.0025929563553899913 0.00055686467007595719 0 -0.0013969589718241112 0.00063015624519618593 0 -0.00010532822565948649 0.00063430288592241149 0 -0.0025790186241032142 0.0004917422401791399 0 -0.0025360929278151279 0.00057091366263797426 0 -0.0025929563553899913 0.00055686467007595719 0 -0.00038430605365663871 0.00053988618464570915 0 -0.00031705800815586991 0.0006474980477926387 0 -0.00026886440013038304 0.00057369068043703806 0 -0.003648539562874459 0.00042379413624692419 0 -0.0036436154201521949 0.00057800072449302206 0 -0.0025360929278151279 0.00057091366263797426 0 -0.0025929563553899913 0.00055686467007595719 0 -0.0025780590910668231 0.00063487630046587021 0 -0.0046853455137584312 0.0003921036520335195 0 -0.0046837694124053546 0.00045710570663896812 0 -0.0047126020402088482 0.0004431331687924477 0 -0.00031705800815586991 0.0006474980477926387 0 -0.00026886440013038304 0.00057369068043703806 0 -0.00023076221022883128 0.00064423165404333576 0 -0.00031705800815586991 0.0006474980477926387 0 -0.00025470217350667955 0.0006732188615874102 0 -0.00023076221022883128 0.00064423165404333576 0 -0.00026886440013038304 0.00057369068043703806 0 -0.00023076221022883128 0.00064423165404333576 0 -0.00018630938439153681 0.00062785416867186235 0 -0.00020413568954459748 0.00057030771882264348 0 -0.00032274413678614038 0.00063809913511076236 0 -0.00018630938439153681 0.00062785416867186235 0 -0.00010532822565948649 0.00063430288592241149 0 -0.00027397350771692715 0.00060900914560506434 0 -0.00023076221022883128 0.00064423165404333576 0 -0.00018630938439153681 0.00062785416867186235 0 -0.00017077665596356228 0.0006700767641769843 0 -0.00025470217350667955 0.0006732188615874102 0 -0.00023076221022883128 0.00064423165404333576 0 -0.00021356584525287903 0.0006735996012980672 0 -0.00023076221022883128 0.00064423165404333576 0 -0.00021356584525287903 0.0006735996012980672 0 -0.00017077665596356228 0.0006700767641769843 0 -0.00018549695379274552 0.00069055803682647663 0 -0.00015603124105303015 0.00070694189079720303 0 -0.00017077665596356228 0.0006700767641769843 0 -0.00018549695379274552 0.00069055803682647663 0 -0.00021356584525287903 0.0006735996012980672 0 -0.00017077665596356228 0.0006700767641769843 0 -0.00025470217350667955 0.0006732188615874102 0 -0.00021356584525287903 0.0006735996012980672 0 -0.00023155082466811352 0.00069598207831944906 0 -0.00018549695379274552 0.00069055803682647663 0 -0.00021356584525287903 0.0006735996012980672 0 -0.00023155082466811352 0.00069598207831944906 0 -0.00023155082466811352 0.00069598207831944906 0 -0.00021761333871191802 0.00071939622275184092 0 -0.00027444114470862079 0.00072228973903317925 0 -0.00018549695379274552 0.00069055803682647663 0 -0.00023155082466811352 0.00069598207831944906 0 -0.00021761333871191802 0.00071939622275184092 0 -0.00018549695379274552 0.00069055803682647663 0 -0.00021761333871191802 0.00071939622275184092 0 -0.00018824121032274329 0.00071024217406937516 0 -0.00021761333871191802 0.00071939622275184092 0 -0.00018824121032274329 0.00071024217406937516 0 -0.0001898395318263012 0.00072657211553658094 0 -0.00018549695379274552 0.00069055803682647663 0 -0.00018824121032274329 0.00071024217406937516 0 -0.00015603124105303015 0.00070694189079720303 0 -0.00018824121032274329 0.00071024217406937516 0 -0.00015603124105303015 0.00070694189079720303 0 -0.0001898395318263012 0.00072657211553658094 0 -0.0001898395318263012 0.00072657211553658094 0 -0.00016582287764707861 0.00075090932753769598 0 -0.00024708276566970763 0.00079805960725187817 0 -0.00015603124105303015 0.00070694189079720303 0 -0.0001898395318263012 0.00072657211553658094 0 -0.00016582287764707861 0.00075090932753769598 0 -0.00087927610360304012 0.00046769383770557942 0 -0.00085670261058860711 0.00045623927788934938 0 -0.00087725034805622739 0.00044905578771140794 0 -0.00038152860997193793 0.00056163895623296005 0 -0.0011916873748096558 0.00045733175999788402 0 -0.00088223527284902277 0.00047814383197124617 0 -0.00087927610360304012 0.00046769383770557942 0 -0.00085670261058860711 0.00045623927788934938 0 -0.00021761333871191802 0.00071939622275184092 0 -0.00024708276566970763 0.00079805960725187817 0 -0.00027444114470862079 0.00072228973903317925 0 -0.00021761333871191802 0.00071939622275184092 0 -0.0001898395318263012 0.00072657211553658094 0 -0.00024708276566970763 0.00079805960725187817 0 -0.0012673686586427884 0.00061807459210652996 0 -0.0034011158181521 0.00046643151212330975 0 -0.0019046048515285324 0.00041868533228481389 0 -0.0020346487836723302 0.00013431474001367522 0 -0.0023672605505334048 0.00045188845528568324 0 -0.0011916873748096558 0.00045733175999788402 0 -0.0012673686586427884 0.00061807459210652996 0 -0.0014550903592420276 0.00059366451002575561 0 -0.0012673686586427884 0.00061807459210652996 0 -0.00025470217350667955 0.0006732188615874102 0 -0.00023155082466811352 0.00069598207831944906 0 -0.00026620197499735871 0.00072744393278842911 0 -0.00031705800815586991 0.0006474980477926387 0 -0.00025470217350667955 0.0006732188615874102 0 -0.00026620197499735871 0.00072744393278842911 0 -0.00035746907399616555 0.00045561353035204576 0 -0.0012673686586427884 0.00061807459210652996 0 -0.0025360929278151279 0.00057091366263797426 0 -0.0024918708917849933 0.00065753971981870904 0 -0.0025780590910668231 0.00063487630046587021 0 -0.0046837694124053546 0.00045710570663896812 0 -0.0047094684081252268 0.00046669502021970128 0 -0.0046695470670001966 0.00049683531434821363 0 -0.0036436154201521949 0.00057800072449302206 0 -0.0034011158181521 0.00046643151212330975 0 -0.0024918708917849933 0.00065753971981870904 0 -0.0025780590910668231 0.00063487630046587021 0 -0.0025638078984794787 0.00071846971177541 0 -0.004730688740399485 0.00048347865213862806 0 -0.0047094684081252268 0.00046669502021970128 0 -0.0046695470670001966 0.00049683531434821363 0 -0.004730688740399485 0.00048347865213862806 0 -0.0047094684081252268 0.00046669502021970128 0 -0.0047362182953658389 0.00044947936845664792 0 -0.0047094684081252268 0.00046669502021970128 0 -0.0047362182953658389 0.00044947936845664792 0 -0.0047126020402088482 0.0004431331687924477 0 -0.0046837694124053546 0.00045710570663896812 0 -0.0047094684081252268 0.00046669502021970128 0 -0.0047126020402088482 0.0004431331687924477 0 -0.0047266849754177579 0.00042597502510852538 0 -0.0047362182953658389 0.00044947936845664792 0 -0.0047126020402088482 0.0004431331687924477 0 0.00023339126895513101 0.0004864464335533953 0 0.00027197915157383253 0.00040046776491632554 0 0.00012992516729486392 0.00049348360584708048 0 0.00030392459337759035 0.0013307348490486472 0 -7.4349134040843525e-07 0.00044727719640923387 0 0.00028017597419295056 0.00046208577897312173 0 0.00023339126895513101 0.0004864464335533953 0 0.00027197915157383253 0.00040046776491632554 0 0.00028017597419295056 0.00046208577897312173 0 0.00032342677565658939 0.00045576263023297965 0 0.00029915234365254789 0.00043087633272930219 0 0.00023339126895513101 0.0004864464335533953 0 0.00026573159175106569 0.00051437156999266549 0 0.00021932648033809587 0.00057686526390291729 0 0.00028017597419295056 0.00046208577897312173 0 0.00026573159175106569 0.00051437156999266549 0 0.00032056928689148343 0.00050445742311332577 0 0.00028017597419295056 0.00046208577897312173 0 0.00023339126895513101 0.0004864464335533953 0 0.00026573159175106569 0.00051437156999266549 0 0.00026573159175106569 0.00051437156999266549 0 0.00032056928689148343 0.00050445742311332577 0 0.00030114567688643715 0.00055528546728606117 0 0.00038539641722420715 0.00047258235722632945 0 0.00035220806461656997 0.00047948920943154415 0 0.00039287229028571832 0.00057981573829902827 0 0.00080928997074776314 0.0011160070678288413 0 0.0003952556183351028 0.00036265004613620738 0 0.00032056928689148343 0.00050445742311332577 0 0.00035220806461656997 0.00047948920943154415 0 0.00039287229028571832 0.00057981573829902827 0 0.00038539641722420715 0.00047258235722632945 0 0.00036409598360549099 0.00045148641502735224 0 0.00035220806461656997 0.00047948920943154415 0 0.0007515138204270209 0.0013449792629088176 0 0.00073815401442306667 0.0013322435906796049 0 0.00074949426399554154 0.0013202116119484467 0 0.00080928997074776314 0.0011160070678288413 0 0.00056470390072308407 0.0010020084635105563 0 0.00080928997074776314 0.0011160070678288413 0 0.00098475057042733032 0.0016052230521625905 0 0.00028017597419295056 0.00046208577897312173 0 0.00032056928689148343 0.00050445742311332577 0 0.00032342677565658939 0.00045576263023297965 0 0.00032056928689148343 0.00050445742311332577 0 0.00035220806461656997 0.00047948920943154415 0 0.00032342677565658939 0.00045576263023297965 0 0.00036409598360549099 0.00045148641502735224 0 0.00035220806461656997 0.00047948920943154415 0 0.00032342677565658939 0.00045576263023297965 0 0.00036409598360549099 0.00045148641502735224 0 0.00032342677565658939 0.00045576263023297965 0 0.0003290365065610732 0.00041740867269505013 0 0.00032342677565658939 0.00045576263023297965 0 0.0003290365065610732 0.00041740867269505013 0 0.00029915234365254789 0.00043087633272930219 0 0.00072279009079035316 0.0022553364813204363 0 0.00084905190728504709 0.001921829253066302 0 0.00096690421374979118 0.0020314041579836441 0 0.00072279009079035316 0.0022553364813204363 0 0.00084905190728504709 0.001921829253066302 0 0.0006977076369790769 0.0018708333618560581 0 0.0010124722147553924 0.0025144901298218432 0 0.00098475057042733032 0.0016052230521625905 0 0.0013701505399864779 0.0019300865600820327 0 0.001351241003323543 0.0017299290289000699 0 0.0012976109921714626 0.0018926814044477125 0 0.00056470390072308407 0.0010020084635105563 0 0.0005348655250397925 0.0013764819685402308 0 0.0005348655250397925 0.0013764819685402308 0 0.00060641713477424335 0.0022689547247171076 0 0.00073815401442306667 0.0013322435906796049 0 0.00071477147121218971 0.0013100552142156223 0 0.00074949426399554154 0.0013202116119484467 0 0.0005348655250397925 0.0013764819685402308 0 0.00098475057042733032 0.0016052230521625905 0 0.0010124722147553924 0.0025144901298218432 0 0.00060641713477424335 0.0022689547247171076 0 4.0788205075912994e-05 0.0027046395891749913 0 9.8066699690987609e-05 0.0027414735715891986 0 8.8217470694366282e-05 0.002749843058644055 0 0.00060641713477424335 0.0022689547247171076 0 0.00030392459337759035 0.0013307348490486472 0 0.0005348655250397925 0.0013764819685402308 0 0.00030392459337759035 0.0013307348490486472 0 0.00028017597419295056 0.00046208577897312173 0 0.00027197915157383253 0.00040046776491632554 0 0.00029915234365254789 0.00043087633272930219 0 0.0003290365065610732 0.00041740867269505013 0 0.00027197915157383253 0.00040046776491632554 0 0.00029915234365254789 0.00043087633272930219 0 0.00058087257907847817 0.0014967911055278225 0 0.0005017539991669991 0.0014261750505778559 0 0.00046407296208700262 0.0014595018938408954 0 0.00030392459337759035 0.0013307348490486472 0 -9.8529799725276674e-05 0.0017001913363325829 0 -6.546098579056715e-05 0.00063270097960242352 0 -0.00012670908179096251 0.00060614057475083841 0 -0.00011645777926610244 0.00063765946626968817 0 4.0788205075912994e-05 0.0027046395891749913 0 8.8217470694366282e-05 0.002749843058644055 0 7.969105637639003e-06 0.0027377488877360118 0 -0.00012670908179096251 0.00060614057475083841 0 -0.00011645777926610244 0.00063765946626968817 0 -0.0001476754400376499 0.00063929505577511923 0 -0.00020413568954459748 0.00057030771882264348 0 -0.00016552998419972991 0.00061214666592036588 0 -0.00018630938439153681 0.00062785416867186235 0 -0.00020413568954459748 0.00057030771882264348 0 -0.00012670908179096251 0.00060614057475083841 0 -0.00016552998419972991 0.00061214666592036588 0 -0.00012670908179096251 0.00060614057475083841 0 -0.00016552998419972991 0.00061214666592036588 0 -0.0001476754400376499 0.00063929505577511923 0 -0.00016552998419972991 0.00061214666592036588 0 -0.0001476754400376499 0.00063929505577511923 0 -0.00018630938439153681 0.00062785416867186235 0 -0.0001476754400376499 0.00063929505577511923 0 -0.00017077665596356228 0.0006700767641769843 0 -0.00012885130711049489 0.00067104032640964489 0 -0.0001476754400376499 0.00063929505577511923 0 -0.00018630938439153681 0.00062785416867186235 0 -0.00017077665596356228 0.0006700767641769843 0 -6.546098579056715e-05 0.00063270097960242352 0 -0.00011645777926610244 0.00063765946626968817 0 -0.00012885130711049489 0.00067104032640964489 0 -0.00011645777926610244 0.00063765946626968817 0 -0.0001476754400376499 0.00063929505577511923 0 -0.00012885130711049489 0.00067104032640964489 0 0.00023339126895513101 0.0004864464335533953 0 0.00012992516729486392 0.00049348360584708048 0 0.00021932648033809587 0.00057686526390291729 0 0.00012992516729486392 0.00049348360584708048 0 0.0001411839610594499 0.00062843474273068683 0 0.00021932648033809587 0.00057686526390291729 0 0.00012992516729486392 0.00049348360584708048 0 0.0001411839610594499 0.00062843474273068683 0 4.4201800131791075e-06 0.00063354428932893732 0 0.0001411839610594499 0.00062843474273068683 0 4.4201800131791075e-06 0.00063354428932893732 0 7.4812502700694536e-05 0.00069202174906015333 0 -0.00015603124105303015 0.00070694189079720303 0 0.00012992516729486392 0.00049348360584708048 0 4.4201800131791075e-06 0.00063354428932893732 0 -0.00016095026428445419 0.00075003015091142306 0 -7.4349134040843525e-07 0.00044727719640923387 0 -0.00015603124105303015 0.00070694189079720303 0 -0.00017077665596356228 0.0006700767641769843 0 -0.00012885130711049489 0.00067104032640964489 0 -0.00015603124105303015 0.00070694189079720303 0 -0.00016582287764707861 0.00075090932753769598 0 4.4201800131791075e-06 0.00063354428932893732 0 -0.00038152860997193793 0.00056163895623296005 0 7.6990923633228975e-06 0.0006015519066664357 0 -0.00088223527284902277 0.00047814383197124617 0 -0.00087927610360304012 0.00046769383770557942 0 -0.00089577232997703309 0.000423234247539294 0 -1.640634537710048e-05 0.00068106791971834666 0 4.4201800131791075e-06 0.00063354428932893732 0 2.1724451746597934e-05 0.00069285767847218876 0 4.4201800131791075e-06 0.00063354428932893732 0 2.1724451746597934e-05 0.00069285767847218876 0 7.4812502700694536e-05 0.00069202174906015333 0 2.1724451746597934e-05 0.00069285767847218876 0 6.4119559577461489e-05 0.00073017048204583113 0 7.4812502700694536e-05 0.00069202174906015333 0 2.1724451746597934e-05 0.00069285767847218876 0 6.4119559577461489e-05 0.00073017048204583113 0 2.2476350667152e-05 0.00073306077826826462 0 -1.640634537710048e-05 0.00068106791971834666 0 2.1724451746597934e-05 0.00069285767847218876 0 2.2476350667152e-05 0.00073306077826826462 0 0.0001411839610594499 0.00062843474273068683 0 0.00017478522920037155 0.0006892662341379766 0 0.00022930487282339445 0.00064483242016612978 0 0.0001411839610594499 0.00062843474273068683 0 0.00017478522920037155 0.0006892662341379766 0 7.4812502700694536e-05 0.00069202174906015333 0 0.00017478522920037155 0.0006892662341379766 0 7.4812502700694536e-05 0.00069202174906015333 0 0.00014258615311115875 0.00073316195440649727 0 6.4119559577461489e-05 0.00073017048204583113 0 7.4812502700694536e-05 0.00069202174906015333 0 0.00014258615311115875 0.00073316195440649727 0 0.00017478522920037155 0.0006892662341379766 0 0.00014258615311115875 0.00073316195440649727 0 0.00021604821051580934 0.00074033012760603358 0 0.00017478522920037155 0.0006892662341379766 0 0.00023848231195434477 0.00069406091132998937 0 0.00021604821051580934 0.00074033012760603358 0 0.00023848231195434477 0.00069406091132998937 0 0.00028893263060071638 0.00072419134373033511 0 0.00029227361819250772 0.00066824161555496234 0 0.00023848231195434477 0.00069406091132998937 0 0.00028893263060071638 0.00072419134373033511 0 0.00021604821051580934 0.00074033012760603358 0 0.00029227361819250772 0.00066824161555496234 0 0.00022930487282339445 0.00064483242016612978 0 0.00029995605208832946 0.00060899568215069637 0 0.00023848231195434477 0.00069406091132998937 0 0.00029227361819250772 0.00066824161555496234 0 0.00022930487282339445 0.00064483242016612978 0 0.00017478522920037155 0.0006892662341379766 0 0.00023848231195434477 0.00069406091132998937 0 0.00022930487282339445 0.00064483242016612978 0 0.0001411839610594499 0.00062843474273068683 0 0.00022930487282339445 0.00064483242016612978 0 0.00021932648033809587 0.00057686526390291729 0 0.00022930487282339445 0.00064483242016612978 0 0.00029995605208832946 0.00060899568215069637 0 0.00021932648033809587 0.00057686526390291729 0 0.00026573159175106569 0.00051437156999266549 0 0.00030114567688643715 0.00055528546728606117 0 0.00021932648033809587 0.00057686526390291729 0 0.00029995605208832946 0.00060899568215069637 0 0.00030114567688643715 0.00055528546728606117 0 0.00021932648033809587 0.00057686526390291729 0 0.00029995605208832946 0.00060899568215069637 0 0.00030114567688643715 0.00055528546728606117 0 0.00039287229028571832 0.00057981573829902827 0 0.00032056928689148343 0.00050445742311332577 0 0.00030114567688643715 0.00055528546728606117 0 0.00039287229028571832 0.00057981573829902827 0 0.00029995605208832946 0.00060899568215069637 0 0.00039287229028571832 0.00057981573829902827 0 0.00036068385970133463 0.00064627404489057396 0 0.00039287229028571832 0.00057981573829902827 0 0.00036068385970133463 0.00064627404489057396 0 0.00042692924328678529 0.0006502348408357222 0 0.00036068385970133463 0.00064627404489057396 0 0.00039883460579686681 0.00069372973563782499 0 0.00042692924328678529 0.0006502348408357222 0 0.00036068385970133463 0.00064627404489057396 0 0.00034315367941318377 0.00069669154978402965 0 0.00039883460579686681 0.00069372973563782499 0 0.00029227361819250772 0.00066824161555496234 0 0.00029995605208832946 0.00060899568215069637 0 0.00036068385970133463 0.00064627404489057396 0 0.00029227361819250772 0.00066824161555496234 0 0.00036068385970133463 0.00064627404489057396 0 0.00034315367941318377 0.00069669154978402965 0 0.00028893263060071638 0.00072419134373033511 0 0.00034315367941318377 0.00069669154978402965 0 0.0003651345334706492 0.0007602303450726512 0 0.00028893263060071638 0.00072419134373033511 0 0.00029227361819250772 0.00066824161555496234 0 0.00034315367941318377 0.00069669154978402965 0 0.00034315367941318377 0.00069669154978402965 0 0.00039883460579686681 0.00069372973563782499 0 0.0003651345334706492 0.0007602303450726512 0 0.00039883460579686681 0.00069372973563782499 0 0.00045431882901665724 0.00068328923652041795 0 0.00043685840143658155 0.00073296335154644137 0 0.00039883460579686681 0.00069372973563782499 0 0.00042692924328678529 0.0006502348408357222 0 0.00045431882901665724 0.00068328923652041795 0 0.00042692924328678529 0.0006502348408357222 0 0.00046075389805366523 0.00064283367910918608 0 0.00044055797642582383 0.00061628215358066219 0 0.00046075389805366523 0.00064283367910918608 0 0.00050125982552120195 0.00067149136223715073 0 0.00047736021273175389 0.00059647094352797058 0 0.00042692924328678529 0.0006502348408357222 0 0.00046075389805366523 0.00064283367910918608 0 0.00045431882901665724 0.00068328923652041795 0 0.00046075389805366523 0.00064283367910918608 0 0.00045431882901665724 0.00068328923652041795 0 0.00050125982552120195 0.00067149136223715073 0 0.00045431882901665724 0.00068328923652041795 0 0.00048504462852773524 0.00071491884299047781 0 0.00050125982552120195 0.00067149136223715073 0 0.00045431882901665724 0.00068328923652041795 0 0.00048504462852773524 0.00071491884299047781 0 0.00043685840143658155 0.00073296335154644137 0 0.00053017929236348898 0.00071575448851563092 0 0.00057891896623973275 0.00070342437519223429 0 0.00050125982552120195 0.00067149136223715073 0 0.00057891896623973275 0.00070342437519223429 0 0.00050125982552120195 0.00067149136223715073 0 0.00047736021273175389 0.00059647094352797058 0 0.0011633673422958434 0.0014252105765989352 0 0.0011556159993732519 0.0014650168060141241 0 0.0011573381738735318 0.0014705682969606657 0 0.00048504462852773524 0.00071491884299047781 0 0.00053017929236348898 0.00071575448851563092 0 0.00050125982552120195 0.00067149136223715073 0 0.00087353569403232146 0.0010677052847456743 0 0.00079895996391103564 0.0010023621230974837 0 0.0011556159993732519 0.0014650168060141241 0 0.0011544013668600534 0.0015765472480430015 0 0.0012347654577540973 0.0015925754023249025 0 0.0011556159993732519 0.0014650168060141241 0 0.0011557078760284895 0.0014611286083916486 0 0.0011573381738735318 0.0014705682969606657 0 0.0011207839559666706 0.0014398988892928386 0 0.0012812592112833355 0.0016013106910342868 0 0.0011544013668600534 0.0015765472480430015 0 0.0012347654577540973 0.0015925754023249025 0 0.0011772782314843756 0.001644068685100422 0 0.0011002582382674308 0.0014283339907881312 0 0.0011557078760284895 0.0014611286083916486 0 0.0011573381738735318 0.0014705682969606657 0 0.00039039415708308939 0.0005029505706622817 0 0.00039287229028571832 0.00057981573829902827 0 0.00047736021273175389 0.00059647094352797058 0 0.00039287229028571832 0.00057981573829902827 0 0.00042692924328678529 0.0006502348408357222 0 0.00044055797642582383 0.00061628215358066219 0 0.00039287229028571832 0.00057981573829902827 0 0.00044055797642582383 0.00061628215358066219 0 0.00047736021273175389 0.00059647094352797058 0 0.00046075389805366523 0.00064283367910918608 0 0.00044055797642582383 0.00061628215358066219 0 0.00047736021273175389 0.00059647094352797058 0 0.0010228256258498522 0.0014299734651794338 0 0.00095020456789451403 0.001352995602935145 0 0.0010451906309261927 0.0013641170826450683 0 0.0010228256258498522 0.0014299734651794338 0 0.0010324100262898569 0.0015156356923152344 0 0.0009650099698027911 0.0014713774016322605 0 0.0010228256258498522 0.0014299734651794338 0 0.001094840252890087 0.001447469239588686 0 0.0010451906309261927 0.0013641170826450683 0 0.0010228256258498522 0.0014299734651794338 0 0.001094840252890087 0.001447469239588686 0 0.0010324100262898569 0.0015156356923152344 0 0.0011633673422958434 0.0014252105765989352 0 0.001094840252890087 0.001447469239588686 0 0.0010451906309261927 0.0013641170826450683 0 0.0011633673422958434 0.0014252105765989352 0 0.0011556159993732519 0.0014650168060141241 0 0.001094840252890087 0.001447469239588686 0 0.0011556159993732519 0.0014650168060141241 0 0.001094840252890087 0.001447469239588686 0 0.0010938286820491589 0.0015388684208090702 0 0.0010938286820491589 0.0015388684208090702 0 0.0010400522839024175 0.0016193832908632866 0 0.0011112213114069767 0.0016421275453383677 0 0.0011556159993732519 0.0014650168060141241 0 0.0011544013668600534 0.0015765472480430015 0 0.0010938286820491589 0.0015388684208090702 0 0.0011544013668600534 0.0015765472480430015 0 0.0010938286820491589 0.0015388684208090702 0 0.0011112213114069767 0.0016421275453383677 0 0.001094840252890087 0.001447469239588686 0 0.0010938286820491589 0.0015388684208090702 0 0.0010324100262898569 0.0015156356923152344 0 0.0010324100262898569 0.0015156356923152344 0 0.0010400522839024175 0.0016193832908632866 0 0.00097129885811499236 0.0015789053329327335 0 0.0010938286820491589 0.0015388684208090702 0 0.0010324100262898569 0.0015156356923152344 0 0.0010400522839024175 0.0016193832908632866 0 0.0010400522839024175 0.0016193832908632866 0 0.0010398822356314156 0.0017261227160875177 0 0.00098057303421297641 0.0016991799906665953 0 0.0010400522839024175 0.0016193832908632866 0 0.0010700925447115703 0.0017457288883586603 0 0.0010398822356314156 0.0017261227160875177 0 0.0011112213114069767 0.0016421275453383677 0 0.0010700925447115703 0.0017457288883586603 0 0.0011348336233782434 0.0017424272393614657 0 0.0010400522839024175 0.0016193832908632866 0 0.0011112213114069767 0.0016421275453383677 0 0.0010700925447115703 0.0017457288883586603 0 0.0010700925447115703 0.0017457288883586603 0 0.0010564577916004983 0.0018287767238529609 0 0.0010475270299617465 0.0018588338094935237 0 0.0010700925447115703 0.0017457288883586603 0 0.0011348336233782434 0.0017424272393614657 0 0.0010475270299617465 0.0018588338094935237 0 0.0010700925447115703 0.0017457288883586603 0 0.0010564577916004983 0.0018287767238529609 0 0.0010398822356314156 0.0017261227160875177 0 0.0010564577916004983 0.0018287767238529609 0 0.0010398822356314156 0.0017261227160875177 0 0.00098057303421297641 0.0016991799906665953 0 0.00080928997074776314 0.0011160070678288413 0 0.0012812592112833355 0.0016013106910342868 0 0.00080928997074776314 0.0011160070678288413 0 0.00079895996391103564 0.0010023621230974837 0 0.0013161870138986445 0.0016778800165145092 0 0.0012347654577540973 0.0015925754023249025 0 0.0012289688141825673 0.0016892191754543768 0 0.00098475057042733032 0.0016052230521625905 0 0.0013517596288678277 0.0017289323576612471 0 0.0013161870138986445 0.0016778800165145092 0 0.001317515036168927 0.0017141596823300575 0 0.0012289688141825673 0.0016892191754543768 0 0.0012347654577540973 0.0015925754023249025 0 0.0012289688141825673 0.0016892191754543768 0 0.0011772782314843756 0.001644068685100422 0 0.0011544013668600534 0.0015765472480430015 0 0.0011112213114069767 0.0016421275453383677 0 0.0011772782314843756 0.001644068685100422 0 0.0011112213114069767 0.0016421275453383677 0 0.0011772782314843756 0.001644068685100422 0 0.0011348336233782434 0.0017424272393614657 0 0.0012289688141825673 0.0016892191754543768 0 0.0011772782314843756 0.001644068685100422 0 0.0011348336233782434 0.0017424272393614657 0 0.0011348336233782434 0.0017424272393614657 0 0.0011433578696598164 0.0018392159148536873 0 0.0012165856105383411 0.0017664905438419106 0 0.0012289688141825673 0.0016892191754543768 0 0.0011348336233782434 0.0017424272393614657 0 0.0012165856105383411 0.0017664905438419106 0 0.0011348336233782434 0.0017424272393614657 0 0.0011433578696598164 0.0018392159148536873 0 0.0010475270299617465 0.0018588338094935237 0 0.001351241003323543 0.0017299290289000699 0 0.0012455320620855122 0.001834574367465637 0 0.0012976109921714626 0.0018926814044477125 0 0.001351241003323543 0.0017299290289000699 0 0.0012455320620855122 0.001834574367465637 0 0.0012165856105383411 0.0017664905438419106 0 0.001351241003323543 0.0017299290289000699 0 0.0012289688141825673 0.0016892191754543768 0 0.0012165856105383411 0.0017664905438419106 0 0.0011433578696598164 0.0018392159148536873 0 0.0012455320620855122 0.001834574367465637 0 0.0012165856105383411 0.0017664905438419106 0 0.0011433578696598164 0.0018392159148536873 0 0.0012455320620855122 0.001834574367465637 0 0.0012239861089619502 0.0019327791223519321 0 0.0012455320620855122 0.001834574367465637 0 0.0012976109921714626 0.0018926814044477125 0 0.0012239861089619502 0.0019327791223519321 0 0.0012976109921714626 0.0018926814044477125 0 0.0012893133063062437 0.0019627021495343296 0 0.0012239861089619502 0.0019327791223519321 0 0.0013226645841266989 0.0019309038635195457 0 0.0012976109921714626 0.0018926814044477125 0 0.0012893133063062437 0.0019627021495343296 0 0.0011433578696598164 0.0018392159148536873 0 0.0012239861089619502 0.0019327791223519321 0 0.001121034765378182 0.0020107591910384411 0 0.0012239861089619502 0.0019327791223519321 0 0.0012748921856574422 0.0020910204054876381 0 0.001121034765378182 0.0020107591910384411 0 0.0012893133063062437 0.0019627021495343296 0 0.0012239861089619502 0.0019327791223519321 0 0.0012748921856574422 0.0020910204054876381 0 0.001359431153594617 0.0022227139106212449 0 0.0012748921856574422 0.0020910204054876381 0 0.0012180085920135478 0.0023482057580293475 0 0.0012748921856574422 0.0020910204054876381 0 0.0011053475177887583 0.0021995741967620525 0 0.0012180085920135478 0.0023482057580293475 0 0.0012748921856574422 0.0020910204054876381 0 0.0011053475177887583 0.0021995741967620525 0 0.001121034765378182 0.0020107591910384411 0 0.0011053475177887583 0.0021995741967620525 0 0.00093657012371573304 0.0021622199086212567 0 0.00093535255658578394 0.0024267599084608618 0 0.0011053475177887583 0.0021995741967620525 0 0.00093657012371573304 0.0021622199086212567 0 0.001121034765378182 0.0020107591910384411 0 0.00093657012371573304 0.0021622199086212567 0 0.001121034765378182 0.0020107591910384411 0 0.0010475270299617465 0.0018588338094935237 0 0.0011433578696598164 0.0018392159148536873 0 0.001121034765378182 0.0020107591910384411 0 0.0010475270299617465 0.0018588338094935237 0 0.0010475270299617465 0.0018588338094935237 0 0.0010963561202982145 0.0019562127289570776 0 0.0011713338016530615 0.0020392633371839079 0 0.0010294092402755078 0.0019034929437416321 0 0.00087550464866848398 0.0021209377708535891 0 0.0010564577916004983 0.0018287767238529609 0 0.0010963561202982145 0.0019562127289570776 0 0.00099403936265483753 0.0018446367162422922 0 0.0010564577916004983 0.0018287767238529609 0 0.0010475270299617465 0.0018588338094935237 0 0.0010963561202982145 0.0019562127289570776 0 0.0010963561202982145 0.0019562127289570776 0 0.0011713338016530615 0.0020392633371839079 0 0.0011598195118396467 0.0021244115889835088 0 0.00093657012371573304 0.0021622199086212567 0 0.00063004177914594158 0.0022274895032075932 0 0.00069446211195600118 0.0024858301075112673 0 0.00093657012371573304 0.0021622199086212567 0 0.0010475270299617465 0.0018588338094935237 0 0.00063004177914594158 0.0022274895032075932 0 0.00063004177914594158 0.0022274895032075932 0 0.00069446211195600118 0.0024858301075112673 0 0.00037306939858241411 0.0026882348070766107 0 0.0011722591466118103 0.0020929384815669416 0 0.0010102422345171836 0.0025837215693911677 0 0.0011598195118396467 0.0021244115889835088 0 0.0013787135947054912 0.0024188760401326935 0 0.0011666688169976976 0.0023433519189445294 0 0.00087550464866848398 0.0021209377708535891 0 0.0010102422345171836 0.0025837215693911677 0 0.0011713338016530615 0.0020392633371839079 0 0.0011598195118396467 0.0021244115889835088 0 0.0011794576761808295 0.0021749787229658527 0 0.0013787135947054912 0.0024188760401326935 0 0.0011311626699220018 0.0025766416607059992 0 0.0011666688169976976 0.0023433519189445294 0 0.00070687160301656493 0.0033413227752378994 0 0.0010102422345171836 0.0025837215693911677 0 0.00049925376506521437 0.0029012960447600596 0 0.00050157482263993682 0.0030203812315738399 0 0.00037306939858241411 0.0026882348070766107 0 0.00069446211195600118 0.0024858301075112673 0 0.00072599607673512435 0.0026880847007579303 0 0.00057495399778643584 0.0027195348488610513 0 0.00069446211195600118 0.0024858301075112673 0 0.00037306939858241411 0.0026882348070766107 0 0.00057495399778643584 0.0027195348488610513 0 0.00049925376506521437 0.0029012960447600596 0 0.00037306939858241411 0.0026882348070766107 0 0.00057495399778643584 0.0027195348488610513 0 0.00049925376506521437 0.0029012960447600596 0 0.00057495399778643584 0.0027195348488610513 0 0.00061395897606010097 0.0028333314281902139 0 0.00065754931663922342 0.0029511403418152099 0 0.00061395897606010097 0.0028333314281902139 0 0.00073509152590130807 0.0028281769193309572 0 0.00072599607673512435 0.0026880847007579303 0 0.00061395897606010097 0.0028333314281902139 0 0.00073509152590130807 0.0028281769193309572 0 0.00072599607673512435 0.0026880847007579303 0 0.00057495399778643584 0.0027195348488610513 0 0.00061395897606010097 0.0028333314281902139 0 0.00088085379563962701 0.0027343201824720602 0 0.001032764951126893 0.0026875443310509272 0 0.00093535255658578394 0.0024267599084608618 0 0.00072599607673512435 0.0026880847007579303 0 0.00073509152590130807 0.0028281769193309572 0 0.00088085379563962701 0.0027343201824720602 0 0.00072599607673512435 0.0026880847007579303 0 0.00088085379563962701 0.0027343201824720602 0 0.00093535255658578394 0.0024267599084608618 0 0.00079305874333119046 0.0029301693955094432 0 0.00073509152590130807 0.0028281769193309572 0 0.00088085379563962701 0.0027343201824720602 0 0.00079305874333119046 0.0029301693955094432 0 0.00088085379563962701 0.0027343201824720602 0 0.00095156970804646888 0.0028747586572713804 0 0.0012152321434370573 0.002870727237620076 0 0.00095156970804646888 0.0028747586572713804 0 0.001032764951126893 0.0026875443310509272 0 0.00088085379563962701 0.0027343201824720602 0 0.00095156970804646888 0.0028747586572713804 0 0.001032764951126893 0.0026875443310509272 0 0.0011368444200058505 0.0025999923017232199 0 0.00091935802653803935 0.0024262971255131121 0 0.0011053475177887583 0.0021995741967620525 0 0.0012180085920135478 0.0023482057580293475 0 0.00093535255658578394 0.0024267599084608618 0 0.0011750105604605766 0.0024874293183103405 0 0.0012180085920135478 0.0023482057580293475 0 0.00093535255658578394 0.0024267599084608618 0 0.0012480636749130026 0.0024602750324178358 0 0.0011750105604605766 0.0024874293183103405 0 0.0012180085920135478 0.0023482057580293475 0 0.00093657012371573304 0.0021622199086212567 0 0.00069446211195600118 0.0024858301075112673 0 0.00093535255658578394 0.0024267599084608618 0 0.00069446211195600118 0.0024858301075112673 0 0.00072599607673512435 0.0026880847007579303 0 0.00093535255658578394 0.0024267599084608618 0 0.00083798762438735464 0.0022773286461500687 0 0.0006923811904671871 0.0023691527840542133 0 0.00064454596145676224 0.0021418109770034799 0 0.00051940712703532426 0.0023122283150267342 0 0.0006923811904671871 0.0023691527840542133 0 0.00064454596145676224 0.0021418109770034799 0 0.00051940712703532426 0.0023122283150267342 0 0.00065191328253936403 0.0026151714230989195 0 0.0006923811904671871 0.0023691527840542133 0 0.00044416579088906149 0.0025667296474212935 0 0.00051940712703532426 0.0023122283150267342 0 0.00065191328253936403 0.0026151714230989195 0 0.00065191328253936403 0.0026151714230989195 0 0.0006923811904671871 0.0023691527840542133 0 0.00079054975149799305 0.0025029525214878157 0 0.00065191328253936403 0.0026151714230989195 0 0.00084197277178304738 0.0027335749777463469 0 0.00079054975149799305 0.0025029525214878157 0 0.00083798762438735464 0.0022773286461500687 0 0.00079054975149799305 0.0025029525214878157 0 0.00091582588680755533 0.0025020174323261354 0 0.00083798762438735464 0.0022773286461500687 0 0.0006923811904671871 0.0023691527840542133 0 0.00079054975149799305 0.0025029525214878157 0 0.00084197277178304738 0.0027335749777463469 0 0.00079054975149799305 0.0025029525214878157 0 0.00091582588680755533 0.0025020174323261354 0 0.00098057625737667329 0.0027095140428538005 0 0.00091582588680755533 0.0025020174323261354 0 0.0011311626699220018 0.0025766416607059992 0 0.00091582588680755533 0.0025020174323261354 0 0.0011311626699220018 0.0025766416607059992 0 0.0010249764934116973 0.0022701537101439411 0 0.0011311626699220018 0.0025766416607059992 0 0.0011666688169976976 0.0023433519189445294 0 0.0010249764934116973 0.0022701537101439411 0 0.0011598195118396467 0.0021244115889835088 0 0.0011666688169976976 0.0023433519189445294 0 0.0010249764934116973 0.0022701537101439411 0 0.0011598195118396467 0.0021244115889835088 0 0.0010249764934116973 0.0022701537101439411 0 0.001015594293851484 0.0020101545979275175 0 0.00083798762438735464 0.0022773286461500687 0 0.0010249764934116973 0.0022701537101439411 0 0.00091242291529427242 0.0020953886471438213 0 0.00083798762438735464 0.0022773286461500687 0 0.00091582588680755533 0.0025020174323261354 0 0.0010249764934116973 0.0022701537101439411 0 0.00091242291529427242 0.0020953886471438213 0 0.001015594293851484 0.0020101545979275175 0 0.00088481959811164757 0.0018964899274776946 0 0.00091242291529427242 0.0020953886471438213 0 0.00088481959811164757 0.0018964899274776946 0 0.00077723225879952715 0.0020083754412339901 0 0.0010249764934116973 0.0022701537101439411 0 0.00091242291529427242 0.0020953886471438213 0 0.001015594293851484 0.0020101545979275175 0 0.0010963561202982145 0.0019562127289570776 0 0.0011598195118396467 0.0021244115889835088 0 0.001015594293851484 0.0020101545979275175 0 0.0010963561202982145 0.0019562127289570776 0 0.001015594293851484 0.0020101545979275175 0 0.00099403936265483753 0.0018446367162422922 0 0.001015594293851484 0.0020101545979275175 0 0.00099403936265483753 0.0018446367162422922 0 0.00088481959811164757 0.0018964899274776946 0 0.00088481959811164757 0.0018964899274776946 0 0.00077723225879952715 0.0020083754412339901 0 0.00076579593161394896 0.0017753494647691724 0 0.00077723225879952715 0.0020083754412339901 0 0.00062692598346270891 0.0019081946941835893 0 0.00076579593161394896 0.0017753494647691724 0 0.00083798762438735464 0.0022773286461500687 0 0.00077723225879952715 0.0020083754412339901 0 0.00064454596145676224 0.0021418109770034799 0 0.00083798762438735464 0.0022773286461500687 0 0.00091242291529427242 0.0020953886471438213 0 0.00077723225879952715 0.0020083754412339901 0 0.0004617785993886259 0.0020571374207967634 0 0.00064454596145676224 0.0021418109770034799 0 0.00062692598346270891 0.0019081946941835893 0 0.00077723225879952715 0.0020083754412339901 0 0.00064454596145676224 0.0021418109770034799 0 0.00062692598346270891 0.0019081946941835893 0 0.00061073567534708256 0.0016895812314530381 0 0.00062692598346270891 0.0019081946941835893 0 0.00076579593161394896 0.0017753494647691724 0 0.00061073567534708256 0.0016895812314530381 0 0.00076579593161394896 0.0017753494647691724 0 0.00072646479296952816 0.0015999955730024169 0 0.00076579593161394896 0.0017753494647691724 0 0.00080447075983890398 0.0016513050441106416 0 0.00072646479296952816 0.0015999955730024169 0 0.00076579593161394896 0.0017753494647691724 0 0.00080447075983890398 0.0016513050441106416 0 0.00090349974010542713 0.0016897016358519313 0 0.00082013301138321166 0.0015442839571778056 0 0.00072646479296952816 0.0015999955730024169 0 0.00074394233716432395 0.001422486807118296 0 0.00080447075983890398 0.0016513050441106416 0 0.00082013301138321166 0.0015442839571778056 0 0.00072646479296952816 0.0015999955730024169 0 0.00080447075983890398 0.0016513050441106416 0 0.00082013301138321166 0.0015442839571778056 0 0.00090349974010542713 0.0016897016358519313 0 0.00061073567534708256 0.0016895812314530381 0 0.00061741681677891444 0.0014770294103761252 0 0.00072646479296952816 0.0015999955730024169 0 0.00061741681677891444 0.0014770294103761252 0 0.00072646479296952816 0.0015999955730024169 0 0.00074394233716432395 0.001422486807118296 0 0.0010564577916004983 0.0018287767238529609 0 0.00099403936265483753 0.0018446367162422922 0 0.00098057303421297641 0.0016991799906665953 0 0.00099403936265483753 0.0018446367162422922 0 0.00098057303421297641 0.0016991799906665953 0 0.00090349974010542713 0.0016897016358519313 0 0.00099403936265483753 0.0018446367162422922 0 0.00088481959811164757 0.0018964899274776946 0 0.00090349974010542713 0.0016897016358519313 0 0.00088481959811164757 0.0018964899274776946 0 0.00076579593161394896 0.0017753494647691724 0 0.00090349974010542713 0.0016897016358519313 0 0.00082013301138321166 0.0015442839571778056 0 0.00090349974010542713 0.0016897016358519313 0 0.00089258780077937079 0.0014990035432853289 0 0.00090349974010542713 0.0016897016358519313 0 0.00097129885811499236 0.0015789053329327335 0 0.00089258780077937079 0.0014990035432853289 0 0.00098057303421297641 0.0016991799906665953 0 0.00090349974010542713 0.0016897016358519313 0 0.00097129885811499236 0.0015789053329327335 0 0.0010400522839024175 0.0016193832908632866 0 0.00098057303421297641 0.0016991799906665953 0 0.00097129885811499236 0.0015789053329327335 0 0.00097129885811499236 0.0015789053329327335 0 0.0009650099698027911 0.0014713774016322605 0 0.00089258780077937079 0.0014990035432853289 0 0.0010324100262898569 0.0015156356923152344 0 0.00097129885811499236 0.0015789053329327335 0 0.0009650099698027911 0.0014713774016322605 0 0.0009650099698027911 0.0014713774016322605 0 0.00089258780077937079 0.0014990035432853289 0 0.00089478644667491912 0.0014034931956950769 0 0.00082013301138321166 0.0015442839571778056 0 0.00089258780077937079 0.0014990035432853289 0 0.00083520206207304078 0.0014056491848709316 0 0.00089258780077937079 0.0014990035432853289 0 0.00089478644667491912 0.0014034931956950769 0 0.00083520206207304078 0.0014056491848709316 0 0.00089478644667491912 0.0014034931956950769 0 0.00083520206207304078 0.0014056491848709316 0 0.00084266363729008594 0.0013203169100760048 0 0.00089478644667491912 0.0014034931956950769 0 0.00095020456789451403 0.001352995602935145 0 0.00084266363729008594 0.0013203169100760048 0 0.0009650099698027911 0.0014713774016322605 0 0.00089478644667491912 0.0014034931956950769 0 0.00095020456789451403 0.001352995602935145 0 0.0010228256258498522 0.0014299734651794338 0 0.0009650099698027911 0.0014713774016322605 0 0.00095020456789451403 0.001352995602935145 0 0.00061741681677891444 0.0014770294103761252 0 0.00065487399019942933 0.0012821246508310311 0 0.00074394233716432395 0.001422486807118296 0 0.00082013301138321166 0.0015442839571778056 0 0.00074394233716432395 0.001422486807118296 0 0.00083520206207304078 0.0014056491848709316 0 0.00083520206207304078 0.0014056491848709316 0 0.00079354089380304982 0.0013029567896863225 0 0.00084266363729008594 0.0013203169100760048 0 0.00074394233716432395 0.001422486807118296 0 0.00083520206207304078 0.0014056491848709316 0 0.00079354089380304982 0.0013029567896863225 0 0.00065487399019942933 0.0012821246508310311 0 0.00074394233716432395 0.001422486807118296 0 0.00079354089380304982 0.0013029567896863225 0 0.00065487399019942933 0.0012821246508310311 0 0.00079354089380304982 0.0013029567896863225 0 0.00071253899394873069 0.001164084933448273 0 0.00071253899394873069 0.001164084933448273 0 0.00082774420177782388 0.0010644814443691733 0 0.00060640225564882494 0.0010365423537060233 0 0.00079354089380304982 0.0013029567896863225 0 0.00071253899394873069 0.001164084933448273 0 0.00082632986145658998 0.0010869661286183338 0 0.0010556711276607413 0.0010248665260731223 0 0.0008916649839908838 0.0009203956678203129 0 0.00071253899394873069 0.001164084933448273 0 0.00082632986145658998 0.0010869661286183338 0 0.00082774420177782388 0.0010644814443691733 0 0.00080197815905077392 0.0012776972443963191 0 0.00080273032729905589 0.0012686356072273833 0 0.00086215014405637024 0.0012620192318247606 0 0.00078650702144823391 0.0013097357211556205 0 0.00096185667968772687 0.0011392318245390894 0 0.00079354089380304982 0.0013029567896863225 0 0.00080197815905077392 0.0012776972443963191 0 0.00084266363729008594 0.0013203169100760048 0 0.00080197815905077392 0.0012776972443963191 0 0.00084266363729008594 0.0013203169100760048 0 0.00086215014405637024 0.0012620192318247606 0 0.00096185667968772687 0.0011392318245390894 0 0.0010556711276607413 0.0010248665260731223 0 0.0010556711276607413 0.0010248665260731223 0 0.00079825939224771885 0.001264416286628008 0 0.00074301479650360652 0.0012462806981025677 0 0.00078874192976511909 0.0011977607034868016 0 0.00083978191317997765 0.0012450832047695769 0 0.0010556711276607413 0.0010248665260731223 0 0.0013928781305679082 0.00053551368381891701 0 0.00074301479650360652 0.0012462806981025677 0 0.00078874192976511909 0.0011977607034868016 0 0.00075875145355220122 0.0011349506241570652 0 0.0010556711276607413 0.0010248665260731223 0 0.0009537828805298601 0.0010238147526747004 0 0.0011293367956054319 0.0011254628911112365 0 0.0011053239212494193 0.00065629365457753341 0 0.0011895062792971998 0.00064328179481595751 0 0.0016595890717904759 0.00079510404824052359 0 0.0013867216609625931 0.0005471785147681689 0 0.001101057331981903 0.00084473204125812599 0 0.0016595890717904759 0.00079510404824052359 0 0.0013867216609625931 0.0005471785147681689 0 0.0016415421580154878 0.00041007863989122104 0 0.00095020456789451403 0.001352995602935145 0 0.00086215014405637024 0.0012620192318247606 0 0.00094909696272991962 0.0012546859813084216 0 0.00095020456789451403 0.001352995602935145 0 0.00094909696272991962 0.0012546859813084216 0 0.0010451906309261927 0.0013641170826450683 0 0.00095020456789451403 0.001352995602935145 0 0.00084266363729008594 0.0013203169100760048 0 0.00086215014405637024 0.0012620192318247606 0 0.00079825939224771885 0.001264416286628008 0 0.00096030220237465827 0.0012510114011480018 0 0.00083978191317997765 0.0012450832047695769 0 0.00094909696272991962 0.0012546859813084216 0 0.00087642667689505826 0.0011583339591009676 0 0.00083978191317997765 0.0012450832047695769 0 0.00087642667689505826 0.0011583339591009676 0 0.00081635191644702156 0.0011482621560095503 0 0.00078874192976511909 0.0011977607034868016 0 0.00083978191317997765 0.0012450832047695769 0 0.00081635191644702156 0.0011482621560095503 0 0.00094909696272991962 0.0012546859813084216 0 0.00087642667689505826 0.0011583339591009676 0 0.00098834948337735498 0.0011483838392852953 0 0.00082932239872091106 0.001012553679920898 0 0.00078675333396443755 0.0010155983536571183 0 0.00079196293942318194 0.00091931057498611005 0 0.00087035572231323078 0.0010439179593618056 0 0.00082932239872091106 0.001012553679920898 0 0.00079196293942318194 0.00091931057498611005 0 0.00087787672681822635 0.0010988849238916909 0 0.00087035572231323078 0.0010439179593618056 0 0.00098834948337735498 0.0011483838392852953 0 0.00087787672681822635 0.0010988849238916909 0 0.00087642667689505826 0.0011583339591009676 0 0.00098834948337735498 0.0011483838392852953 0 0.00087431580740056499 0.0010409628572635424 0 0.00088762670114691069 0.001036408735637703 0 0.00087787672681822635 0.0010988849238916909 0 0.00082580542876365445 0.0010934426710107862 0 0.00084923918986533537 0.0010539569413281077 0 0.00087787672681822635 0.0010988849238916909 0 0.00087642667689505826 0.0011583339591009676 0 0.00082580542876365445 0.0010934426710107862 0 0.00087642667689505826 0.0011583339591009676 0 0.00081635191644702156 0.0011482621560095503 0 0.00082580542876365445 0.0010934426710107862 0 0.001066192484402887 6.0998650843462547e-05 0 0.0010785864210889624 4.7863889980741927e-05 0 0.00082580542876365445 0.0010934426710107862 0 0.00084923918986533537 0.0010539569413281077 0 0.00079180755157607892 0.001029705686692407 0 0.00084923918986533537 0.0010539569413281077 0 0.00087187572366033569 0.0010473109148868398 0 0.00079180755157607892 0.001029705686692407 0 0.0012921413911549798 -0.00093003527395111045 0 0.0012905987285227155 -0.00091259933667638062 0 0.001293346423475533 -0.00092291011819122762 0 0.00084923918986533537 0.0010539569413281077 0 0.00087035572231323078 0.0010439179593618056 0 0.00087187572366033569 0.0010473109148868398 0 0.00087787672681822635 0.0010988849238916909 0 0.00084923918986533537 0.0010539569413281077 0 0.00087035572231323078 0.0010439179593618056 0 0.00087035572231323078 0.0010439179593618056 0 0.00087187572366033569 0.0010473109148868398 0 0.00082932239872091106 0.001012553679920898 0 0.00087187572366033569 0.0010473109148868398 0 0.00082932239872091106 0.001012553679920898 0 0.00078675333396443755 0.0010155983536571183 0 0.001468078189588723 0.00023394227789960158 0 0.0016415421580154878 0.00041007863989122104 0 0.0016447097189133985 2.5332846974490862e-05 0 0.0013867216609625931 0.0005471785147681689 0 0.001468078189588723 0.00023394227789960158 0 0.0011410007058935299 0.00038039253197767042 0 0.0013867216609625931 0.0005471785147681689 0 0.001468078189588723 0.00023394227789960158 0 0.0016415421580154878 0.00041007863989122104 0 0.0011053239212494193 0.00065629365457753341 0 0.0011895062792971998 0.00064328179481595751 0 0.0011104729894099107 0.00017199831864777156 0 0.0009537828805298601 0.0010238147526747004 0 0.0010785864210889624 4.7863889980741927e-05 0 0.0013928781305679082 0.00053551368381891701 0 0.0013901016009370754 4.0906570052457899e-05 0 0.00082580542876365445 0.0010934426710107862 0 0.00075875145355220122 0.0011349506241570652 0 0.00079180755157607892 0.001029705686692407 0 0.00078874192976511909 0.0011977607034868016 0 0.00081635191644702156 0.0011482621560095503 0 0.00075875145355220122 0.0011349506241570652 0 0.00081635191644702156 0.0011482621560095503 0 0.00082580542876365445 0.0010934426710107862 0 0.00075875145355220122 0.0011349506241570652 0 0.0014661410821202327 -0.00012170876123470419 0 0.0013962037363410538 -0.00010905574383967702 0 0.0013994784097643583 -0.00030945728782472777 0 0.0011895062792971998 0.00064328179481595751 0 0.0012505020302990015 0.00014742187377283873 0 0.0011104729894099107 0.00017199831864777156 0 0.0010785864210889624 4.7863889980741927e-05 0 0.0013901016009370754 4.0906570052457899e-05 0 0.0013901016009370754 4.0906570052457899e-05 0 0.0012454006322194129 4.794037710103557e-05 0 0.001468078189588723 0.00023394227789960158 0 0.0016447097189133985 2.5332846974490862e-05 0 0.0012719039794668681 8.8900868159964673e-05 0 0.0014240912292775856 -6.8742248004502717e-05 0 0.001250585740710288 -0.00019532579021843929 0 0.001180810477835936 1.0517512328795788e-05 0 0.0014240912292775856 -6.8742248004502717e-05 0 0.001250585740710288 -0.00019532579021843929 0 0.0013994784097643583 -0.00030945728782472777 0 0.001250585740710288 -0.00019532579021843929 0 0.0012742043089154504 -0.0003707119728609368 0 0.0013994784097643583 -0.00030945728782472777 0 0.0012742043089154504 -0.0003707119728609368 0 0.0013487604895640697 -0.00046659797886526252 0 0.0013994784097643583 -0.00030945728782472777 0 0.001250585740710288 -0.00019532579021843929 0 0.0012742043089154504 -0.0003707119728609368 0 0.001126238216966073 -0.00036515696995924779 0 0.0012742043089154504 -0.0003707119728609368 0 0.0012557084432732988 -0.00058443092021955771 0 0.001126238216966073 -0.00036515696995924779 0 0.0012742043089154504 -0.0003707119728609368 0 0.0012557084432732988 -0.00058443092021955771 0 0.0013487604895640697 -0.00046659797886526252 0 0.0012557084432732988 -0.00058443092021955771 0 0.0013487604895640697 -0.00046659797886526252 0 0.0014255796504902341 -0.00069349226127477924 0 0.0014195604081847257 -0.00078279442172781593 0 0.001356482883540666 -0.00077207731453047656 0 0.0013487604895640697 -0.00046659797886526252 0 0.001483149199074812 -0.00040493114459008082 0 0.0014255796504902341 -0.00069349226127477924 0 0.0012960043884924566 -0.00092440683106664824 0 0.0012985940965062625 -0.00092253128523188789 0 0.0013057702950740224 -0.00091818617415678424 0 0.0013487604895640697 -0.00046659797886526252 0 0.001483149199074812 -0.00040493114459008082 0 0.0013994784097643583 -0.00030945728782472777 0 0.0013901016009370754 4.0906570052457899e-05 0 0.0014038746326624166 -0.00032162064756446359 0 0.0012905987285227155 -0.00091259933667638062 0 0.0012960043884924566 -0.00092440683106664824 0 0.0012942733155388293 -0.00092166150757777554 0 0.0010785864210889624 4.7863889980741927e-05 0 0.0014195604081847257 -0.00078279442172781593 0 0.0014661410821202327 -0.00012170876123470419 0 0.001483149199074812 -0.00040493114459008082 0 0.0013994784097643583 -0.00030945728782472777 0 0.0012905987285227155 -0.00091259933667638062 0 0.0012942733155388293 -0.00092166150757777554 0 0.001293346423475533 -0.00092291011819122762 0 0.0012921413911549798 -0.00093003527395111045 0 0.001293346423475533 -0.00092291011819122762 0 0.0012935118482929684 -0.00092652300980801481 0 0.001293346423475533 -0.00092291011819122762 0 0.0012935118482929684 -0.00092652300980801481 0 0.0012958604889910564 -0.00092513741873685165 0 0.0012935118482929684 -0.00092652300980801481 0 0.0012958604889910564 -0.00092513741873685165 0 0.0012928515313391869 -0.00092815611726438415 0 0.0012960043884924566 -0.00092440683106664824 0 0.0012942733155388293 -0.00092166150757777554 0 0.0012958604889910564 -0.00092513741873685165 0 0.0012942733155388293 -0.00092166150757777554 0 0.001293346423475533 -0.00092291011819122762 0 0.0012958604889910564 -0.00092513741873685165 0 0.0012921413911549798 -0.00093003527395111045 0 0.0012928515313391869 -0.00092815611726438415 0 0.001282535488142039 -0.00093495992713534004 0 0.0012921413911549798 -0.00093003527395111045 0 0.0012935118482929684 -0.00092652300980801481 0 0.0012928515313391869 -0.00092815611726438415 0 0.0012928515313391869 -0.00092815611726438415 0 0.0012932731568957034 -0.00092427881274923928 0 0.001282535488142039 -0.00093495992713534004 0 0.0012932731568957034 -0.00092427881274923928 0 0.0012828851801372774 -0.0009170021064096981 0 0.001282535488142039 -0.00093495992713534004 0 0.0012960043884924566 -0.00092440683106664824 0 0.0012958604889910564 -0.00092513741873685165 0 0.0012985940965062625 -0.00092253128523188789 0 0.0012958604889910564 -0.00092513741873685165 0 0.0012928515313391869 -0.00092815611726438415 0 0.0012932731568957034 -0.00092427881274923928 0 0.0012958604889910564 -0.00092513741873685165 0 0.0012932731568957034 -0.00092427881274923928 0 0.0012985940965062625 -0.00092253128523188789 0 0.0012932731568957034 -0.00092427881274923928 0 0.0012985940965062625 -0.00092253128523188789 0 0.0012958953920751686 -0.000915700651062854 0 0.0012985940965062625 -0.00092253128523188789 0 0.0012958953920751686 -0.000915700651062854 0 0.0013057702950740224 -0.00091818617415678424 0 0.0012932731568957034 -0.00092427881274923928 0 0.0012958953920751686 -0.000915700651062854 0 0.0012828851801372774 -0.0009170021064096981 0 0.0012958953920751686 -0.000915700651062854 0 0.0013000723315157729 -0.00092613159413069447 0 0.00129927614640333 -0.00091463273447172635 0 0.0012958953920751686 -0.000915700651062854 0 0.0013138021486444405 -0.00090199053854609734 0 0.0013000723315157729 -0.00092613159413069447 0 0.0012958953920751686 -0.000915700651062854 0 0.0013138021486444405 -0.00090199053854609734 0 0.0013057702950740224 -0.00091818617415678424 0 0.0013282855194144121 -0.00089671478275950647 0 0.001356482883540666 -0.00077207731453047656 0 0.0013138021486444405 -0.00090199053854609734 0 0.0012592018631939121 -0.00079241825201458458 0 0.0012308881256170271 -0.00094448583829711706 0 0.0013138021486444405 -0.00090199053854609734 0 0.0012592018631939121 -0.00079241825201458458 0 0.0014255796504902341 -0.00069349226127477924 0 0.0012592018631939121 -0.00079241825201458458 0 0.0012308881256170271 -0.00094448583829711706 0 0.0011422069314676096 -0.00089104317122971324 0 0.0012557084432732988 -0.00058443092021955771 0 0.0012592018631939121 -0.00079241825201458458 0 0.0010950703433936207 -0.0006979208821768216 0 0.0012557084432732988 -0.00058443092021955771 0 0.0012592018631939121 -0.00079241825201458458 0 0.0014255796504902341 -0.00069349226127477924 0 0.0011732705943508096 -0.0010166069774322144 0 0.0011651848544450003 -0.0010425141775896947 0 0.0011522661830366437 -0.0010171347691893871 0 0.0011732705943508096 -0.0010166069774322144 0 0.0011522661830366437 -0.0010171347691893871 0 0.001172886063090523 -0.00099650825369633489 0 0.0011732705943508096 -0.0010166069774322144 0 0.0011783454844529486 -0.00098637856645194611 0 0.0011801993215273168 -0.0010106222955310138 0 0.0011732705943508096 -0.0010166069774322144 0 0.0011750746473473722 -0.0010395287601358259 0 0.0011801993215273168 -0.0010106222955310138 0 0.0011732705943508096 -0.0010166069774322144 0 0.0011750746473473722 -0.0010395287601358259 0 0.0011651848544450003 -0.0010425141775896947 0 0.0011651848544450003 -0.0010425141775896947 0 0.0011522661830366437 -0.0010171347691893871 0 0.0011589510845101561 -0.0010581710255423004 0 0.0012023484962419965 -0.00096529616155250568 0 0.0012291278575098383 -0.00098746793889000254 0 0.0012958953920751686 -0.000915700651062854 0 0.0012828851801372774 -0.0009170021064096981 0 0.00129927614640333 -0.00091463273447172635 0 0.0012828851801372774 -0.0009170021064096981 0 0.0012525592307132268 -0.00090999911337456992 0 0.00129927614640333 -0.00091463273447172635 0 0.0012828851801372774 -0.0009170021064096981 0 0.0012525592307132268 -0.00090999911337456992 0 0.0012508593865980372 -0.00093747334673434087 0 0.0012828851801372774 -0.0009170021064096981 0 0.0012508593865980372 -0.00093747334673434087 0 0.001282535488142039 -0.00093495992713534004 0 0.0012508593865980372 -0.00093747334673434087 0 0.001282535488142039 -0.00093495992713534004 0 0.0012625158300444499 -0.00095629923347426821 0 0.0012921413911549798 -0.00093003527395111045 0 0.001282535488142039 -0.00093495992713534004 0 0.0012625158300444499 -0.00095629923347426821 0 0.001066192484402887 6.0998650843462547e-05 0 0.00098266746777646795 7.0870732089666657e-05 0 0.00098266746777646795 7.0870732089666657e-05 0 0.0008191236720297263 7.6685333013262326e-05 0 0.0012508593865980372 -0.00093747334673434087 0 0.0012625158300444499 -0.00095629923347426821 0 0.0011799004596178793 -0.00096717232086494169 0 0.0012625158300444499 -0.00095629923347426821 0 0.0011772620176143291 -0.00097083551310744257 0 0.0011799004596178793 -0.00096717232086494169 0 0.00069167368740603039 0.0011000831516998634 0 0.00051044770001830008 0.0011277508285190781 0 0.00057838170579146639 0.0010443521248792022 0 0.0012023484962419965 -0.00096529616155250568 0 0.0011815374955235021 -0.00096893273019737569 0 0.0011522661830366437 -0.0010171347691893871 0 0.0011799004596178793 -0.00096717232086494169 0 0.001172886063090523 -0.00099650825369633489 0 0.0012525592307132268 -0.00090999911337456992 0 0.0012508593865980372 -0.00093747334673434087 0 0.0011799004596178793 -0.00096717232086494169 0 0.0011732705943508096 -0.0010166069774322144 0 0.001172886063090523 -0.00099650825369633489 0 0.0011783454844529486 -0.00098637856645194611 0 0.0011799004596178793 -0.00096717232086494169 0 0.001172886063090523 -0.00099650825369633489 0 0.0011783454844529486 -0.00098637856645194611 0 0.0011772620176143291 -0.00097083551310744257 0 0.0011783454844529486 -0.00098637856645194611 0 0.0011792518529151138 -0.00098407867313463635 0 0.00051044770001830008 0.0011277508285190781 0 0.00042789809899278794 0.0010853658996934825 0 0.00033514961763671545 0.0011474794502959271 0 0.0008191236720297263 7.6685333013262326e-05 0 0.00087001766162849402 0.0001107837518781273 0 0.0011772620176143291 -0.00097083551310744257 0 0.0011799004596178793 -0.00096717232086494169 0 0.0011783454844529486 -0.00098637856645194611 0 0.00051044770001830008 0.0011277508285190781 0 0.00042789809899278794 0.0010853658996934825 0 0.00049740349854108731 0.0010561014342754004 0 0.00042789809899278794 0.0010853658996934825 0 0.00044499717706124098 0.0010255300978190421 0 0.00035628451423948108 0.0010518946617831921 0 0.00044499717706124098 0.0010255300978190421 0 0.00049740349854108731 0.0010561014342754004 0 0.0005110680343110959 0.00099483761151575203 0 0.00044499717706124098 0.0010255300978190421 0 0.0005110680343110959 0.00099483761151575203 0 0.00044164762242477549 0.00095165458969059314 0 0.00042789809899278794 0.0010853658996934825 0 0.00044499717706124098 0.0010255300978190421 0 0.00049740349854108731 0.0010561014342754004 0 0.00051044770001830008 0.0011277508285190781 0 0.00049740349854108731 0.0010561014342754004 0 0.00057838170579146639 0.0010443521248792022 0 0.00057838170579146639 0.0010443521248792022 0 0.0005110680343110959 0.00099483761151575203 0 0.00058749537466287478 0.00096137295783955588 0 0.00049740349854108731 0.0010561014342754004 0 0.00057838170579146639 0.0010443521248792022 0 0.0005110680343110959 0.00099483761151575203 0 0.0005110680343110959 0.00099483761151575203 0 0.00058749537466287478 0.00096137295783955588 0 0.00051871917091874851 0.00093285969711897948 0 0.00058749537466287478 0.00096137295783955588 0 0.00051871917091874851 0.00093285969711897948 0 0.00059154657093137171 0.00088602372651415818 0 0.00051871917091874851 0.00093285969711897948 0 0.00047696223808718635 0.00090554620418622383 0 0.00051077223805557389 0.00086712928651173026 0 0.00047696223808718635 0.00090554620418622383 0 0.00044164762242477549 0.00095165458969059314 0 0.00043700408971826277 0.00087052131766175483 0 0.00051871917091874851 0.00093285969711897948 0 0.00047696223808718635 0.00090554620418622383 0 0.00044164762242477549 0.00095165458969059314 0 0.00044164762242477549 0.00095165458969059314 0 0.00043700408971826277 0.00087052131766175483 0 0.00037923314140727465 0.00089212193672019735 0 0.00044499717706124098 0.0010255300978190421 0 0.00044164762242477549 0.00095165458969059314 0 0.00036369347700770222 0.00096866650719364545 0 0.0005110680343110959 0.00099483761151575203 0 0.00051871917091874851 0.00093285969711897948 0 0.00044164762242477549 0.00095165458969059314 0 0.00069167368740603039 0.0011000831516998634 0 0.00078675333396443755 0.0010155983536571183 0 0.0007239174448153867 0.00098587557074368928 0 0.00087187572366033569 0.0010473109148868398 0 0.00069167368740603039 0.0011000831516998634 0 0.00078675333396443755 0.0010155983536571183 0 0.00069167368740603039 0.0011000831516998634 0 0.00065080776603989427 0.0010026506329564497 0 0.0007239174448153867 0.00098587557074368928 0 0.00069167368740603039 0.0011000831516998634 0 0.00057838170579146639 0.0010443521248792022 0 0.00065080776603989427 0.0010026506329564497 0 0.00057838170579146639 0.0010443521248792022 0 0.00058749537466287478 0.00096137295783955588 0 0.00065080776603989427 0.0010026506329564497 0 0.00058749537466287478 0.00096137295783955588 0 0.00065080776603989427 0.0010026506329564497 0 0.00067316730699710755 0.0009232064365697326 0 0.00058749537466287478 0.00096137295783955588 0 0.00067316730699710755 0.0009232064365697326 0 0.00059154657093137171 0.00088602372651415818 0 0.00065080776603989427 0.0010026506329564497 0 0.00067316730699710755 0.0009232064365697326 0 0.0007239174448153867 0.00098587557074368928 0 0.00067316730699710755 0.0009232064365697326 0 0.00079196293942318194 0.00091931057498611005 0 0.0007239174448153867 0.00098587557074368928 0 0.00078675333396443755 0.0010155983536571183 0 0.00079196293942318194 0.00091931057498611005 0 0.0007239174448153867 0.00098587557074368928 0 0.00094909696272991962 0.0012546859813084216 0 0.00098834948337735498 0.0011483838392852953 0 0.0010847197027503907 0.0012781820411003643 0 0.00088762670114691069 0.001036408735637703 0 0.00088206529321824246 0.0010424473434916628 0 0.00067316730699710755 0.0009232064365697326 0 0.00079196293942318194 0.00091931057498611005 0 0.00068258684090694943 0.00080807985288423065 0 0.00067316730699710755 0.0009232064365697326 0 0.00068258684090694943 0.00080807985288423065 0 0.00059154657093137171 0.00088602372651415818 0 0.00068258684090694943 0.00080807985288423065 0 0.00059154657093137171 0.00088602372651415818 0 0.00057316457903945324 0.00082556694541754689 0 0.00068258684090694943 0.00080807985288423065 0 0.00057316457903945324 0.00082556694541754689 0 0.000567214559667848 0.00076441125208717633 0 0.00057891896623973275 0.00070342437519223429 0 0.00068258684090694943 0.00080807985288423065 0 0.000567214559667848 0.00076441125208717633 0 0.0011633673422958434 0.0014252105765989352 0 0.0010847197027503907 0.0012781820411003643 0 0.0010451906309261927 0.0013641170826450683 0 0.00087353569403232146 0.0010677052847456743 0 0.00088206529321824246 0.0010424473434916628 0 0.00094909696272991962 0.0012546859813084216 0 0.0010847197027503907 0.0012781820411003643 0 0.0010451906309261927 0.0013641170826450683 0 0.00047278741643152187 0.00083322215196547601 0 0.00039963385828768429 0.00083172137564909289 0 0.00043700408971826277 0.00087052131766175483 0 0.00047278741643152187 0.00083322215196547601 0 0.00039963385828768429 0.00083172137564909289 0 0.00044441880850643278 0.00079205586862392838 0 0.00039963385828768429 0.00083172137564909289 0 0.00043700408971826277 0.00087052131766175483 0 0.00037923314140727465 0.00089212193672019735 0 0.00047696223808718635 0.00090554620418622383 0 0.00043700408971826277 0.00087052131766175483 0 0.00051077223805557389 0.00086712928651173026 0 0.00047278741643152187 0.00083322215196547601 0 0.00043700408971826277 0.00087052131766175483 0 0.00051077223805557389 0.00086712928651173026 0 0.00051871917091874851 0.00093285969711897948 0 0.00051077223805557389 0.00086712928651173026 0 0.00059154657093137171 0.00088602372651415818 0 0.00051077223805557389 0.00086712928651173026 0 0.00059154657093137171 0.00088602372651415818 0 0.00057316457903945324 0.00082556694541754689 0 0.00051077223805557389 0.00086712928651173026 0 0.00057316457903945324 0.00082556694541754689 0 0.00051346491594075774 0.00080255785564646326 0 0.00047278741643152187 0.00083322215196547601 0 0.00051077223805557389 0.00086712928651173026 0 0.00051346491594075774 0.00080255785564646326 0 0.00051346491594075774 0.00080255785564646326 0 0.00051404377808628708 0.00074829569054269351 0 0.00047261830160786917 0.00075778305926804972 0 0.00051346491594075774 0.00080255785564646326 0 0.000567214559667848 0.00076441125208717633 0 0.00051404377808628708 0.00074829569054269351 0 0.00057316457903945324 0.00082556694541754689 0 0.00051346491594075774 0.00080255785564646326 0 0.000567214559667848 0.00076441125208717633 0 0.00053017929236348898 0.00071575448851563092 0 0.00057891896623973275 0.00070342437519223429 0 0.000567214559667848 0.00076441125208717633 0 0.00053017929236348898 0.00071575448851563092 0 0.000567214559667848 0.00076441125208717633 0 0.00051404377808628708 0.00074829569054269351 0 0.00048504462852773524 0.00071491884299047781 0 0.00053017929236348898 0.00071575448851563092 0 0.00051404377808628708 0.00074829569054269351 0 0.00047261830160786917 0.00075778305926804972 0 0.00044441880850643278 0.00079205586862392838 0 0.00043685840143658155 0.00073296335154644137 0 0.00048504462852773524 0.00071491884299047781 0 0.00051404377808628708 0.00074829569054269351 0 0.00047261830160786917 0.00075778305926804972 0 0.00048504462852773524 0.00071491884299047781 0 0.00047261830160786917 0.00075778305926804972 0 0.00043685840143658155 0.00073296335154644137 0 0.00051346491594075774 0.00080255785564646326 0 0.00047261830160786917 0.00075778305926804972 0 0.00044441880850643278 0.00079205586862392838 0 0.00047278741643152187 0.00083322215196547601 0 0.00051346491594075774 0.00080255785564646326 0 0.00044441880850643278 0.00079205586862392838 0 0.00039963385828768429 0.00083172137564909289 0 0.00044441880850643278 0.00079205586862392838 0 0.0003651345334706492 0.0007602303450726512 0 0.00039883460579686681 0.00069372973563782499 0 0.00043685840143658155 0.00073296335154644137 0 0.0003651345334706492 0.0007602303450726512 0 0.00044441880850643278 0.00079205586862392838 0 0.00043685840143658155 0.00073296335154644137 0 0.0003651345334706492 0.0007602303450726512 0 0.00028893263060071638 0.00072419134373033511 0 0.0003651345334706492 0.0007602303450726512 0 0.00027570533798086823 0.00078344545560119882 0 0.0003651345334706492 0.0007602303450726512 0 0.00033416198274345251 0.0008310206869172643 0 0.00027570533798086823 0.00078344545560119882 0 0.00039963385828768429 0.00083172137564909289 0 0.0003651345334706492 0.0007602303450726512 0 0.00033416198274345251 0.0008310206869172643 0 0.00039963385828768429 0.00083172137564909289 0 0.00033416198274345251 0.0008310206869172643 0 0.00037923314140727465 0.00089212193672019735 0 0.00033416198274345251 0.0008310206869172643 0 0.00030015077822461448 0.00089903006077438714 0 0.00037923314140727465 0.00089212193672019735 0 0.00024613981061085327 0.00084633258553908368 0 0.00016842276715280251 0.0008567244183792271 0 0.0002126325272959114 0.00090767562896958002 0 0.00030015077822461448 0.00089903006077438714 0 0.00024613981061085327 0.00084633258553908368 0 0.0002126325272959114 0.00090767562896958002 0 0.00033416198274345251 0.0008310206869172643 0 0.00030015077822461448 0.00089903006077438714 0 0.00024613981061085327 0.00084633258553908368 0 0.00033416198274345251 0.0008310206869172643 0 0.00024613981061085327 0.00084633258553908368 0 0.00027570533798086823 0.00078344545560119882 0 0.00024613981061085327 0.00084633258553908368 0 0.00018739334459495335 0.0007966488842703379 0 0.00016842276715280251 0.0008567244183792271 0 0.00024613981061085327 0.00084633258553908368 0 0.00027570533798086823 0.00078344545560119882 0 0.00018739334459495335 0.0007966488842703379 0 0.00028893263060071638 0.00072419134373033511 0 0.00027570533798086823 0.00078344545560119882 0 0.00021604821051580934 0.00074033012760603358 0 0.00027570533798086823 0.00078344545560119882 0 0.00021604821051580934 0.00074033012760603358 0 0.00018739334459495335 0.0007966488842703379 0 0.00014258615311115875 0.00073316195440649727 0 0.00011556998466656059 0.00077012393439209923 0 0.00018739334459495335 0.0007966488842703379 0 0.00014258615311115875 0.00073316195440649727 0 0.00021604821051580934 0.00074033012760603358 0 0.00018739334459495335 0.0007966488842703379 0 6.4119559577461489e-05 0.00073017048204583113 0 0.00014258615311115875 0.00073316195440649727 0 0.00011556998466656059 0.00077012393439209923 0 0.00011556998466656059 0.00077012393439209923 0 0.00011919053391368879 0.00081731691277082692 0 0.00018739334459495335 0.0007966488842703379 0 0.00011556998466656059 0.00077012393439209923 0 0.00011919053391368879 0.00081731691277082692 0 5.8036537693047799e-05 0.00076537749387785802 0 0.00011919053391368879 0.00081731691277082692 0 5.8036537693047799e-05 0.00076537749387785802 0 7.5834533609542667e-05 0.00085572824066040192 0 5.9259053724747581e-05 0.00076236483315877414 0 4.5788561656499212e-05 0.00086474823768105478 0 -1.640634537710048e-05 0.00068106791971834666 0 2.2476350667152e-05 0.00073306077826826462 0 1.7460741221912525e-05 0.00079863983409592262 0 -0.00038152860997193793 0.00056163895623296005 0 -0.00045506155587184637 0.00059563312555928197 0 5.8036537693047799e-05 0.00076537749387785802 0 1.7460741221912525e-05 0.00079863983409592262 0 3.5154116493723558e-05 0.00082551391334966743 0 2.2476350667152e-05 0.00073306077826826462 0 5.8036537693047799e-05 0.00076537749387785802 0 1.7460741221912525e-05 0.00079863983409592262 0 6.4119559577461489e-05 0.00073017048204583113 0 0.00011556998466656059 0.00077012393439209923 0 5.8036537693047799e-05 0.00076537749387785802 0 6.4119559577461489e-05 0.00073017048204583113 0 2.2476350667152e-05 0.00073306077826826462 0 5.8036537693047799e-05 0.00076537749387785802 0 4.5788561656499212e-05 0.00086474823768105478 0 -0.00038318699031298612 0.0006983745451625467 0 -0.00089577232997703309 0.000423234247539294 0 -0.00090682963835146408 0.00036658413113486711 0 -0.00088202750014897569 0.00040136618584363682 0 7.5834533609542667e-05 0.00085572824066040192 0 0.0001342256176676814 0.00090203673779236143 0 7.6511290469947506e-05 0.00093922139872418026 0 -0.00045506155587184637 0.00059563312555928197 0 -0.00038318699031298612 0.0006983745451625467 0 1.7460741221912525e-05 0.00079863983409592262 0 3.5154116493723558e-05 0.00082551391334966743 0 2.5577897289044589e-05 0.00087510705054480399 0 0.00011919053391368879 0.00081731691277082692 0 0.00018739334459495335 0.0007966488842703379 0 0.00016842276715280251 0.0008567244183792271 0 0.00011919053391368879 0.00081731691277082692 0 7.5834533609542667e-05 0.00085572824066040192 0 0.00012393312101051637 0.00085802191946309891 0 0.00011919053391368879 0.00081731691277082692 0 0.00016842276715280251 0.0008567244183792271 0 0.00012393312101051637 0.00085802191946309891 0 0.00016842276715280251 0.0008567244183792271 0 0.00012393312101051637 0.00085802191946309891 0 0.0001342256176676814 0.00090203673779236143 0 7.5834533609542667e-05 0.00085572824066040192 0 0.00012393312101051637 0.00085802191946309891 0 0.0001342256176676814 0.00090203673779236143 0 0.00016842276715280251 0.0008567244183792271 0 0.0001342256176676814 0.00090203673779236143 0 0.0002126325272959114 0.00090767562896958002 0 0.0001342256176676814 0.00090203673779236143 0 0.00016845857456166102 0.00096635123129717342 0 0.0002126325272959114 0.00090767562896958002 0 0.0001342256176676814 0.00090203673779236143 0 0.00016845857456166102 0.00096635123129717342 0 7.6511290469947506e-05 0.00093922139872418026 0 -0.001077245187484226 0.00012365598243960392 0 -0.0015492525404190538 0.00013471466988795026 0 0.00016845857456166102 0.00096635123129717342 0 7.6511290469947506e-05 0.00093922139872418026 0 0.00010009497548235953 0.001034024180365178 0 -0.00090682963835146408 0.00036658413113486711 0 -0.00090531096767722914 0.00034579368235578153 0 -0.00088202750014897569 0.00040136618584363682 0 -0.00038318699031298612 0.0006983745451625467 0 -0.001077245187484226 0.00012365598243960392 0 -0.00038318699031298612 0.0006983745451625467 0 -0.00055552444561205578 0.00060838880308761178 0 -0.001077245187484226 0.00012365598243960392 0 -0.0014653776727577312 -0.00018449511157832567 0 -0.00081918556010173653 0.0001952069575220529 0 -0.00084541829497946275 0.00013147233676822303 0 -0.00080519348166282199 6.8223380428814753e-05 0 -0.0021299646597938422 -0.00023284750981219672 0 -0.0019805636432220124 -0.00030948615895802327 0 -0.0021194400469384776 -0.00040776189275851298 0 -0.00059879511054305383 0.00052518591797890617 0 -0.00059530634189426614 0.00049428462899862608 0 -0.00060818289102253318 0.00046213873676986637 0 -0.001077245187484226 0.00012365598243960392 0 -0.00055552444561205578 0.00060838880308761178 0 0.00016845857456166102 0.00096635123129717342 0 0.00010009497548235953 0.001034024180365178 0 0.00023084074018186437 0.0010502745845785925 0 0.00023084074018186437 0.0010502745845785925 0 0.00035628451423948108 0.0010518946617831921 0 0.00026894287099580037 0.00097138405074833234 0 0.00016845857456166102 0.00096635123129717342 0 0.00023084074018186437 0.0010502745845785925 0 0.00026894287099580037 0.00097138405074833234 0 0.00044499717706124098 0.0010255300978190421 0 0.00035628451423948108 0.0010518946617831921 0 0.00036369347700770222 0.00096866650719364545 0 0.00035628451423948108 0.0010518946617831921 0 0.00036369347700770222 0.00096866650719364545 0 0.00026894287099580037 0.00097138405074833234 0 0.00030015077822461448 0.00089903006077438714 0 0.00036369347700770222 0.00096866650719364545 0 0.00026894287099580037 0.00097138405074833234 0 0.00044164762242477549 0.00095165458969059314 0 0.00037923314140727465 0.00089212193672019735 0 0.00036369347700770222 0.00096866650719364545 0 0.00030015077822461448 0.00089903006077438714 0 0.00037923314140727465 0.00089212193672019735 0 0.00036369347700770222 0.00096866650719364545 0 0.00030015077822461448 0.00089903006077438714 0 0.0002126325272959114 0.00090767562896958002 0 0.00026894287099580037 0.00097138405074833234 0 0.00016845857456166102 0.00096635123129717342 0 0.0002126325272959114 0.00090767562896958002 0 0.00026894287099580037 0.00097138405074833234 0 -0.0038142859091671892 -0.00010409179449770237 0 -0.0038245416150353897 -0.00012746855696065668 0 -0.0038115066148240802 -0.00014435017692601351 0 -0.0038142859091671892 -0.00010409179449770237 0 -0.0038115066148240802 -0.00014435017692601351 0 -0.0037958541591433842 -0.00014840413642230529 0 -0.0043703711372803508 0.00022465788860799284 0 -0.0042609246398941014 0.00023896741670308705 0 -0.004730688740399485 0.00048347865213862806 0 -0.0047090220091017499 0.00053004604042570873 0 -0.0047556493398936877 0.00051645532914997862 0 -0.004730688740399485 0.00048347865213862806 0 -0.0047090220091017499 0.00053004604042570873 0 -0.0046695470670001966 0.00049683531434821363 0 -0.0038142859091671892 -0.00010409179449770237 0 -0.0038457709639926241 -5.6383082078648828e-05 0 -0.0038542311366359739 -9.4631778176193076e-05 0 -0.0043703711372803508 0.00022465788860799284 0 -0.0034011158181521 0.00046643151212330975 0 -0.0034011158181521 0.00046643151212330975 0 -0.002956999891923585 7.7373753435062054e-05 0 -0.002956999891923585 7.7373753435062054e-05 0 -0.0028207622085557431 -0.00018365632146286263 0 -0.0038142859091671892 -0.00010409179449770237 0 -0.0038245416150353897 -0.00012746855696065668 0 -0.0038542311366359739 -9.4631778176193076e-05 0 -0.0038245416150353897 -0.00012746855696065668 0 -0.0038458542765730896 -0.00010097541794966892 0 -0.003839098527607642 -0.00014409887809107571 0 -0.0038458542765730896 -0.00010097541794966892 0 -0.0038704992967867921 -0.00015563077630554895 0 -0.003839098527607642 -0.00014409887809107571 0 -0.0040099433573405263 -1.9385464469162968e-05 0 -0.002956999891923585 7.7373753435062054e-05 0 -0.0017580508063536327 6.346790073109333e-05 0 -0.0020281544233952801 -1.0785735189019222e-05 0 -0.0018037846248644875 -0.00017235789105843319 0 -0.0011916873748096558 0.00045733175999788402 0 -0.002956999891923585 7.7373753435062054e-05 0 -0.0019284557182690108 0.00020661475346670202 0 -0.0017580508063536327 6.346790073109333e-05 0 -0.0020281544233952801 -1.0785735189019222e-05 0 -0.0019046048515285324 0.00041868533228481389 0 -0.0023672605505334048 0.00045188845528568324 0 -0.0023104066142710347 0.00072906738542225739 0 -0.00085670261058860711 0.00045623927788934938 0 -0.00089577232997703309 0.000423234247539294 0 -0.00088202750014897569 0.00040136618584363682 0 -0.00087927610360304012 0.00046769383770557942 0 -0.00089577232997703309 0.000423234247539294 0 -0.00087725034805622739 0.00044905578771140794 0 -0.00085670261058860711 0.00045623927788934938 0 -0.00089577232997703309 0.000423234247539294 0 -0.00087725034805622739 0.00044905578771140794 0 -0.0011916873748096558 0.00045733175999788402 0 -0.0015492525404190538 0.00013471466988795026 0 -0.0019903754717699859 -0.00017455921876232772 0 -0.0019805636432220124 -0.00030948615895802327 0 -0.0018037846248644875 -0.00017235789105843319 0 -0.0020281544233952801 -1.0785735189019222e-05 0 -0.0019903754717699859 -0.00017455921876232772 0 -0.0018037846248644875 -0.00017235789105843319 0 -0.0021299646597938422 -0.00023284750981219672 0 -0.0020281544233952801 -1.0785735189019222e-05 0 -0.0019903754717699859 -0.00017455921876232772 0 -0.0021299646597938422 -0.00023284750981219672 0 -0.0019903754717699859 -0.00017455921876232772 0 -0.0019805636432220124 -0.00030948615895802327 0 -0.0038704992967867921 -0.00015563077630554895 0 -0.003858810476391126 -0.00021713207499205671 0 -0.0039222178032777503 -0.00026164217578634362 0 -0.0019805636432220124 -0.00030948615895802327 0 -0.0018037846248644875 -0.00017235789105843319 0 -0.0018492631521507008 -0.00041831657315041592 0 -0.0028207622085557431 -0.00018365632146286263 0 -0.0028880356186655903 -0.00033891656358281592 0 -0.0038245416150353897 -0.00012746855696065668 0 -0.003839098527607642 -0.00014409887809107571 0 -0.0038186679491147468 -0.0001620839089213354 0 -0.003839098527607642 -0.00014409887809107571 0 -0.003834623650364224 -0.00018426431395415972 0 -0.0038186679491147468 -0.0001620839089213354 0 -0.0038704992967867921 -0.00015563077630554895 0 -0.003839098527607642 -0.00014409887809107571 0 -0.003834623650364224 -0.00018426431395415972 0 -0.0038704992967867921 -0.00015563077630554895 0 -0.003858810476391126 -0.00021713207499205671 0 -0.003834623650364224 -0.00018426431395415972 0 -0.0038305788221729741 -0.00024054725237346227 0 -0.003834623650364224 -0.00018426431395415972 0 -0.0038058457879147282 -0.00020109956148772493 0 -0.003858810476391126 -0.00021713207499205671 0 -0.0038305788221729741 -0.00024054725237346227 0 -0.003834623650364224 -0.00018426431395415972 0 -0.003834623650364224 -0.00018426431395415972 0 -0.0038058457879147282 -0.00020109956148772493 0 -0.0038186679491147468 -0.0001620839089213354 0 -0.0038058457879147282 -0.00020109956148772493 0 -0.0038130712832565587 -0.00018508351746484249 0 -0.0038288424473859094 -0.00017762204593938687 0 -0.0038058457879147282 -0.00020109956148772493 0 -0.0038186679491147468 -0.0001620839089213354 0 -0.0038061613912611951 -0.00017217430339166868 0 -0.0038058457879147282 -0.00020109956148772493 0 -0.0038130712832565587 -0.00018508351746484249 0 -0.0038061613912611951 -0.00017217430339166868 0 -0.0038186679491147468 -0.0001620839089213354 0 -0.0038115066148240802 -0.00014435017692601351 0 -0.0038061613912611951 -0.00017217430339166868 0 -0.0038245416150353897 -0.00012746855696065668 0 -0.0038186679491147468 -0.0001620839089213354 0 -0.0038115066148240802 -0.00014435017692601351 0 -0.0050026788016607707 -0.0007019190949819217 0 -0.0051554416873560499 -0.00053046894842080779 0 -0.0052615726219662103 -0.00077907625109550124 0 -0.0038288424473859094 -0.00017762204593938687 0 -0.003752048856566304 -0.00014327659386133512 0 -0.0039229398584248593 -0.00017687254422045005 0 -0.0050026788016607707 -0.0007019190949819217 0 -0.0051554416873560499 -0.00053046894842080779 0 -0.0049001883802872476 -0.00047553334852915512 0 -0.0042286693531469891 -0.00040080893207089014 0 -0.0044443070852448873 -0.00032011877492766797 0 -0.0037840934354205148 -0.00010206820614533302 0 -0.0042286693531469891 -0.00040080893207089014 0 -0.0038058457879147282 -0.00020109956148772493 0 -0.0038288424473859094 -0.00017762204593938687 0 -0.003752048856566304 -0.00014327659386133512 0 -0.0038248688281232561 -0.00029563105746734949 0 -0.0037755684540977824 -0.00028266379386626499 0 -0.0038408321711806978 -0.00034784057327743868 0 -0.0038979582285916976 -0.00031677584799150524 0 -0.0042286693531469891 -0.00040080893207089014 0 -0.0038305788221729741 -0.00024054725237346227 0 -0.0038058457879147282 -0.00020109956148772493 0 -0.003804462020074049 -0.00028072253884451394 0 -0.0038305788221729741 -0.00024054725237346227 0 -0.0038248688281232561 -0.00029563105746734949 0 -0.003804462020074049 -0.00028072253884451394 0 -0.003858810476391126 -0.00021713207499205671 0 -0.0038305788221729741 -0.00024054725237346227 0 -0.0038666109328061699 -0.00028907427562755925 0 -0.0038305788221729741 -0.00024054725237346227 0 -0.0038248688281232561 -0.00029563105746734949 0 -0.0038666109328061699 -0.00028907427562755925 0 -0.0038666109328061699 -0.00028907427562755925 0 -0.0038408321711806978 -0.00034784057327743868 0 -0.0038998735831656172 -0.00037527253913013041 0 -0.0038248688281232561 -0.00029563105746734949 0 -0.0038666109328061699 -0.00028907427562755925 0 -0.0038408321711806978 -0.00034784057327743868 0 -0.0042286693531469891 -0.00040080893207089014 0 -0.0045871739240019999 -0.00064680242717351935 0 -0.0037755684540977824 -0.00028266379386626499 0 -0.0038408321711806978 -0.00034784057327743868 0 -0.0038193705936117538 -0.00048582561576156295 0 -0.0038408321711806978 -0.00034784057327743868 0 -0.0038193705936117538 -0.00048582561576156295 0 -0.0038998735831656172 -0.00037527253913013041 0 -0.0019051709372482899 -0.00065978324710540433 0 -0.0018492631521507008 -0.00041831657315041592 0 -0.0019902441075050634 -0.00060992643574931857 0 -0.0038193705936117538 -0.00048582561576156295 0 -0.0039879203076678398 -0.0004744089192908592 0 -0.0038998735831656172 -0.00037527253913013041 0 -0.0039879203076678398 -0.0004744089192908592 0 -0.0038998735831656172 -0.00037527253913013041 0 -0.0039222178032777503 -0.00026164217578634362 0 -0.0029471267752563435 -0.00056795893738213613 0 -0.0028880356186655903 -0.00033891656358281592 0 -0.0038666109328061699 -0.00028907427562755925 0 -0.0038998735831656172 -0.00037527253913013041 0 -0.0039222178032777503 -0.00026164217578634362 0 -0.003858810476391126 -0.00021713207499205671 0 -0.0038666109328061699 -0.00028907427562755925 0 -0.0039222178032777503 -0.00026164217578634362 0 -0.0019805636432220124 -0.00030948615895802327 0 -0.002008477622714036 -0.00046562643201718929 0 -0.0021194400469384776 -0.00040776189275851298 0 -0.0018492631521507008 -0.00041831657315041592 0 -0.002008477622714036 -0.00046562643201718929 0 -0.0019902441075050634 -0.00060992643574931857 0 -0.0019805636432220124 -0.00030948615895802327 0 -0.0018492631521507008 -0.00041831657315041592 0 -0.002008477622714036 -0.00046562643201718929 0 -0.00206583139987572 -0.00052788600611572195 0 -0.0016813180540185112 -0.00037469805350930357 0 -0.002008477622714036 -0.00046562643201718929 0 -0.0019902441075050634 -0.00060992643574931857 0 -0.0021064826198633662 -0.00058609145085530281 0 -0.0019051709372482899 -0.00065978324710540433 0 -0.0019902441075050634 -0.00060992643574931857 0 -0.0020086214916836807 -0.00070510681316782631 0 -0.0019902441075050634 -0.00060992643574931857 0 -0.0020086214916836807 -0.00070510681316782631 0 -0.0020508179667397975 -0.00065523676662880949 0 -0.0019051709372482899 -0.00065978324710540433 0 -0.0020086214916836807 -0.00070510681316782631 0 -0.0019689932286799565 -0.00085095727962924473 0 -0.0029471267752563435 -0.00056795893738213613 0 -0.0030025348828914998 -0.0007949422093850607 0 -0.0020086214916836807 -0.00070510681316782631 0 -0.0019932232073825258 -0.00084947847583286527 0 -0.0020371362422849683 -0.00076215144943198607 0 -0.0020086214916836807 -0.00070510681316782631 0 -0.0020497817222479265 -0.00088617285715327648 0 -0.0019689932286799565 -0.00085095727962924473 0 -0.0020092627558643728 -0.00071720560546481376 0 -0.0020287975740688941 -0.00087257226046531875 0 -0.0039694335222194687 -0.00079970938544290015 0 -0.003882586036309144 -0.00072945335898516204 0 -0.0039380438784439595 -0.00091028589995023992 0 -0.0039493855081801626 -0.0006830742836213742 0 -0.0039694335222194687 -0.00079970938544290015 0 -0.003882586036309144 -0.00072945335898516204 0 -0.0040483180556295127 -0.00074486943620086839 0 -0.0039493855081801626 -0.0006830742836213742 0 -0.0039694335222194687 -0.00079970938544290015 0 -0.0039493855081801626 -0.0006830742836213742 0 -0.0038781323472377501 -0.00071332847388513962 0 -0.0039323665167919838 -0.00061086436479803165 0 -0.0043987659113283364 -0.00089223757899562503 0 -0.0044538316736048231 -0.00088995820920716704 0 -0.0039493855081801626 -0.0006830742836213742 0 -0.003882586036309144 -0.00072945335898516204 0 -0.0038781323472377501 -0.00071332847388513962 0 -0.0038193705936117538 -0.00048582561576156295 0 -0.0039879203076678398 -0.0004744089192908592 0 -0.0039051187661030312 -0.00057492651685842663 0 -0.0038781323472377501 -0.00071332847388513962 0 -0.0039323665167919838 -0.00061086436479803165 0 -0.0039051187661030312 -0.00057492651685842663 0 -0.0039879203076678398 -0.0004744089192908592 0 -0.0040483180556295127 -0.00074486943620086839 0 -0.0039493855081801626 -0.0006830742836213742 0 -0.0039879203076678398 -0.0004744089192908592 0 -0.0039493855081801626 -0.0006830742836213742 0 -0.0039323665167919838 -0.00061086436479803165 0 -0.0038193705936117538 -0.00048582561576156295 0 -0.0038781323472377501 -0.00071332847388513962 0 -0.0039051187661030312 -0.00057492651685842663 0 -0.0039879203076678398 -0.0004744089192908592 0 -0.0039323665167919838 -0.00061086436479803165 0 -0.0039051187661030312 -0.00057492651685842663 0 -0.0052615726219662103 -0.00077907625109550124 0 -0.0053623923046843183 -0.0010215064032495561 0 -0.005224559156476862 -0.00097293275235011019 0 -0.0045871739240019999 -0.00064680242717351935 0 -0.0044538316736048231 -0.00088995820920716704 0 -0.0052615726219662103 -0.00077907625109550124 0 -0.005224559156476862 -0.00097293275235011019 0 -0.0050700148329310022 -0.00095298026587949071 0 -0.005224559156476862 -0.00097293275235011019 0 -0.0050700148329310022 -0.00095298026587949071 0 -0.0052215638674692555 -0.0011255338136357494 0 -0.0053688013327247413 -0.0010371910997131265 0 -0.0053623923046843183 -0.0010215064032495561 0 -0.005224559156476862 -0.00097293275235011019 0 -0.0053688013327247413 -0.0010371910997131265 0 -0.005224559156476862 -0.00097293275235011019 0 -0.0052215638674692555 -0.0011255338136357494 0 -0.0050700148329310022 -0.00095298026587949071 0 -0.005053526472996589 -0.001152242535823337 0 -0.0052215638674692555 -0.0011255338136357494 0 -0.0050026788016607707 -0.0007019190949819217 0 -0.0052615726219662103 -0.00077907625109550124 0 -0.0050700148329310022 -0.00095298026587949071 0 0.00087001766162849402 0.0001107837518781273 0 0.00015870776292932446 -0.00017928889459961991 0 0.0011792518529151138 -0.00098407867313463635 0 0.0011846994549446234 -0.0009862997116152775 0 0.001187370907164242 -0.0010077460480608421 0 0.0011783454844529486 -0.00098637856645194611 0 0.0011792518529151138 -0.00098407867313463635 0 0.0011801993215273168 -0.0010106222955310138 0 0.0011792518529151138 -0.00098407867313463635 0 0.001187370907164242 -0.0010077460480608421 0 0.0011801993215273168 -0.0010106222955310138 0 0.00023084074018186437 0.0010502745845785925 0 0.00035628451423948108 0.0010518946617831921 0 0.00033514961763671545 0.0011474794502959271 0 0.00042789809899278794 0.0010853658996934825 0 0.00035628451423948108 0.0010518946617831921 0 0.00033514961763671545 0.0011474794502959271 0 0.00023084074018186437 0.0010502745845785925 0 0.00033514961763671545 0.0011474794502959271 0 0.00016774518973981076 0.0011640678717967472 0 -0.00055552444561205578 0.00060838880308761178 0 0.00015870776292932446 -0.00017928889459961991 0 -0.00084179360719338625 0.00014036626474290545 0 -0.00085980195186977125 4.2405127967874271e-05 0 -0.00091955371153548985 -4.2499017706036982e-05 0 0.00010009497548235953 0.001034024180365178 0 0.00023084074018186437 0.0010502745845785925 0 0.00016774518973981076 0.0011640678717967472 0 -0.00085980195186977125 4.2405127967874271e-05 0 -0.00084824936411889273 -5.3775490019302051e-05 0 -0.00091955371153548985 -4.2499017706036982e-05 0 -0.002008477622714036 -0.00046562643201718929 0 -0.0021194400469384776 -0.00040776189275851298 0 -0.0021064826198633662 -0.00058609145085530281 0 -0.0014653776727577312 -0.00018449511157832567 0 -0.0016813180540185112 -0.00037469805350930357 0 -0.00080519348166282199 6.8223380428814753e-05 0 -0.00085980195186977125 4.2405127967874271e-05 0 -0.00084824936411889273 -5.3775490019302051e-05 0 -0.00080519348166282199 6.8223380428814753e-05 0 -0.00079708594699583939 -6.3948890913443718e-05 0 -0.00084824936411889273 -5.3775490019302051e-05 0 -0.00084541829497946275 0.00013147233676822303 0 -0.00080519348166282199 6.8223380428814753e-05 0 -0.00085980195186977125 4.2405127967874271e-05 0 -0.00055552444561205578 0.00060838880308761178 0 -0.0008449225602138366 -6.787679563508814e-05 0 -0.0016813180540185112 -0.00037469805350930357 0 -0.0012628107902128312 -0.00049946055968005173 0 -0.0020884878825243071 -0.00061401044263196299 0 -0.0020508179667397975 -0.00065523676662880949 0 -0.0020869299719490568 -0.00069046069465865498 0 -0.0020512215243609897 -0.00062068639161845822 0 -0.0020884878825243071 -0.00061401044263196299 0 -0.0020508179667397975 -0.00065523676662880949 0 -0.0019902441075050634 -0.00060992643574931857 0 -0.0020543963381157593 -0.00061158002093122422 0 -0.0020508179667397975 -0.00065523676662880949 0 -0.0016813180540185112 -0.00037469805350930357 0 -0.0018052069362953385 -0.00058306970591074086 0 -0.00048358970158126431 -0.00057723855050307844 0 -0.00055583006647899732 -0.00056426590769268696 0 -0.00058519513674161429 -0.00072660603141852856 0 -0.0012628107902128312 -0.00049946055968005173 0 -0.0015115029784772797 -0.00077771756048845072 0 0.00015870776292932446 -0.00017928889459961991 0 0.00035364362895806803 -0.00093113347471405442 0 -0.0012628107902128312 -0.00049946055968005173 0 0.00015870776292932446 -0.00017928889459961991 0 -0.00055583006647899732 -0.00056426590769268696 0 -0.00058519513674161429 -0.00072660603141852856 0 -0.00062177749634135886 -0.00072031125805301012 0 -0.0021670334025128413 -0.00073074631289958135 0 -0.0020869299719490568 -0.00069046069465865498 0 -0.0020785615939226546 -0.00074679206849430618 0 -0.0020884878825243071 -0.00061401044263196299 0 -0.0021670334025128413 -0.00073074631289958135 0 -0.0020869299719490568 -0.00069046069465865498 0 -0.0021670334025128413 -0.00073074631289958135 0 -0.0020785615939226546 -0.00074679206849430618 0 -0.0021027635534947614 -0.00081633864672722408 0 -0.0020508179667397975 -0.00065523676662880949 0 -0.0020509606054366519 -0.00070868255590607907 0 -0.0020869299719490568 -0.00069046069465865498 0 -0.0020086214916836807 -0.00070510681316782631 0 -0.0020508179667397975 -0.00065523676662880949 0 -0.0020509606054366519 -0.00070868255590607907 0 -0.0020509606054366519 -0.00070868255590607907 0 -0.0020869299719490568 -0.00069046069465865498 0 -0.0020785615939226546 -0.00074679206849430618 0 -0.0020086214916836807 -0.00070510681316782631 0 -0.0020509606054366519 -0.00070868255590607907 0 -0.0020371362422849683 -0.00076215144943198607 0 -0.0020509606054366519 -0.00070868255590607907 0 -0.0020785615939226546 -0.00074679206849430618 0 -0.0020371362422849683 -0.00076215144943198607 0 -0.0019932232073825258 -0.00084947847583286527 0 -0.0020371362422849683 -0.00076215144943198607 0 -0.0020518795998596176 -0.00080361359462940063 0 -0.0020785615939226546 -0.00074679206849430618 0 -0.0020371362422849683 -0.00076215144943198607 0 -0.0020518795998596176 -0.00080361359462940063 0 -0.0020785615939226546 -0.00074679206849430618 0 -0.0020518795998596176 -0.00080361359462940063 0 -0.0021027635534947614 -0.00081633864672722408 0 -0.0020518795998596176 -0.00080361359462940063 0 -0.0020650725321329252 -0.00085537250451143065 0 -0.0021027635534947614 -0.00081633864672722408 0 -0.0020650725321329252 -0.00085537250451143065 0 -0.0021027635534947614 -0.00081633864672722408 0 -0.0021083527311050237 -0.00088866984498066684 0 -0.0019932232073825258 -0.00084947847583286527 0 -0.0020518795998596176 -0.00080361359462940063 0 -0.0020650725321329252 -0.00085537250451143065 0 -0.0021670334025128413 -0.00073074631289958135 0 -0.0021027635534947614 -0.00081633864672722408 0 -0.0021627004728710987 -0.00086539857293701995 0 -0.0021027635534947614 -0.00081633864672722408 0 -0.0021627004728710987 -0.00086539857293701995 0 -0.0021083527311050237 -0.00088866984498066684 0 -0.0021670334025128413 -0.00073074631289958135 0 -0.0021627004728710987 -0.00086539857293701995 0 -0.0022441140222166393 -0.00085412398880097993 0 -0.00052588650078040839 -0.00095519888443701319 0 0.00035364362895806803 -0.00093113347471405442 0 -0.0015115029784772797 -0.00077771756048845072 0 -0.00052588650078040839 -0.00095519888443701319 0 -0.00058519513674161429 -0.00072660603141852856 0 -0.00068344717983703719 -0.00087761919286206904 0 -0.00062177749634135886 -0.00072031125805301012 0 0.0011838611305838296 -0.0010362307802691667 0 0.001187370907164242 -0.0010077460480608421 0 0.0011801993215273168 -0.0010106222955310138 0 0.0011750746473473722 -0.0010395287601358259 0 0.0011838611305838296 -0.0010362307802691667 0 0.0011801993215273168 -0.0010106222955310138 0 -0.00052588650078040839 -0.00095519888443701319 0 -0.0014363675134242543 -0.0010319271825278082 0 -0.00052588650078040839 -0.00095519888443701319 0 0.000484751088602559 -0.0010654837608253733 0 -0.00038224808754863134 -0.0010635240921349181 0 -0.00043825203751207827 -0.0011606700610957074 0 -0.00041710436169391902 -0.0011650779445390612 0 0.0011750746473473722 -0.0010395287601358259 0 0.0011838611305838296 -0.0010362307802691667 0 0.0011759057862555816 -0.0010612162119101654 0 -0.00043825203751207827 -0.0011606700610957074 0 -0.00041710436169391902 -0.0011650779445390612 0 -0.00045549952146532182 -0.0012611628023959322 0 -0.0014363675134242543 -0.0010319271825278082 0 -0.0013405346130138959 -0.0016237192755169491 0 -0.0022960189180365144 -0.00099282399319192117 0 -0.0022983694079917998 -0.0010848408356727197 0 -0.0022600557288618181 -0.0010632536435374645 0 -0.002233440793405326 -0.0010077903816887394 0 -0.0021801418871525272 -0.0010247555406072294 0 -0.0022600557288618181 -0.0010632536435374645 0 -0.0022960189180365144 -0.00099282399319192117 0 -0.002233440793405326 -0.0010077903816887394 0 -0.0022600557288618181 -0.0010632536435374645 0 -0.0022960189180365144 -0.00099282399319192117 0 -0.002233440793405326 -0.0010077903816887394 0 -0.0022208880990123854 -0.00094770769323909579 0 -0.002233440793405326 -0.0010077903816887394 0 -0.0022208880990123854 -0.00094770769323909579 0 -0.0021801418871525272 -0.0010247555406072294 0 -0.0022441140222166393 -0.00085412398880097993 0 -0.0022960189180365144 -0.00099282399319192117 0 -0.0022208880990123854 -0.00094770769323909579 0 -0.0021627004728710987 -0.00086539857293701995 0 -0.0022441140222166393 -0.00085412398880097993 0 -0.0022208880990123854 -0.00094770769323909579 0 -0.0021627004728710987 -0.00086539857293701995 0 -0.0022208880990123854 -0.00094770769323909579 0 -0.0021333346561654368 -0.00095575258329792584 0 -0.0021627004728710987 -0.00086539857293701995 0 -0.0021083527311050237 -0.00088866984498066684 0 -0.0021333346561654368 -0.00095575258329792584 0 -0.0021083527311050237 -0.00088866984498066684 0 -0.0021333346561654368 -0.00095575258329792584 0 -0.0020657127414119179 -0.00091863007644160547 0 -0.0019932232073825258 -0.00084947847583286527 0 -0.0020657127414119179 -0.00091863007644160547 0 -0.0020313852539109883 -0.00095039957211725959 0 -0.0019932232073825258 -0.00084947847583286527 0 -0.0020650725321329252 -0.00085537250451143065 0 -0.0020657127414119179 -0.00091863007644160547 0 -0.0020650725321329252 -0.00085537250451143065 0 -0.0021083527311050237 -0.00088866984498066684 0 -0.0020657127414119179 -0.00091863007644160547 0 -0.0021333346561654368 -0.00095575258329792584 0 -0.0020657127414119179 -0.00091863007644160547 0 -0.0020683004265044354 -0.00099289972127499003 0 -0.0020657127414119179 -0.00091863007644160547 0 -0.0020313852539109883 -0.00095039957211725959 0 -0.0020683004265044354 -0.00099289972127499003 0 -0.0020313852539109883 -0.00095039957211725959 0 -0.0020332603472614542 -0.00099382899907931471 0 -0.0019991954989931073 -0.00099571492069074931 0 -0.0020313852539109883 -0.00095039957211725959 0 -0.0020332603472614542 -0.00099382899907931471 0 -0.0020683004265044354 -0.00099289972127499003 0 -0.0020683004265044354 -0.00099289972127499003 0 -0.0021157948486473024 -0.0010367274395451584 0 -0.0020600886195207865 -0.0010611356061388016 0 -0.0020683004265044354 -0.00099289972127499003 0 -0.0020337263250993841 -0.0010350012658512722 0 -0.0020600886195207865 -0.0010611356061388016 0 -0.0020332603472614542 -0.00099382899907931471 0 -0.0020683004265044354 -0.00099289972127499003 0 -0.0020337263250993841 -0.0010350012658512722 0 -0.0020332603472614542 -0.00099382899907931471 0 -0.0020337263250993841 -0.0010350012658512722 0 -0.0019991954989931073 -0.00099571492069074931 0 -0.0022208880990123854 -0.00094770769323909579 0 -0.0021333346561654368 -0.00095575258329792584 0 -0.0021801418871525272 -0.0010247555406072294 0 -0.0021333346561654368 -0.00095575258329792584 0 -0.0021157948486473024 -0.0010367274395451584 0 -0.0021801418871525272 -0.0010247555406072294 0 -0.0021333346561654368 -0.00095575258329792584 0 -0.0020683004265044354 -0.00099289972127499003 0 -0.0021157948486473024 -0.0010367274395451584 0 -0.0021157948486473024 -0.0010367274395451584 0 -0.0021801418871525272 -0.0010247555406072294 0 -0.0021343192124568216 -0.0010959120474883866 0 -0.0021157948486473024 -0.0010367274395451584 0 -0.0021343192124568216 -0.0010959120474883866 0 -0.0020680823298603935 -0.0010928031001974936 0 -0.0022590476740429089 -0.0011084820064720833 0 -0.0022941252229206352 -0.001099547169538505 0 -0.0022570168561041569 -0.0010955011906113464 0 -0.0022590476740429089 -0.0011084820064720833 0 -0.0022570168561041569 -0.0010955011906113464 0 -0.0022589373483848023 -0.0010937586708159024 0 -0.0021343192124568216 -0.0010959120474883866 0 -0.0020680823298603935 -0.0010928031001974936 0 -0.0020154799269161763 -0.0011416218588325706 0 -0.0020396545948778116 -0.0010940559894530781 0 -0.0029795782738621093 -0.0014310256968690126 0 -0.0020337263250993841 -0.0010350012658512722 0 -0.0020600886195207865 -0.0010611356061388016 0 -0.0020143086928790469 -0.0011289282491125736 0 -0.0020337263250993841 -0.0010350012658512722 0 -0.0019991954989931073 -0.00099571492069074931 0 -0.0020143086928790469 -0.0011289282491125736 0 -0.0022590476740429089 -0.0011084820064720833 0 -0.0022941252229206352 -0.001099547169538505 0 -0.0023348763607770064 -0.0011072823651162558 0 -0.0021157948486473024 -0.0010367274395451584 0 -0.0020600886195207865 -0.0010611356061388016 0 -0.0020680823298603935 -0.0010928031001974936 0 -0.0020600886195207865 -0.0010611356061388016 0 -0.0020680823298603935 -0.0010928031001974936 0 -0.0020143086928790469 -0.0011289282491125736 0 -0.0020680823298603935 -0.0010928031001974936 0 -0.0020143086928790469 -0.0011289282491125736 0 -0.0020154799269161763 -0.0011416218588325706 0 -0.0023291948168885231 -0.0010852750901810882 0 -0.0022941252229206352 -0.001099547169538505 0 -0.0022570168561041569 -0.0010955011906113464 0 -0.0029926520111866516 -0.0019294596319576695 0 -0.0023021160070088539 -0.0016337978131342335 0 -0.0039778233624869026 -0.0020705210578426548 0 -0.0039860997208625536 -0.0020690243405743361 0 -0.0039764009043172302 -0.0019877730325091655 0 -0.0025497105593603906 -0.002198450490600978 0 -0.0026096901780240556 -0.0022216789802173829 0 -0.0025042396349177782 -0.0022416986955230119 0 -0.0025497105593603906 -0.002198450490600978 0 -0.0026096901780240556 -0.0022216789802173829 0 -0.0025946147266502364 -0.0021558529768229465 0 -0.0023291948168885231 -0.0010852750901810882 0 -0.0022941252229206352 -0.001099547169538505 0 -0.0023348763607770064 -0.0011072823651162558 0 -0.0025497105593603906 -0.002198450490600978 0 -0.0025042396349177782 -0.0022416986955230119 0 -0.002490217443620291 -0.0021750209160672864 0 -0.002260885406818658 -0.0018519018722247275 0 -0.0019477756067765634 -0.0025791280887227301 0 -0.0025042396349177782 -0.0022416986955230119 0 -0.0023987295658956559 -0.0022577585421062864 0 -0.002490217443620291 -0.0021750209160672864 0 -0.0023021160070088539 -0.0016337978131342335 0 -0.002260885406818658 -0.0018519018722247275 0 -0.0019024030054545077 -0.0026038317920078925 0 -0.001912892181794983 -0.0027384467692738047 0 -0.001803674422654285 -0.0027272164406371923 0 -0.0019553392038483388 -0.0026628228137775449 0 -0.0019024030054545077 -0.0026038317920078925 0 -0.001912892181794983 -0.0027384467692738047 0 -0.0019553392038483388 -0.0026628228137775449 0 -0.0019024030054545077 -0.0026038317920078925 0 -0.0019819238126464094 -0.0025823861623628518 0 -0.002260885406818658 -0.0018519018722247275 0 -0.0024596499782234063 -0.0011233030746870029 0 -0.0022960189180365144 -0.00099282399319192117 0 -0.0022983694079917998 -0.0010848408356727197 0 -0.0023334649407611261 -0.0011150167605816033 0 -0.0022514010994064801 -0.0011393521444159978 0 -0.0022983694079917998 -0.0010848408356727197 0 -0.0023334649407611261 -0.0011150167605816033 0 -0.002260885406818658 -0.0018519018722247275 0 -0.0013405346130138959 -0.0016237192755169491 0 -0.0022689477270472001 -0.0011012499509637213 0 -0.0022983694079917998 -0.0010848408356727197 0 -0.0022600557288618181 -0.0010632536435374645 0 -0.0022570168561041569 -0.0010955011906113464 0 -0.0022689477270472001 -0.0011012499509637213 0 -0.0022589373483848023 -0.0010937586708159024 0 -0.0022590476740429089 -0.0011084820064720833 0 -0.0022600557288618181 -0.0010632536435374645 0 -0.0022589373483848023 -0.0010937586708159024 0 -0.0021801418871525272 -0.0010247555406072294 0 -0.0021343192124568216 -0.0010959120474883866 0 -0.0022600557288618181 -0.0010632536435374645 0 -0.0020396545948778116 -0.0010940559894530781 0 -0.002321110615130751 -0.0010578301421405988 0 -0.0022689477270472001 -0.0011012499509637213 0 -0.0022600557288618181 -0.0010632536435374645 0 -0.0022589373483848023 -0.0010937586708159024 0 -0.0051783782073189484 -0.0013077066969619858 0 -0.0051065534024113271 -0.001481506187944667 0 -0.004958237002847486 -0.0013582206194682348 0 -0.0051783782073189484 -0.0013077066969619858 0 -0.005053526472996589 -0.001152242535823337 0 -0.0052215638674692555 -0.0011255338136357494 0 -0.0051783782073189484 -0.0013077066969619858 0 -0.005053526472996589 -0.001152242535823337 0 -0.004958237002847486 -0.0013582206194682348 0 -0.0051783782073189484 -0.0013077066969619858 0 -0.0052215638674692555 -0.0011255338136357494 0 -0.0054298666039856343 -0.0012630863728174727 0 -0.0051783782073189484 -0.0013077066969619858 0 -0.0053043105416415047 -0.0014589765068383175 0 -0.0051065534024113271 -0.001481506187944667 0 -0.0051783782073189484 -0.0013077066969619858 0 -0.0053043105416415047 -0.0014589765068383175 0 -0.0054298666039856343 -0.0012630863728174727 0 -0.0047251072974104358 -0.0011610565171588365 0 -0.0047521547723604046 -0.0012926928681925628 0 -0.0040122350351515946 -0.0010810637226359185 0 -0.0039542751427627844 -0.00090361404268541213 0 -0.0040125428070262219 -0.001087917675658442 0 -0.0039807373843056392 -0.0010017908773815557 0 -0.0039913873654538953 -0.0011542860478081854 0 -0.0053043105416415047 -0.0014589765068383175 0 -0.0054298666039856343 -0.0012630863728174727 0 -0.0054824334344289573 -0.0014901325253154716 0 -0.0040125428070262219 -0.001087917675658442 0 -0.0039380438784439595 -0.00091028589995023992 0 -0.0040100931707122232 -0.00091793349345141093 0 -0.0040125428070262219 -0.001087917675658442 0 -0.0039807373843056392 -0.0010017908773815557 0 -0.0039915109630238406 -0.00097626362709676894 0 -0.0043987659113283364 -0.00089223757899562503 0 -0.0039542751427627844 -0.00090361404268541213 0 -0.0039829357660952722 -0.00087911171820104401 0 -0.0039807373843056392 -0.0010017908773815557 0 -0.0039915109630238406 -0.00097626362709676894 0 -0.0043987659113283364 -0.00089223757899562503 0 -0.0047251072974104358 -0.0011610565171588365 0 -0.0053688013327247413 -0.0010371910997131265 0 -0.0052215638674692555 -0.0011255338136357494 0 -0.0054298666039856343 -0.0012630863728174727 0 -0.0040483180556295127 -0.00074486943620086839 0 -0.0039694335222194687 -0.00079970938544290015 0 -0.0040100931707122232 -0.00091793349345141093 0 -0.0039694335222194687 -0.00079970938544290015 0 -0.0039380438784439595 -0.00091028589995023992 0 -0.0040100931707122232 -0.00091793349345141093 0 -0.0030025348828914998 -0.0007949422093850607 0 -0.0031144075950792645 -0.0010587953227177947 0 -0.0020497817222479265 -0.00088617285715327648 0 -0.0019689932286799565 -0.00085095727962924473 0 -0.0020434568779950637 -0.001069746445506803 0 -0.0019932232073825258 -0.00084947847583286527 0 -0.0020313852539109883 -0.00095039957211725959 0 -0.0019991954989931073 -0.00099571492069074931 0 -0.0020497817222479265 -0.00088617285715327648 0 -0.0020434568779950637 -0.001069746445506803 0 -0.0020875340848943054 -0.0010886790825350883 0 -0.0040483180556295127 -0.00074486943620086839 0 -0.0040100931707122232 -0.00091793349345141093 0 -0.0040992610988480364 -0.001040317008347229 0 -0.0020287975740688941 -0.00087257226046531875 0 -0.0019759497163341039 -0.0010250390249875198 0 -0.0020434568779950637 -0.001069746445506803 0 -0.0020875340848943054 -0.0010886790825350883 0 -0.0021250443265022206 -0.0013018716102417729 0 -0.0040125428070262219 -0.001087917675658442 0 -0.0040100931707122232 -0.00091793349345141093 0 -0.0040992610988480364 -0.001040317008347229 0 -0.0040125428070262219 -0.001087917675658442 0 -0.0040992610988480364 -0.001040317008347229 0 -0.0039913873654538953 -0.0011542860478081854 0 -0.0041379788473988122 -0.0012781229235564809 0 -0.0040321674674379544 -0.0013397343614427971 0 -0.0039913873654538953 -0.0011542860478081854 0 -0.0019759497163341039 -0.0010250390249875198 0 -0.0027830412397796228 -0.0012911670143364816 0 -0.0040992610988480364 -0.001040317008347229 0 -0.0041379788473988122 -0.0012781229235564809 0 -0.0039913873654538953 -0.0011542860478081854 0 -0.0031144075950792645 -0.0010587953227177947 0 -0.0027830412397796228 -0.0012911670143364816 0 -0.0027830412397796228 -0.0012911670143364816 0 -0.0029795782738621093 -0.0014310256968690126 0 -0.004013218126953641 -0.0020847453848410733 0 -0.004012911126136073 -0.0020528399474596358 0 -0.0040498159345489278 -0.0020490073577612996 0 -0.004013218126953641 -0.0020847453848410733 0 -0.0040498159345489278 -0.0020490073577612996 0 -0.0040732621045448851 -0.0020671904358007397 0 -0.0041379788473988122 -0.0012781229235564809 0 -0.0041382410931912854 -0.0013000919442381306 0 -0.0040321674674379544 -0.0013397343614427971 0 -0.0040498159345489278 -0.0020490073577612996 0 -0.0040732621045448851 -0.0020671904358007397 0 -0.0040584312233635155 -0.0019598924805375342 0 -0.0029795782738621093 -0.0014310256968690126 0 -0.0044195668548625321 -0.0017217295350071265 0 -0.0032792184004348042 -0.0020912724939275754 0 -0.0030898713196198671 -0.0014000723625047682 0 -0.0031141421220694421 -0.0021253458641459035 0 -0.0029926520111866516 -0.0019294596319576695 0 -0.0029795782738621093 -0.0014310256968690126 0 -0.0029795782738621093 -0.0014310256968690126 0 -0.0034655555349154712 -0.0019079645170216283 0 -0.0029926520111866516 -0.0019294596319576695 0 -0.0034655555349154712 -0.0019079645170216283 0 -0.0034655555349154712 -0.0019079645170216283 0 -0.0039300368492034632 -0.0019099457359011518 0 -0.0044195668548625321 -0.0017217295350071265 0 -0.0050378268986285193 -0.0020543973575935168 0 -0.0055262500336629621 -0.0017063616025172459 0 -0.0053540612653036005 -0.0017691775171861553 0 -0.0053603348091666092 -0.0016180887997438108 0 -0.0041219820809841609 -0.0021813477209413111 0 -0.0042508472089764718 -0.0021079947510342311 0 -0.0042973634378047085 -0.0021285668053980349 0 -0.0041219820809841609 -0.0021813477209413111 0 -0.0042508472089764718 -0.0021079947510342311 0 -0.0041281511187231451 -0.0020544589756828794 0 -0.0048444317682850811 -0.0021124556644783465 0 -0.0050893191819873411 -0.0021645722010672414 0 -0.0042766520655700786 -0.0021104010299252116 0 -0.0042508472089764718 -0.0021079947510342311 0 -0.0042973634378047085 -0.0021285668053980349 0 -0.0049488968662317959 -0.0021512946710671894 0 -0.004986465451326234 -0.0021840787167032661 0 -0.0050527987141424863 -0.0021611798327822352 0 -0.0048444317682850811 -0.0021124556644783465 0 -0.0050378268986285193 -0.0020543973575935168 0 -0.0048444317682850811 -0.0021124556644783465 0 -0.0047250566466495699 -0.0021042868906746498 0 -0.0055262500336629621 -0.0017063616025172459 0 -0.0053603348091666092 -0.0016180887997438108 0 -0.0054824334344289573 -0.0014901325253154716 0 -0.0053043105416415047 -0.0014589765068383175 0 -0.0053603348091666092 -0.0016180887997438108 0 -0.0054824334344289573 -0.0014901325253154716 0 -0.0044195668548625321 -0.0017217295350071265 0 -0.0047521547723604046 -0.0012926928681925628 0 -0.0053043105416415047 -0.0014589765068383175 0 -0.0052273302676186274 -0.0015825974169854904 0 -0.0051065534024113271 -0.001481506187944667 0 -0.0053043105416415047 -0.0014589765068383175 0 -0.0053603348091666092 -0.0016180887997438108 0 -0.0052273302676186274 -0.0015825974169854904 0 -0.0052273302676186274 -0.0015825974169854904 0 -0.0052655165691427369 -0.0016914312010393449 0 -0.0051255845399142026 -0.0016317237441692463 0 -0.0053603348091666092 -0.0016180887997438108 0 -0.0052273302676186274 -0.0015825974169854904 0 -0.0052655165691427369 -0.0016914312010393449 0 -0.0053203358841402574 -0.0017853718866113618 0 -0.0052655165691427369 -0.0016914312010393449 0 -0.0050444112047852551 -0.0017752013569608883 0 -0.0050893191819873411 -0.0021645722010672414 0 -0.0048877269626397607 -0.0024614439355338832 0 -0.0050378268986285193 -0.0020543973575935168 0 -0.0052146904299930795 -0.0018021248928161149 0 -0.0053540612653036005 -0.0017691775171861553 0 -0.0053603348091666092 -0.0016180887997438108 0 -0.0052655165691427369 -0.0016914312010393449 0 -0.0053555634530310153 -0.00177334422430465 0 -0.0053203358841402574 -0.0017853718866113618 0 -0.0052655165691427369 -0.0016914312010393449 0 -0.0050958814286496705 -0.0024367559766712865 0 -0.0050460556052112169 -0.0024321492968787826 0 -0.0050513213823149376 -0.0024987536722825728 0 -0.0050378268986285193 -0.0020543973575935168 0 -0.0050893191819873411 -0.0021645722010672414 0 -0.0052655165691427369 -0.0016914312010393449 0 -0.0050444112047852551 -0.0017752013569608883 0 -0.0051255845399142026 -0.0016317237441692463 0 -0.0050799280747426939 -0.0023955911631557266 0 -0.0047948471900494082 -0.0023419812315167081 0 -0.0049045764891174929 -0.0024511666762729845 0 -0.0050893191819873411 -0.0021645722010672414 0 -0.0049417172367019003 -0.0020491404330339499 0 -0.0050444112047852551 -0.0017752013569608883 0 -0.0051255845399142026 -0.0016317237441692463 0 -0.004963896139936628 -0.0015946062002536719 0 -0.0051255845399142026 -0.0016317237441692463 0 -0.0051065534024113271 -0.001481506187944667 0 -0.004963896139936628 -0.0015946062002536719 0 -0.0052273302676186274 -0.0015825974169854904 0 -0.0051255845399142026 -0.0016317237441692463 0 -0.0051065534024113271 -0.001481506187944667 0 -0.0048606527398212364 -0.0026971075725482564 0 -0.0048637183370971995 -0.0028375868205112371 0 -0.0047603048319760964 -0.002787340743550797 0 -0.0048606527398212364 -0.0026971075725482564 0 -0.0047260310945248744 -0.0025995892352833287 0 -0.0047603048319760964 -0.002787340743550797 0 -0.0048606527398212364 -0.0026971075725482564 0 -0.0049828993741823724 -0.0027927725719466574 0 -0.0048637183370971995 -0.0028375868205112371 0 -0.0048606527398212364 -0.0026971075725482564 0 -0.0048215747063907605 -0.0025139122654481111 0 -0.0049409482035558889 -0.0026099280884937272 0 -0.0048606527398212364 -0.0026971075725482564 0 -0.0048215747063907605 -0.0025139122654481111 0 -0.0047260310945248744 -0.0025995892352833287 0 -0.0047948471900494082 -0.0023419812315167081 0 -0.0048215747063907605 -0.0025139122654481111 0 -0.0049045764891174929 -0.0024511666762729845 0 -0.0048215747063907605 -0.0025139122654481111 0 -0.0049045764891174929 -0.0024511666762729845 0 -0.0049409482035558889 -0.0026099280884937272 0 -0.0049045764891174929 -0.0024511666762729845 0 -0.0049999948006599106 -0.0025291665443659393 0 -0.0049409482035558889 -0.0026099280884937272 0 -0.0050460556052112169 -0.0024321492968787826 0 -0.0049045764891174929 -0.0024511666762729845 0 -0.0049999948006599106 -0.0025291665443659393 0 -0.0050460556052112169 -0.0024321492968787826 0 -0.0050513213823149376 -0.0024987536722825728 0 -0.0049999948006599106 -0.0025291665443659393 0 -0.0050513213823149376 -0.0024987536722825728 0 -0.0049999948006599106 -0.0025291665443659393 0 -0.0050990872494134686 -0.0025616597186274024 0 -0.0049999948006599106 -0.0025291665443659393 0 -0.0050536986573440253 -0.0026510130960878332 0 -0.0049409482035558889 -0.0026099280884937272 0 -0.0049999948006599106 -0.0025291665443659393 0 -0.0050536986573440253 -0.0026510130960878332 0 -0.0050990872494134686 -0.0025616597186274024 0 -0.0050536986573440253 -0.0026510130960878332 0 -0.0049409482035558889 -0.0026099280884937272 0 -0.0049828993741823724 -0.0027927725719466574 0 -0.0048606527398212364 -0.0026971075725482564 0 -0.0049409482035558889 -0.0026099280884937272 0 -0.0049828993741823724 -0.0027927725719466574 0 -0.0050536986573440253 -0.0026510130960878332 0 -0.0049828993741823724 -0.0027927725719466574 0 -0.0051259045350264152 -0.0027808724848590511 0 -0.0051259045350264152 -0.0027808724848590511 0 -0.0051525900441175658 -0.0026625534563199213 0 -0.0052593056856630226 -0.002753680545450297 0 -0.0051259045350264152 -0.0027808724848590511 0 -0.0052593056856630226 -0.002753680545450297 0 -0.0052248363282783291 -0.0028427133177394053 0 -0.0050536986573440253 -0.0026510130960878332 0 -0.0051259045350264152 -0.0027808724848590511 0 -0.0051525900441175658 -0.0026625534563199213 0 -0.0050536986573440253 -0.0026510130960878332 0 -0.0051525900441175658 -0.0026625534563199213 0 -0.0050990872494134686 -0.0025616597186274024 0 -0.004277466171048348 -0.0021092151614013105 0 -0.0042508472089764718 -0.0021079947510342311 0 -0.0040900221615939331 -0.0019708363991914743 0 -0.0048444317682850811 -0.0021124556644783465 0 -0.0047475141849473851 -0.0023050253005762961 0 -0.0050958814286496705 -0.0024367559766712865 0 -0.0050990872494134686 -0.0025616597186274024 0 -0.005250786187393509 -0.0026004525034900722 0 -0.0051525900441175658 -0.0026625534563199213 0 -0.0050990872494134686 -0.0025616597186274024 0 -0.005250786187393509 -0.0026004525034900722 0 -0.0050958814286496705 -0.0024367559766712865 0 -0.0050513213823149376 -0.0024987536722825728 0 -0.0050990872494134686 -0.0025616597186274024 0 -0.0042508472089764718 -0.0021079947510342311 0 -0.0040900221615939331 -0.0019708363991914743 0 -0.0041281511187231451 -0.0020544589756828794 0 -0.0041219820809841609 -0.0021813477209413111 0 -0.0041281511187231451 -0.0020544589756828794 0 -0.0040584312233635155 -0.0019598924805375342 0 -0.0044195668548625321 -0.0017217295350071265 0 -0.0040095719724492539 -0.0021141188074915887 0 -0.0040184851324954786 -0.0020582428309373823 0 -0.0040498159345489278 -0.0020490073577612996 0 -0.0040584312233635155 -0.0019598924805375342 0 -0.0034655555349154712 -0.0019079645170216283 0 -0.0041299980111839229 -0.002007641457571352 0 -0.0040900221615939331 -0.0019708363991914743 0 -0.0041281511187231451 -0.0020544589756828794 0 -0.0040584312233635155 -0.0019598924805375342 0 -0.0040184851324954786 -0.0020582428309373823 0 -0.0040584312233635155 -0.0019598924805375342 0 -0.0040082687515669135 -0.0019341460773306834 0 -0.0040584312233635155 -0.0019598924805375342 0 -0.0040082687515669135 -0.0019341460773306834 0 -0.0039678384954784096 -0.0018858385063086332 0 -0.0040900221615939331 -0.0019708363991914743 0 -0.0040584312233635155 -0.0019598924805375342 0 -0.0039678384954784096 -0.0018858385063086332 0 -0.005250786187393509 -0.0026004525034900722 0 -0.0052593056856630226 -0.002753680545450297 0 -0.0054030939623285279 -0.0027692057357459107 0 -0.0047475141849473851 -0.0023050253005762961 0 -0.0039519362083615915 -0.0026103173024472712 0 -0.0051525900441175658 -0.0026625534563199213 0 -0.005250786187393509 -0.0026004525034900722 0 -0.0052593056856630226 -0.002753680545450297 0 -0.0052593056856630226 -0.002753680545450297 0 -0.0052864746497454339 -0.002815286025932204 0 -0.0052248363282783291 -0.0028427133177394053 0 -0.0052593056856630226 -0.002753680545450297 0 -0.0054030939623285279 -0.0027692057357459107 0 -0.0053723390309047105 -0.0028042397826946223 0 -0.0052593056856630226 -0.002753680545450297 0 -0.0052864746497454339 -0.002815286025932204 0 -0.0053723390309047105 -0.0028042397826946223 0 -0.0053144461101296081 -0.0028938763905700191 0 -0.0052864746497454339 -0.002815286025932204 0 -0.0053723390309047105 -0.0028042397826946223 0 -0.0053144461101296081 -0.0028938763905700191 0 -0.0052864746497454339 -0.002815286025932204 0 -0.0052248363282783291 -0.0028427133177394053 0 -0.0052248363282783291 -0.0028427133177394053 0 -0.0052280552922005777 -0.0029366651964598429 0 -0.005158326207554546 -0.0029025405275917753 0 -0.0053144461101296081 -0.0028938763905700191 0 -0.0052248363282783291 -0.0028427133177394053 0 -0.0052280552922005777 -0.0029366651964598429 0 -0.0053144461101296081 -0.0028938763905700191 0 -0.0052280552922005777 -0.0029366651964598429 0 -0.0052637018830129561 -0.003038006958043835 0 -0.0053144461101296081 -0.0028938763905700191 0 -0.0052637018830129561 -0.003038006958043835 0 -0.0053621246674360771 -0.0030070567668247583 0 -0.0052637018830129561 -0.003038006958043835 0 -0.0053621246674360771 -0.0030070567668247583 0 -0.0053218889565327309 -0.0032042759616454164 0 -0.0052637018830129561 -0.003038006958043835 0 -0.005185224997444793 -0.0031476906451506099 0 -0.0053218889565327309 -0.0032042759616454164 0 -0.0052637018830129561 -0.003038006958043835 0 -0.0051417301293135006 -0.0030121091356306385 0 -0.005185224997444793 -0.0031476906451506099 0 -0.0052280552922005777 -0.0029366651964598429 0 -0.0052637018830129561 -0.003038006958043835 0 -0.0051417301293135006 -0.0030121091356306385 0 -0.0051417301293135006 -0.0030121091356306385 0 -0.005185224997444793 -0.0031476906451506099 0 -0.0050538289456720743 -0.0031655123562881441 0 -0.0051417301293135006 -0.0030121091356306385 0 -0.0050538289456720743 -0.0031655123562881441 0 -0.0050068129968697701 -0.0030002208993859429 0 -0.0051417301293135006 -0.0030121091356306385 0 -0.0050795885935368615 -0.0029005251969029325 0 -0.0050068129968697701 -0.0030002208993859429 0 -0.0051417301293135006 -0.0030121091356306385 0 -0.0050795885935368615 -0.0029005251969029325 0 -0.005158326207554546 -0.0029025405275917753 0 -0.0052280552922005777 -0.0029366651964598429 0 -0.0051417301293135006 -0.0030121091356306385 0 -0.005158326207554546 -0.0029025405275917753 0 -0.0051259045350264152 -0.0027808724848590511 0 -0.0052248363282783291 -0.0028427133177394053 0 -0.005158326207554546 -0.0029025405275917753 0 -0.0049828993741823724 -0.0027927725719466574 0 -0.0051259045350264152 -0.0027808724848590511 0 -0.0050795885935368615 -0.0029005251969029325 0 -0.0051259045350264152 -0.0027808724848590511 0 -0.0050795885935368615 -0.0029005251969029325 0 -0.005158326207554546 -0.0029025405275917753 0 -0.0049828993741823724 -0.0027927725719466574 0 -0.0050795885935368615 -0.0029005251969029325 0 -0.0050068129968697701 -0.0030002208993859429 0 -0.0049828993741823724 -0.0027927725719466574 0 -0.0050068129968697701 -0.0030002208993859429 0 -0.004902272886696684 -0.0029652644723231047 0 -0.0049828993741823724 -0.0027927725719466574 0 -0.004902272886696684 -0.0029652644723231047 0 -0.0048637183370971995 -0.0028375868205112371 0 -0.0050538289456720743 -0.0031655123562881441 0 -0.0049331402523599506 -0.0031062029402996213 0 -0.0049633445717712022 -0.0032231136704722633 0 -0.0050538289456720743 -0.0031655123562881441 0 -0.0050068129968697701 -0.0030002208993859429 0 -0.0049331402523599506 -0.0031062029402996213 0 -0.0050068129968697701 -0.0030002208993859429 0 -0.0049331402523599506 -0.0031062029402996213 0 -0.004902272886696684 -0.0029652644723231047 0 -0.0049331402523599506 -0.0031062029402996213 0 -0.0047911393898301133 -0.0030809747687202721 0 -0.004902272886696684 -0.0029652644723231047 0 -0.0049331402523599506 -0.0031062029402996213 0 -0.0047911393898301133 -0.0030809747687202721 0 -0.0048634689981344294 -0.0032139932898616465 0 -0.0047911393898301133 -0.0030809747687202721 0 -0.0047385733220176966 -0.0032371063717945951 0 -0.0048634689981344294 -0.0032139932898616465 0 -0.0047911393898301133 -0.0030809747687202721 0 -0.0047990161033360226 -0.0029350073075111371 0 -0.004902272886696684 -0.0029652644723231047 0 -0.0047990161033360226 -0.0029350073075111371 0 -0.004902272886696684 -0.0029652644723231047 0 -0.0048637183370971995 -0.0028375868205112371 0 -0.0047990161033360226 -0.0029350073075111371 0 -0.0048637183370971995 -0.0028375868205112371 0 -0.0047603048319760964 -0.002787340743550797 0 -0.0019644763941280619 -0.0028589183212847681 0 -0.001912892181794983 -0.0027384467692738047 0 -0.001812215038033088 -0.0028401546000745171 0 -0.0019553392038483388 -0.0026628228137775449 0 -0.001912892181794983 -0.0027384467692738047 0 -0.0020437275333149547 -0.0027335301992481072 0 -0.0019644763941280619 -0.0028589183212847681 0 -0.001912892181794983 -0.0027384467692738047 0 -0.0020437275333149547 -0.0027335301992481072 0 -0.001912892181794983 -0.0027384467692738047 0 -0.001803674422654285 -0.0027272164406371923 0 -0.001812215038033088 -0.0028401546000745171 0 -0.0019477756067765634 -0.0025791280887227301 0 -0.0030606689942197234 -0.0025618430076402108 0 -0.002490217443620291 -0.0021750209160672864 0 -0.0025946147266502364 -0.0021558529768229465 0 -0.0025825268486473619 -0.0020927047445175638 0 -0.0025497105593603906 -0.002198450490600978 0 -0.002490217443620291 -0.0021750209160672864 0 -0.0025946147266502364 -0.0021558529768229465 0 -0.0029926520111866516 -0.0019294596319576695 0 -0.0032687803121330609 -0.0020370412777096906 0 -0.0039860997208625536 -0.0020690243405743361 0 -0.0040082687515669135 -0.0019341460773306834 0 -0.0039764009043172302 -0.0019877730325091655 0 -0.0017182675388661883 -0.0028643634604513806 0 -0.0017137914756681215 -0.0028403494564699229 0 -0.001812215038033088 -0.0028401546000745171 0 -0.0040082687515669135 -0.0019341460773306834 0 -0.0039764009043172302 -0.0019877730325091655 0 -0.0039570178567391008 -0.0018991657687851074 0 -0.0032687803121330609 -0.0020370412777096906 0 -0.0030606689942197234 -0.0025618430076402108 0 -0.0040082687515669135 -0.0019341460773306834 0 -0.0039570178567391008 -0.0018991657687851074 0 -0.0039678384954784096 -0.0018858385063086332 0 -0.0031151441758753965 -0.0028556217297470532 0 -0.0030606689942197234 -0.0025618430076402108 0 -0.0031739305487227519 -0.0029425776737063143 0 -0.0030728032991408226 -0.0024591048987544547 0 -0.002868303045557906 -0.0026744829241978668 0 -0.0030606689942197234 -0.0025618430076402108 0 -0.0039519362083615915 -0.0026103173024472712 0 -0.0031151441758753965 -0.0028556217297470532 0 -0.0039519362083615915 -0.0026103173024472712 0 -0.0054312825551337904 -0.0027975407890943162 0 -0.0054007919063841945 -0.0027711463308954854 0 -0.0053723390309047105 -0.0028042397826946223 0 -0.0039519362083615915 -0.0026103173024472712 0 -0.004422902312398733 -0.0024250891076666396 0 -0.001803674422654285 -0.0027272164406371923 0 -0.0017137914756681215 -0.0028403494564699229 0 -0.001812215038033088 -0.0028401546000745171 0 -0.0031151441758753965 -0.0028556217297470532 0 -0.0017697478093781011 -0.0030634535645398839 0 -0.0021724458057011437 -0.0032883670505275222 0 -0.0020990142840602057 -0.0032421066718046287 0 -0.0021365772713384979 -0.0032105048613263157 0 -0.0017182675388661883 -0.0028643634604513806 0 -0.001812215038033088 -0.0028401546000745171 0 -0.0018016708014113791 -0.0029523304996960358 0 -0.0054312825551337904 -0.0027975407890943162 0 -0.005476784638730782 -0.0031048722475035557 0 -0.0053621246674360771 -0.0030070567668247583 0 -0.0031151441758753965 -0.0028556217297470532 0 -0.0039015114880934054 -0.0032131397959602424 0 -0.0053144461101296081 -0.0028938763905700191 0 -0.0054312825551337904 -0.0027975407890943162 0 -0.0053621246674360771 -0.0030070567668247583 0 -0.0053144461101296081 -0.0028938763905700191 0 -0.0054312825551337904 -0.0027975407890943162 0 -0.0053723390309047105 -0.0028042397826946223 0 -0.005476784638730782 -0.0031048722475035557 0 -0.0053621246674360771 -0.0030070567668247583 0 -0.0053218889565327309 -0.0032042759616454164 0 -0.0020990142840602057 -0.0032421066718046287 0 -0.0021365772713384979 -0.0032105048613263157 0 -0.0020890249038427256 -0.0031924706647187195 0 -0.0018016708014113791 -0.0029523304996960358 0 -0.0018981211701729432 -0.0030460005115915743 0 -0.0018959980195735959 -0.0029425610064923364 0 -0.0020990142840602057 -0.0032421066718046287 0 -0.0020506616565790338 -0.0031995324792800659 0 -0.0020890249038427256 -0.0031924706647187195 0 -0.0017697478093781011 -0.0030634535645398839 0 -0.0020098984879967198 -0.0031382680983390093 0 -0.0019644763941280619 -0.0028589183212847681 0 -0.001812215038033088 -0.0028401546000745171 0 -0.0018959980195735959 -0.0029425610064923364 0 -0.001812215038033088 -0.0028401546000745171 0 -0.0018016708014113791 -0.0029523304996960358 0 -0.0018959980195735959 -0.0029425610064923364 0 -0.0019644763941280619 -0.0028589183212847681 0 -0.0018959980195735959 -0.0029425610064923364 0 -0.0020203315343478748 -0.0030034633337873108 0 -0.0018981211701729432 -0.0030460005115915743 0 -0.0018959980195735959 -0.0029425610064923364 0 -0.0020203315343478748 -0.0030034633337873108 0 -0.0020203315343478748 -0.0030034633337873108 0 -0.0020989326579328145 -0.002886081539266297 0 -0.0021307576194992358 -0.0030239766613819048 0 -0.0012153318151579304 -0.0024483015672436114 0 -0.0013079913288032775 -0.0026185798942817708 0 -0.0019644763941280619 -0.0028589183212847681 0 -0.0020203315343478748 -0.0030034633337873108 0 -0.0020989326579328145 -0.002886081539266297 0 -0.0019644763941280619 -0.0028589183212847681 0 -0.0020989326579328145 -0.002886081539266297 0 -0.0020437275333149547 -0.0027335301992481072 0 -0.0012153318151579304 -0.0024483015672436114 0 -0.0011485443635607503 -0.0024332078090330556 0 -0.00034730552654226845 -0.0020594140435028011 0 -0.00035388589738552859 -0.0019367522942329123 0 -0.00042177531398082983 -0.0019605515695479154 0 -0.00034730552654226845 -0.0020594140435028011 0 -0.00035388589738552859 -0.0019367522942329123 0 -0.00028562561128242286 -0.0019143381664340868 0 -0.00035388589738552859 -0.0019367522942329123 0 -0.00042177531398082983 -0.0019605515695479154 0 -0.00035064686697194256 -0.0018584425789343398 0 -0.00035388589738552859 -0.0019367522942329123 0 -0.00028562561128242286 -0.0019143381664340868 0 -0.00035064686697194256 -0.0018584425789343398 0 0.0011855122276925884 -0.0010931665554943591 0 0.001202218235982248 -0.0010938000727822622 0 0.0011891013100649639 -0.0010849958068238422 0 0.00038877983979016087 -0.0015195612903986396 0 0.000396042090835201 -0.0014967770051348751 0 0.0011855122276925884 -0.0010931665554943591 0 0.0011727068435635913 -0.0010890412345649851 0 0.0011891013100649639 -0.0010849958068238422 0 0.00038877983979016087 -0.0015195612903986396 0 0.0003211568451482061 -0.0015956466698679791 0 -0.00042177531398082983 -0.0019605515695479154 0 -0.00049478527638848412 -0.0020628763070409842 0 -0.00042888074289376379 -0.0021094790759210186 0 -0.00034730552654226845 -0.0020594140435028011 0 -0.00042177531398082983 -0.0019605515695479154 0 -0.00042888074289376379 -0.0021094790759210186 0 0.0011855122276925884 -0.0010931665554943591 0 0.0011945161093296968 -0.001104237500388888 0 0.001202218235982248 -0.0010938000727822622 0 0.0003211568451482061 -0.0015956466698679791 0 0.00052440666591499095 -0.0016514802722420014 0 -0.00049478527638848412 -0.0020628763070409842 0 -0.00042888074289376379 -0.0021094790759210186 0 -0.00048578158156332573 -0.0021619207130055334 0 -0.00049478527638848412 -0.0020628763070409842 0 -0.00048578158156332573 -0.0021619207130055334 0 -0.000569692919597981 -0.0021655737146636066 0 -0.00034730552654226845 -0.0020594140435028011 0 -0.00042888074289376379 -0.0021094790759210186 0 -0.00041007523388232175 -0.0022063163251371024 0 -0.00042888074289376379 -0.0021094790759210186 0 -0.00041007523388232175 -0.0022063163251371024 0 -0.00048578158156332573 -0.0021619207130055334 0 0.00052440666591499095 -0.0016514802722420014 0 -0.00013709068576208062 -0.0022363233282127796 0 -0.00048578158156332573 -0.0021619207130055334 0 -0.000569692919597981 -0.0021655737146636066 0 -0.00052590888539760902 -0.0022616357443282064 0 -0.00041007523388232175 -0.0022063163251371024 0 -0.00048578158156332573 -0.0021619207130055334 0 -0.00052590888539760902 -0.0022616357443282064 0 0.0011910550740635868 -0.0011191278413803709 0 0.0011890088456242296 -0.0011212062859635493 0 0.0011945468657303486 -0.0011097373987640411 0 0.00017857304401774695 -0.0020778544568027433 0 0.00015320346796925653 -0.0021125331578287186 0 0.00022304052156748875 -0.0021802980122264913 0 0.00052440666591499095 -0.0016514802722420014 0 0.00067574911221035365 -0.0016384290716522823 0 0.0011589931886626327 -0.0012206885845285184 0 0.001143807855386136 -0.0012185178609368898 0 0.0011484929311188952 -0.0011950900290022947 0 0.0011890088456242296 -0.0011212062859635493 0 0.0011957166666127694 -0.0011098808986342832 0 0.0011945468657303486 -0.0011097373987640411 0 0.00067574911221035365 -0.0016384290716522823 0 0.001241619616078069 -0.0010877273621217388 0 0.0011945161093296968 -0.001104237500388888 0 0.0011902681930833715 -0.0011178521653446986 0 0.0011945468657303486 -0.0011097373987640411 0 0.00052440666591499095 -0.0016514802722420014 0 0.0011718065749927223 -0.0010726007037254017 0 0.0011225946937339787 -0.0012102614402035991 0 0.0011359105407026118 -0.001208402321878499 0 0.0011297343720299024 -0.0012278167776426227 0 0.0011225946937339787 -0.0012102614402035991 0 0.0011359105407026118 -0.001208402321878499 0 0.0011320565695886035 -0.0011949767960940454 0 0.001143807855386136 -0.0012185178609368898 0 0.0011359105407026118 -0.001208402321878499 0 0.0011297343720299024 -0.0012278167776426227 0 0.001143807855386136 -0.0012185178609368898 0 0.0011484929311188952 -0.0011950900290022947 0 0.0011359105407026118 -0.001208402321878499 0 0.0011484929311188952 -0.0011950900290022947 0 0.0011359105407026118 -0.001208402321878499 0 0.0011320565695886035 -0.0011949767960940454 0 0.0011225946937339787 -0.0012102614402035991 0 0.0011320565695886035 -0.0011949767960940454 0 0.0011123338982760287 -0.0011924328635590173 0 0.0011385633381450636 -0.001164923549975252 0 0.0011104871903271302 -0.0011640123706480462 0 0.0011123338982760287 -0.0011924328635590173 0 0.0011320565695886035 -0.0011949767960940454 0 0.0011385633381450636 -0.001164923549975252 0 0.0011123338982760287 -0.0011924328635590173 0 0.001241619616078069 -0.0010877273621217388 0 0.0011488863869907905 -0.0011481237209253466 0 0.0011484929311188952 -0.0011950900290022947 0 0.0011320565695886035 -0.0011949767960940454 0 0.0011385633381450636 -0.001164923549975252 0 0.0011957166666127694 -0.0011098808986342832 0 0.0011848371061406191 -0.001116747077110381 0 0.0012005553956114399 -0.0011054485091867349 0 0.0011848371061406191 -0.001116747077110381 0 0.0012090695059780649 -0.0010974619217411798 0 0.0012022164853596243 -0.0010835791558866125 0 0.0011848371061406191 -0.001116747077110381 0 0.0012005553956114399 -0.0011054485091867349 0 0.0012090695059780649 -0.0010974619217411798 0 0.0011488863869907905 -0.0011481237209253466 0 0.0011286518415654929 -0.0011091508193378991 0 0.0011385633381450636 -0.001164923549975252 0 0.0011254755926252773 -0.0011130792528191164 0 0.0011104871903271302 -0.0011640123706480462 0 0.0011945468657303486 -0.0011097373987640411 0 0.0012005553956114399 -0.0011054485091867349 0 0.001202218235982248 -0.0010938000727822622 0 0.0011945161093296968 -0.001104237500388888 0 0.0011945468657303486 -0.0011097373987640411 0 0.001202218235982248 -0.0010938000727822622 0 0.0011957166666127694 -0.0011098808986342832 0 0.0011945468657303486 -0.0011097373987640411 0 0.0012005553956114399 -0.0011054485091867349 0 0.0012005553956114399 -0.0011054485091867349 0 0.0012090695059780649 -0.0010974619217411798 0 0.001202218235982248 -0.0010938000727822622 0 0.0012090695059780649 -0.0010974619217411798 0 0.001202218235982248 -0.0010938000727822622 0 0.0012326460817227776 -0.0010776008669725274 0 0.001202218235982248 -0.0010938000727822622 0 0.0012326460817227776 -0.0010776008669725274 0 0.0011891013100649639 -0.0010849958068238422 0 0.0012090695059780649 -0.0010974619217411798 0 0.0012326460817227776 -0.0010776008669725274 0 0.0012022164853596243 -0.0010835791558866125 0 0.0012326460817227776 -0.0010776008669725274 0 0.0012022164853596243 -0.0010835791558866125 0 0.001266666630617022 -0.00098000288811680948 0 0.0012326460817227776 -0.0010776008669725274 0 0.0013154568926446997 -0.00097552170846889512 0 0.001266666630617022 -0.00098000288811680948 0 0.0012326460817227776 -0.0010776008669725274 0 0.0011826476440175097 -0.0010860012223221104 0 0.0011891013100649639 -0.0010849958068238422 0 0.0012347569698981269 -0.0010724801271057599 0 0.0012472282748704625 -0.0010296463515091529 0 0.0012034407872499795 -0.0010187335109954443 0 0.0011315911881953167 -0.0010105884627085514 0 0.0011254755926252773 -0.0011130792528191164 0 0.0011848371061406191 -0.001116747077110381 0 0.0012022164853596243 -0.0010835791558866125 0 0.0011254755926252773 -0.0011130792528191164 0 0.0012022164853596243 -0.0010835791558866125 0 0.0012034407872499795 -0.0010187335109954443 0 0.001266666630617022 -0.00098000288811680948 0 0.0012022164853596243 -0.0010835791558866125 0 0.0012034407872499795 -0.0010187335109954443 0 0.0011254755926252773 -0.0011130792528191164 0 0.0012034407872499795 -0.0010187335109954443 0 0.0012308881256170271 -0.00094448583829711706 0 0.0011315911881953167 -0.0010105884627085514 0 0.0012034407872499795 -0.0010187335109954443 0 0.0012308881256170271 -0.00094448583829711706 0 0.001266666630617022 -0.00098000288811680948 0 0.0013138021486444405 -0.00090199053854609734 0 0.0012308881256170271 -0.00094448583829711706 0 0.001266666630617022 -0.00098000288811680948 0 0.0012308881256170271 -0.00094448583829711706 0 0.0011315911881953167 -0.0010105884627085514 0 0.0011422069314676096 -0.00089104317122971324 0 0.0013154568926446997 -0.00097552170846889512 0 0.001266666630617022 -0.00098000288811680948 0 0.0013000723315157729 -0.00092613159413069447 0 0.0013138021486444405 -0.00090199053854609734 0 0.001266666630617022 -0.00098000288811680948 0 0.0013000723315157729 -0.00092613159413069447 0 0.0011826476440175097 -0.0010860012223221104 0 0.0011589510845101561 -0.0010581710255423004 0 0.0011751497647289036 -0.0010831278962408002 0 0.0013154568926446997 -0.00097552170846889512 0 0.0013000723315157729 -0.00092613159413069447 0 0.00129927614640333 -0.00091463273447172635 0 0.0012472282748704625 -0.0010296463515091529 0 0.0012291278575098383 -0.00098746793889000254 0 0.0011589510845101561 -0.0010581710255423004 0 0.0011696039295849817 -0.0010645184575628684 0 0.0011751497647289036 -0.0010831278962408002 0 0.0011651848544450003 -0.0010425141775896947 0 0.0011589510845101561 -0.0010581710255423004 0 0.0011696039295849817 -0.0010645184575628684 0 0.0011750746473473722 -0.0010395287601358259 0 0.0011651848544450003 -0.0010425141775896947 0 0.0011696039295849817 -0.0010645184575628684 0 0.0011750746473473722 -0.0010395287601358259 0 0.0011759057862555816 -0.0010612162119101654 0 0.0011696039295849817 -0.0010645184575628684 0 0.0011759057862555816 -0.0010612162119101654 0 0.0011696039295849817 -0.0010645184575628684 0 0.0011688590659302809 -0.0010746598905715405 0 0.000484751088602559 -0.0010654837608253733 0 0.00050161582901806184 -0.0013123504865518603 0 0.0011696039295849817 -0.0010645184575628684 0 0.0011688590659302809 -0.0010746598905715405 0 0.0011751497647289036 -0.0010831278962408002 0 0.00050161582901806184 -0.0013123504865518603 0 0.0014553577165695177 -0.0010359361982056883 0 0.0011633091192052413 -0.0010919076677290179 0 0.0011727068435635913 -0.0010890412345649851 0 0.0011751497647289036 -0.0010831278962408002 0 -0.00043825203751207827 -0.0011606700610957074 0 -0.00049509476042433544 -0.0012521507292681737 0 -0.00045549952146532182 -0.0012611628023959322 0 0.00050161582901806184 -0.0013123504865518603 0 -0.0013405346130138959 -0.0016237192755169491 0 -0.00028562561128242286 -0.0019143381664340868 0 -0.00028005173551509411 -0.001754571570694917 0 -0.00022551181305255618 -0.0017673478447284641 0 -0.0019553392038483388 -0.0026628228137775449 0 -0.0020437275333149547 -0.0027335301992481072 0 -0.0019819238126464094 -0.0025823861623628518 0 -0.0011485443635607503 -0.0024332078090330556 0 -0.0013405346130138959 -0.0016237192755169491 0 0.00050161582901806184 -0.0013123504865518603 0 0.000396042090835201 -0.0014967770051348751 0 -0.00028562561128242286 -0.0019143381664340868 0 -0.00028005173551509411 -0.001754571570694917 0 -0.00035064686697194256 -0.0018584425789343398 0 0.0011727068435635913 -0.0010890412345649851 0 0.0011891013100649639 -0.0010849958068238422 0 0.0011751497647289036 -0.0010831278962408002 0 0.0011826476440175097 -0.0010860012223221104 0 0.0011891013100649639 -0.0010849958068238422 0 0.0011751497647289036 -0.0010831278962408002 0 -0.0051573711503884673 -0.0009780855382469705 0 -0.0052938522568227149 -0.0010514479429055042 0 -0.0053105344347253716 -0.00083158923782138269 0 -0.0051573711503884673 -0.0009780855382469705 0 -0.0052000107197553852 -0.0011797767146920818 0 -0.0052938522568227149 -0.0010514479429055042 0 -0.0051573711503884673 -0.0009780855382469705 0 -0.0049999745841560481 -0.0011675415961751694 0 -0.0049999696176448562 -0.00088987926121093179 0 -0.0051573711503884673 -0.0009780855382469705 0 -0.0049999745841560481 -0.0011675415961751694 0 -0.0052000107197553852 -0.0011797767146920818 0 -0.0049999745841560481 -0.0011675415961751694 0 -0.0052000107197553852 -0.0011797767146920818 0 -0.0051315490087214715 -0.00134569861504421 0 -0.0052000107197553852 -0.0011797767146920818 0 -0.0053397517402447607 -0.0011945430117363751 0 -0.0052938522568227149 -0.0010514479429055042 0 -0.0052000107197553852 -0.0011797767146920818 0 -0.0053397517402447607 -0.0011945430117363751 0 -0.0053070000474841911 -0.0013843278605329655 0 -0.0054263314024929031 -0.0010285834651515852 0 -0.0055106903776631676 -0.0012190896222308454 0 -0.0054371742744132685 -0.0012610316693655477 0 -0.0054596962397731536 -0.0010897072943141014 0 -0.0055366952652769275 -0.0013037226892741601 0 -0.0053397517402447607 -0.0011945430117363751 0 -0.0054371742744132685 -0.0012610316693655477 0 -0.0054596962397731536 -0.0010897072943141014 0 -0.0054019813791216145 -0.00097360839635821637 0 -0.0054175261326617589 -0.00087526290356647438 0 -0.0054808379224835172 -0.00094292592339095143 0 -0.0054263314024929031 -0.0010285834651515852 0 -0.0053154957807151218 -0.00084249097136273785 0 -0.0053397517402447607 -0.0011945430117363751 0 -0.0054596962397731536 -0.0010897072943141014 0 -0.0052938522568227149 -0.0010514479429055042 0 -0.0054596962397731536 -0.0010897072943141014 0 -0.0052938522568227149 -0.0010514479429055042 0 -0.0053105344347253716 -0.00083158923782138269 0 -0.0054019813791216145 -0.00097360839635821637 0 -0.0053105344347253716 -0.00083158923782138269 0 -0.0054175261326617589 -0.00087526290356647438 0 -0.0053105344347253716 -0.00083158923782138269 0 -0.0054175261326617589 -0.00087526290356647438 0 -0.0053959052146154915 -0.00078669699607732612 0 -0.0054175261326617589 -0.00087526290356647438 0 -0.0053959052146154915 -0.00078669699607732612 0 -0.0054980622057327518 -0.00084385510847339489 0 -0.0053959052146154915 -0.00078669699607732612 0 -0.0053199958507297697 -0.00072189600992295978 0 -0.0054215558306509575 -0.0006540687601072978 0 -0.0053161351636734138 -0.00068452779864433305 0 -0.0052740829896723504 -0.0007466309302327556 0 -0.0053959052146154915 -0.00078669699607732612 0 -0.0054215558306509575 -0.0006540687601072978 0 -0.0054980622057327518 -0.00084385510847339489 0 -0.0053199958507297697 -0.00072189600992295978 0 -0.0052339976996298894 -0.00061905557228927042 0 -0.0054215558306509575 -0.0006540687601072978 0 -0.0053105344347253716 -0.00083158923782138269 0 -0.0053199958507297697 -0.00072189600992295978 0 -0.0051636822364400491 -0.00077239404725240319 0 -0.0053105344347253716 -0.00083158923782138269 0 -0.0053959052146154915 -0.00078669699607732612 0 -0.0053199958507297697 -0.00072189600992295978 0 -0.0053199958507297697 -0.00072189600992295978 0 -0.0051636822364400491 -0.00077239404725240319 0 -0.0052339976996298894 -0.00061905557228927042 0 -0.0051636822364400491 -0.00077239404725240319 0 -0.0049999792548170753 -0.00061223141462393499 0 -0.0052339976996298894 -0.00061905557228927042 0 -0.0051573711503884673 -0.0009780855382469705 0 -0.0053105344347253716 -0.00083158923782138269 0 -0.0051636822364400491 -0.00077239404725240319 0 -0.0051573711503884673 -0.0009780855382469705 0 -0.0051636822364400491 -0.00077239404725240319 0 -0.0049999696176448562 -0.00088987926121093179 0 -0.0051636822364400491 -0.00077239404725240319 0 -0.0049999696176448562 -0.00088987926121093179 0 -0.0049999792548170753 -0.00061223141462393499 0 -0.0049999792548170753 -0.00061223141462393499 0 -0.0052339976996298894 -0.00061905557228927042 0 -0.0051506059591226771 -0.00043378711657082237 0 -0.0052339976996298894 -0.00061905557228927042 0 -0.0051506059591226771 -0.00043378711657082237 0 -0.0052872337507086442 -0.00045662713603572623 0 -0.0051506059591226771 -0.00043378711657082237 0 -0.0052168980057484843 -0.00034560545928424564 0 -0.0052872337507086442 -0.00045662713603572623 0 -0.0049999792548170753 -0.00061223141462393499 0 -0.0051506059591226771 -0.00043378711657082237 0 -0.0049999581883962306 -0.00033460042706534435 0 -0.0051506059591226771 -0.00043378711657082237 0 -0.0049999581883962306 -0.00033460042706534435 0 -0.0051593021185102478 -0.00022126360129226966 0 -0.0049999581883962306 -0.00033460042706534435 0 -0.0051593021185102478 -0.00022126360129226966 0 -0.0049999564771709588 -5.6925614801424676e-05 0 -0.0051593021185102478 -0.00022126360129226966 0 -0.0052168980057484843 -0.00034560545928424564 0 -0.0052821948735414055 -0.00026707443077152892 0 -0.0051506059591226771 -0.00043378711657082237 0 -0.0051593021185102478 -0.00022126360129226966 0 -0.0052168980057484843 -0.00034560545928424564 0 -0.0052099446268101821 2.2072185448119739e-05 0 -0.0051593021185102478 -0.00022126360129226966 0 -0.0052917849685443089 -0.00010697844744473029 0 -0.0052099446268101821 2.2072185448119739e-05 0 -0.0051593021185102478 -0.00022126360129226966 0 -0.0049999564771709588 -5.6925614801424676e-05 0 -0.0054588864499118001 -4.8003059774933031e-05 0 -0.0052917849685443089 -0.00010697844744473029 0 -0.0053828682538621482 -0.00020994352951315761 0 -0.0053600322625511343 3.1365919762943619e-05 0 -0.0054588864499118001 -4.8003059774933031e-05 0 -0.0052917849685443089 -0.00010697844744473029 0 -0.0054588864499118001 -4.8003059774933031e-05 0 -0.0053828682538621482 -0.00020994352951315761 0 -0.0055307313102480622 -0.00020979802188132442 0 -0.0053600322625511343 3.1365919762943619e-05 0 -0.0052099446268101821 2.2072185448119739e-05 0 -0.0052917849685443089 -0.00010697844744473029 0 -0.0052917849685443089 -0.00010697844744473029 0 -0.0052821948735414055 -0.00026707443077152892 0 -0.0053828682538621482 -0.00020994352951315761 0 -0.0051593021185102478 -0.00022126360129226966 0 -0.0052917849685443089 -0.00010697844744473029 0 -0.0052821948735414055 -0.00026707443077152892 0 -0.0052168980057484843 -0.00034560545928424564 0 -0.0052821948735414055 -0.00026707443077152892 0 -0.0052872337507086442 -0.00045662713603572623 0 -0.0052821948735414055 -0.00026707443077152892 0 -0.0053828682538621482 -0.00020994352951315761 0 -0.0053816911560531869 -0.00036358540978509885 0 -0.0053828682538621482 -0.00020994352951315761 0 -0.0053816911560531869 -0.00036358540978509885 0 -0.0055307313102480622 -0.00020979802188132442 0 -0.0053816911560531869 -0.00036358540978509885 0 -0.0052872337507086442 -0.00045662713603572623 0 -0.0052820635913093991 -0.00060867562822928514 0 -0.0053816911560531869 -0.00036358540978509885 0 -0.0052820635913093991 -0.00060867562822928514 0 -0.0056445071552981884 -0.00040049623349102049 0 -0.0052821948735414055 -0.00026707443077152892 0 -0.0053816911560531869 -0.00036358540978509885 0 -0.0052872337507086442 -0.00045662713603572623 0 -0.0052339976996298894 -0.00061905557228927042 0 -0.0052872337507086442 -0.00045662713603572623 0 -0.0054215558306509575 -0.0006540687601072978 0 -0.005285728722755902 -0.00048647926381035551 0 -0.0053161351636734138 -0.00068452779864433305 0 -0.0052872337507086442 -0.00045662713603572623 0 -0.0052820635913093991 -0.00060867562822928514 0 -0.0052056258211272081 -0.00072106051352356204 0 -0.0052820635913093991 -0.00060867562822928514 0 -0.0052056258211272081 -0.00072106051352356204 0 -0.005138289253624531 -0.00073012910085882828 0 -0.0052056258211272081 -0.00072106051352356204 0 -0.005138289253624531 -0.00073012910085882828 0 -0.0050845516061562498 -0.00072105733762571134 0 -0.005138289253624531 -0.00073012910085882828 0 -0.0049880926865088805 -0.00077873418092094359 0 -0.0050354257211856135 -0.0009206833868454174 0 -0.005138289253624531 -0.00073012910085882828 0 -0.0049880926865088805 -0.00077873418092094359 0 -0.0050845516061562498 -0.00072105733762571134 0 -0.0049880926865088805 -0.00077873418092094359 0 -0.0050354257211856135 -0.0009206833868454174 0 -0.004833279705741717 -0.00086448525323564091 0 -0.0049880926865088805 -0.00077873418092094359 0 -0.004833279705741717 -0.00086448525323564091 0 -0.0048431228503255539 -0.00077788206342575177 0 -0.0053252358302111006 -0.00065487285611603746 0 -0.0053518496792727913 -0.00061569157322142619 0 -0.0050354257211856135 -0.0009206833868454174 0 -0.004820054033331524 -0.00099997002761682504 0 -0.004833279705741717 -0.00086448525323564091 0 -0.0052820635913093991 -0.00060867562822928514 0 -0.005138289253624531 -0.00073012910085882828 0 -0.0050354257211856135 -0.0009206833868454174 0 -0.0052784642950607728 -0.0006263232825419984 0 -0.0053252358302111006 -0.00065487285611603746 0 -0.0056445071552981884 -0.00040049623349102049 0 -0.0055307313102480622 -0.00020979802188132442 0 -0.0057084584424084575 -0.00015576718628449837 0 -0.0053816911560531869 -0.00036358540978509885 0 -0.0056445071552981884 -0.00040049623349102049 0 -0.0055307313102480622 -0.00020979802188132442 0 -0.0056445071552981884 -0.00040049623349102049 0 -0.0057084584424084575 -0.00015576718628449837 0 -0.0058587286376588586 -0.00024455260906280809 0 -0.0057027700649903909 3.8572065791569474e-05 0 -0.0057084584424084575 -0.00015576718628449837 0 -0.0056016709933358437 -6.6323386624830196e-05 0 -0.0058767040690238118 4.197593642622882e-05 0 -0.0057027700649903909 3.8572065791569474e-05 0 -0.0057084584424084575 -0.00015576718628449837 0 -0.0055307313102480622 -0.00020979802188132442 0 -0.0057084584424084575 -0.00015576718628449837 0 -0.0056016709933358437 -6.6323386624830196e-05 0 -0.0055210386644934974 9.9785022533719432e-05 0 -0.0054588864499118001 -4.8003059774933031e-05 0 -0.0056016709933358437 -6.6323386624830196e-05 0 -0.0054588864499118001 -4.8003059774933031e-05 0 -0.0055307313102480622 -0.00020979802188132442 0 -0.0056016709933358437 -6.6323386624830196e-05 0 -0.0058767040690238118 4.197593642622882e-05 0 -0.0059868044828816072 0.00015402740325766605 0 -0.0060657290350751665 -0.00012050220090937677 0 -0.0058767040690238118 4.197593642622882e-05 0 -0.0058587286376588586 -0.00024455260906280809 0 -0.0060657290350751665 -0.00012050220090937677 0 -0.0061161304641676089 8.9931027382728561e-05 0 -0.0059868044828816072 0.00015402740325766605 0 -0.0060657290350751665 -0.00012050220090937677 0 -0.0058767040690238118 4.197593642622882e-05 0 -0.0057084584424084575 -0.00015576718628449837 0 -0.0058587286376588586 -0.00024455260906280809 0 -0.004820054033331524 -0.00099997002761682504 0 -0.0046662856705053483 -0.00096065603890331292 0 -0.0046960082271089937 -0.0010147274848557178 0 -0.0053518496792727913 -0.00061569157322142619 0 -0.0053360025809990226 -0.0006107921196168367 0 -0.004820054033331524 -0.00099997002761682504 0 -0.0046706836597418854 -0.00090088122951657455 0 -0.0046662856705053483 -0.00096065603890331292 0 -0.004820054033331524 -0.00099997002761682504 0 -0.004833279705741717 -0.00086448525323564091 0 -0.0046706836597418854 -0.00090088122951657455 0 -0.004833279705741717 -0.00086448525323564091 0 -0.0047143847693779644 -0.00081277510040598893 0 -0.0048431228503255539 -0.00077788206342575177 0 -0.004833279705741717 -0.00086448525323564091 0 -0.0046706836597418854 -0.00090088122951657455 0 -0.0047143847693779644 -0.00081277510040598893 0 -0.0047143847693779644 -0.00081277510040598893 0 -0.0046411153943616973 -0.00075933807129359497 0 -0.0047675697291740433 -0.00073420502264042679 0 -0.0046411153943616973 -0.00075933807129359497 0 -0.0046732872801157049 -0.00070472116502747341 0 -0.0045495729840281619 -0.00074718741817344039 0 -0.0046411153943616973 -0.00075933807129359497 0 -0.0046732872801157049 -0.00070472116502747341 0 -0.0047675697291740433 -0.00073420502264042679 0 -0.0046732872801157049 -0.00070472116502747341 0 -0.0047675697291740433 -0.00073420502264042679 0 -0.004817011139073432 -0.00062539146810989339 0 -0.0047675697291740433 -0.00073420502264042679 0 -0.0049535280857601893 -0.00071243659902938924 0 -0.004817011139073432 -0.00062539146810989339 0 -0.0047143847693779644 -0.00081277510040598893 0 -0.0047675697291740433 -0.00073420502264042679 0 -0.0048431228503255539 -0.00077788206342575177 0 -0.0047675697291740433 -0.00073420502264042679 0 -0.0048431228503255539 -0.00077788206342575177 0 -0.0049535280857601893 -0.00071243659902938924 0 -0.0049880926865088805 -0.00077873418092094359 0 -0.0049535280857601893 -0.00071243659902938924 0 -0.0050845516061562498 -0.00072105733762571134 0 -0.0049880926865088805 -0.00077873418092094359 0 -0.0048431228503255539 -0.00077788206342575177 0 -0.0049535280857601893 -0.00071243659902938924 0 -0.0052056258211272081 -0.00072106051352356204 0 -0.0050845516061562498 -0.00072105733762571134 0 -0.0050626928760157961 -0.00068344289026155776 0 -0.0052056258211272081 -0.00072106051352356204 0 -0.0050626928760157961 -0.00068344289026155776 0 -0.0050411837244623454 -0.00063967607297968278 0 -0.0049535280857601893 -0.00071243659902938924 0 -0.0050845516061562498 -0.00072105733762571134 0 -0.0050626928760157961 -0.00068344289026155776 0 -0.0049535280857601893 -0.00071243659902938924 0 -0.0050626928760157961 -0.00068344289026155776 0 -0.0050311199713858326 -0.00064564243590281719 0 -0.0050311199713858326 -0.00064564243590281719 0 -0.0050411837244623454 -0.00063967607297968278 0 -0.00505064205138418 -0.00068666425346066698 0 -0.0050626928760157961 -0.00068344289026155776 0 -0.0050311199713858326 -0.00064564243590281719 0 -0.0050411837244623454 -0.00063967607297968278 0 -0.0054175261326617589 -0.00087526290356647438 0 -0.0054980622057327518 -0.00084385510847339489 0 -0.0054808379224835172 -0.00094292592339095143 0 -0.0050317224487666044 -0.00065349661599147825 0 -0.0049478405807068275 -0.00065683559808787906 0 -0.0050311199713858326 -0.00064564243590281719 0 -0.00505064205138418 -0.00068666425346066698 0 -0.0050959394270628684 -0.00068763584366024596 0 -0.0049535280857601893 -0.00071243659902938924 0 -0.0050311199713858326 -0.00064564243590281719 0 -0.004817011139073432 -0.00062539146810989339 0 -0.00505064205138418 -0.00068666425346066698 0 -0.0050307154393366181 -0.00074048523209649907 0 -0.005099017366703395 -0.00075496486291130958 0 -0.0052740829896723504 -0.0007466309302327556 0 -0.0053012364567676671 -0.00087161479167275637 0 -0.0054980622057327518 -0.00084385510847339489 0 -0.0054808379224835172 -0.00094292592339095143 0 -0.0055661660222782678 -0.0010022110473186542 0 -0.0050411837244623454 -0.00063967607297968278 0 -0.00505064205138418 -0.00068666425346066698 0 -0.0050307154393366181 -0.00074048523209649907 0 -0.0054019813791216145 -0.00097360839635821637 0 -0.0054808379224835172 -0.00094292592339095143 0 -0.0054836759956589454 -0.0011345728676051894 0 -0.0054808379224835172 -0.00094292592339095143 0 -0.0055661660222782678 -0.0010022110473186542 0 -0.0054836759956589454 -0.0011345728676051894 0 -0.0050307154393366181 -0.00074048523209649907 0 -0.005099017366703395 -0.00075496486291130958 0 -0.0050695136994335808 -0.00085842181891593815 0 -0.0055661660222782678 -0.0010022110473186542 0 -0.0056572336473502682 -0.0011797653248597521 0 -0.0054836759956589454 -0.0011345728676051894 0 -0.0053012364567676671 -0.00087161479167275637 0 -0.0053586670332795789 -0.0010204330933481945 0 -0.005099017366703395 -0.00075496486291130958 0 -0.005154791587128572 -0.00080956285564015703 0 -0.0050695136994335808 -0.00085842181891593815 0 -0.005154791587128572 -0.00080956285564015703 0 -0.005187908718966884 -0.00073449964968378973 0 -0.0052353578034742571 -0.00081842805762372031 0 -0.005099017366703395 -0.00075496486291130958 0 -0.005154791587128572 -0.00080956285564015703 0 -0.005187908718966884 -0.00073449964968378973 0 -0.0049670363017849974 -0.00070073765959149503 0 -0.0049478405807068275 -0.00065683559808787906 0 -0.0046732872801157049 -0.00070472116502747341 0 -0.0046063987383475856 -0.00065843954712908404 0 -0.0045495729840281619 -0.00074718741817344039 0 -0.0046732872801157049 -0.00070472116502747341 0 -0.0046063987383475856 -0.00065843954712908404 0 -0.004817011139073432 -0.00062539146810989339 0 -0.00505064205138418 -0.00068666425346066698 0 -0.005099017366703395 -0.00075496486291130958 0 -0.0050959394270628684 -0.00068763584366024596 0 -0.005099017366703395 -0.00075496486291130958 0 -0.005187908718966884 -0.00073449964968378973 0 -0.0050959394270628684 -0.00068763584366024596 0 -0.0044497481737811708 -0.00075593697423546793 0 -0.0045068305915865201 -0.00072160143793388218 0 -0.0044088082759512169 -0.00075787495135173195 0 -0.0044269879390760472 -0.00077650314379863826 0 -0.0044497481737811708 -0.00075593697423546793 0 -0.0044735512209740716 -0.00075930878602632919 0 -0.0044269879390760472 -0.00077650314379863826 0 -0.0044497481737811708 -0.00075593697423546793 0 -0.0044142074966938604 -0.00077411885099389543 0 -0.0044269879390760472 -0.00077650314379863826 0 -0.0043940520945562221 -0.00079749377972207871 0 -0.0044142074966938604 -0.00077411885099389543 0 -0.0043940520945562221 -0.00079749377972207871 0 -0.0043617136035397951 -0.00082872746874004398 0 -0.0043782109845399908 -0.00081577642854866383 0 -0.0043940520945562221 -0.00079749377972207871 0 -0.0044043303158792148 -0.00079399573962172132 0 -0.0043782109845399908 -0.00081577642854866383 0 -0.0044269879390760472 -0.00077650314379863826 0 -0.0043940520945562221 -0.00079749377972207871 0 -0.0044043303158792148 -0.00079399573962172132 0 -0.0044269879390760472 -0.00077650314379863826 0 -0.0044043303158792148 -0.00079399573962172132 0 -0.0044348838684271684 -0.00077997088216787776 0 -0.0044043303158792148 -0.00079399573962172132 0 -0.0044096111326081249 -0.00079381383840146163 0 -0.0043782109845399908 -0.00081577642854866383 0 -0.0044043303158792148 -0.00079399573962172132 0 -0.0044096111326081249 -0.00079381383840146163 0 -0.0044348838684271684 -0.00077997088216787776 0 -0.0044348838684271684 -0.00077997088216787776 0 -0.0044735512209740716 -0.00075930878602632919 0 -0.0044562160733162921 -0.00078071107786450457 0 -0.0044269879390760472 -0.00077650314379863826 0 -0.0044348838684271684 -0.00077997088216787776 0 -0.0044735512209740716 -0.00075930878602632919 0 -0.0044735512209740716 -0.00075930878602632919 0 -0.0045068305915865201 -0.00072160143793388218 0 -0.0045495729840281619 -0.00074718741817344039 0 -0.0046063987383475856 -0.00065843954712908404 0 -0.0045068305915865201 -0.00072160143793388218 0 -0.0044088082759512169 -0.00075787495135173195 0 -0.0046063987383475856 -0.00065843954712908404 0 -0.0045068305915865201 -0.00072160143793388218 0 -0.0045495729840281619 -0.00074718741817344039 0 -0.0044497481737811708 -0.00075593697423546793 0 -0.0044735512209740716 -0.00075930878602632919 0 -0.0045068305915865201 -0.00072160143793388218 0 -0.0049670363017849974 -0.00070073765959149503 0 -0.0045159738915840361 -0.00089291960044716404 0 -0.005187908718966884 -0.00073449964968378973 0 -0.0052353578034742571 -0.00081842805762372031 0 -0.0052845376436596826 -0.00078535764457997369 0 -0.0044497481737811708 -0.00075593697423546793 0 -0.0044088082759512169 -0.00075787495135173195 0 -0.0044142074966938604 -0.00077411885099389543 0 -0.0044088082759512169 -0.00075787495135173195 0 -0.0044142074966938604 -0.00077411885099389543 0 -0.0043617136035397951 -0.00082872746874004398 0 -0.0043940520945562221 -0.00079749377972207871 0 -0.0044142074966938604 -0.00077411885099389543 0 -0.0043617136035397951 -0.00082872746874004398 0 -0.0045159738915840361 -0.00089291960044716404 0 -0.004180185709578948 -0.00094969107080164212 0 -0.0044088082759512169 -0.00075787495135173195 0 -0.0043617136035397951 -0.00082872746874004398 0 -0.0042745562355406509 -0.0010020175694194159 0 -0.0043617136035397951 -0.00082872746874004398 0 -0.0043456953965090514 -0.00088012092884265153 0 -0.0042745562355406509 -0.0010020175694194159 0 -0.0043456953965090514 -0.00088012092884265153 0 -0.0043653211735868022 -0.00096474900329791748 0 -0.0042745562355406509 -0.0010020175694194159 0 -0.0043456953965090514 -0.00088012092884265153 0 -0.0043653211735868022 -0.00096474900329791748 0 -0.0043917052120793377 -0.00087378628516687382 0 -0.0043653211735868022 -0.00096474900329791748 0 -0.0043917052120793377 -0.00087378628516687382 0 -0.0044450382049740734 -0.00096327577761103978 0 -0.0043917052120793377 -0.00087378628516687382 0 -0.004374633976333712 -0.00083385109523677499 0 -0.0043888077013682731 -0.00080843078269905624 0 -0.0043917052120793377 -0.00087378628516687382 0 -0.0043888077013682731 -0.00080843078269905624 0 -0.0044872585160012296 -0.00084744762696794347 0 -0.0043456953965090514 -0.00088012092884265153 0 -0.0043917052120793377 -0.00087378628516687382 0 -0.004374633976333712 -0.00083385109523677499 0 -0.0043617136035397951 -0.00082872746874004398 0 -0.0043456953965090514 -0.00088012092884265153 0 -0.0043782109845399908 -0.00081577642854866383 0 -0.0043456953965090514 -0.00088012092884265153 0 -0.0043782109845399908 -0.00081577642854866383 0 -0.004374633976333712 -0.00083385109523677499 0 -0.0043782109845399908 -0.00081577642854866383 0 -0.004374633976333712 -0.00083385109523677499 0 -0.0043891161282337094 -0.00080846228200560086 0 -0.0044096111326081249 -0.00079381383840146163 0 -0.0043782109845399908 -0.00081577642854866383 0 -0.0043891161282337094 -0.00080846228200560086 0 -0.0043891161282337094 -0.00080846228200560086 0 -0.0043979037834784096 -0.00080237650781051937 0 -0.0044192752040722203 -0.00079643675950581325 0 -0.0044096111326081249 -0.00079381383840146163 0 -0.0043891161282337094 -0.00080846228200560086 0 -0.0044192752040722203 -0.00079643675950581325 0 -0.0043891161282337094 -0.00080846228200560086 0 -0.0043979037834784096 -0.00080237650781051937 0 -0.0043888077013682731 -0.00080843078269905624 0 -0.004374633976333712 -0.00083385109523677499 0 -0.0043891161282337094 -0.00080846228200560086 0 -0.0043888077013682731 -0.00080843078269905624 0 -0.0043979037834784096 -0.00080237650781051937 0 -0.0044192752040722203 -0.00079643675950581325 0 -0.0044164657353860867 -0.00080974390141386621 0 -0.0043888077013682731 -0.00080843078269905624 0 -0.0043980417854257992 -0.00078012056974512936 0 -0.0045444503406802316 -0.0007881721916713748 0 -0.0043979037834784096 -0.00080237650781051937 0 -0.0043888077013682731 -0.00080843078269905624 0 -0.0043980417854257992 -0.00078012056974512936 0 -0.0043771303162436779 -0.0006735774717852842 0 -0.0044329168794523064 -0.0006878648236084726 0 -0.0043374733874739233 -0.00056958578919374893 0 -0.0043383332309896803 -0.00049644627169721572 0 -0.0042824207203366995 -0.0005443782848028408 0 -0.0043374733874739233 -0.00056958578919374893 0 -0.0043383332309896803 -0.00049644627169721572 0 -0.0043864913749303396 -0.00051263960384131013 0 -0.0043374733874739233 -0.00056958578919374893 0 -0.0043864913749303396 -0.00051263960384131013 0 -0.0044529529107983825 -0.00055451096743543192 0 -0.0043383332309896803 -0.00049644627169721572 0 -0.0043864913749303396 -0.00051263960384131013 0 -0.0043721300223377897 -0.00046556725921326376 0 -0.0044164657353860867 -0.00080974390141386621 0 -0.00440206814609283 -0.00080535932668186012 0 -0.0044579118214925139 -0.00086669523208968266 0 -0.0043979037834784096 -0.00080237650781051937 0 -0.0043980417854257992 -0.00078012056974512936 0 -0.0044164657353860867 -0.00080974390141386621 0 -0.0043980417854257992 -0.00078012056974512936 0 -0.0044164657353860867 -0.00080974390141386621 0 -0.00440206814609283 -0.00080535932668186012 0 -0.0044329168794523064 -0.0006878648236084726 0 -0.0045534263840237522 -0.0008804490174794988 0 -0.0045582138321211604 -0.00084773959912229282 0 -0.0046108222195251963 -0.00087418744999266467 0 -0.0045751521858929641 -0.00088446478368337802 0 -0.0044164657353860867 -0.00080974390141386621 0 -0.004462144438969284 -0.00080315790174079486 0 -0.0044579118214925139 -0.00086669523208968266 0 -0.004462144438969284 -0.00080315790174079486 0 -0.0045330132590066553 -0.00080537394715121181 0 -0.0044579118214925139 -0.00086669523208968266 0 -0.0044192752040722203 -0.00079643675950581325 0 -0.0044164657353860867 -0.00080974390141386621 0 -0.004462144438969284 -0.00080315790174079486 0 -0.0044192752040722203 -0.00079643675950581325 0 -0.004462144438969284 -0.00080315790174079486 0 -0.0044562160733162921 -0.00078071107786450457 0 -0.004462144438969284 -0.00080315790174079486 0 -0.0044562160733162921 -0.00078071107786450457 0 -0.0045330132590066553 -0.00080537394715121181 0 -0.0044096111326081249 -0.00079381383840146163 0 -0.0044348838684271684 -0.00077997088216787776 0 -0.0044562160733162921 -0.00078071107786450457 0 -0.0044096111326081249 -0.00079381383840146163 0 -0.0044192752040722203 -0.00079643675950581325 0 -0.0044562160733162921 -0.00078071107786450457 0 -0.0046411153943616973 -0.00075933807129359497 0 -0.0045495729840281619 -0.00074718741817344039 0 -0.0045330132590066553 -0.00080537394715121181 0 -0.0044562160733162921 -0.00078071107786450457 0 -0.0045495729840281619 -0.00074718741817344039 0 -0.0045330132590066553 -0.00080537394715121181 0 -0.0044735512209740716 -0.00075930878602632919 0 -0.0044562160733162921 -0.00078071107786450457 0 -0.0045495729840281619 -0.00074718741817344039 0 -0.0047143847693779644 -0.00081277510040598893 0 -0.0046411153943616973 -0.00075933807129359497 0 -0.0045330132590066553 -0.00080537394715121181 0 -0.0046706836597418854 -0.00090088122951657455 0 -0.0047143847693779644 -0.00081277510040598893 0 -0.0045330132590066553 -0.00080537394715121181 0 -0.0046706836597418854 -0.00090088122951657455 0 -0.0045330132590066553 -0.00080537394715121181 0 -0.0044579118214925139 -0.00086669523208968266 0 -0.0046706836597418854 -0.00090088122951657455 0 -0.0046108222195251963 -0.00087418744999266467 0 -0.0046303838584182888 -0.00092174587849919653 0 -0.0046520453769390829 -0.00089678651151796135 0 -0.0045534263840237522 -0.0008804490174794988 0 -0.0046108222195251963 -0.00087418744999266467 0 -0.0046303838584182888 -0.00092174587849919653 0 -0.0045938816115152509 -0.00091765871341322337 0 -0.0046303838584182888 -0.00092174587849919653 0 -0.0046130399406442832 -0.00096342697352664263 0 -0.0045938816115152509 -0.00091765871341322337 0 -0.0046303838584182888 -0.00092174587849919653 0 -0.0046662856705053483 -0.00096065603890331292 0 -0.0046130399406442832 -0.00096342697352664263 0 -0.0046706836597418854 -0.00090088122951657455 0 -0.0046303838584182888 -0.00092174587849919653 0 -0.0046662856705053483 -0.00096065603890331292 0 -0.0046662856705053483 -0.00096065603890331292 0 -0.0046960082271089937 -0.0010147274848557178 0 -0.0046441316422005316 -0.00099227683270033929 0 -0.0046662856705053483 -0.00096065603890331292 0 -0.0046130399406442832 -0.00096342697352664263 0 -0.0046441316422005316 -0.00099227683270033929 0 -0.0046130399406442832 -0.00096342697352664263 0 -0.0046441316422005316 -0.00099227683270033929 0 -0.0046220251745872224 -0.0010208984898465463 0 -0.0063108667763030167 5.9435526066067345e-05 0 -0.0056326796279043455 -0.0002522030546873755 0 -0.0046960082271089937 -0.0010147274848557178 0 -0.0046441316422005316 -0.00099227683270033929 0 -0.0046220251745872224 -0.0010208984898465463 0 -0.0061161304641676089 8.9931027382728561e-05 0 -0.0060657290350751665 -0.00012050220090937677 0 -0.0062907543476346346 -1.5214882929729799e-05 0 -0.0053360025809990226 -0.0006107921196168367 0 -0.0056326796279043455 -0.0002522030546873755 0 -0.0059061051348963736 0.00036333898748347194 0 -0.0047624111634859169 -0.00019644095921117569 0 -0.0049310656669645089 0.00048360188001457657 0 -0.0049061577918728238 0.00049830165506268241 0 -0.0049329030476843562 0.00053045973795346315 0 -0.0049061577918728238 0.00049830165506268241 0 -0.0049329030476843562 0.00053045973795346315 0 -0.0048928663219960844 0.00052070943238907599 0 -0.0059061051348963736 0.00036333898748347194 0 -0.0056326796279043455 -0.0002522030546873755 0 -0.0056326796279043455 -0.0002522030546873755 0 -0.0047624111634859169 -0.00019644095921117569 0 -0.0054672884143572818 2.1382934266174366e-06 0 -0.0054319539907791287 -1.5499139506790531e-05 0 -0.0054608151383637085 -3.2587812685470119e-05 0 -0.0046130399406442832 -0.00096342697352664263 0 -0.0046220251745872224 -0.0010208984898465463 0 -0.0045557637460187581 -0.00097983405268158865 0 -0.0046130399406442832 -0.00096342697352664263 0 -0.0045557637460187581 -0.00097983405268158865 0 -0.0045749684400978674 -0.00094746041599370239 0 -0.0047624111634859169 -0.00019644095921117569 0 -0.0046051274323420377 0.00019676092216224886 0 -0.004319084658401905 -0.00018649623605637797 0 -0.0043640774450909286 -0.00030440848959610865 0 -0.0044246015676985941 -0.00024652710270558001 0 -0.0049329030476843562 0.00053045973795346315 0 -0.0048878364003137427 0.00055859407634246819 0 -0.0048928663219960844 0.00052070943238907599 0 -0.0043640774450909286 -0.00030440848959610865 0 -0.0043186759056429375 -0.00036231336881378524 0 -0.0044526750025982564 -0.00038415358582648019 0 -0.0047624111634859169 -0.00019644095921117569 0 -0.0043915293751819367 -0.00071346222479006373 0 -0.004319084658401905 -0.00018649623605637797 0 -0.0043640774450909286 -0.00030440848959610865 0 -0.0043021881360623447 -0.00034270569935441781 0 -0.0043640774450909286 -0.00030440848959610865 0 -0.0043021881360623447 -0.00034270569935441781 0 -0.0043186759056429375 -0.00036231336881378524 0 -0.0046130399406442832 -0.00096342697352664263 0 -0.0045749684400978674 -0.00094746041599370239 0 -0.0045938816115152509 -0.00091765871341322337 0 -0.0045557637460187581 -0.00097983405268158865 0 -0.0045557042129825524 -0.0009160029647238265 0 -0.0045749684400978674 -0.00094746041599370239 0 -0.0045557042129825524 -0.0009160029647238265 0 -0.0045749684400978674 -0.00094746041599370239 0 -0.0045749178166692439 -0.00092185465075825723 0 -0.0045557042129825524 -0.0009160029647238265 0 -0.0045749178166692439 -0.00092185465075825723 0 -0.0045749370456497811 -0.00090630254655698619 0 -0.0045749684400978674 -0.00094746041599370239 0 -0.0045749178166692439 -0.00092185465075825723 0 -0.0045938816115152509 -0.00091765871341322337 0 -0.0045749178166692439 -0.00092185465075825723 0 -0.0045938816115152509 -0.00091765871341322337 0 -0.0045749370456497811 -0.00090630254655698619 0 -0.0046108222195251963 -0.00087418744999266467 0 -0.0045938816115152509 -0.00091765871341322337 0 -0.0045751521858929641 -0.00088446478368337802 0 -0.0044329168794523064 -0.0006878648236084726 0 -0.0043915293751819367 -0.00071346222479006373 0 -0.0045582138321211604 -0.00084773959912229282 0 -0.0045557042129825524 -0.0009160029647238265 0 -0.0045751521858929641 -0.00088446478368337802 0 -0.0045938816115152509 -0.00091765871341322337 0 -0.0045749370456497811 -0.00090630254655698619 0 -0.0045751521858929641 -0.00088446478368337802 0 -0.0045557042129825524 -0.0009160029647238265 0 -0.0045749370456497811 -0.00090630254655698619 0 -0.0045751521858929641 -0.00088446478368337802 0 -0.0043383332309896803 -0.00049644627169721572 0 -0.0042824207203366995 -0.0005443782848028408 0 -0.0043186759056429375 -0.00036231336881378524 0 -0.0043383332309896803 -0.00049644627169721572 0 -0.0043186759056429375 -0.00036231336881378524 0 -0.0043721300223377897 -0.00046556725921326376 0 -0.0043186759056429375 -0.00036231336881378524 0 -0.0044359620840594225 -0.00046086582433119805 0 -0.0044838989737209841 -0.00040357098024553227 0 -0.0043194097474455488 -0.00036081881630726636 0 -0.0044914052239775791 -0.00040237382905991342 0 -0.0042824207203366995 -0.0005443782848028408 0 -0.0043021881360623447 -0.00034270569935441781 0 -0.0043186759056429375 -0.00036231336881378524 0 -0.0043186759056429375 -0.00036231336881378524 0 -0.0043721300223377897 -0.00046556725921326376 0 -0.0044359620840594225 -0.00046086582433119805 0 -0.0043864913749303396 -0.00051263960384131013 0 -0.0043721300223377897 -0.00046556725921326376 0 -0.0044359620840594225 -0.00046086582433119805 0 -0.0044359620840594225 -0.00046086582433119805 0 -0.0044838989737209841 -0.00040357098024553227 0 -0.0045318595556504563 -0.00052888109525126839 0 -0.0044526750025982564 -0.00038415358582648019 0 -0.0045741826590720014 -0.00040897885949904035 0 -0.004527305864065319 -0.00030337887563810823 0 -0.0044838989737209841 -0.00040357098024553227 0 -0.004611460363130402 -0.00048795658965151523 0 -0.0045318595556504563 -0.00052888109525126839 0 -0.0044838989737209841 -0.00040357098024553227 0 -0.0046573078274006353 -0.00044164402448566679 0 -0.004611460363130402 -0.00048795658965151523 0 -0.0045741826590720014 -0.00040897885949904035 0 -0.004527305864065319 -0.00030337887563810823 0 -0.0046243099072697429 -0.00035663866979631693 0 -0.0044914052239775791 -0.00040237382905991342 0 -0.0045001033269772223 -0.00036122225913818163 0 -0.0045001033269772223 -0.00036122225913818163 0 -0.004564379223162795 -0.00040665268224594552 0 -0.0047314435446570375 0.00013038853248339781 0 -0.004378706933816365 -8.4713687172812197e-05 0 -0.0044526750025982564 -0.00038415358582648019 0 -0.004527305864065319 -0.00030337887563810823 0 -0.0044246015676985941 -0.00024652710270558001 0 -0.0043640774450909286 -0.00030440848959610865 0 -0.0044526750025982564 -0.00038415358582648019 0 -0.0044246015676985941 -0.00024652710270558001 0 -0.0047314435446570375 0.00013038853248339781 0 -0.0046051274323420377 0.00019676092216224886 0 -0.0048878364003137427 0.00055859407634246819 0 -0.004846782261765911 0.00053063419037675916 0 -0.0048928663219960844 0.00052070943238907599 0 -0.0048378437666663403 0.0005825489222971447 0 -0.0048878364003137427 0.00055859407634246819 0 -0.004846782261765911 0.00053063419037675916 0 -0.0048378437666663403 0.0005825489222971447 0 -0.004846782261765911 0.00053063419037675916 0 -0.0047952119599443833 0.00055117006635462191 0 -0.004846782261765911 0.00053063419037675916 0 -0.0048022806437328152 0.00051115103325622606 0 -0.0047952119599443833 0.00055117006635462191 0 -0.0048316823720144534 0.00048777889645182566 0 -0.004846782261765911 0.00053063419037675916 0 -0.004884508143090412 0.00049045672123506734 0 -0.0048316823720144534 0.00048777889645182566 0 -0.004846782261765911 0.00053063419037675916 0 -0.0048022806437328152 0.00051115103325622606 0 -0.004846782261765911 0.00053063419037675916 0 -0.004884508143090412 0.00049045672123506734 0 -0.0048928663219960844 0.00052070943238907599 0 -0.0049061577918728238 0.00049830165506268241 0 -0.004884508143090412 0.00049045672123506734 0 -0.0048928663219960844 0.00052070943238907599 0 -0.0047556493398936877 0.00051645532914997862 0 -0.0048022806437328152 0.00051115103325622606 0 -0.0047952119599443833 0.00055117006635462191 0 -0.0047813673605630073 0.00047310916785312922 0 -0.0047556493398936877 0.00051645532914997862 0 -0.0048022806437328152 0.00051115103325622606 0 -0.0047090220091017499 0.00053004604042570873 0 -0.0047556493398936877 0.00051645532914997862 0 -0.0047487835358231076 0.00056563827582422331 0 -0.0047556493398936877 0.00051645532914997862 0 -0.0047952119599443833 0.00055117006635462191 0 -0.0047487835358231076 0.00056563827582422331 0 -0.0037958541591433842 -0.00014840413642230529 0 -0.0038061613912611951 -0.00017217430339166868 0 -0.0037846163094613313 -0.00017441903395672424 0 -0.0038115066148240802 -0.00014435017692601351 0 -0.0037958541591433842 -0.00014840413642230529 0 -0.0038061613912611951 -0.00017217430339166868 0 -0.0042609246398941014 0.00023896741670308705 0 -0.004378706933816365 -8.4713687172812197e-05 0 -0.0047952119599443833 0.00055117006635462191 0 -0.0047487835358231076 0.00056563827582422331 0 -0.0047890519042982109 0.00060283215990244846 0 -0.0048378437666663403 0.0005825489222971447 0 -0.0047952119599443833 0.00055117006635462191 0 -0.0047890519042982109 0.00060283215990244846 0 -0.0042005374455425263 -0.00023359574806468625 0 -0.0040979206487284136 -0.00033545942360300643 0 -0.0039376236867612541 -0.00024955283942327785 0 -0.0042005374455425263 -0.00023359574806468625 0 -0.0039376236867612541 -0.00024955283942327785 0 -0.0039229398584248593 -0.00017687254422045005 0 -0.0045001033269772223 -0.00036122225913818163 0 -0.0044443070852448873 -0.00032011877492766797 0 -0.0045001033269772223 -0.00036122225913818163 0 -0.004378706933816365 -8.4713687172812197e-05 0 -0.004378706933816365 -8.4713687172812197e-05 0 -0.0038323562587255964 -0.00018330616671211544 0 -0.0038061613912611951 -0.00017217430339166868 0 -0.0037846163094613313 -0.00017441903395672424 0 -0.0038004127014212973 -0.00018587539130655411 0 -0.0038130712832565587 -0.00018508351746484249 0 -0.0038061613912611951 -0.00017217430339166868 0 -0.0038004127014212973 -0.00018587539130655411 0 -0.0038288424473859094 -0.00017762204593938687 0 -0.0039376236867612541 -0.00024955283942327785 0 -0.0039229398584248593 -0.00017687254422045005 0 -0.0038447308322452399 -0.00019223597849391853 0 -0.0038323562587255964 -0.00018330616671211544 0 -0.0038130712832565587 -0.00018508351746484249 0 -0.0038288424473859094 -0.00017762204593938687 0 -0.0038004127014212973 -0.00018587539130655411 0 -0.0050026788016607707 -0.0007019190949819217 0 -0.0049001883802872476 -0.00047553334852915512 0 -0.0048513012887083885 -0.00067659908255735901 0 -0.0049001883802872476 -0.00047553334852915512 0 -0.0048513012887083885 -0.00067659908255735901 0 -0.0048056972795634976 -0.0005728855641034189 0 -0.0050026788016607707 -0.0007019190949819217 0 -0.0048513012887083885 -0.00067659908255735901 0 -0.0047868788588811308 -0.00081140105474500194 0 -0.0048513012887083885 -0.00067659908255735901 0 -0.0047154627091911443 -0.00064311303676964631 0 -0.0047868788588811308 -0.00081140105474500194 0 -0.0047154627091911443 -0.00064311303676964631 0 -0.0045453132218921718 -0.00067852842146664768 0 -0.0047868788588811308 -0.00081140105474500194 0 -0.0048513012887083885 -0.00067659908255735901 0 -0.0047154627091911443 -0.00064311303676964631 0 -0.0048056972795634976 -0.0005728855641034189 0 -0.0047154627091911443 -0.00064311303676964631 0 -0.0047161073488269081 -0.00053454822186102351 0 -0.0046261529974396375 -0.00057648861880277812 0 -0.0046639237457116456 -0.0004296985856797882 0 -0.0049001883802872476 -0.00047553334852915512 0 -0.0047161073488269081 -0.00053454822186102351 0 -0.0047154627091911443 -0.00064311303676964631 0 -0.0048056972795634976 -0.0005728855641034189 0 -0.0047161073488269081 -0.00053454822186102351 0 -0.0049001883802872476 -0.00047553334852915512 0 -0.0048056972795634976 -0.0005728855641034189 0 -0.0047161073488269081 -0.00053454822186102351 0 -0.0047161073488269081 -0.00053454822186102351 0 -0.004611460363130402 -0.00048795658965151523 0 -0.0046261529974396375 -0.00057648861880277812 0 -0.0046261529974396375 -0.00057648861880277812 0 -0.0045318595556504563 -0.00052888109525126839 0 -0.0045453132218921718 -0.00067852842146664768 0 -0.0046639237457116456 -0.0004296985856797882 0 -0.0047161073488269081 -0.00053454822186102351 0 -0.004611460363130402 -0.00048795658965151523 0 -0.004611460363130402 -0.00048795658965151523 0 -0.0046261529974396375 -0.00057648861880277812 0 -0.0045318595556504563 -0.00052888109525126839 0 -0.0043374733874739233 -0.00056958578919374893 0 -0.0044529529107983825 -0.00055451096743543192 0 -0.0045453132218921718 -0.00067852842146664768 0 -0.0045318595556504563 -0.00052888109525126839 0 -0.0044529529107983825 -0.00055451096743543192 0 -0.0045453132218921718 -0.00067852842146664768 0 -0.0044359620840594225 -0.00046086582433119805 0 -0.0045318595556504563 -0.00052888109525126839 0 -0.0044529529107983825 -0.00055451096743543192 0 -0.0043864913749303396 -0.00051263960384131013 0 -0.0044359620840594225 -0.00046086582433119805 0 -0.0044529529107983825 -0.00055451096743543192 0 -0.0043888077013682731 -0.00080843078269905624 0 -0.0045444503406802316 -0.0007881721916713748 0 -0.0045266786763820538 -0.00089165602508190335 0 -0.0043771303162436779 -0.0006735774717852842 0 -0.0045463950545236694 -0.00073570188873125174 0 -0.0045463950545236694 -0.00073570188873125174 0 -0.004791871320462944 -0.00083485526207511781 0 -0.0047154627091911443 -0.00064311303676964631 0 -0.0046261529974396375 -0.00057648861880277812 0 -0.0045453132218921718 -0.00067852842146664768 0 -0.0045444503406802316 -0.0007881721916713748 0 -0.0045266786763820538 -0.00089165602508190335 0 -0.0047847052359318914 -0.00085331845647520263 0 -0.0045091536547782179 -0.00086972152141224796 0 -0.0047625140876772967 -0.00099396584138232327 0 -0.004393777460962001 -0.00081132978546981382 0 -0.0045091536547782179 -0.00086972152141224796 0 -0.0043917052120793377 -0.00087378628516687382 0 -0.0044872585160012296 -0.00084744762696794347 0 -0.0044450382049740734 -0.00096327577761103978 0 -0.0043653211735868022 -0.00096474900329791748 0 -0.0044450382049740734 -0.00096327577761103978 0 -0.0043669114051441259 -0.0011227557114060322 0 -0.0044872585160012296 -0.00084744762696794347 0 -0.0044450382049740734 -0.00096327577761103978 0 -0.0045710405355290683 -0.00099621639673470202 0 -0.0044450382049740734 -0.00096327577761103978 0 -0.0045710405355290683 -0.00099621639673470202 0 -0.0045134950709834728 -0.001084198872817043 0 -0.0044872585160012296 -0.00084744762696794347 0 -0.0045710405355290683 -0.00099621639673470202 0 -0.0047585915826932369 -0.00096820412518043835 0 -0.0045710405355290683 -0.00099621639673470202 0 -0.0047585915826932369 -0.00096820412518043835 0 -0.0046573198305025687 -0.0011260398874184815 0 -0.0045710405355290683 -0.00099621639673470202 0 -0.0046573198305025687 -0.0011260398874184815 0 -0.0045134950709834728 -0.001084198872817043 0 -0.0050700148329310022 -0.00095298026587949071 0 -0.005053526472996589 -0.001152242535823337 0 -0.0047610354402418276 -0.0010133196202344035 0 -0.0050387854438101775 -0.0011425962049281264 0 -0.0047625140876772967 -0.00099396584138232327 0 -0.0050026788016607707 -0.0007019190949819217 0 -0.0050700148329310022 -0.00095298026587949071 0 -0.0047868788588811308 -0.00081140105474500194 0 -0.0050700148329310022 -0.00095298026587949071 0 -0.0047610354402418276 -0.0010133196202344035 0 -0.0047847052359318914 -0.00085331845647520263 0 -0.005057161608298495 -0.00094848104558426817 0 -0.004791871320462944 -0.00083485526207511781 0 -0.0045266786763820538 -0.00089165602508190335 0 -0.0047610354402418276 -0.0010133196202344035 0 -0.0047847052359318914 -0.00085331845647520263 0 -0.0047326542767908821 -0.001320098527435366 0 -0.004958237002847486 -0.0013582206194682348 0 -0.0047768648522873982 -0.0015592965717477624 0 -0.0047326542767908821 -0.001320098527435366 0 -0.004958237002847486 -0.0013582206194682348 0 -0.004833045262967941 -0.0011833518823910834 0 -0.0051065534024113271 -0.001481506187944667 0 -0.004958237002847486 -0.0013582206194682348 0 -0.004963896139936628 -0.0015946062002536719 0 -0.005053526472996589 -0.001152242535823337 0 -0.004958237002847486 -0.0013582206194682348 0 -0.004833045262967941 -0.0011833518823910834 0 -0.005053526472996589 -0.001152242535823337 0 -0.0047585915826932369 -0.00096820412518043835 0 -0.004833045262967941 -0.0011833518823910834 0 -0.0047585915826932369 -0.00096820412518043835 0 -0.004833045262967941 -0.0011833518823910834 0 -0.0046573198305025687 -0.0011260398874184815 0 -0.0047326542767908821 -0.001320098527435366 0 -0.004833045262967941 -0.0011833518823910834 0 -0.0046573198305025687 -0.0011260398874184815 0 -0.0047326542767908821 -0.001320098527435366 0 -0.0046573198305025687 -0.0011260398874184815 0 -0.0045172795901576726 -0.0012681518291095663 0 -0.0046573198305025687 -0.0011260398874184815 0 -0.0045134950709834728 -0.001084198872817043 0 -0.0045172795901576726 -0.0012681518291095663 0 -0.0044450382049740734 -0.00096327577761103978 0 -0.0045134950709834728 -0.001084198872817043 0 -0.0043669114051441259 -0.0011227557114060322 0 -0.0045134950709834728 -0.001084198872817043 0 -0.0043669114051441259 -0.0011227557114060322 0 -0.0045172795901576726 -0.0012681518291095663 0 -0.0043669114051441259 -0.0011227557114060322 0 -0.00430914343709023 -0.0013812848796243662 0 -0.0045172795901576726 -0.0012681518291095663 0 -0.00430914343709023 -0.0013812848796243662 0 -0.0045172795901576726 -0.0012681518291095663 0 -0.00457531553310047 -0.0015727649121808865 0 -0.0047326542767908821 -0.001320098527435366 0 -0.0045172795901576726 -0.0012681518291095663 0 -0.00457531553310047 -0.0015727649121808865 0 -0.00430914343709023 -0.0013812848796243662 0 -0.0042744817395450755 -0.0019582888521306767 0 -0.003782163052431961 -0.0019113931183174172 0 -0.00430914343709023 -0.0013812848796243662 0 -0.00457531553310047 -0.0015727649121808865 0 -0.0042744817395450755 -0.0019582888521306767 0 -0.0042744817395450755 -0.0019582888521306767 0 -0.0045400806524728901 -0.0022144726434335576 0 -0.0044192182249929365 -0.0023617685648817557 0 -0.00457531553310047 -0.0015727649121808865 0 -0.0042744817395450755 -0.0019582888521306767 0 -0.0047609211335746492 -0.0018166464121914772 0 -0.0042766717218405562 -0.0019621496591481474 0 -0.004623596694877748 -0.0020136688415914776 0 -0.00457531553310047 -0.0015727649121808865 0 -0.0047609211335746492 -0.0018166464121914772 0 -0.0047768648522873982 -0.0015592965717477624 0 -0.0047609211335746492 -0.0018166464121914772 0 -0.0047768648522873982 -0.0015592965717477624 0 -0.004963896139936628 -0.0015946062002536719 0 -0.0047326542767908821 -0.001320098527435366 0 -0.00457531553310047 -0.0015727649121808865 0 -0.0047768648522873982 -0.0015592965717477624 0 -0.004958237002847486 -0.0013582206194682348 0 -0.0047768648522873982 -0.0015592965717477624 0 -0.004963896139936628 -0.0015946062002536719 0 -0.0047948471900494082 -0.0023419812315167081 0 -0.0045400806524728901 -0.0022144726434335576 0 -0.0046924131951416341 -0.0024272908081879561 0 -0.0050444112047852551 -0.0017752013569608883 0 -0.0047609211335746492 -0.0018166464121914772 0 -0.004963896139936628 -0.0015946062002536719 0 -0.0049417172367019003 -0.0020491404330339499 0 -0.004623596694877748 -0.0020136688415914776 0 -0.0047948471900494082 -0.0023419812315167081 0 -0.0048215747063907605 -0.0025139122654481111 0 -0.0046924131951416341 -0.0024272908081879561 0 -0.0046924131951416341 -0.0024272908081879561 0 -0.0045705638448885824 -0.0024677948223699609 0 -0.0047260310945248744 -0.0025995892352833287 0 -0.0048215747063907605 -0.0025139122654481111 0 -0.0046924131951416341 -0.0024272908081879561 0 -0.0047260310945248744 -0.0025995892352833287 0 -0.0045400806524728901 -0.0022144726434335576 0 -0.0045705638448885824 -0.0024677948223699609 0 -0.0044192182249929365 -0.0023617685648817557 0 -0.0045400806524728901 -0.0022144726434335576 0 -0.0046924131951416341 -0.0024272908081879561 0 -0.0045705638448885824 -0.0024677948223699609 0 -0.0045705638448885824 -0.0024677948223699609 0 -0.0044310690468200697 -0.0025863547133110742 0 -0.0044192182249929365 -0.0023617685648817557 0 -0.0045705638448885824 -0.0024677948223699609 0 -0.0045707527860053233 -0.0027656917329276034 0 -0.0044310690468200697 -0.0025863547133110742 0 -0.0047260310945248744 -0.0025995892352833287 0 -0.0047603048319760964 -0.002787340743550797 0 -0.0045707527860053233 -0.0027656917329276034 0 -0.0045705638448885824 -0.0024677948223699609 0 -0.0047260310945248744 -0.0025995892352833287 0 -0.0045707527860053233 -0.0027656917329276034 0 -0.0047603048319760964 -0.002787340743550797 0 -0.0045707527860053233 -0.0027656917329276034 0 -0.0046538571019350628 -0.0029813855717011305 0 -0.0047990161033360226 -0.0029350073075111371 0 -0.0047603048319760964 -0.002787340743550797 0 -0.0046538571019350628 -0.0029813855717011305 0 -0.0045707527860053233 -0.0027656917329276034 0 -0.0044311675008114129 -0.0029979374144038446 0 -0.0046538571019350628 -0.0029813855717011305 0 -0.0045707527860053233 -0.0027656917329276034 0 -0.0044311675008114129 -0.0029979374144038446 0 -0.0042855978017779673 -0.0027971996975156141 0 -0.0044311675008114129 -0.0029979374144038446 0 -0.0045329312064471307 -0.0031679099392835927 0 -0.0043615637401033733 -0.0032324934090868021 0 -0.0044311675008114129 -0.0029979374144038446 0 -0.0045329312064471307 -0.0031679099392835927 0 -0.0046538571019350628 -0.0029813855717011305 0 -0.0045329312064471307 -0.0031679099392835927 0 -0.0046644337119472242 -0.0031397495534194481 0 -0.0046538571019350628 -0.0029813855717011305 0 -0.0047911393898301133 -0.0030809747687202721 0 -0.0046644337119472242 -0.0031397495534194481 0 -0.0047385733220176966 -0.0032371063717945951 0 -0.0047911393898301133 -0.0030809747687202721 0 -0.0047990161033360226 -0.0029350073075111371 0 -0.0046538571019350628 -0.0029813855717011305 0 -0.0047911393898301133 -0.0030809747687202721 0 -0.0046644337119472242 -0.0031397495534194481 0 -0.0046538571019350628 -0.0029813855717011305 0 -0.0040229470677355401 -0.0032075418443256393 0 -0.0042059331988949884 -0.003073972059463912 0 -0.0041891512186303945 -0.0033368311909953608 0 -0.0039935621088008728 -0.003021090284378566 0 -0.0042059331988949884 -0.003073972059463912 0 -0.0040771523924118961 -0.0028518265588560478 0 -0.0039935621088008728 -0.003021090284378566 0 -0.0040229470677355401 -0.0032075418443256393 0 -0.0042059331988949884 -0.003073972059463912 0 -0.0044311675008114129 -0.0029979374144038446 0 -0.0042059331988949884 -0.003073972059463912 0 -0.0043615637401033733 -0.0032324934090868021 0 -0.0044311675008114129 -0.0029979374144038446 0 -0.0042059331988949884 -0.003073972059463912 0 -0.0042855978017779673 -0.0027971996975156141 0 -0.0042855978017779673 -0.0027971996975156141 0 -0.0040771523924118961 -0.0028518265588560478 0 -0.0040537395706963875 -0.0026414024020955736 0 -0.0042059331988949884 -0.003073972059463912 0 -0.0042855978017779673 -0.0027971996975156141 0 -0.0040771523924118961 -0.0028518265588560478 0 -0.0042855978017779673 -0.0027971996975156141 0 -0.0040537395706963875 -0.0026414024020955736 0 -0.00426501520386706 -0.0025856240216601723 0 -0.0040537395706963875 -0.0026414024020955736 0 -0.00426501520386706 -0.0025856240216601723 0 -0.0042063405772040097 -0.0023846993615485668 0 -0.0045707527860053233 -0.0027656917329276034 0 -0.0042855978017779673 -0.0027971996975156141 0 -0.0044310690468200697 -0.0025863547133110742 0 -0.0042855978017779673 -0.0027971996975156141 0 -0.00426501520386706 -0.0025856240216601723 0 -0.0044310690468200697 -0.0025863547133110742 0 -0.00426501520386706 -0.0025856240216601723 0 -0.0044310690468200697 -0.0025863547133110742 0 -0.0044192182249929365 -0.0023617685648817557 0 -0.0042744817395450755 -0.0019582888521306767 0 -0.0044192182249929365 -0.0023617685648817557 0 -0.0042063405772040097 -0.0023846993615485668 0 -0.00426501520386706 -0.0025856240216601723 0 -0.0044192182249929365 -0.0023617685648817557 0 -0.0042063405772040097 -0.0023846993615485668 0 -0.0042744817395450755 -0.0019582888521306767 0 -0.0042063405772040097 -0.0023846993615485668 0 -0.003895006833110008 -0.0023261347685647441 0 -0.0040537395706963875 -0.0026414024020955736 0 -0.0042063405772040097 -0.0023846993615485668 0 -0.003895006833110008 -0.0023261347685647441 0 -0.003895006833110008 -0.0023261347685647441 0 -0.0034736002002522357 -0.0023231048965651679 0 -0.0037176083275831276 -0.0025983091977566358 0 -0.003895006833110008 -0.0023261347685647441 0 -0.0034736002002522357 -0.0023231048965651679 0 -0.003782163052431961 -0.0019113931183174172 0 -0.0037176083275831276 -0.0025983091977566358 0 -0.0035877982542898393 -0.002765973737163144 0 -0.0034296590579566497 -0.0026814147940106658 0 -0.0034736002002522357 -0.0023231048965651679 0 -0.0037176083275831276 -0.0025983091977566358 0 -0.0034296590579566497 -0.0026814147940106658 0 -0.0040537395706963875 -0.0026414024020955736 0 -0.0037176083275831276 -0.0025983091977566358 0 -0.0038220353449892582 -0.0028334620141295262 0 -0.0040537395706963875 -0.0026414024020955736 0 -0.003895006833110008 -0.0023261347685647441 0 -0.0037176083275831276 -0.0025983091977566358 0 -0.0039935621088008728 -0.003021090284378566 0 -0.0040771523924118961 -0.0028518265588560478 0 -0.0038220353449892582 -0.0028334620141295262 0 -0.0040771523924118961 -0.0028518265588560478 0 -0.0040537395706963875 -0.0026414024020955736 0 -0.0038220353449892582 -0.0028334620141295262 0 -0.0037176083275831276 -0.0025983091977566358 0 -0.0038220353449892582 -0.0028334620141295262 0 -0.0035877982542898393 -0.002765973737163144 0 -0.0038220353449892582 -0.0028334620141295262 0 -0.0035877982542898393 -0.002765973737163144 0 -0.0035510730125187196 -0.0029241871852487777 0 -0.0038220353449892582 -0.0028334620141295262 0 -0.0035510730125187196 -0.0029241871852487777 0 -0.0038170356053799687 -0.003108939407796254 0 -0.0035877982542898393 -0.002765973737163144 0 -0.0035510730125187196 -0.0029241871852487777 0 -0.0034321334615261098 -0.002812985631395972 0 -0.0035510730125187196 -0.0029241871852487777 0 -0.0035976540468486613 -0.0031927899913938448 0 -0.0038170356053799687 -0.003108939407796254 0 -0.0039935621088008728 -0.003021090284378566 0 -0.0038220353449892582 -0.0028334620141295262 0 -0.0038170356053799687 -0.003108939407796254 0 -0.0039935621088008728 -0.003021090284378566 0 -0.0040229470677355401 -0.0032075418443256393 0 -0.0038170356053799687 -0.003108939407796254 0 -0.0044966879349165939 -0.0028723689986360724 0 -0.0052889003748168226 -0.0032468755962156721 0 -0.0059807549281954454 -0.0024412948536451742 0 -0.0061400238919368192 -0.0023593036588109594 0 -0.0060363181583000455 -0.0023468749338363009 0 -0.0043201729897470332 -0.0039529365110957289 0 -0.0043158090822642643 -0.0039462641857786942 0 -0.004333624790863762 -0.0039408258856805491 0 -0.0059807549281954454 -0.0024412948536451742 0 -0.0061400238919368192 -0.0023593036588109594 0 -0.0059956411612906808 -0.002609564431278025 0 -0.0038404420042076263 -0.0036259466044556966 0 -0.0044966879349165939 -0.0028723689986360724 0 -0.0035510730125187196 -0.0029241871852487777 0 -0.0035976540468486613 -0.0031927899913938448 0 -0.0032706563335467408 -0.0029558373175508617 0 -0.0042914589881417184 -0.0039538549046056947 0 -0.0043201729897470332 -0.0039529365110957289 0 -0.0043158090822642643 -0.0039462641857786942 0 -0.0046277141000845724 -0.0024317933484473771 0 -0.0045829304700050746 -0.0024996322456148183 0 -0.0046756296061075961 -0.0025525478678425054 0 -0.0035510730125187196 -0.0029241871852487777 0 -0.0032706563335467408 -0.0029558373175508617 0 -0.0033230428626053318 -0.0028692106212384457 0 -0.0044966879349165939 -0.0028723689986360724 0 -0.0037818325693469794 -0.0027796930658267396 0 -0.0035510730125187196 -0.0029241871852487777 0 -0.0033230428626053318 -0.0028692106212384457 0 -0.0034321334615261098 -0.002812985631395972 0 -0.0037818325693469794 -0.0027796930658267396 0 -0.0034174076493382701 -0.00280955683599181 0 -0.0033230428626053318 -0.0028692106212384457 0 -0.0034321334615261098 -0.002812985631395972 0 -0.0034296590579566497 -0.0026814147940106658 0 -0.0035877982542898393 -0.002765973737163144 0 -0.0034321334615261098 -0.002812985631395972 0 -0.0034296590579566497 -0.0026814147940106658 0 -0.0033187420604976737 -0.0028561421487163685 0 -0.0032070271198330791 -0.0026569491483727681 0 -0.0034296590579566497 -0.0026814147940106658 0 -0.0037818325693469794 -0.0027796930658267396 0 -0.0043685442445300111 -0.0023530110816334525 0 -0.0057808092782629097 -0.0023109045586356836 0 -0.0043685442445300111 -0.0023530110816334525 0 -0.0046756296061075961 -0.0025525478678425054 0 -0.0047837918072231138 -0.0025389664324066813 0 -0.0046713650149769409 -0.0026574496823831431 0 -0.0045829304700050746 -0.0024996322456148183 0 -0.0046756296061075961 -0.0025525478678425054 0 -0.0046713650149769409 -0.0026574496823831431 0 -0.0061400238919368192 -0.0023593036588109594 0 -0.0060363181583000455 -0.0023468749338363009 0 -0.0060196781311668635 -0.0022688974387259898 0 -0.0046277141000845724 -0.0024317933484473771 0 -0.0046756296061075961 -0.0025525478678425054 0 -0.0047837918072231138 -0.0025389664324066813 0 -0.0044966879349165939 -0.0028723689986360724 0 -0.0057808092782629097 -0.0023109045586356836 0 -0.0060363181583000455 -0.0023468749338363009 0 -0.0060196781311668635 -0.0022688974387259898 0 -0.0059757096992237848 -0.0023169151446392876 0 -0.0059807549281954454 -0.0024412948536451742 0 -0.0060363181583000455 -0.0023468749338363009 0 -0.0059757096992237848 -0.0023169151446392876 0 -0.0057808092782629097 -0.0023109045586356836 0 -0.0059128723103661004 -0.002251314584616828 0 -0.0060269158954043816 -0.0022403961349584511 0 -0.00602263086458523 -0.0021597079199928374 0 -0.0059387483754734524 -0.0021773801439555528 0 -0.0039871644083084076 -0.0017886712744946457 0 -0.0040074692996010554 -0.0016458752486785667 0 -0.0039164380573212011 -0.001655356805997365 0 -0.00602263086458523 -0.0021597079199928374 0 -0.0061179305379746775 -0.0021391040410596342 0 -0.0060053941032982465 -0.0020810699757355835 0 -0.00602263086458523 -0.0021597079199928374 0 -0.0060053941032982465 -0.0020810699757355835 0 -0.0059387483754734524 -0.0021773801439555528 0 -0.0060269158954043816 -0.0022403961349584511 0 -0.00602263086458523 -0.0021597079199928374 0 -0.0061179305379746775 -0.0021391040410596342 0 -0.0061179305379746775 -0.0021391040410596342 0 -0.0060053941032982465 -0.0020810699757355835 0 -0.0060333546685357479 -0.0019530208271735356 0 -0.0043685442445300111 -0.0023530110816334525 0 -0.0049741639291143308 -0.0017836176345880192 0 -0.0060053941032982465 -0.0020810699757355835 0 -0.0060333546685357479 -0.0019530208271735356 0 -0.0059578319539208818 -0.002008432420102227 0 -0.0036725864249635546 -0.0019853393743556641 0 -0.0043685442445300111 -0.0023530110816334525 0 -0.0034736002002522357 -0.0023231048965651679 0 -0.0032070271198330791 -0.0026569491483727681 0 -0.0034296590579566497 -0.0026814147940106658 0 -0.004123766676577708 -0.0016223785936565953 0 -0.0039871644083084076 -0.0017886712744946457 0 -0.0040074692996010554 -0.0016458752486785667 0 -0.004123766676577708 -0.0016223785936565953 0 -0.0040074692996010554 -0.0016458752486785667 0 -0.0040025134534094915 -0.0015186775294159028 0 -0.0040074692996010554 -0.0016458752486785667 0 -0.0039164380573212011 -0.001655356805997365 0 -0.0040025134534094915 -0.0015186775294159028 0 -0.0039164380573212011 -0.001655356805997365 0 -0.0040025134534094915 -0.0015186775294159028 0 -0.0038466459743126654 -0.0015236840014014282 0 -0.0039017343077079607 -0.0013484880516043409 0 -0.0040025134534094915 -0.0015186775294159028 0 -0.0038466459743126654 -0.0015236840014014282 0 -0.0039017343077079607 -0.0013484880516043409 0 -0.0040902141466627557 -0.0013401851132183854 0 -0.0040025134534094915 -0.0015186775294159028 0 -0.004123766676577708 -0.0016223785936565953 0 -0.0041182640104370609 -0.0014834447794467946 0 -0.0040025134534094915 -0.0015186775294159028 0 -0.0040902141466627557 -0.0013401851132183854 0 -0.0041182640104370609 -0.0014834447794467946 0 -0.0040025134534094915 -0.0015186775294159028 0 -0.004123766676577708 -0.0016223785936565953 0 -0.0041182640104370609 -0.0014834447794467946 0 -0.0042544643963276958 -0.0014556601657367521 0 -0.0036725864249635546 -0.0019853393743556641 0 -0.0040487724654464617 -0.0016722234758617376 0 -0.0042744817395450755 -0.0019582888521306767 0 -0.003895006833110008 -0.0023261347685647441 0 -0.003782163052431961 -0.0019113931183174172 0 -0.0042813912765479146 -0.0014035441501077813 0 -0.0040487724654464617 -0.0016722234758617376 0 -0.00430914343709023 -0.0013812848796243662 0 -0.0042544643963276958 -0.0014556601657367521 0 -0.0042415722784759869 -0.0012591196929248134 0 -0.0040902141466627557 -0.0013401851132183854 0 -0.0041182640104370609 -0.0014834447794467946 0 -0.0042544643963276958 -0.0014556601657367521 0 -0.0040902141466627557 -0.0013401851132183854 0 -0.0042544643963276958 -0.0014556601657367521 0 -0.0042415722784759869 -0.0012591196929248134 0 -0.0040902141466627557 -0.0013401851132183854 0 -0.0042415722784759869 -0.0012591196929248134 0 -0.0041104907438638694 -0.0011295161013617212 0 -0.0043669114051441259 -0.0011227557114060322 0 -0.00430914343709023 -0.0013812848796243662 0 -0.0042415722784759869 -0.0012591196929248134 0 -0.0043669114051441259 -0.0011227557114060322 0 -0.0042415722784759869 -0.0012591196929248134 0 -0.0042745562355406509 -0.0010020175694194159 0 -0.0043653211735868022 -0.00096474900329791748 0 -0.0043669114051441259 -0.0011227557114060322 0 -0.0042745562355406509 -0.0010020175694194159 0 -0.0042415722784759869 -0.0012591196929248134 0 -0.0042745562355406509 -0.0010020175694194159 0 -0.0041104907438638694 -0.0011295161013617212 0 -0.0045159738915840361 -0.00089291960044716404 0 -0.0046284635810043134 -0.0010034929362058786 0 -0.0040236813337944715 -0.00092176144334954403 0 -0.0042745562355406509 -0.0010020175694194159 0 -0.0041104907438638694 -0.0011295161013617212 0 -0.0040236813337944715 -0.00092176144334954403 0 -0.0041104907438638694 -0.0011295161013617212 0 -0.0039554330808460299 -0.0011537933068099609 0 -0.0052353578034742571 -0.00081842805762372031 0 -0.0052845376436596826 -0.00078535764457997369 0 -0.0052552021219985975 -0.00088317912014432786 0 -0.0052353578034742571 -0.00081842805762372031 0 -0.0052552021219985975 -0.00088317912014432786 0 -0.0051788412531725047 -0.00088713179177942695 0 -0.0039017343077079607 -0.0013484880516043409 0 -0.0040902141466627557 -0.0013401851132183854 0 -0.0039554330808460299 -0.0011537933068099609 0 -0.0044912778907995887 -0.0011623387171751051 0 -0.0046284635810043134 -0.0010034929362058786 0 -0.0052230417301397693 -0.00099272759627227905 0 -0.0052552021219985975 -0.00088317912014432786 0 -0.0051788412531725047 -0.00088713179177942695 0 -0.0040902141466627557 -0.0013401851132183854 0 -0.0041104907438638694 -0.0011295161013617212 0 -0.0039554330808460299 -0.0011537933068099609 0 -0.0056572336473502682 -0.0011797653248597521 0 -0.0055806966420659104 -0.00133898374470787 0 -0.0057848302030413757 -0.0014139051009410457 0 -0.0053586670332795789 -0.0010204330933481945 0 -0.0054944317752916522 -0.0011886055248422091 0 -0.0051788412531725047 -0.00088713179177942695 0 -0.0050695136994335808 -0.00085842181891593815 0 -0.005120550459948376 -0.00098053455702149872 0 -0.0052230417301397693 -0.00099272759627227905 0 -0.0051788412531725047 -0.00088713179177942695 0 -0.005120550459948376 -0.00098053455702149872 0 -0.005154791587128572 -0.00080956285564015703 0 -0.0052353578034742571 -0.00081842805762372031 0 -0.0051788412531725047 -0.00088713179177942695 0 -0.005154791587128572 -0.00080956285564015703 0 -0.0051788412531725047 -0.00088713179177942695 0 -0.0050695136994335808 -0.00085842181891593815 0 -0.0056572336473502682 -0.0011797653248597521 0 -0.0054836759956589454 -0.0011345728676051894 0 -0.0055806966420659104 -0.00133898374470787 0 -0.0055106903776631676 -0.0012190896222308454 0 -0.0056053084846578944 -0.0014220667069020302 0 -0.0055366952652769275 -0.0013037226892741601 0 -0.0055080381114022987 -0.0015256374043072672 0 -0.0054101891431660451 -0.0014792237012622239 0 -0.0055366952652769275 -0.0013037226892741601 0 -0.0055080381114022987 -0.0015256374043072672 0 -0.0056280956340087609 -0.0015046969467871335 0 -0.0055080381114022987 -0.0015256374043072672 0 -0.0056280956340087609 -0.0015046969467871335 0 -0.0055451958176453474 -0.0016527831005620588 0 -0.0056280956340087609 -0.0015046969467871335 0 -0.005631213734557129 -0.0017243907306890951 0 -0.0057576726318901116 -0.0017199409161860781 0 -0.0056280956340087609 -0.0015046969467871335 0 -0.0055451958176453474 -0.0016527831005620588 0 -0.005631213734557129 -0.0017243907306890951 0 -0.0055080381114022987 -0.0015256374043072672 0 -0.0054016703414688011 -0.0017120006942575356 0 -0.0054101891431660451 -0.0014792237012622239 0 -0.0055080381114022987 -0.0015256374043072672 0 -0.0055451958176453474 -0.0016527831005620588 0 -0.0054016703414688011 -0.0017120006942575356 0 -0.0054016703414688011 -0.0017120006942575356 0 -0.0054688166154078805 -0.0018475573517298459 0 -0.0054031657897225501 -0.0019649370437712838 0 -0.0054506797820878241 -0.0017370569951308547 0 -0.0054450203500179097 -0.0020059742063918587 0 -0.0055451958176453474 -0.0016527831005620588 0 -0.0054016703414688011 -0.0017120006942575356 0 -0.0055332001306811797 -0.0017975828394029883 0 -0.0054016703414688011 -0.0017120006942575356 0 -0.0055332001306811797 -0.0017975828394029883 0 -0.0054688166154078805 -0.0018475573517298459 0 -0.0055451958176453474 -0.0016527831005620588 0 -0.0055332001306811797 -0.0017975828394029883 0 -0.005631213734557129 -0.0017243907306890951 0 -0.0055332001306811797 -0.0017975828394029883 0 -0.005631213734557129 -0.0017243907306890951 0 -0.0056187854844647238 -0.0018651623517347206 0 -0.005631213734557129 -0.0017243907306890951 0 -0.0057009890535738555 -0.00182067579846765 0 -0.0056187854844647238 -0.0018651623517347206 0 -0.0057009890535738555 -0.00182067579846765 0 -0.0057576726318901116 -0.0017199409161860781 0 -0.0057579664774313234 -0.001858049569736538 0 -0.0057576726318901116 -0.0017199409161860781 0 -0.0058292067108430554 -0.0019051147507528387 0 -0.0057579664774313234 -0.001858049569736538 0 -0.005631213734557129 -0.0017243907306890951 0 -0.0057009890535738555 -0.00182067579846765 0 -0.0057576726318901116 -0.0017199409161860781 0 -0.0056053084846578944 -0.0014220667069020302 0 -0.0057421651614689897 -0.0016701541794674978 0 -0.0055806966420659104 -0.00133898374470787 0 -0.0057190209369690935 -0.0016110996027697789 0 -0.0057848302030413757 -0.0014139051009410457 0 -0.0057190209369690935 -0.0016110996027697789 0 -0.0057848302030413757 -0.0014139051009410457 0 -0.0059458553471440634 -0.001721800228585567 0 -0.0044912778907995887 -0.0011623387171751051 0 -0.0052564431597574238 -0.0015277746307255484 0 -0.0054944317752916522 -0.0011886055248422091 0 -0.0052564431597574238 -0.0015277746307255484 0 -0.0052230417301397693 -0.00099272759627227905 0 -0.005120550459948376 -0.00098053455702149872 0 -0.0051828378592698177 -0.0011103312077775655 0 -0.0057190209369690935 -0.0016110996027697789 0 -0.0059458553471440634 -0.001721800228585567 0 -0.0058927677493352919 -0.0018596715417425217 0 -0.0057421651614689897 -0.0016701541794674978 0 -0.0058998187032871007 -0.0019234998739865257 0 -0.0052564431597574238 -0.0015277746307255484 0 -0.0056448113356988867 -0.0017193369664196144 0 -0.0060333546685357479 -0.0019530208271735356 0 -0.005932396983416079 -0.0017461433814403931 0 -0.0058927677493352919 -0.0018596715417425217 0 -0.0049741639291143308 -0.0017836176345880192 0 -0.0052564431597574238 -0.0015277746307255484 0 -0.0057576726318901116 -0.0017199409161860781 0 -0.0058292067108430554 -0.0019051147507528387 0 -0.0059062361770782458 -0.0019378570970292753 0 -0.0057190209369690935 -0.0016110996027697789 0 -0.0058927677493352919 -0.0018596715417425217 0 -0.0059062361770782458 -0.0019378570970292753 0 -0.0058292067108430554 -0.0019051147507528387 0 -0.0058423838961679008 -0.0019929691165434288 0 -0.0059062361770782458 -0.0019378570970292753 0 -0.0058423838961679008 -0.0019929691165434288 0 -0.0058975188003266244 -0.0020000644362928306 0 -0.0059062361770782458 -0.0019378570970292753 0 -0.0058975188003266244 -0.0020000644362928306 0 -0.0059578319539208818 -0.002008432420102227 0 -0.0059062361770782458 -0.0019378570970292753 0 -0.0060333546685357479 -0.0019530208271735356 0 -0.0058927677493352919 -0.0018596715417425217 0 -0.0059062361770782458 -0.0019378570970292753 0 -0.0060333546685357479 -0.0019530208271735356 0 -0.0059578319539208818 -0.002008432420102227 0 -0.0059062361770782458 -0.0019378570970292753 0 -0.0057009890535738555 -0.00182067579846765 0 -0.0057180981122582708 -0.0019100200823442611 0 -0.0057579664774313234 -0.001858049569736538 0 -0.0057009890535738555 -0.00182067579846765 0 -0.0057180981122582708 -0.0019100200823442611 0 -0.0056187854844647238 -0.0018651623517347206 0 -0.0057180981122582708 -0.0019100200823442611 0 -0.0057579664774313234 -0.001858049569736538 0 -0.0057825584547632073 -0.0019395840809356946 0 -0.0058292067108430554 -0.0019051147507528387 0 -0.0057579664774313234 -0.001858049569736538 0 -0.0057825584547632073 -0.0019395840809356946 0 -0.0058292067108430554 -0.0019051147507528387 0 -0.0058423838961679008 -0.0019929691165434288 0 -0.0057825584547632073 -0.0019395840809356946 0 -0.0058423838961679008 -0.0019929691165434288 0 -0.0057827623559971704 -0.002002701797891528 0 -0.0057825584547632073 -0.0019395840809356946 0 -0.0057827623559971704 -0.002002701797891528 0 -0.0057825584547632073 -0.0019395840809356946 0 -0.0057165150204120802 -0.002005680946988195 0 -0.0057180981122582708 -0.0019100200823442611 0 -0.0057825584547632073 -0.0019395840809356946 0 -0.0057165150204120802 -0.002005680946988195 0 -0.0057180981122582708 -0.0019100200823442611 0 -0.0057165150204120802 -0.002005680946988195 0 -0.0056450276282451065 -0.0019557953629826584 0 -0.0057165150204120802 -0.002005680946988195 0 -0.0057896222949560166 -0.0020734946321809842 0 -0.0056945651039469946 -0.0021066176956691571 0 -0.0057827623559971704 -0.002002701797891528 0 -0.0057165150204120802 -0.002005680946988195 0 -0.0057896222949560166 -0.0020734946321809842 0 -0.0058423838961679008 -0.0019929691165434288 0 -0.0057827623559971704 -0.002002701797891528 0 -0.0057896222949560166 -0.0020734946321809842 0 -0.0057896222949560166 -0.0020734946321809842 0 -0.0056945651039469946 -0.0021066176956691571 0 -0.0057456199256166914 -0.0021931149757438424 0 -0.0057896222949560166 -0.0020734946321809842 0 -0.0058475115888487065 -0.0021499189872461084 0 -0.0057456199256166914 -0.0021931149757438424 0 -0.0056945651039469946 -0.0021066176956691571 0 -0.0057456199256166914 -0.0021931149757438424 0 -0.0056076144013791083 -0.0021764418101907642 0 -0.0060053941032982465 -0.0020810699757355835 0 -0.0059578319539208818 -0.002008432420102227 0 -0.0058951694415141217 -0.0020622700117265322 0 -0.0058975188003266244 -0.0020000644362928306 0 -0.0059578319539208818 -0.002008432420102227 0 -0.0058951694415141217 -0.0020622700117265322 0 -0.0058423838961679008 -0.0019929691165434288 0 -0.0057896222949560166 -0.0020734946321809842 0 -0.0058951694415141217 -0.0020622700117265322 0 -0.0057896222949560166 -0.0020734946321809842 0 -0.0058951694415141217 -0.0020622700117265322 0 -0.0058475115888487065 -0.0021499189872461084 0 -0.0058423838961679008 -0.0019929691165434288 0 -0.0058975188003266244 -0.0020000644362928306 0 -0.0058951694415141217 -0.0020622700117265322 0 -0.0058951694415141217 -0.0020622700117265322 0 -0.0058475115888487065 -0.0021499189872461084 0 -0.0059387483754734524 -0.0021773801439555528 0 -0.0060053941032982465 -0.0020810699757355835 0 -0.0058951694415141217 -0.0020622700117265322 0 -0.0059387483754734524 -0.0021773801439555528 0 -0.0060351037812085501 -0.0022530355998473645 0 -0.0059387483754734524 -0.0021773801439555528 0 -0.0059757096992237848 -0.0023169151446392876 0 -0.0059387483754734524 -0.0021773801439555528 0 -0.0059757096992237848 -0.0023169151446392876 0 -0.0058636916447305709 -0.0022577363358960213 0 -0.0057808092782629097 -0.0023109045586356836 0 -0.005935942936084149 -0.002264606693379616 0 -0.0059757096992237848 -0.0023169151446392876 0 -0.0058946373305426005 -0.0023652003579764879 0 -0.0058636916447305709 -0.0022577363358960213 0 -0.0058946373305426005 -0.0023652003579764879 0 -0.0058636916447305709 -0.0022577363358960213 0 -0.0057846005380042921 -0.0023353899143058049 0 -0.0058475115888487065 -0.0021499189872461084 0 -0.0059387483754734524 -0.0021773801439555528 0 -0.0058636916447305709 -0.0022577363358960213 0 -0.0058475115888487065 -0.0021499189872461084 0 -0.0058636916447305709 -0.0022577363358960213 0 -0.0057456199256166914 -0.0021931149757438424 0 -0.0058636916447305709 -0.0022577363358960213 0 -0.0057456199256166914 -0.0021931149757438424 0 -0.0057846005380042921 -0.0023353899143058049 0 -0.0057456199256166914 -0.0021931149757438424 0 -0.005679811526502993 -0.0022967777587931896 0 -0.0056076144013791083 -0.0021764418101907642 0 -0.005679811526502993 -0.0022967777587931896 0 -0.0057846005380042921 -0.0023353899143058049 0 -0.0056908675056212563 -0.0024268414261956407 0 -0.0057456199256166914 -0.0021931149757438424 0 -0.005679811526502993 -0.0022967777587931896 0 -0.0057846005380042921 -0.0023353899143058049 0 -0.0057846005380042921 -0.0023353899143058049 0 -0.0056908675056212563 -0.0024268414261956407 0 -0.0058661320520870973 -0.0024714020614805682 0 -0.0056908675056212563 -0.0024268414261956407 0 -0.0058661320520870973 -0.0024714020614805682 0 -0.0056981755082146993 -0.0025714824003675966 0 -0.0056908675056212563 -0.0024268414261956407 0 -0.0055753847239107526 -0.0025627117682727519 0 -0.0056981755082146993 -0.0025714824003675966 0 -0.0059807549281954454 -0.0024412948536451742 0 -0.0058661320520870973 -0.0024714020614805682 0 -0.0059956411612906808 -0.002609564431278025 0 -0.0059807549281954454 -0.0024412948536451742 0 -0.0059757096992237848 -0.0023169151446392876 0 -0.0058946373305426005 -0.0023652003579764879 0 -0.0059807549281954454 -0.0024412948536451742 0 -0.0058946373305426005 -0.0023652003579764879 0 -0.0058661320520870973 -0.0024714020614805682 0 -0.0058946373305426005 -0.0023652003579764879 0 -0.0057846005380042921 -0.0023353899143058049 0 -0.0058661320520870973 -0.0024714020614805682 0 -0.0055075907836656069 -0.0028266391127668958 0 -0.0054703854691780943 -0.0023793162425161749 0 -0.0051294397676282279 -0.0026099105919185441 0 -0.0054898541946767302 -0.0026053004037968246 0 -0.0054465307486009805 -0.0023223272075811249 0 -0.0054473380520003575 -0.0025197276806727658 0 -0.0055708890646908576 -0.0023539499174202554 0 -0.0054186586997683603 -0.00223680425832846 0 -0.0056908675056212563 -0.0024268414261956407 0 -0.0055708890646908576 -0.0023539499174202554 0 -0.0055753847239107526 -0.0025627117682727519 0 -0.0054473380520003575 -0.0025197276806727658 0 -0.0055708890646908576 -0.0023539499174202554 0 -0.0055753847239107526 -0.0025627117682727519 0 -0.005679811526502993 -0.0022967777587931896 0 -0.0055708890646908576 -0.0023539499174202554 0 -0.0056076144013791083 -0.0021764418101907642 0 -0.0055708890646908576 -0.0023539499174202554 0 -0.0054186586997683603 -0.00223680425832846 0 -0.0056076144013791083 -0.0021764418101907642 0 -0.005679811526502993 -0.0022967777587931896 0 -0.0056908675056212563 -0.0024268414261956407 0 -0.0055708890646908576 -0.0023539499174202554 0 -0.0054186586997683603 -0.00223680425832846 0 -0.0055818212719041405 -0.0020404998403563842 0 -0.0054031657897225501 -0.0019649370437712838 0 -0.0054703854691780943 -0.0023793162425161749 0 -0.005487999339340595 -0.0020571085409825602 0 -0.0052902558970485958 -0.0022570815086194762 0 -0.0054465307486009805 -0.0023223272075811249 0 -0.0054450203500179097 -0.0020059742063918587 0 -0.0054186586997683603 -0.00223680425832846 0 -0.0056076144013791083 -0.0021764418101907642 0 -0.0055818212719041405 -0.0020404998403563842 0 -0.0056945651039469946 -0.0021066176956691571 0 -0.0056076144013791083 -0.0021764418101907642 0 -0.0055818212719041405 -0.0020404998403563842 0 -0.0057165150204120802 -0.002005680946988195 0 -0.0056945651039469946 -0.0021066176956691571 0 -0.0055818212719041405 -0.0020404998403563842 0 -0.0057165150204120802 -0.002005680946988195 0 -0.0055818212719041405 -0.0020404998403563842 0 -0.0056450276282451065 -0.0019557953629826584 0 -0.0055818212719041405 -0.0020404998403563842 0 -0.0056450276282451065 -0.0019557953629826584 0 -0.0055396896379962162 -0.001917941170500602 0 -0.0055332001306811797 -0.0017975828394029883 0 -0.0055396896379962162 -0.001917941170500602 0 -0.0056187854844647238 -0.0018651623517347206 0 -0.0056450276282451065 -0.0019557953629826584 0 -0.0055396896379962162 -0.001917941170500602 0 -0.0056187854844647238 -0.0018651623517347206 0 -0.0057180981122582708 -0.0019100200823442611 0 -0.0056450276282451065 -0.0019557953629826584 0 -0.0056187854844647238 -0.0018651623517347206 0 -0.0055016093460568865 -0.0017577259778835249 0 -0.005487999339340595 -0.0020571085409825602 0 -0.005418957941447808 -0.001943020727098584 0 -0.0055818212719041405 -0.0020404998403563842 0 -0.0055396896379962162 -0.001917941170500602 0 -0.0054031657897225501 -0.0019649370437712838 0 -0.0055332001306811797 -0.0017975828394029883 0 -0.0054688166154078805 -0.0018475573517298459 0 -0.0055396896379962162 -0.001917941170500602 0 -0.0054688166154078805 -0.0018475573517298459 0 -0.0055396896379962162 -0.001917941170500602 0 -0.0054031657897225501 -0.0019649370437712838 0 -0.0054067511134096909 -0.001955512673589635 0 -0.0052307941498037809 -0.002090085235158308 0 -0.005418957941447808 -0.001943020727098584 0 -0.005345405598707235 -0.0021093551027206365 0 -0.0051260284677004065 -0.0021738110788896425 0 -0.005418957941447808 -0.001943020727098584 0 -0.0053166666233765616 -0.0020106406387736678 0 -0.0053748355501598427 -0.0018379347026260047 0 -0.005487999339340595 -0.0020571085409825602 0 -0.005418957941447808 -0.001943020727098584 0 -0.005345405598707235 -0.0021093551027206365 0 -0.0053166666233765616 -0.0020106406387736678 0 -0.0052838890572634153 -0.001813556560438432 0 -0.0053748355501598427 -0.0018379347026260047 0 -0.0053166666233765616 -0.0020106406387736678 0 -0.0051595615545021864 -0.0018864170067177629 0 -0.0052838890572634153 -0.001813556560438432 0 -0.0051260284677004065 -0.0021738110788896425 0 -0.0052902558970485958 -0.0022570815086194762 0 -0.0051352451436248083 -0.0024181938281977108 0 -0.0051260284677004065 -0.0021738110788896425 0 -0.0051352451436248083 -0.0024181938281977108 0 -0.0050353340186550669 -0.0023127030613955364 0 -0.005345405598707235 -0.0021093551027206365 0 -0.0051260284677004065 -0.0021738110788896425 0 -0.0052902558970485958 -0.0022570815086194762 0 -0.005487999339340595 -0.0020571085409825602 0 -0.005345405598707235 -0.0021093551027206365 0 -0.0052902558970485958 -0.0022570815086194762 0 -0.0054703854691780943 -0.0023793162425161749 0 -0.0052454150724250597 -0.002414343984159593 0 -0.0051294397676282279 -0.0026099105919185441 0 -0.0054703854691780943 -0.0023793162425161749 0 -0.0052902558970485958 -0.0022570815086194762 0 -0.0052454150724250597 -0.002414343984159593 0 -0.0052454150724250597 -0.002414343984159593 0 -0.0051352451436248083 -0.0024181938281977108 0 -0.0051294397676282279 -0.0026099105919185441 0 -0.0052902558970485958 -0.0022570815086194762 0 -0.0052454150724250597 -0.002414343984159593 0 -0.0051352451436248083 -0.0024181938281977108 0 -0.0051352451436248083 -0.0024181938281977108 0 -0.005134126506994823 -0.0025512645556766324 0 -0.0050952989942860709 -0.0024772320647382454 0 -0.0051352451436248083 -0.0024181938281977108 0 -0.005134126506994823 -0.0025512645556766324 0 -0.0051294397676282279 -0.0026099105919185441 0 -0.005134126506994823 -0.0025512645556766324 0 -0.0051294397676282279 -0.0026099105919185441 0 -0.0051472027092008005 -0.0025736798185399144 0 -0.005134126506994823 -0.0025512645556766324 0 -0.0050952989942860709 -0.0024772320647382454 0 -0.0051243706398416229 -0.0025627575407970535 0 -0.0049999631798032015 -0.0024855093632376178 0 -0.0050500897707405684 -0.0024075909667514292 0 -0.005081174534293199 -0.0025282751468618755 0 -0.0049999631798032015 -0.0024855093632376178 0 -0.0050500897707405684 -0.0024075909667514292 0 -0.0049999320169812657 -0.0022784640056943369 0 -0.0050500897707405684 -0.0024075909667514292 0 -0.0050952989942860709 -0.0024772320647382454 0 -0.005081174534293199 -0.0025282751468618755 0 -0.0050952989942860709 -0.0024772320647382454 0 -0.005081174534293199 -0.0025282751468618755 0 -0.0051243706398416229 -0.0025627575407970535 0 -0.0051352451436248083 -0.0024181938281977108 0 -0.0050952989942860709 -0.0024772320647382454 0 -0.0050353340186550669 -0.0023127030613955364 0 -0.0050500897707405684 -0.0024075909667514292 0 -0.0050952989942860709 -0.0024772320647382454 0 -0.0050353340186550669 -0.0023127030613955364 0 -0.0050500897707405684 -0.0024075909667514292 0 -0.0049999320169812657 -0.0022784640056943369 0 -0.0050353340186550669 -0.0023127030613955364 0 -0.0050000092016617669 -0.002278152841821163 0 -0.0050980274432858167 -0.0022194805364235109 0 -0.0049999923614878735 -0.0022781154535532022 0 -0.0051701564509580595 -0.0021358226486963864 0 -0.0049999834728741152 -0.0020004843067605981 0 -0.0052307941498037809 -0.002090085235158308 0 -0.0050980274432858167 -0.0022194805364235109 0 -0.0053166666233765616 -0.0020106406387736678 0 -0.0051701564509580595 -0.0021358226486963864 0 -0.0051595615545021864 -0.0018864170067177629 0 -0.0051701564509580595 -0.0021358226486963864 0 -0.0051595615545021864 -0.0018864170067177629 0 -0.0049999834728741152 -0.0020004843067605981 0 -0.0051595615545021864 -0.0018864170067177629 0 -0.0049999834728741152 -0.0020004843067605981 0 -0.0049999761738786022 -0.0017228506342144973 0 -0.0051595615545021864 -0.0018864170067177629 0 -0.0049999761738786022 -0.0017228506342144973 0 -0.0051634654392484986 -0.0016138882527931247 0 -0.0049999761738786022 -0.0017228506342144973 0 -0.0051634654392484986 -0.0016138882527931247 0 -0.0049999729383220582 -0.0014451972003822154 0 -0.0051595615545021864 -0.0018864170067177629 0 -0.0051634654392484986 -0.0016138882527931247 0 -0.0052838890572634153 -0.001813556560438432 0 -0.0052838890572634153 -0.001813556560438432 0 -0.0053748355501598427 -0.0018379347026260047 0 -0.0053637986919523395 -0.0016535784354029385 0 -0.0055016093460568865 -0.0017577259778835249 0 -0.005418957941447808 -0.001943020727098584 0 -0.0053748355501598427 -0.0018379347026260047 0 -0.0055016093460568865 -0.0017577259778835249 0 -0.0053748355501598427 -0.0018379347026260047 0 -0.0053637986919523395 -0.0016535784354029385 0 -0.0055016093460568865 -0.0017577259778835249 0 -0.0053637986919523395 -0.0016535784354029385 0 -0.0054892715370968093 -0.0015087027662770698 0 -0.0054506797820878241 -0.0017370569951308547 0 -0.0054491404131794402 -0.0014931508023673652 0 -0.0051634654392484986 -0.0016138882527931247 0 -0.0052838890572634153 -0.001813556560438432 0 -0.0053637986919523395 -0.0016535784354029385 0 -0.0051634654392484986 -0.0016138882527931247 0 -0.0053637986919523395 -0.0016535784354029385 0 -0.0053070000474841911 -0.0013843278605329655 0 -0.0053637986919523395 -0.0016535784354029385 0 -0.0054892715370968093 -0.0015087027662770698 0 -0.0053070000474841911 -0.0013843278605329655 0 -0.0054371742744132685 -0.0012610316693655477 0 -0.0054892715370968093 -0.0015087027662770698 0 -0.0053070000474841911 -0.0013843278605329655 0 -0.0054371742744132685 -0.0012610316693655477 0 -0.0055366952652769275 -0.0013037226892741601 0 -0.0054101891431660451 -0.0014792237012622239 0 -0.0054351911271894801 -0.0012801460006069262 0 -0.0054491404131794402 -0.0014931508023673652 0 -0.0053397517402447607 -0.0011945430117363751 0 -0.0054371742744132685 -0.0012610316693655477 0 -0.0053070000474841911 -0.0013843278605329655 0 -0.0052000107197553852 -0.0011797767146920818 0 -0.0053070000474841911 -0.0013843278605329655 0 -0.0051315490087214715 -0.00134569861504421 0 -0.0049999745841560481 -0.0011675415961751694 0 -0.0051315490087214715 -0.00134569861504421 0 -0.0049999729383220582 -0.0014451972003822154 0 -0.0051634654392484986 -0.0016138882527931247 0 -0.0051315490087214715 -0.00134569861504421 0 -0.0049999729383220582 -0.0014451972003822154 0 -0.0051634654392484986 -0.0016138882527931247 0 -0.0053070000474841911 -0.0013843278605329655 0 -0.0051315490087214715 -0.00134569861504421 0 -0.0050425723848354599 -0.0036217367996259709 0 -0.0050793448413083767 -0.0036484868208333425 0 -0.0050736719330183892 -0.0035030144673908353 0 -0.0050425723848354599 -0.0036217367996259709 0 -0.0050280375228750861 -0.0037010587092962421 0 -0.0050793448413083767 -0.0036484868208333425 0 -0.0050425723848354599 -0.0036217367996259709 0 -0.0049999106513209058 -0.0034388515216980759 0 -0.0050736719330183892 -0.0035030144673908353 0 -0.0050425723848354599 -0.0036217367996259709 0 -0.0049999106513209058 -0.0034388515216980759 0 -0.0049999084789265954 -0.0036874732835667444 0 -0.0050425723848354599 -0.0036217367996259709 0 -0.0049999084789265954 -0.0036874732835667444 0 -0.0050104302623837785 -0.0037456406771440593 0 -0.0049999084789265954 -0.0036874732835667444 0 -0.0050104302623837785 -0.0037456406771440593 0 -0.004995617638386237 -0.0038437628403443476 0 -0.0050425723848354599 -0.0036217367996259709 0 -0.0050104302623837785 -0.0037456406771440593 0 -0.0050280375228750861 -0.0037010587092962421 0 -0.0049782603372207955 -0.0037440098954325926 0 -0.0050280375228750861 -0.0037010587092962421 0 -0.004946638075879509 -0.0037909849264159078 0 -0.0050104302623837785 -0.0037456406771440593 0 -0.0050280375228750861 -0.0037010587092962421 0 -0.004946638075879509 -0.0037909849264159078 0 -0.0049782603372207955 -0.0037440098954325926 0 -0.0049201779729887603 -0.0037942833328307797 0 -0.0048895230875639888 -0.0038239434160761004 0 -0.0049782603372207955 -0.0037440098954325926 0 -0.0048895230875639888 -0.0038239434160761004 0 -0.004946638075879509 -0.0037909849264159078 0 -0.0049782603372207955 -0.0037440098954325926 0 -0.004975287409051142 -0.0037503806988329769 0 -0.0049201779729887603 -0.0037942833328307797 0 -0.0049782603372207955 -0.0037440098954325926 0 -0.0050793448413083767 -0.0036484868208333425 0 -0.004975287409051142 -0.0037503806988329769 0 -0.0049782603372207955 -0.0037440098954325926 0 -0.0050280375228750861 -0.0037010587092962421 0 -0.0050793448413083767 -0.0036484868208333425 0 -0.0050793448413083767 -0.0036484868208333425 0 -0.0050022422292890561 -0.0037629898633046934 0 -0.004975287409051142 -0.0037503806988329769 0 -0.0050793448413083767 -0.0036484868208333425 0 -0.0050022422292890561 -0.0037629898633046934 0 -0.0050138830633223224 -0.0037993264259064225 0 -0.0050832315622770484 -0.0036150390772912312 0 -0.0050832204369112661 -0.0035904222615796488 0 -0.004975287409051142 -0.0037503806988329769 0 -0.0049818992022869716 -0.0037875181435973126 0 -0.0049551096156691711 -0.0037856005445590524 0 -0.0050022422292890561 -0.0037629898633046934 0 -0.004975287409051142 -0.0037503806988329769 0 -0.0049818992022869716 -0.0037875181435973126 0 -0.0049818992022869716 -0.0037875181435973126 0 -0.0049940208709727792 -0.0037972115351138417 0 -0.0050035202585847318 -0.0038056210706549228 0 -0.0050022422292890561 -0.0037629898633046934 0 -0.0049818992022869716 -0.0037875181435973126 0 -0.0049940208709727792 -0.0037972115351138417 0 -0.0050022422292890561 -0.0037629898633046934 0 -0.0049940208709727792 -0.0037972115351138417 0 -0.0050138830633223224 -0.0037993264259064225 0 -0.0049940208709727792 -0.0037972115351138417 0 -0.0050138830633223224 -0.0037993264259064225 0 -0.0049786055306594622 -0.0037825778163177799 0 -0.0051748302453978332 -0.0033277740500878474 0 -0.0051033771710948883 -0.0033268152788346302 0 -0.0050736719330183892 -0.0035030144673908353 0 -0.0051748302453978332 -0.0033277740500878474 0 -0.0051033771710948883 -0.0033268152788346302 0 -0.0051603443143889687 -0.0032248027893358481 0 -0.0050793448413083767 -0.0036484868208333425 0 -0.0051748302453978332 -0.0033277740500878474 0 -0.0050736719330183892 -0.0035030144673908353 0 -0.0049999106513209058 -0.0034388515216980759 0 -0.0051033771710948883 -0.0033268152788346302 0 -0.0049999487665555479 -0.0031902089778558618 0 -0.0049999106513209058 -0.0034388515216980759 0 -0.0051033771710948883 -0.0033268152788346302 0 -0.0050736719330183892 -0.0035030144673908353 0 -0.0051033771710948883 -0.0033268152788346302 0 -0.0049999487665555479 -0.0031902089778558618 0 -0.0050927914468408952 -0.0030653247801927489 0 -0.0049999487665555479 -0.0031902089778558618 0 -0.0050927914468408952 -0.0030653247801927489 0 -0.0049999804994445172 -0.0029415097259155769 0 -0.0050832204369112661 -0.0035904222615796488 0 -0.0051137494864587048 -0.0033308049260827579 0 -0.0051575396969554153 -0.0032207388111527742 0 -0.0051137494864587048 -0.0033308049260827579 0 -0.0051033771710948883 -0.0033268152788346302 0 -0.0050927914468408952 -0.0030653247801927489 0 -0.0052879663895794128 -0.0029980119389491884 0 -0.0050731782589143017 -0.0032816545024973889 0 -0.0050422734941203392 -0.0030480989130536882 0 -0.0051573871031764572 -0.0030788744919208718 0 -0.0052879663895794128 -0.0029980119389491884 0 -0.0051086981853556727 -0.0028438483270208739 0 -0.0052531198773131497 -0.0027624218678073001 0 -0.0051137494864587048 -0.0033308049260827579 0 -0.0051189713399388678 -0.002802294003143027 0 -0.0050927914468408952 -0.0030653247801927489 0 -0.0052879663895794128 -0.0029980119389491884 0 -0.0051086981853556727 -0.0028438483270208739 0 -0.0050927914468408952 -0.0030653247801927489 0 -0.0049999804994445172 -0.0029415097259155769 0 -0.0051086981853556727 -0.0028438483270208739 0 -0.0049999804994445172 -0.0029415097259155769 0 -0.0051086981853556727 -0.0028438483270208739 0 -0.0049999939051329264 -0.0026928993341258341 0 -0.0050001033934965224 -0.0026928493891179464 0 -0.0051189713399388678 -0.002802294003143027 0 -0.0049999593288862464 -0.0026927431226381163 0 -0.0051266460753233625 -0.0026553684881518084 0 -0.0050683149806022227 -0.0026096546706577206 0 -0.0051086981853556727 -0.0028438483270208739 0 -0.0049999939051329264 -0.0026928993341258341 0 -0.0052531198773131497 -0.0027624218678073001 0 -0.0051189713399388678 -0.002802294003143027 0 -0.0051057277688390358 -0.0026060488226798584 0 -0.0051125112368542204 -0.002625032481144287 0 -0.0051140036135652045 -0.0026096745612500505 0 -0.0051267995106262405 -0.002602719300563279 0 -0.0051266460753233625 -0.0026553684881518084 0 -0.0051140036135652045 -0.0026096745612500505 0 -0.0050683149806022227 -0.0026096546706577206 0 -0.0051140036135652045 -0.0026096745612500505 0 -0.005081174534293199 -0.0025282751468618755 0 -0.0050683149806022227 -0.0026096546706577206 0 -0.0051140036135652045 -0.0026096745612500505 0 -0.0051243706398416229 -0.0025627575407970535 0 -0.0051267995106262405 -0.002602719300563279 0 -0.0051140036135652045 -0.0026096745612500505 0 -0.005081174534293199 -0.0025282751468618755 0 -0.0051243706398416229 -0.0025627575407970535 0 -0.0049999631798032015 -0.0024855093632376178 0 -0.0049999593288862464 -0.0026927431226381163 0 -0.0050683149806022227 -0.0026096546706577206 0 -0.0049999631798032015 -0.0024855093632376178 0 -0.005081174534293199 -0.0025282751468618755 0 -0.0050683149806022227 -0.0026096546706577206 0 -0.0051040436917775042 -0.0026423174827616431 0 -0.00498946772173874 -0.0028344892875622756 0 -0.0051294397676282279 -0.0026099105919185441 0 -0.004814845040279344 -0.003139219520398489 0 -0.005273463537680146 -0.0031433852753306856 0 -0.004814845040279344 -0.003139219520398489 0 -0.004922456164719223 -0.0033962084193845171 0 -0.005273463537680146 -0.0031433852753306856 0 -0.005134126506994823 -0.0025512645556766324 0 -0.0051243706398416229 -0.0025627575407970535 0 -0.0051472027092008005 -0.0025736798185399144 0 -0.0051243706398416229 -0.0025627575407970535 0 -0.0051472027092008005 -0.0025736798185399144 0 -0.0051267995106262405 -0.002602719300563279 0 -0.004814845040279344 -0.003139219520398489 0 -0.0046311210381693273 -0.0035862651262355055 0 -0.004922456164719223 -0.0033962084193845171 0 -0.0051472027092008005 -0.0025736798185399144 0 -0.0051267995106262405 -0.002602719300563279 0 -0.0051378108729960102 -0.0026342052441539893 0 -0.00498946772173874 -0.0028344892875622756 0 -0.0049871926736389655 -0.0032666472449925325 0 -0.0051189713399388678 -0.002802294003143027 0 -0.0049871926736389655 -0.0032666472449925325 0 -0.0051125112368542204 -0.002625032481144287 0 -0.0051267995106262405 -0.002602719300563279 0 -0.0051378108729960102 -0.0026342052441539893 0 -0.0049871926736389655 -0.0032666472449925325 0 -0.0049112218901335783 -0.0035807637230855856 0 -0.0046311210381693273 -0.0035862651262355055 0 -0.004922456164719223 -0.0033962084193845171 0 -0.0049461089268813003 -0.0036630089822210872 0 -0.004922456164719223 -0.0033962084193845171 0 -0.00509871780118202 -0.0034853879017877187 0 -0.005273463537680146 -0.0031433852753306856 0 -0.004922456164719223 -0.0033962084193845171 0 -0.00509871780118202 -0.0034853879017877187 0 -0.0049461089268813003 -0.0036630089822210872 0 -0.00509871780118202 -0.0034853879017877187 0 -0.005066271420329168 -0.0036514433836666964 0 -0.0049461089268813003 -0.0036630089822210872 0 -0.005066271420329168 -0.0036514433836666964 0 -0.0050234725459787502 -0.0037495951398961959 0 -0.0051097712809377964 -0.0037138693345564145 0 -0.005066271420329168 -0.0036514433836666964 0 -0.0049461089268813003 -0.0036630089822210872 0 -0.0050234725459787502 -0.0037495951398961959 0 -0.0050234725459787502 -0.0037495951398961959 0 -0.0049592806824365889 -0.0037339274098597951 0 -0.0050018634617865149 -0.0037863415220845058 0 -0.0049461089268813003 -0.0036630089822210872 0 -0.0050234725459787502 -0.0037495951398961959 0 -0.0049592806824365889 -0.0037339274098597951 0 -0.0051137494864587048 -0.0033308049260827579 0 -0.0049871926736389655 -0.0032666472449925325 0 -0.004936552832489176 -0.0037559909793674707 0 -0.0049284861819663206 -0.0036742918972187608 0 -0.0049592806824365889 -0.0037339274098597951 0 -0.0049284861819663206 -0.0036742918972187608 0 -0.0049461089268813003 -0.0036630089822210872 0 -0.0049592806824365889 -0.0037339274098597951 0 -0.0050138830633223224 -0.0037993264259064225 0 -0.004936552832489176 -0.0037559909793674707 0 -0.0049786055306594622 -0.0037825778163177799 0 -0.004936552832489176 -0.0037559909793674707 0 -0.0049592806824365889 -0.0037339274098597951 0 -0.0049786055306594622 -0.0037825778163177799 0 -0.0049592806824365889 -0.0037339274098597951 0 -0.0049786055306594622 -0.0037825778163177799 0 -0.0050018634617865149 -0.0037863415220845058 0 -0.0050234725459787502 -0.0037495951398961959 0 -0.0050018634617865149 -0.0037863415220845058 0 -0.0050314361122958413 -0.0037993037790537564 0 -0.0049940208709727792 -0.0037972115351138417 0 -0.0050035202585847318 -0.0038056210706549228 0 -0.0050018634617865149 -0.0037863415220845058 0 -0.0049940208709727792 -0.0037972115351138417 0 -0.0049786055306594622 -0.0037825778163177799 0 -0.0050018634617865149 -0.0037863415220845058 0 -0.0050035202585847318 -0.0038056210706549228 0 -0.0050018634617865149 -0.0037863415220845058 0 -0.0050314361122958413 -0.0037993037790537564 0 -0.0050035202585847318 -0.0038056210706549228 0 -0.0050272724154303361 -0.0038180525465641483 0 -0.0050314361122958413 -0.0037993037790537564 0 -0.0050272724154303361 -0.0038180525465641483 0 -0.0050762536797712083 -0.0037930417237825647 0 -0.0050615314561201913 -0.0038094292254332528 0 -0.0050762536797712083 -0.0037930417237825647 0 -0.0050615314561201913 -0.0038094292254332528 0 -0.0051208120637997716 -0.0037894347357873741 0 -0.0050272724154303361 -0.0038180525465641483 0 -0.0050314361122958413 -0.0037993037790537564 0 -0.0050762536797712083 -0.0037930417237825647 0 -0.0050234725459787502 -0.0037495951398961959 0 -0.0050314361122958413 -0.0037993037790537564 0 -0.0050762536797712083 -0.0037930417237825647 0 -0.0050589460904779653 -0.0038145361811214927 0 -0.0048541339629101796 -0.0038410947210706136 0 -0.0050615314561201913 -0.0038094292254332528 0 -0.0048655272737489043 -0.0038001160288851647 0 -0.004882334006695235 -0.0037241868911782063 0 -0.0050272724154303361 -0.0038180525465641483 0 -0.0050615314561201913 -0.0038094292254332528 0 -0.0050660084035945643 -0.0038488636473805152 0 -0.0050615314561201913 -0.0038094292254332528 0 -0.0049656741826935441 -0.0038522407590473647 0 -0.005113447171804163 -0.0038520870950599262 0 -0.0050615314561201913 -0.0038094292254332528 0 -0.0049656741826935441 -0.0038522407590473647 0 -0.0048655272737489043 -0.0038001160288851647 0 -0.0051736172101037956 -0.0039622730487056234 0 -0.0052584956918496463 -0.0034717691809210806 0 -0.005113447171804163 -0.0038520870950599262 0 -0.005254150182717016 -0.0036237723079253596 0 -0.0053788358360170561 -0.003502960910827769 0 -0.005113447171804163 -0.0038520870950599262 0 -0.0050187598435380105 -0.0040620359537449514 0 -0.0051685886679316319 -0.0042395536686905813 0 -0.0049656741826935441 -0.0038522407590473647 0 -0.00497498688513494 -0.0039428733177713209 0 -0.0048798208962175264 -0.0039397333991270066 0 -0.0049656741826935441 -0.0038522407590473647 0 -0.00497498688513494 -0.0039428733177713209 0 -0.005113447171804163 -0.0038520870950599262 0 -0.0050615314561201913 -0.0038094292254332528 0 -0.005113447171804163 -0.0038520870950599262 0 -0.0051208120637997716 -0.0037894347357873741 0 -0.00497498688513494 -0.0039428733177713209 0 -0.005113447171804163 -0.0038520870950599262 0 -0.0050187598435380105 -0.0040620359537449514 0 -0.00497498688513494 -0.0039428733177713209 0 -0.0050187598435380105 -0.0040620359537449514 0 -0.0049086914206897059 -0.0040294114861153599 0 -0.00497498688513494 -0.0039428733177713209 0 -0.0049086914206897059 -0.0040294114861153599 0 -0.0048798208962175264 -0.0039397333991270066 0 -0.0050234725459787502 -0.0037495951398961959 0 -0.0050762536797712083 -0.0037930417237825647 0 -0.0051097712809377964 -0.0037138693345564145 0 -0.0050762536797712083 -0.0037930417237825647 0 -0.0051208120637997716 -0.0037894347357873741 0 -0.0051097712809377964 -0.0037138693345564145 0 -0.005113447171804163 -0.0038520870950599262 0 -0.0051208120637997716 -0.0037894347357873741 0 -0.0051806898094303002 -0.0037022977111590698 0 -0.005113447171804163 -0.0038520870950599262 0 -0.0051806898094303002 -0.0037022977111590698 0 -0.005254150182717016 -0.0036237723079253596 0 -0.0051208120637997716 -0.0037894347357873741 0 -0.0051806898094303002 -0.0037022977111590698 0 -0.0051097712809377964 -0.0037138693345564145 0 -0.005066271420329168 -0.0036514433836666964 0 -0.0051097712809377964 -0.0037138693345564145 0 -0.0051982822216108011 -0.0035716358151504906 0 -0.0051806898094303002 -0.0037022977111590698 0 -0.0051097712809377964 -0.0037138693345564145 0 -0.0051982822216108011 -0.0035716358151504906 0 -0.00509871780118202 -0.0034853879017877187 0 -0.0051982822216108011 -0.0035716358151504906 0 -0.0052296337566769433 -0.0034209318239543578 0 -0.00509871780118202 -0.0034853879017877187 0 -0.005066271420329168 -0.0036514433836666964 0 -0.0051982822216108011 -0.0035716358151504906 0 -0.00509871780118202 -0.0034853879017877187 0 -0.0052296337566769433 -0.0034209318239543578 0 -0.005273463537680146 -0.0031433852753306856 0 -0.0052296337566769433 -0.0034209318239543578 0 -0.005352338937786724 -0.0034678270364780872 0 -0.005273463537680146 -0.0031433852753306856 0 -0.0053160884761728157 -0.0034798091237622521 0 -0.0052584956918496463 -0.0034717691809210806 0 -0.005352338937786724 -0.0034678270364780872 0 -0.005254150182717016 -0.0036237723079253596 0 -0.0053788358360170561 -0.003502960910827769 0 -0.0051982822216108011 -0.0035716358151504906 0 -0.0052296337566769433 -0.0034209318239543578 0 -0.005352338937786724 -0.0034678270364780872 0 -0.0051982822216108011 -0.0035716358151504906 0 -0.005352338937786724 -0.0034678270364780872 0 -0.005254150182717016 -0.0036237723079253596 0 -0.0051806898094303002 -0.0037022977111590698 0 -0.0051982822216108011 -0.0035716358151504906 0 -0.005254150182717016 -0.0036237723079253596 0 -0.0050187598435380105 -0.0040620359537449514 0 -0.0051685886679316319 -0.0042395536686905813 0 -0.0048776125958088631 -0.0041640209431973345 0 -0.0052584956918496463 -0.0034717691809210806 0 -0.005317768340614511 -0.0035140938529492185 0 -0.0054878642677549062 -0.0028026167658928647 0 -0.0056122156475886262 -0.0026912070955479052 0 -0.0056619381037554513 -0.0028350938794409536 0 -0.0050187598435380105 -0.0040620359537449514 0 -0.0048776125958088631 -0.0041640209431973345 0 -0.0049086914206897059 -0.0040294114861153599 0 -0.0054473380520003575 -0.0025197276806727658 0 -0.0054878642677549062 -0.0028026167658928647 0 -0.0055753847239107526 -0.0025627117682727519 0 -0.0054878642677549062 -0.0028026167658928647 0 -0.0056122156475886262 -0.0026912070955479052 0 -0.0055753847239107526 -0.0025627117682727519 0 -0.0056122156475886262 -0.0026912070955479052 0 -0.0055753847239107526 -0.0025627117682727519 0 -0.0056981755082146993 -0.0025714824003675966 0 -0.0055075907836656069 -0.0028266391127668958 0 -0.005352338937786724 -0.0034678270364780872 0 -0.0054666961681918303 -0.0034909110915606711 0 -0.0054898541946767302 -0.0026053004037968246 0 -0.0052584956918496463 -0.0034717691809210806 0 -0.0055075907836656069 -0.0028266391127668958 0 -0.0051294397676282279 -0.0026099105919185441 0 -0.005273463537680146 -0.0031433852753306856 0 -0.0055075907836656069 -0.0028266391127668958 0 -0.005352338937786724 -0.0034678270364780872 0 -0.005273463537680146 -0.0031433852753306856 0 -0.0058199989034781923 -0.0025928928763023673 0 -0.0057880815436422133 -0.0027158571310298106 0 -0.0059956411612906808 -0.002609564431278025 0 -0.0058661320520870973 -0.0024714020614805682 0 -0.0058199989034781923 -0.0025928928763023673 0 -0.0059956411612906808 -0.002609564431278025 0 -0.0058661320520870973 -0.0024714020614805682 0 -0.0058199989034781923 -0.0025928928763023673 0 -0.0056981755082146993 -0.0025714824003675966 0 -0.0058199989034781923 -0.0025928928763023673 0 -0.0056981755082146993 -0.0025714824003675966 0 -0.0057016706018029511 -0.0026741602677094107 0 -0.0056122156475886262 -0.0026912070955479052 0 -0.0056981755082146993 -0.0025714824003675966 0 -0.0057016706018029511 -0.0026741602677094107 0 -0.0058199989034781923 -0.0025928928763023673 0 -0.0057016706018029511 -0.0026741602677094107 0 -0.0057880815436422133 -0.0027158571310298106 0 -0.0057880815436422133 -0.0027158571310298106 0 -0.0056619381037554513 -0.0028350938794409536 0 -0.005832355935131121 -0.0028712606447960781 0 -0.005317768340614511 -0.0035140938529492185 0 -0.0049938111288482254 -0.0036580462511997384 0 -0.0048776125958088631 -0.0041640209431973345 0 -0.0046606833450694527 -0.0041105977131098478 0 -0.0048089527106848617 -0.004047806361123913 0 -0.0056122156475886262 -0.0026912070955479052 0 -0.0057016706018029511 -0.0026741602677094107 0 -0.0056619381037554513 -0.0028350938794409536 0 -0.0057016706018029511 -0.0026741602677094107 0 -0.0057880815436422133 -0.0027158571310298106 0 -0.0056619381037554513 -0.0028350938794409536 0 -0.0049938111288482254 -0.0036580462511997384 0 -0.004326336527849855 -0.0039890790611270509 0 -0.0049938111288482254 -0.0036580462511997384 0 -0.0052889003748168226 -0.0032468755962156721 0 -0.0057880815436422133 -0.0027158571310298106 0 -0.005832355935131121 -0.0028712606447960781 0 -0.0059956411612906808 -0.002609564431278025 0 -0.0043471482045333194 -0.0039305868002792888 0 -0.004326476626441117 -0.0039346225957921921 0 -0.004333624790863762 -0.0039408258856805491 0 -0.0046735108742799406 -0.0040909182652892253 0 -0.0045976276513010096 -0.0039995716821795259 0 -0.0044855352399421214 -0.0040390343636054109 0 -0.0045976276513010096 -0.0039995716821795259 0 -0.0046851533694904201 -0.0039631993422999242 0 -0.0047183750669062908 -0.0040285261875479712 0 -0.0046735108742799406 -0.0040909182652892253 0 -0.0045976276513010096 -0.0039995716821795259 0 -0.0047183750669062908 -0.0040285261875479712 0 -0.0049938111288482254 -0.0036580462511997384 0 -0.0047400249787993192 -0.0040262089735323492 0 -0.0045976276513010096 -0.0039995716821795259 0 -0.0046851533694904201 -0.0039631993422999242 0 -0.0046514458395504454 -0.0039117925067568534 0 -0.0045976276513010096 -0.0039995716821795259 0 -0.0045444791856710971 -0.003932686655225801 0 -0.0046514458395504454 -0.0039117925067568534 0 -0.0048776125958088631 -0.0041640209431973345 0 -0.0049086914206897059 -0.0040294114861153599 0 -0.0048089527106848617 -0.004047806361123913 0 -0.0049086914206897059 -0.0040294114861153599 0 -0.0048089527106848617 -0.004047806361123913 0 -0.0048798208962175264 -0.0039397333991270066 0 -0.0048089527106848617 -0.004047806361123913 0 -0.0047183750669062908 -0.0040285261875479712 0 -0.0047691872289226632 -0.0039344103515963763 0 -0.0046606833450694527 -0.0041105977131098478 0 -0.0048089527106848617 -0.004047806361123913 0 -0.0047183750669062908 -0.0040285261875479712 0 -0.0046851533694904201 -0.0039631993422999242 0 -0.0047691872289226632 -0.0039344103515963763 0 -0.0046514458395504454 -0.0039117925067568534 0 -0.0046851533694904201 -0.0039631993422999242 0 -0.0047183750669062908 -0.0040285261875479712 0 -0.0047691872289226632 -0.0039344103515963763 0 -0.0047691872289226632 -0.0039344103515963763 0 -0.0048798208962175264 -0.0039397333991270066 0 -0.0048237216440764818 -0.0038558185098798857 0 -0.0048089527106848617 -0.004047806361123913 0 -0.0047691872289226632 -0.0039344103515963763 0 -0.0048798208962175264 -0.0039397333991270066 0 -0.0049656741826935441 -0.0038522407590473647 0 -0.0048237216440764818 -0.0038558185098798857 0 -0.0048655272737489043 -0.0038001160288851647 0 -0.0049656741826935441 -0.0038522407590473647 0 -0.0048798208962175264 -0.0039397333991270066 0 -0.0048237216440764818 -0.0038558185098798857 0 -0.0047691872289226632 -0.0039344103515963763 0 -0.0048237216440764818 -0.0038558185098798857 0 -0.0047223911216292226 -0.0038445002637056049 0 -0.0047691872289226632 -0.0039344103515963763 0 -0.0047223911216292226 -0.0038445002637056049 0 -0.0046514458395504454 -0.0039117925067568534 0 -0.0047223911216292226 -0.0038445002637056049 0 -0.0048655272737489043 -0.0038001160288851647 0 -0.0047144726656429634 -0.0037793849144699418 0 -0.0048237216440764818 -0.0038558185098798857 0 -0.0047223911216292226 -0.0038445002637056049 0 -0.0048655272737489043 -0.0038001160288851647 0 -0.0045444791856710971 -0.003932686655225801 0 -0.0046514458395504454 -0.0039117925067568534 0 -0.0045741724440275383 -0.0038537091871033236 0 -0.0047223911216292226 -0.0038445002637056049 0 -0.0045741724440275383 -0.0038537091871033236 0 -0.0047144726656429634 -0.0037793849144699418 0 -0.0047223911216292226 -0.0038445002637056049 0 -0.0046514458395504454 -0.0039117925067568534 0 -0.0045741724440275383 -0.0038537091871033236 0 -0.0045997690767353742 -0.0037779141105313938 0 -0.0046425066851091381 -0.0037180042342568921 0 -0.0047144726656429634 -0.0037793849144699418 0 -0.0045741724440275383 -0.0038537091871033236 0 -0.0045997690767353742 -0.0037779141105313938 0 -0.0044693692697260869 -0.0038470705850529468 0 -0.0045741724440275383 -0.0038537091871033236 0 -0.0045997690767353742 -0.0037779141105313938 0 -0.0047144726656429634 -0.0037793849144699418 0 -0.0046425066851091381 -0.0037180042342568921 0 -0.0044833468194966945 -0.0037798218384764446 0 -0.004512264842756966 -0.0037920629921935384 0 -0.0045997690767353742 -0.0037779141105313938 0 -0.0046425066851091381 -0.0037180042342568921 0 -0.004512264842756966 -0.0037920629921935384 0 -0.0045919205123268435 -0.0038265185355158106 0 -0.0048541339629101796 -0.0038410947210706136 0 -0.0048541339629101796 -0.0038410947210706136 0 -0.0047216975353797383 -0.0038739746570002789 0 -0.0045662538720882386 -0.0039338838961460159 0 -0.0046034711988049244 -0.0039570532220107859 0 -0.0045807258306126775 -0.0039161849442263339 0 -0.0048655272737489043 -0.0038001160288851647 0 -0.0047144726656429634 -0.0037793849144699418 0 -0.004882334006695235 -0.0037241868911782063 0 -0.0046425066851091381 -0.0037180042342568921 0 -0.0047144726656429634 -0.0037793849144699418 0 -0.004882334006695235 -0.0037241868911782063 0 -0.0050537381970616139 -0.0038409980692800882 0 -0.0048541339629101796 -0.0038410947210706136 0 -0.0050035202585847318 -0.0038056210706549228 0 -0.0050272724154303361 -0.0038180525465641483 0 -0.0049732706394488811 -0.0038017095293360653 0 -0.0050272724154303361 -0.0038180525465641483 0 -0.0049426064546256318 -0.003811708863238927 0 -0.0049732706394488811 -0.0038017095293360653 0 -0.0049818992022869716 -0.0037875181435973126 0 -0.0050035202585847318 -0.0038056210706549228 0 -0.0049732706394488811 -0.0038017095293360653 0 -0.0049818992022869716 -0.0037875181435973126 0 -0.0049732706394488811 -0.0038017095293360653 0 -0.0049551096156691711 -0.0037856005445590524 0 -0.0049732706394488811 -0.0038017095293360653 0 -0.0049551096156691711 -0.0037856005445590524 0 -0.0049265209578758145 -0.0038026332151866659 0 -0.0049426064546256318 -0.003811708863238927 0 -0.0049732706394488811 -0.0038017095293360653 0 -0.0049265209578758145 -0.0038026332151866659 0 -0.0049426064546256318 -0.003811708863238927 0 -0.0049265209578758145 -0.0038026332151866659 0 -0.0048897360788201401 -0.0038211335986307708 0 -0.0049265209578758145 -0.0038026332151866659 0 -0.0048888332509589728 -0.0038240003870541966 0 -0.0048897360788201401 -0.0038211335986307708 0 -0.0049551096156691711 -0.0037856005445590524 0 -0.0049265209578758145 -0.0038026332151866659 0 -0.0049201779729887603 -0.0037942833328307797 0 -0.004975287409051142 -0.0037503806988329769 0 -0.0049551096156691711 -0.0037856005445590524 0 -0.0049201779729887603 -0.0037942833328307797 0 -0.0049265209578758145 -0.0038026332151866659 0 -0.0048888332509589728 -0.0038240003870541966 0 -0.0049201779729887603 -0.0037942833328307797 0 -0.0049201779729887603 -0.0037942833328307797 0 -0.0048526348043902304 -0.0038589066384219022 0 -0.0048895230875639888 -0.0038239434160761004 0 -0.0048888332509589728 -0.0038240003870541966 0 -0.0049201779729887603 -0.0037942833328307797 0 -0.0048526348043902304 -0.0038589066384219022 0 -0.0048888332509589728 -0.0038240003870541966 0 -0.0048004640786755461 -0.0038968945634712125 0 -0.0048526348043902304 -0.0038589066384219022 0 -0.0046758265755157272 -0.0038826349590845898 0 -0.0047216975353797383 -0.0038739746570002789 0 -0.0045601045977834353 -0.0038826129483462237 0 -0.0045570578533273808 -0.0039030801018324359 0 -0.0045807258306126775 -0.0039161849442263339 0 -0.0048888332509589728 -0.0038240003870541966 0 -0.0048004640786755461 -0.0038968945634712125 0 -0.0048897360788201401 -0.0038211335986307708 0 -0.0045601045977834353 -0.0038826129483462237 0 -0.0045570578533273808 -0.0039030801018324359 0 -0.0045427378249073428 -0.0038761638324301844 0 -0.0045570578533273808 -0.0039030801018324359 0 -0.0045337719409664703 -0.0039129351022468561 0 -0.0045427378249073428 -0.0038761638324301844 0 -0.0045662538720882386 -0.0039338838961460159 0 -0.0045570578533273808 -0.0039030801018324359 0 -0.0045337719409664703 -0.0039129351022468561 0 -0.0045919205123268435 -0.0038265185355158106 0 -0.0045185098004395146 -0.0038495549480057996 0 -0.0045662538720882386 -0.0039338838961460159 0 -0.0045570578533273808 -0.0039030801018324359 0 -0.0045807258306126775 -0.0039161849442263339 0 -0.0044833468194966945 -0.0037798218384764446 0 -0.00446027549586866 -0.0038582373162034424 0 -0.0044233810482218307 -0.0038296275536074845 0 -0.00446027549586866 -0.0038582373162034424 0 -0.0043807306749314044 -0.00386709621432842 0 -0.0044233810482218307 -0.0038296275536074845 0 -0.0045185098004395146 -0.0038495549480057996 0 -0.0044663708331225925 -0.0038548227527996953 0 -0.0045337719409664703 -0.0039129351022468561 0 -0.00446027549586866 -0.0038582373162034424 0 -0.0045427378249073428 -0.0038761638324301844 0 -0.00428128812697576 -0.0038747445236216641 0 -0.0043807306749314044 -0.00386709621432842 0 -0.0044288024548697034 -0.0038364008564988304 0 -0.00446027549586866 -0.0038582373162034424 0 -0.0043807306749314044 -0.00386709621432842 0 -0.0044288024548697034 -0.0038364008564988304 0 -0.00428128812697576 -0.0038747445236216641 0 -0.004145397671673972 -0.0037726164658587811 0 -0.0044288024548697034 -0.0038364008564988304 0 -0.00428128812697576 -0.0038747445236216641 0 -0.0043807306749314044 -0.00386709621432842 0 -0.0042338167680693768 -0.003931224924332859 0 -0.0043807306749314044 -0.00386709621432842 0 -0.0043079927093107526 -0.0039043302449556783 0 -0.0044233810482218307 -0.0038296275536074845 0 -0.0043807306749314044 -0.00386709621432842 0 -0.0043079927093107526 -0.0039043302449556783 0 -0.0042338167680693768 -0.003931224924332859 0 -0.0043079927093107526 -0.0039043302449556783 0 -0.0042338167680693768 -0.003931224924332859 0 -0.004193989560449792 -0.0039630750798722676 0 -0.0043079927093107526 -0.0039043302449556783 0 -0.004277356034029775 -0.0039286257796044641 0 -0.004193989560449792 -0.0039630750798722676 0 -0.0043079927093107526 -0.0039043302449556783 0 -0.004358823851348388 -0.0038910644636430923 0 -0.004277356034029775 -0.0039286257796044641 0 -0.004358823851348388 -0.0038910644636430923 0 -0.0044233810482218307 -0.0038296275536074845 0 -0.0044693692697260869 -0.0038470705850529468 0 -0.0043079927093107526 -0.0039043302449556783 0 -0.004358823851348388 -0.0038910644636430923 0 -0.0044233810482218307 -0.0038296275536074845 0 -0.0044833468194966945 -0.0037798218384764446 0 -0.0044233810482218307 -0.0038296275536074845 0 -0.004512264842756966 -0.0037920629921935384 0 -0.0044233810482218307 -0.0038296275536074845 0 -0.004512264842756966 -0.0037920629921935384 0 -0.0044693692697260869 -0.0038470705850529468 0 -0.0045997690767353742 -0.0037779141105313938 0 -0.004512264842756966 -0.0037920629921935384 0 -0.0044693692697260869 -0.0038470705850529468 0 -0.0045741724440275383 -0.0038537091871033236 0 -0.0044693692697260869 -0.0038470705850529468 0 -0.0044364099712027273 -0.003918871371793844 0 -0.0045444791856710971 -0.003932686655225801 0 -0.0045741724440275383 -0.0038537091871033236 0 -0.0044364099712027273 -0.003918871371793844 0 -0.004358823851348388 -0.0038910644636430923 0 -0.0044693692697260869 -0.0038470705850529468 0 -0.0044364099712027273 -0.003918871371793844 0 -0.004358823851348388 -0.0038910644636430923 0 -0.0044364099712027273 -0.003918871371793844 0 -0.0043074403169866982 -0.0039306321399060727 0 -0.0044364099712027273 -0.003918871371793844 0 -0.0043291259506400013 -0.0039584914564936898 0 -0.0043074403169866982 -0.0039306321399060727 0 -0.004369971232934671 -0.003968599768745887 0 -0.004326336527849855 -0.0039890790611270509 0 -0.0044364099712027273 -0.003918871371793844 0 -0.0043291259506400013 -0.0039584914564936898 0 -0.0044855352399421214 -0.0040390343636054109 0 -0.0045444791856710971 -0.003932686655225801 0 -0.0044364099712027273 -0.003918871371793844 0 -0.0044855352399421214 -0.0040390343636054109 0 -0.0045976276513010096 -0.0039995716821795259 0 -0.0045444791856710971 -0.003932686655225801 0 -0.0044855352399421214 -0.0040390343636054109 0 -0.004326476626441117 -0.0039346225957921921 0 -0.0043187261876436031 -0.0039376602575647134 0 -0.004333624790863762 -0.0039408258856805491 0 -0.0043291259506400013 -0.0039584914564936898 0 -0.0043187261876436031 -0.0039376602575647134 0 -0.0042918368214416277 -0.0039333275275884932 0 -0.0043291259506400013 -0.0039584914564936898 0 -0.004326476626441117 -0.0039346225957921921 0 -0.0043187261876436031 -0.0039376602575647134 0 -0.0043187261876436031 -0.0039376602575647134 0 -0.0043158090822642643 -0.0039462641857786942 0 -0.0042918368214416277 -0.0039333275275884932 0 -0.0043187261876436031 -0.0039376602575647134 0 -0.0043158090822642643 -0.0039462641857786942 0 -0.004333624790863762 -0.0039408258856805491 0 -0.0040229470677355401 -0.0032075418443256393 0 -0.0038170356053799687 -0.003108939407796254 0 -0.0039021014579363879 -0.0034240976701432591 0 -0.0035976540468486613 -0.0031927899913938448 0 -0.0038170356053799687 -0.003108939407796254 0 -0.0039021014579363879 -0.0034240976701432591 0 -0.0038404420042076263 -0.0036259466044556966 0 -0.0040962854691574922 -0.003666460159488663 0 -0.0042914589881417184 -0.0039538549046056947 0 -0.0043158090822642643 -0.0039462641857786942 0 -0.0042918368214416277 -0.0039333275275884932 0 -0.0042914589881417184 -0.0039538549046056947 0 -0.0042346694184078916 -0.0039176463380471991 0 -0.0042918368214416277 -0.0039333275275884932 0 -0.0043291259506400013 -0.0039584914564936898 0 -0.0042918368214416277 -0.0039333275275884932 0 -0.0042767722150678306 -0.0039320438487822646 0 -0.0042918368214416277 -0.0039333275275884932 0 -0.0042385347851522344 -0.003897611187706164 0 -0.0042767722150678306 -0.0039320438487822646 0 -0.0042346694184078916 -0.0039176463380471991 0 -0.0042918368214416277 -0.0039333275275884932 0 -0.0042385347851522344 -0.003897611187706164 0 -0.0042346694184078916 -0.0039176463380471991 0 -0.0042385347851522344 -0.003897611187706164 0 -0.0042348834603092361 -0.0037966298050620636 0 -0.0042385347851522344 -0.003897611187706164 0 -0.004234187017407247 -0.0039327546065838753 0 -0.0042161817848621998 -0.0038888661410007097 0 -0.0042385347851522344 -0.003897611187706164 0 -0.0042767722150678306 -0.0039320438487822646 0 -0.004234187017407247 -0.0039327546065838753 0 -0.004234187017407247 -0.0039327546065838753 0 -0.0041946083705681784 -0.0039394564477032981 0 -0.0042161817848621998 -0.0038888661410007097 0 -0.0042767722150678306 -0.0039320438487822646 0 -0.0043074403169866982 -0.0039306321399060727 0 -0.004234187017407247 -0.0039327546065838753 0 -0.0043291259506400013 -0.0039584914564936898 0 -0.0042767722150678306 -0.0039320438487822646 0 -0.0043074403169866982 -0.0039306321399060727 0 -0.004358823851348388 -0.0038910644636430923 0 -0.004277356034029775 -0.0039286257796044641 0 -0.0043074403169866982 -0.0039306321399060727 0 -0.004277356034029775 -0.0039286257796044641 0 -0.0043074403169866982 -0.0039306321399060727 0 -0.004234187017407247 -0.0039327546065838753 0 -0.004277356034029775 -0.0039286257796044641 0 -0.004234187017407247 -0.0039327546065838753 0 -0.004193989560449792 -0.0039630750798722676 0 -0.004234187017407247 -0.0039327546065838753 0 -0.0041946083705681784 -0.0039394564477032981 0 -0.004193989560449792 -0.0039630750798722676 0 -0.0041627973521454077 -0.0039824828601617091 0 -0.0041946083705681784 -0.0039394564477032981 0 -0.0041077002107774811 -0.003994697807419176 0 -0.0041946083705681784 -0.0039394564477032981 0 -0.0041077002107774811 -0.003994697807419176 0 -0.004193989560449792 -0.0039630750798722676 0 -0.004236069241626326 -0.0038655290553323406 0 -0.0042167932758422925 -0.0039585086782421798 0 -0.0041627973521454077 -0.0039824828601617091 0 -0.003978325394965487 -0.0040047357908691451 0 -0.0041077002107774811 -0.003994697807419176 0 -0.004236069241626326 -0.0038655290553323406 0 -0.0042258089822966626 -0.0037919192201170604 0 -0.0043313732925743019 -0.0037663584467416923 0 -0.0042348834603092361 -0.0037966298050620636 0 -0.0042534988074517908 -0.0037280684737000321 0 -0.0043313732925743019 -0.0037663584467416923 0 -0.0043639555300098547 -0.003701618162778367 0 -0.0044898651489223467 -0.0037335495132246981 0 -0.0043313732925743019 -0.0037663584467416923 0 -0.0043639555300098547 -0.003701618162778367 0 -0.0042534988074517908 -0.0037280684737000321 0 -0.0043639555300098547 -0.003701618162778367 0 -0.0042534988074517908 -0.0037280684737000321 0 -0.0043523848120957673 -0.0036433263817441334 0 -0.0041627973521454077 -0.0039824828601617091 0 -0.0041946083705681784 -0.0039394564477032981 0 -0.0042348834603092361 -0.0037966298050620636 0 -0.0042385347851522344 -0.003897611187706164 0 -0.0042161817848621998 -0.0038888661410007097 0 -0.0042348834603092361 -0.0037966298050620636 0 -0.0041946083705681784 -0.0039394564477032981 0 -0.0042161817848621998 -0.0038888661410007097 0 -0.0042348834603092361 -0.0037966298050620636 0 -0.0042346694184078916 -0.0039176463380471991 0 -0.0042348834603092361 -0.0037966298050620636 0 -0.0042534988074517908 -0.0037280684737000321 0 -0.0039021014579363879 -0.0034240976701432591 0 -0.0041757471315727818 -0.0034931212939058607 0 -0.0042534988074517908 -0.0037280684737000321 0 -0.0040962854691574922 -0.003666460159488663 0 -0.0042410672031059126 -0.0037384622031232332 0 -0.0042534988074517908 -0.0037280684737000321 0 -0.0043523848120957673 -0.0036433263817441334 0 -0.0043396412220962702 -0.0034873358119500899 0 -0.0043639555300098547 -0.003701618162778367 0 -0.0043523848120957673 -0.0036433263817441334 0 -0.0044559046894465321 -0.0035944828763777269 0 -0.0043523848120957673 -0.0036433263817441334 0 -0.0043396412220962702 -0.0034873358119500899 0 -0.0044559046894465321 -0.0035944828763777269 0 -0.0041757471315727818 -0.0034931212939058607 0 -0.0042534988074517908 -0.0037280684737000321 0 -0.0043396412220962702 -0.0034873358119500899 0 -0.0043396412220962702 -0.0034873358119500899 0 -0.0043615637401033733 -0.0032324934090868021 0 -0.0041891512186303945 -0.0033368311909953608 0 -0.0042059331988949884 -0.003073972059463912 0 -0.0043615637401033733 -0.0032324934090868021 0 -0.0041891512186303945 -0.0033368311909953608 0 -0.0043396412220962702 -0.0034873358119500899 0 -0.0043615637401033733 -0.0032324934090868021 0 -0.0044659487857110604 -0.0033665080028296738 0 -0.0041757471315727818 -0.0034931212939058607 0 -0.0043396412220962702 -0.0034873358119500899 0 -0.0041891512186303945 -0.0033368311909953608 0 -0.0040229470677355401 -0.0032075418443256393 0 -0.0039021014579363879 -0.0034240976701432591 0 -0.0041891512186303945 -0.0033368311909953608 0 -0.0039021014579363879 -0.0034240976701432591 0 -0.0041757471315727818 -0.0034931212939058607 0 -0.0041891512186303945 -0.0033368311909953608 0 -0.00460342643361811 -0.0032939029341881791 0 -0.0045626726314578958 -0.0034582521563677276 0 -0.0047046763661802125 -0.0033891755683711283 0 -0.0047385733220176966 -0.0032371063717945951 0 -0.00460342643361811 -0.0032939029341881791 0 -0.0047046763661802125 -0.0033891755683711283 0 -0.0046644337119472242 -0.0031397495534194481 0 -0.0047385733220176966 -0.0032371063717945951 0 -0.00460342643361811 -0.0032939029341881791 0 -0.0045329312064471307 -0.0031679099392835927 0 -0.0046644337119472242 -0.0031397495534194481 0 -0.00460342643361811 -0.0032939029341881791 0 -0.0045329312064471307 -0.0031679099392835927 0 -0.00460342643361811 -0.0032939029341881791 0 -0.0044659487857110604 -0.0033665080028296738 0 -0.0045329312064471307 -0.0031679099392835927 0 -0.0043615637401033733 -0.0032324934090868021 0 -0.0044659487857110604 -0.0033665080028296738 0 -0.00460342643361811 -0.0032939029341881791 0 -0.0044659487857110604 -0.0033665080028296738 0 -0.0045626726314578958 -0.0034582521563677276 0 -0.0045626726314578958 -0.0034582521563677276 0 -0.0044559046894465321 -0.0035944828763777269 0 -0.0046178912316625197 -0.0035704480948643056 0 -0.0043396412220962702 -0.0034873358119500899 0 -0.0044659487857110604 -0.0033665080028296738 0 -0.0044559046894465321 -0.0035944828763777269 0 -0.0044659487857110604 -0.0033665080028296738 0 -0.0045626726314578958 -0.0034582521563677276 0 -0.0044559046894465321 -0.0035944828763777269 0 -0.0046178912316625197 -0.0035704480948643056 0 -0.0047046763661802125 -0.0033891755683711283 0 -0.0047762035170226891 -0.0035385600560082948 0 -0.0045626726314578958 -0.0034582521563677276 0 -0.0046178912316625197 -0.0035704480948643056 0 -0.0047046763661802125 -0.0033891755683711283 0 -0.0046178912316625197 -0.0035704480948643056 0 -0.0046844393919833966 -0.0037093122531195841 0 -0.0047762035170226891 -0.0035385600560082948 0 -0.0046178912316625197 -0.0035704480948643056 0 -0.0046844393919833966 -0.0037093122531195841 0 -0.0044898651489223467 -0.0037335495132246981 0 -0.0043639555300098547 -0.003701618162778367 0 -0.0044559046894465321 -0.0035944828763777269 0 -0.0044898651489223467 -0.0037335495132246981 0 -0.0044559046894465321 -0.0035944828763777269 0 -0.0046178912316625197 -0.0035704480948643056 0 -0.0044898651489223467 -0.0037335495132246981 0 -0.0043313732925743019 -0.0037663584467416923 0 -0.0044898651489223467 -0.0037335495132246981 0 -0.0044505135458367626 -0.0039280264215936301 0 -0.0044898651489223467 -0.0037335495132246981 0 -0.0046094555690758387 -0.0038741035822321196 0 -0.0044505135458367626 -0.0039280264215936301 0 -0.0046844393919833966 -0.0037093122531195841 0 -0.0044898651489223467 -0.0037335495132246981 0 -0.0046094555690758387 -0.0038741035822321196 0 -0.0046844393919833966 -0.0037093122531195841 0 -0.0046094555690758387 -0.0038741035822321196 0 -0.0047546941932064754 -0.0038214834356414106 0 -0.0046094555690758387 -0.0038741035822321196 0 -0.0045626893913769994 -0.0041026056228036373 0 -0.0047319745931921793 -0.0039824193897095997 0 -0.0045626893913769994 -0.0041026056228036373 0 -0.0047319745931921793 -0.0039824193897095997 0 -0.0047190482549954397 -0.004131860507412535 0 -0.0038928083500476616 -0.0039722783623305589 0 -0.003978325394965487 -0.0040047357908691451 0 -0.003917410703397013 -0.0040019275160910785 0 -0.004220957353215286 -0.0040393359524976379 0 -0.0042167932758422925 -0.0039585086782421798 0 -0.0046094555690758387 -0.0038741035822321196 0 -0.0045626893913769994 -0.0041026056228036373 0 -0.0044505135458367626 -0.0039280264215936301 0 -0.003978325394965487 -0.0040047357908691451 0 -0.0041077002107774811 -0.003994697807419176 0 -0.003917410703397013 -0.0040019275160910785 0 -0.0041077002107774811 -0.003994697807419176 0 -0.004193989560449792 -0.0039630750798722676 0 -0.0041099715637743844 -0.0039770691105343913 0 -0.0042338167680693768 -0.003931224924332859 0 -0.004193989560449792 -0.0039630750798722676 0 -0.0041099715637743844 -0.0039770691105343913 0 -0.0042338167680693768 -0.003931224924332859 0 -0.0041099715637743844 -0.0039770691105343913 0 -0.0040916243351374762 -0.0039453655837534919 0 -0.0041099715637743844 -0.0039770691105343913 0 -0.003917410703397013 -0.0040019275160910785 0 -0.0040916243351374762 -0.0039453655837534919 0 -0.0041077002107774811 -0.003994697807419176 0 -0.0041099715637743844 -0.0039770691105343913 0 -0.003917410703397013 -0.0040019275160910785 0 -0.003917410703397013 -0.0040019275160910785 0 -0.0040916243351374762 -0.0039453655837534919 0 -0.003712087761311416 -0.0040194871481180183 0 -0.00428128812697576 -0.0038747445236216641 0 -0.0042338167680693768 -0.003931224924332859 0 -0.0040916243351374762 -0.0039453655837534919 0 -0.00428128812697576 -0.0038747445236216641 0 -0.0040916243351374762 -0.0039453655837534919 0 -0.004145397671673972 -0.0037726164658587811 0 -0.003692089225329548 -0.004043137377662224 0 -0.0035874165941999514 -0.0042242995310391909 0 -0.0040916243351374762 -0.0039453655837534919 0 -0.003712087761311416 -0.0040194871481180183 0 -0.004145397671673972 -0.0037726164658587811 0 -0.003666245666505797 -0.0045076945653422119 0 -0.003712087761311416 -0.0040194871481180183 0 -0.0030118530302503466 -0.0046528857775223614 0 -0.003666245666505797 -0.0045076945653422119 0 -0.0040532636870299898 -0.0042585858597241899 0 -0.003712087761311416 -0.0040194871481180183 0 -0.003666245666505797 -0.0045076945653422119 0 -0.0040532636870299898 -0.0042585858597241899 0 -0.0040020650176734252 -0.0046069031521836605 0 -0.0038928083500476616 -0.0039722783623305589 0 -0.0040532636870299898 -0.0042585858597241899 0 -0.003712087761311416 -0.0040194871481180183 0 -0.004220957353215286 -0.0040393359524976379 0 -0.004446021208927225 -0.0042585785217769028 0 -0.0045626893913769994 -0.0041026056228036373 0 -0.0046713141115085699 -0.0042867048528823261 0 -0.0047190482549954397 -0.004131860507412535 0 -0.0038928083500476616 -0.0039722783623305589 0 -0.003917410703397013 -0.0040019275160910785 0 -0.003712087761311416 -0.0040194871481180183 0 -0.0033099273800114948 -0.005100328862490777 0 -0.0029866840442572835 -0.0051493740783130756 0 -0.0030157126441619029 -0.0051650326849789017 0 -0.0029866840442572835 -0.0051493740783130756 0 -0.0029839230758426337 -0.0052812232503976399 0 -0.002880414223441553 -0.0052328716245616204 0 -0.0033099273800114948 -0.005100328862490777 0 -0.0029866840442572835 -0.0051493740783130756 0 -0.0029839230758426337 -0.0052812232503976399 0 -0.0033416226076003839 -0.0051053587419897682 0 -0.003414284879246954 -0.0051017332387894819 0 -0.003666245666505797 -0.0045076945653422119 0 -0.0039478595693899568 -0.0049125276551386628 0 -0.0040020650176734252 -0.0046069031521836605 0 -0.003666245666505797 -0.0045076945653422119 0 -0.0033099273800114948 -0.005100328862490777 0 -0.0030815362657918254 -0.0050080885774138398 0 -0.003666245666505797 -0.0045076945653422119 0 -0.0033099273800114948 -0.005100328862490777 0 -0.0039478595693899568 -0.0049125276551386628 0 -0.003666245666505797 -0.0045076945653422119 0 -0.0030118530302503466 -0.0046528857775223614 0 -0.0030815362657918254 -0.0050080885774138398 0 -0.0035874165941999514 -0.0042242995310391909 0 -0.003622382534507286 -0.0044357873332219024 0 -0.0030118530302503466 -0.0046528857775223614 0 -0.0030815362657918254 -0.0050080885774138398 0 -0.0028826946403873429 -0.0050688879514164007 0 -0.0030815362657918254 -0.0050080885774138398 0 -0.0030128675132528771 -0.0051475611399695413 0 -0.0028826946403873429 -0.0050688879514164007 0 -0.0033099273800114948 -0.005100328862490777 0 -0.0030815362657918254 -0.0050080885774138398 0 -0.0030128675132528771 -0.0051475611399695413 0 -0.0030128675132528771 -0.0051475611399695413 0 -0.0029466047264368337 -0.0051754472298676428 0 -0.0028826946403873429 -0.0050688879514164007 0 -0.0030128675132528771 -0.0051475611399695413 0 -0.0029387979824129769 -0.0051839215872593837 0 -0.0030157126441619029 -0.0051650326849789017 0 -0.0030128675132528771 -0.0051475611399695413 0 -0.0029466047264368337 -0.0051754472298676428 0 -0.0029387979824129769 -0.0051839215872593837 0 -0.0029387979824129769 -0.0051839215872593837 0 -0.0030157126441619029 -0.0051650326849789017 0 -0.0028322634763286759 -0.0051876058615744607 0 -0.0033099273800114948 -0.005100328862490777 0 -0.0030128675132528771 -0.0051475611399695413 0 -0.0030157126441619029 -0.0051650326849789017 0 -0.0029866840442572835 -0.0051493740783130756 0 -0.0028662548590570676 -0.0051767368900377305 0 -0.0028289153416745346 -0.0051843847009673252 0 -0.0029866840442572835 -0.0051493740783130756 0 -0.0030157126441619029 -0.0051650326849789017 0 -0.0028662548590570676 -0.0051767368900377305 0 -0.0030157126441619029 -0.0051650326849789017 0 -0.0028662548590570676 -0.0051767368900377305 0 -0.0028322634763286759 -0.0051876058615744607 0 -0.0028322634763286759 -0.0051876058615744607 0 -0.0026829451912672637 -0.0051816873162074204 0 -0.002708764370177078 -0.0052132733576930991 0 -0.0028662548590570676 -0.0051767368900377305 0 -0.0028322634763286759 -0.0051876058615744607 0 -0.002708764370177078 -0.0052132733576930991 0 -0.0029387979824129769 -0.0051839215872593837 0 -0.0028322634763286759 -0.0051876058615744607 0 -0.002838646210879221 -0.0051705048396848011 0 -0.0028322634763286759 -0.0051876058615744607 0 -0.0027602343197161302 -0.0051602842586940837 0 -0.002838646210879221 -0.0051705048396848011 0 -0.0028072600363338719 -0.0051192249200879454 0 -0.0028705324856720198 -0.0051694807290958581 0 -0.0027602343197161302 -0.0051602842586940837 0 -0.0027770380386034593 -0.0051178850293200117 0 -0.002838646210879221 -0.0051705048396848011 0 -0.0028322634763286759 -0.0051876058615744607 0 -0.0027602343197161302 -0.0051602842586940837 0 -0.0026829451912672637 -0.0051816873162074204 0 -0.0027602343197161302 -0.0051602842586940837 0 -0.0026829451912672637 -0.0051816873162074204 0 -0.0026671333124237682 -0.0051163574919146507 0 -0.0026829451912672637 -0.0051816873162074204 0 -0.0026671333124237682 -0.0051163574919146507 0 -0.0025607985653854745 -0.0051324706906595227 0 -0.0027602343197161302 -0.0051602842586940837 0 -0.0026671333124237682 -0.0051163574919146507 0 -0.0027770380386034593 -0.0051178850293200117 0 -0.0026671333124237682 -0.0051163574919146507 0 -0.0027770380386034593 -0.0051178850293200117 0 -0.0027335795462554457 -0.0049999675221758053 0 -0.0028405150387923028 -0.005131725208134031 0 -0.0027337429436254611 -0.005000015562752997 0 -0.0028943974165581018 -0.0050745805579537825 0 -0.0028072600363338719 -0.0051192249200879454 0 -0.0027336618186498489 -0.0050000185929034444 0 -0.0026671333124237682 -0.0051163574919146507 0 -0.0024674500008055327 -0.0049999590728297474 0 -0.0025607985653854745 -0.0051324706906595227 0 -0.0026671333124237682 -0.0051163574919146507 0 -0.0027335795462554457 -0.0049999675221758053 0 -0.0024674500008055327 -0.0049999590728297474 0 -0.0029823395618425292 -0.0049999804438397369 0 -0.0028943974165581018 -0.0050745805579537825 0 -0.0031537250708452377 -0.0051807898613277226 0 -0.0029823395618425292 -0.0049999804438397369 0 -0.0031537250708452377 -0.0051807898613277226 0 -0.0032311386435795743 -0.0050000033152195365 0 -0.0028923796575855924 -0.0050789325972632245 0 -0.0030719452105393854 -0.005145261673030037 0 -0.0027337429436254611 -0.005000015562752997 0 -0.0029823395618425292 -0.0049999804438397369 0 -0.0028943974165581018 -0.0050745805579537825 0 -0.0028405150387923028 -0.005131725208134031 0 -0.0028943974165581018 -0.0050745805579537825 0 -0.0029136881032634726 -0.0051382630389495672 0 -0.0028405150387923028 -0.005131725208134031 0 -0.0029136881032634726 -0.0051382630389495672 0 -0.00289470461324262 -0.0051650967332589302 0 -0.0029136881032634726 -0.0051382630389495672 0 -0.0029476322069254268 -0.0051448542409493073 0 -0.0029499276530078116 -0.0051177258860976536 0 -0.0028943974165581018 -0.0050745805579537825 0 -0.0029136881032634726 -0.0051382630389495672 0 -0.0029499276530078116 -0.0051177258860976536 0 -0.0029136881032634726 -0.0051382630389495672 0 -0.0029310880195109164 -0.0051670592776659552 0 -0.0029476322069254268 -0.0051448542409493073 0 -0.0029310880195109164 -0.0051670592776659552 0 -0.0029454237472391104 -0.0051615552936396716 0 -0.0029476322069254268 -0.0051448542409493073 0 -0.0029136881032634726 -0.0051382630389495672 0 -0.00289470461324262 -0.0051650967332589302 0 -0.0029310880195109164 -0.0051670592776659552 0 -0.0029225345456238339 -0.0051884190750053931 0 -0.0028705324856720198 -0.0051694807290958581 0 -0.0029387979824129769 -0.0051839215872593837 0 -0.00289470461324262 -0.0051650967332589302 0 -0.0029310880195109164 -0.0051670592776659552 0 -0.0029466047264368337 -0.0051754472298676428 0 -0.0029310880195109164 -0.0051670592776659552 0 -0.0029454237472391104 -0.0051615552936396716 0 -0.0029466047264368337 -0.0051754472298676428 0 -0.0029387979824129769 -0.0051839215872593837 0 -0.0029310880195109164 -0.0051670592776659552 0 -0.0029466047264368337 -0.0051754472298676428 0 -0.0029454237472391104 -0.0051615552936396716 0 -0.0029458780991923074 -0.0051605074753599935 0 -0.0029454237472391104 -0.0051615552936396716 0 -0.0029458780991923074 -0.0051605074753599935 0 -0.0029589471519438286 -0.0051488570687940405 0 -0.0029458780991923074 -0.0051605074753599935 0 -0.0029589471519438286 -0.0051488570687940405 0 -0.0029749299248153301 -0.0051592812021463257 0 -0.0029589471519438286 -0.0051488570687940405 0 -0.0029715463329586067 -0.0051280585176510197 0 -0.0029833889196143517 -0.0051418531510122366 0 -0.0029589471519438286 -0.0051488570687940405 0 -0.0029476322069254268 -0.0051448542409493073 0 -0.0029715463329586067 -0.0051280585176510197 0 -0.0029454237472391104 -0.0051615552936396716 0 -0.0029589471519438286 -0.0051488570687940405 0 -0.0029476322069254268 -0.0051448542409493073 0 -0.0029476322069254268 -0.0051448542409493073 0 -0.0029499276530078116 -0.0051177258860976536 0 -0.0029715463329586067 -0.0051280585176510197 0 -0.0030719452105393854 -0.005145261673030037 0 -0.003084316661976505 -0.0052413869297577393 0 -0.0031537250708452377 -0.0051807898613277226 0 -0.0034110598706260029 -0.005278822312424148 0 -0.003318649202830468 -0.0051226049925182484 0 -0.0034110598706260029 -0.005278822312424148 0 -0.003318649202830468 -0.0051226049925182484 0 -0.0034798725455521483 -0.0049999960517318736 0 -0.003318649202830468 -0.0051226049925182484 0 -0.0032311386435795743 -0.0050000033152195365 0 -0.0034798725455521483 -0.0049999960517318736 0 -0.0031537250708452377 -0.0051807898613277226 0 -0.003318649202830468 -0.0051226049925182484 0 -0.0032311386435795743 -0.0050000033152195365 0 -0.0037286242162279958 -0.0049999971866237728 0 -0.0034798725455521483 -0.0049999960517318736 0 -0.0036228529534824186 -0.0051682330029957898 0 -0.0037286242162279958 -0.0049999971866237728 0 -0.0036228529534824186 -0.0051682330029957898 0 -0.0038231026962680915 -0.0051874031338977993 0 -0.0034110598706260029 -0.005278822312424148 0 -0.0034798725455521483 -0.0049999960517318736 0 -0.0036228529534824186 -0.0051682330029957898 0 -0.0034110598706260029 -0.005278822312424148 0 -0.0036228529534824186 -0.0051682330029957898 0 -0.0036699114437932488 -0.0053747509447948337 0 -0.0039105755220441279 -0.0048532838238474259 0 -0.0041459172229799928 -0.0049995796447602336 0 -0.0036228529534824186 -0.0051682330029957898 0 -0.0036699114437932488 -0.0053747509447948337 0 -0.0038231026962680915 -0.0051874031338977993 0 -0.004700197417064911 -0.0045185169689518981 0 -0.0045624014072032006 -0.0044463603169320031 0 -0.0044680329635168967 -0.0045778366198224235 0 -0.0046367798107329935 -0.0044436660606505946 0 -0.0045624014072032006 -0.0044463603169320031 0 -0.0046141661954812391 -0.0042367219322093789 0 -0.0039105755220441279 -0.0048532838238474259 0 -0.0044615387182768322 -0.0047530401937194303 0 -0.003084316661976505 -0.0052413869297577393 0 -0.0039105755220441279 -0.0048532838238474259 0 -0.0029715463329586067 -0.0051280585176510197 0 -0.0030142089097409896 -0.0051332941290913653 0 -0.0029833889196143517 -0.0051418531510122366 0 -0.0030142089097409896 -0.0051332941290913653 0 -0.0029833889196143517 -0.0051418531510122366 0 -0.0029749299248153301 -0.0051592812021463257 0 -0.0039105755220441279 -0.0048532838238474259 0 -0.0038011462911578999 -0.0046319070320159873 0 -0.0029589471519438286 -0.0051488570687940405 0 -0.0029833889196143517 -0.0051418531510122366 0 -0.0029749299248153301 -0.0051592812021463257 0 -0.0046367798107329935 -0.0044436660606505946 0 -0.0046679631135186708 -0.004106918632965903 0 -0.0046141661954812391 -0.0042367219322093789 0 -0.0046679631135186708 -0.004106918632965903 0 -0.0046141661954812391 -0.0042367219322093789 0 -0.0045791350572207054 -0.004097788913744925 0 -0.0045624014072032006 -0.0044463603169320031 0 -0.0046141661954812391 -0.0042367219322093789 0 -0.0045369190348060091 -0.0042860112558858214 0 -0.0046141661954812391 -0.0042367219322093789 0 -0.0045791350572207054 -0.004097788913744925 0 -0.0045369190348060091 -0.0042860112558858214 0 -0.0046679631135186708 -0.004106918632965903 0 -0.0045791350572207054 -0.004097788913744925 0 -0.0045837472588532401 -0.0039317052782303196 0 -0.0045791350572207054 -0.004097788913744925 0 -0.0045837472588532401 -0.0039317052782303196 0 -0.0045830832925038431 -0.0039592859336769802 0 -0.0045837472588532401 -0.0039317052782303196 0 -0.0045982547006298965 -0.0039048344575339884 0 -0.0045830832925038431 -0.0039592859336769802 0 -0.0045837472588532401 -0.0039317052782303196 0 -0.0045575088593365924 -0.0038974338416846214 0 -0.0045250613849395086 -0.0038735261992213421 0 -0.0046679631135186708 -0.004106918632965903 0 -0.0045837472588532401 -0.0039317052782303196 0 -0.0045575088593365924 -0.0038974338416846214 0 -0.0038011462911578999 -0.0046319070320159873 0 -0.0037364529970978946 -0.0045290653741851478 0 -0.0029466047264368337 -0.0051754472298676428 0 -0.002921949219329101 -0.0051452789873517712 0 -0.0028826946403873429 -0.0050688879514164007 0 -0.0029458780991923074 -0.0051605074753599935 0 -0.0029749299248153301 -0.0051592812021463257 0 -0.002921949219329101 -0.0051452789873517712 0 -0.0029466047264368337 -0.0051754472298676428 0 -0.0029458780991923074 -0.0051605074753599935 0 -0.002921949219329101 -0.0051452789873517712 0 -0.0037364529970978946 -0.0045290653741851478 0 -0.003622382534507286 -0.0044357873332219024 0 -0.0045575088593365924 -0.0038974338416846214 0 -0.0043692122666843152 -0.0038107476205059827 0 -0.0044288024548697034 -0.0038364008564988304 0 -0.004145397671673972 -0.0037726164658587811 0 -0.0043692122666843152 -0.0038107476205059827 0 -0.0044288024548697034 -0.0038364008564988304 0 -0.0045575088593365924 -0.0038974338416846214 0 -0.0044288024548697034 -0.0038364008564988304 0 -0.0045250613849395086 -0.0038735261992213421 0 -0.00446027549586866 -0.0038582373162034424 0 -0.0045427378249073428 -0.0038761638324301844 0 -0.0045250613849395086 -0.0038735261992213421 0 -0.00446027549586866 -0.0038582373162034424 0 -0.0044288024548697034 -0.0038364008564988304 0 -0.0045250613849395086 -0.0038735261992213421 0 -0.0045427378249073428 -0.0038761638324301844 0 -0.0045615738018264665 -0.0038922814729901501 0 -0.0045250613849395086 -0.0038735261992213421 0 -0.0045837472588532401 -0.0039317052782303196 0 -0.0045615738018264665 -0.0038922814729901501 0 -0.0045982547006298965 -0.0039048344575339884 0 -0.0045427378249073428 -0.0038761638324301844 0 -0.0045615738018264665 -0.0038922814729901501 0 -0.0045982547006298965 -0.0039048344575339884 0 -0.0045837472588532401 -0.0039317052782303196 0 -0.0045615738018264665 -0.0038922814729901501 0 -0.0045250613849395086 -0.0038735261992213421 0 -0.0047722895580358119 -0.0039049988301476189 0 -0.004823648271430849 -0.0039118075755367005 0 -0.0046599991607637189 -0.0039032530924538946 0 -0.0047722895580358119 -0.0039049988301476189 0 -0.0045982547006298965 -0.0039048344575339884 0 -0.0046599991607637189 -0.0039032530924538946 0 -0.0046758265755157272 -0.0038826349590845898 0 -0.0046066623274332672 -0.0038916055691625671 0 -0.0045601045977834353 -0.0038826129483462237 0 -0.0045427378249073428 -0.0038761638324301844 0 -0.0045982547006298965 -0.0039048344575339884 0 -0.0048004640786755461 -0.0038968945634712125 0 -0.0047722895580358119 -0.0039049988301476189 0 -0.0045982547006298965 -0.0039048344575339884 0 -0.0048004640786755461 -0.0038968945634712125 0 -0.0047722895580358119 -0.0039049988301476189 0 -0.0048526348043902304 -0.0038589066384219022 0 -0.0047722895580358119 -0.0039049988301476189 0 -0.0048392459020790103 -0.0038768181094001914 0 -0.0048526348043902304 -0.0038589066384219022 0 -0.0048392459020790103 -0.0038768181094001914 0 -0.0048895230875639888 -0.0038239434160761004 0 -0.004841370614752977 -0.003872390442958307 0 -0.0048392459020790103 -0.0038768181094001914 0 -0.0048526348043902304 -0.0038589066384219022 0 -0.0048895230875639888 -0.0038239434160761004 0 -0.004841370614752977 -0.003872390442958307 0 -0.004803629763209979 -0.0039166007574873672 0 -0.0048589932097893489 -0.0038515563107548202 0 -0.004841370614752977 -0.003872390442958307 0 -0.004823648271430849 -0.0039118075755367005 0 -0.004803629763209979 -0.0039166007574873672 0 -0.0047722895580358119 -0.0039049988301476189 0 -0.0048392459020790103 -0.0038768181094001914 0 -0.004823648271430849 -0.0039118075755367005 0 -0.0048392459020790103 -0.0038768181094001914 0 -0.004841370614752977 -0.003872390442958307 0 -0.004823648271430849 -0.0039118075755367005 0 -0.004823648271430849 -0.0039118075755367005 0 -0.0048343620307157035 -0.0039662181344295938 0 -0.0047969005715149766 -0.0039853306359596439 0 -0.004803629763209979 -0.0039166007574873672 0 -0.0047969005715149766 -0.0039853306359596439 0 -0.0047362473046375529 -0.0039648654964939325 0 -0.004823648271430849 -0.0039118075755367005 0 -0.004803629763209979 -0.0039166007574873672 0 -0.0047969005715149766 -0.0039853306359596439 0 -0.0047969005715149766 -0.0039853306359596439 0 -0.0047175247923973871 -0.0041218851783093808 0 -0.0047362473046375529 -0.0039648654964939325 0 -0.0047969005715149766 -0.0039853306359596439 0 -0.0047175247923973871 -0.0041218851783093808 0 -0.0048080304428654592 -0.0041349851306438871 0 -0.0048343620307157035 -0.0039662181344295938 0 -0.0048080304428654592 -0.0041349851306438871 0 -0.0049221874506507829 -0.0040638081473654206 0 -0.0048343620307157035 -0.0039662181344295938 0 -0.0047969005715149766 -0.0039853306359596439 0 -0.0048080304428654592 -0.0041349851306438871 0 -0.0048343620307157035 -0.0039662181344295938 0 -0.0049221874506507829 -0.0040638081473654206 0 -0.0046599991607637189 -0.0039032530924538946 0 -0.004823648271430849 -0.0039118075755367005 0 -0.0048343620307157035 -0.0039662181344295938 0 -0.0046599991607637189 -0.0039032530924538946 0 -0.0046026512859856988 -0.0041221490247044445 0 -0.0046495818161396063 -0.0039372091005272615 0 -0.0042938296541142115 -0.0041359154183909499 0 -0.0046599991607637189 -0.0039032530924538946 0 -0.0045830832925038431 -0.0039592859336769802 0 -0.0045982547006298965 -0.0039048344575339884 0 -0.0046599991607637189 -0.0039032530924538946 0 -0.0045830832925038431 -0.0039592859336769802 0 -0.0045791350572207054 -0.004097788913744925 0 -0.0042938296541142115 -0.0041359154183909499 0 -0.0045830832925038431 -0.0039592859336769802 0 -0.0045791350572207054 -0.004097788913744925 0 -0.0045369190348060091 -0.0042860112558858214 0 -0.0043955292347385442 -0.0043459250704719656 0 -0.0045791350572207054 -0.004097788913744925 0 -0.0042938296541142115 -0.0041359154183909499 0 -0.0043955292347385442 -0.0043459250704719656 0 -0.0045369190348060091 -0.0042860112558858214 0 -0.0043955292347385442 -0.0043459250704719656 0 -0.0044276473689251455 -0.0044742931201657401 0 -0.0042938296541142115 -0.0041359154183909499 0 -0.0043955292347385442 -0.0043459250704719656 0 -0.0041163489051047842 -0.0046090400192652613 0 -0.0043086587613281602 -0.0046154199898927632 0 -0.0041794164031687155 -0.0048423196714451932 0 -0.0041163489051047842 -0.0046090400192652613 0 -0.0043955292347385442 -0.0043459250704719656 0 -0.0043086587613281602 -0.0046154199898927632 0 -0.0041163489051047842 -0.0046090400192652613 0 -0.0043955292347385442 -0.0043459250704719656 0 -0.0043086587613281602 -0.0046154199898927632 0 -0.0044276473689251455 -0.0044742931201657401 0 -0.0045624014072032006 -0.0044463603169320031 0 -0.0044276473689251455 -0.0044742931201657401 0 -0.0044680329635168967 -0.0045778366198224235 0 -0.0045624014072032006 -0.0044463603169320031 0 -0.0045369190348060091 -0.0042860112558858214 0 -0.0044276473689251455 -0.0044742931201657401 0 -0.0043086587613281602 -0.0046154199898927632 0 -0.0044276473689251455 -0.0044742931201657401 0 -0.0044680329635168967 -0.0045778366198224235 0 -0.0043086587613281602 -0.0046154199898927632 0 -0.0044680329635168967 -0.0045778366198224235 0 -0.004402076251947459 -0.0048370622156136758 0 -0.004700197417064911 -0.0045185169689518981 0 -0.0044680329635168967 -0.0045778366198224235 0 -0.004402076251947459 -0.0048370622156136758 0 -0.0043086587613281602 -0.0046154199898927632 0 -0.004402076251947459 -0.0048370622156136758 0 -0.0041794164031687155 -0.0048423196714451932 0 -0.004402076251947459 -0.0048370622156136758 0 -0.0041794164031687155 -0.0048423196714451932 0 -0.0039785821599845079 -0.0049996001911341691 0 -0.0041459172229799928 -0.0049995796447602336 0 -0.0039774182647267613 -0.0050000003629289257 0 -0.0037286242162279958 -0.0049999971866237728 0 -0.0038231026962680915 -0.0051874031338977993 0 -0.003977365561304705 -0.0049999986269182849 0 -0.0039785821599845079 -0.0049996001911341691 0 -0.0043662206295043311 -0.0049015181516128149 0 -0.0045685341055265449 -0.0049996520364411273 0 -0.0041794164031687155 -0.0048423196714451932 0 -0.0039785821599845079 -0.0049996001911341691 0 -0.0043662206295043311 -0.0049015181516128149 0 -0.0041794164031687155 -0.0048423196714451932 0 -0.0043662206295043311 -0.0049015181516128149 0 -0.0041163489051047842 -0.0046090400192652613 0 -0.00438568921878244 -0.0048512069810413994 0 -0.0044954650792144221 -0.004541781871792501 0 -0.0043662206295043311 -0.0049015181516128149 0 -0.0045866937060152681 -0.0046598716378553418 0 -0.0045192031338638352 -0.004825527266819612 0 -0.0045866937060152681 -0.0046598716378553418 0 -0.0048729179651844619 -0.0045027430454742095 0 -0.004689881070991153 -0.0043666722081175851 0 -0.0043662206295043311 -0.0049015181516128149 0 -0.0045866937060152681 -0.0046598716378553418 0 -0.0048729179651844619 -0.0045027430454742095 0 -0.0045866937060152681 -0.0046598716378553418 0 -0.004689881070991153 -0.0043666722081175851 0 -0.0046156193699730423 -0.0044740283377800926 0 -0.0046026512859856988 -0.0041221490247044445 0 -0.0044954650792144221 -0.004541781871792501 0 -0.0048080304428654592 -0.0041349851306438871 0 -0.0049221874506507829 -0.0040638081473654206 0 -0.0048729179651844619 -0.0045027430454742095 0 -0.0048080304428654592 -0.0041349851306438871 0 -0.0048729179651844619 -0.0045027430454742095 0 -0.004689881070991153 -0.0043666722081175851 0 -0.0047175247923973871 -0.0041218851783093808 0 -0.0048080304428654592 -0.0041349851306438871 0 -0.004689881070991153 -0.0043666722081175851 0 -0.0047175247923973871 -0.0041218851783093808 0 -0.004689881070991153 -0.0043666722081175851 0 -0.0046300379568054457 -0.0042705494922955049 0 -0.0046300379568054457 -0.0042705494922955049 0 -0.0044693312121271778 -0.0043069362656534601 0 -0.0046193033606300145 -0.0040798616727598207 0 -0.0046300379568054457 -0.0042705494922955049 0 -0.0046156193699730423 -0.0044740283377800926 0 -0.0044693312121271778 -0.0043069362656534601 0 -0.004689881070991153 -0.0043666722081175851 0 -0.0046300379568054457 -0.0042705494922955049 0 -0.0046156193699730423 -0.0044740283377800926 0 -0.0049941881603499313 -0.0045758096775426645 0 -0.0048990292436780318 -0.0046358016748796757 0 -0.0050032544261224146 -0.0045358181380464706 0 -0.0048990292436780318 -0.0046358016748796757 0 -0.0046132920735059016 -0.0046973254391555093 0 -0.0049385931781246294 -0.0045721220693124807 0 -0.0049941881603499313 -0.0045758096775426645 0 -0.0048990292436780318 -0.0046358016748796757 0 -0.0046132920735059016 -0.0046973254391555093 0 -0.0046156193699730423 -0.0044740283377800926 0 -0.0044693312121271778 -0.0043069362656534601 0 -0.0046132920735059016 -0.0046973254391555093 0 -0.0047081040760208982 -0.0044418412289390051 0 -0.0046426906807603245 -0.0046459337153372379 0 -0.0045866937060152681 -0.0046598716378553418 0 -0.0046156193699730423 -0.0044740283377800926 0 -0.0046132920735059016 -0.0046973254391555093 0 -0.0045866937060152681 -0.0046598716378553418 0 -0.0046132920735059016 -0.0046973254391555093 0 -0.0045192031338638352 -0.004825527266819612 0 -0.0045192031338638352 -0.004825527266819612 0 -0.0045685341055265449 -0.0049996520364411273 0 -0.0047252934010707159 -0.0050171142694511346 0 -0.0045663693207054178 -0.0048207057799189287 0 -0.0048186161749575905 -0.004794763242815853 0 -0.0046132920735059016 -0.0046973254391555093 0 -0.0045192031338638352 -0.004825527266819612 0 -0.0049385931781246294 -0.0045721220693124807 0 -0.0043662206295043311 -0.0049015181516128149 0 -0.0045192031338638352 -0.004825527266819612 0 -0.0045685341055265449 -0.0049996520364411273 0 -0.0045685341055265449 -0.0049996520364411273 0 -0.0049999771138826178 -0.0049996899244475557 0 -0.0048438540100226475 -0.0049598703586276405 0 -0.0049999771138826178 -0.0049996899244475557 0 -0.0048438540100226475 -0.0049598703586276405 0 -0.0049997502223785035 -0.004756041376024249 0 -0.0045685341055265449 -0.0049996520364411273 0 -0.0048438540100226475 -0.0049598703586276405 0 -0.0047252934010707159 -0.0050171142694511346 0 -0.0048438540100226475 -0.0049598703586276405 0 -0.0047252934010707159 -0.0050171142694511346 0 -0.0049997502223785035 -0.004756041376024249 0 -0.0049385931781246294 -0.0045721220693124807 0 -0.0049999743788674209 -0.0047548638668724174 0 -0.0050062697703507318 -0.0045900636665168679 0 -0.0048186161749575905 -0.004794763242815853 0 -0.0049998814523314564 -0.0047553036775840121 0 -0.0049999743788674209 -0.0047548638668724174 0 -0.0050062697703507318 -0.0045900636665168679 0 -0.0049998661144838759 -0.0044823456157638084 0 -0.0048990292436780318 -0.0046358016748796757 0 -0.0049385931781246294 -0.0045721220693124807 0 -0.0050062697703507318 -0.0045900636665168679 0 -0.0048990292436780318 -0.0046358016748796757 0 -0.0050062697703507318 -0.0045900636665168679 0 -0.0050032544261224146 -0.0045358181380464706 0 -0.0050062697703507318 -0.0045900636665168679 0 -0.0050032544261224146 -0.0045358181380464706 0 -0.0050273205086754239 -0.0044428946792090208 0 -0.0050062697703507318 -0.0045900636665168679 0 -0.0049998661144838759 -0.0044823456157638084 0 -0.0050273205086754239 -0.0044428946792090208 0 -0.0049998992134387297 -0.0042091511348702829 0 -0.0050560582912246299 -0.004283034342652303 0 -0.0050273205086754239 -0.0044428946792090208 0 -0.0049998661144838759 -0.0044823456157638084 0 -0.0049998992134387297 -0.0042091511348702829 0 -0.0050273205086754239 -0.0044428946792090208 0 -0.0049998992134387297 -0.0042091511348702829 0 -0.0050841021893197041 -0.0041449244774907938 0 -0.0050560582912246299 -0.004283034342652303 0 -0.0049998992134387297 -0.0042091511348702829 0 -0.0050841021893197041 -0.0041449244774907938 0 -0.0049999967541057176 -0.0039360129935896706 0 -0.004951151135340206 -0.003841361156859104 0 -0.0049403312934726239 -0.0038363181273798393 0 -0.0049293099552273154 -0.0038419947398436456 0 -0.0048083318982542478 -0.0040281021580674111 0 -0.0049171466011113385 -0.0038085636504284022 0 -0.0050841021893197041 -0.0041449244774907938 0 -0.0050560582912246299 -0.004283034342652303 0 -0.0051113937294120998 -0.0043374310480133182 0 -0.0050432194955772796 -0.0040095751677204838 0 -0.0048083318982542478 -0.0040281021580674111 0 -0.0050560582912246299 -0.004283034342652303 0 -0.0050273205086754239 -0.0044428946792090208 0 -0.0051113937294120998 -0.0043374310480133182 0 -0.0050032544261224146 -0.0045358181380464706 0 -0.0050273205086754239 -0.0044428946792090208 0 -0.0051113937294120998 -0.0043374310480133182 0 -0.0049941881603499313 -0.0045758096775426645 0 -0.0050032544261224146 -0.0045358181380464706 0 -0.0051113937294120998 -0.0043374310480133182 0 -0.0044693312121271778 -0.0043069362656534601 0 -0.0046193033606300145 -0.0040798616727598207 0 -0.0043482640527567271 -0.00386141561789308 0 -0.0047081040760208982 -0.0044418412289390051 0 -0.0048083318982542478 -0.0040281021580674111 0 -0.0045541070473198147 -0.0039955887933763564 0 -0.0048083318982542478 -0.0040281021580674111 0 -0.0046193033606300145 -0.0040798616727598207 0 -0.0047362473046375529 -0.0039648654964939325 0 -0.0047184170305861863 -0.0039482068453424663 0 -0.0047175247923973871 -0.0041218851783093808 0 -0.0046300379568054457 -0.0042705494922955049 0 -0.0046193033606300145 -0.0040798616727598207 0 -0.0047175247923973871 -0.0041218851783093808 0 -0.0046193033606300145 -0.0040798616727598207 0 -0.0047362473046375529 -0.0039648654964939325 0 -0.004803629763209979 -0.0039166007574873672 0 -0.0047362473046375529 -0.0039648654964939325 0 -0.0048069846143067316 -0.0038915540509464799 0 -0.0047362473046375529 -0.0039648654964939325 0 -0.0047184170305861863 -0.0039482068453424663 0 -0.0048069846143067316 -0.0038915540509464799 0 -0.0047184170305861863 -0.0039482068453424663 0 -0.0048363122237176301 -0.003877650152921245 0 -0.0048069846143067316 -0.0038915540509464799 0 -0.0047184170305861863 -0.0039482068453424663 0 -0.0048363122237176301 -0.003877650152921245 0 -0.0049293099552273154 -0.0038419947398436456 0 -0.0048363122237176301 -0.003877650152921245 0 -0.0048069846143067316 -0.0038915540509464799 0 -0.0048921900880943862 -0.0038395789965737677 0 -0.0048363122237176301 -0.003877650152921245 0 -0.0048921900880943862 -0.0038395789965737677 0 -0.0049293099552273154 -0.0038419947398436456 0 -0.004803629763209979 -0.0039166007574873672 0 -0.0048589932097893489 -0.0038515563107548202 0 -0.0048069846143067316 -0.0038915540509464799 0 -0.0048589932097893489 -0.0038515563107548202 0 -0.0048069846143067316 -0.0038915540509464799 0 -0.0048921900880943862 -0.0038395789965737677 0 -0.0048895230875639888 -0.0038239434160761004 0 -0.0048589932097893489 -0.0038515563107548202 0 -0.004946638075879509 -0.0037909849264159078 0 -0.0048895230875639888 -0.0038239434160761004 0 -0.004841370614752977 -0.003872390442958307 0 -0.0048589932097893489 -0.0038515563107548202 0 -0.0048589932097893489 -0.0038515563107548202 0 -0.0048921900880943862 -0.0038395789965737677 0 -0.004946638075879509 -0.0037909849264159078 0 -0.0048921900880943862 -0.0038395789965737677 0 -0.004946638075879509 -0.0037909849264159078 0 -0.0049558252283834385 -0.0038186309672282388 0 -0.0050104302623837785 -0.0037456406771440593 0 -0.004946638075879509 -0.0037909849264159078 0 -0.0049558252283834385 -0.0038186309672282388 0 -0.0048921900880943862 -0.0038395789965737677 0 -0.0049558252283834385 -0.0038186309672282388 0 -0.0049293099552273154 -0.0038419947398436456 0 -0.0049558252283834385 -0.0038186309672282388 0 -0.004995617638386237 -0.0038437628403443476 0 -0.0049293099552273154 -0.0038419947398436456 0 -0.0050104302623837785 -0.0037456406771440593 0 -0.0049558252283834385 -0.0038186309672282388 0 -0.004995617638386237 -0.0038437628403443476 0 -0.0049999084789265954 -0.0036874732835667444 0 -0.004995617638386237 -0.0038437628403443476 0 -0.0049998939665822214 -0.0039355118137757612 0 -0.004951151135340206 -0.003841361156859104 0 -0.004995617638386237 -0.0038437628403443476 0 -0.0049998939665822214 -0.0039355118137757612 0 -0.0050432194955772796 -0.0040095751677204838 0 -0.0049999372202112879 -0.0039358880615349024 0 -0.004951151135340206 -0.003841361156859104 0 -0.004995617638386237 -0.0038437628403443476 0 -0.0049293099552273154 -0.0038419947398436456 0 -0.001782633541900755 -0.0032594418788412017 0 -0.0017902295369710353 -0.0032352483791216941 0 -0.0017250768184803044 -0.003234641595828573 0 -0.001782633541900755 -0.0032594418788412017 0 -0.0017323214173881028 -0.0032941548432747938 0 -0.0017250768184803044 -0.003234641595828573 0 -0.0017323214173881028 -0.0032941548432747938 0 -0.0017250768184803044 -0.003234641595828573 0 -0.0016234502999840459 -0.003267268298191052 0 -0.0017323214173881028 -0.0032941548432747938 0 -0.001669836600922284 -0.0033263051921473201 0 -0.001731879562564573 -0.0033472849306804518 0 -0.0020153927624854983 -0.0032505058973710498 0 -0.0006862144336617043 -0.0030683681998798481 0 -0.0017323214173881028 -0.0032941548432747938 0 -0.0017664204629040357 -0.0033279150097423253 0 -0.001731879562564573 -0.0033472849306804518 0 -0.0017323214173881028 -0.0032941548432747938 0 -0.0017891904323046092 -0.0032914852501635464 0 -0.0017664204629040357 -0.0033279150097423253 0 -0.001782633541900755 -0.0032594418788412017 0 -0.0017891904323046092 -0.0032914852501635464 0 -0.0018198260140609636 -0.0032620370035505775 0 -0.001782633541900755 -0.0032594418788412017 0 -0.0017323214173881028 -0.0032941548432747938 0 -0.0017891904323046092 -0.0032914852501635464 0 -0.0017891904323046092 -0.0032914852501635464 0 -0.0017664204629040357 -0.0033279150097423253 0 -0.0018032667214087821 -0.0033498710119450217 0 -0.0018993377082626426 -0.0032563324612169824 0 -0.0019197268585261673 -0.0032681360017648739 0 -0.0017891904323046092 -0.0032914852501635464 0 -0.0018831722838903641 -0.0032587322929065752 0 -0.0018032667214087821 -0.0033498710119450217 0 -0.0020780476341327719 -0.0031986728187296514 0 -0.0020532985083290939 -0.0031964133552494002 0 -0.0020333541085399763 -0.0031999910223003388 0 -0.0018831722838903641 -0.0032587322929065752 0 -0.0018196170653181193 -0.0032720117628216769 0 -0.0020333541085399763 -0.0031999910223003388 0 -0.0019501058964808984 -0.0032758873858691282 0 -0.0020215163424366568 -0.003192301438978736 0 -0.0017891904323046092 -0.0032914852501635464 0 -0.0018831722838903641 -0.0032587322929065752 0 -0.0018198260140609636 -0.0032620370035505775 0 -0.0020629066154743136 -0.0031957786502151068 0 -0.0020780476341327719 -0.0031986728187296514 0 -0.0020532985083290939 -0.0031964133552494002 0 -0.0020629066154743136 -0.0031957786502151068 0 -0.0020696021276506021 -0.0031980075140751836 0 -0.0020627037094441865 -0.0031920172517593292 0 -0.0020696021276506021 -0.0031980075140751836 0 -0.0020780476341327719 -0.0031986728187296514 0 -0.0020724389850319525 -0.0032051017117727442 0 -0.0020629066154743136 -0.0031957786502151068 0 -0.0020696021276506021 -0.0031980075140751836 0 -0.0020780476341327719 -0.0031986728187296514 0 -0.0020780476341327719 -0.0031986728187296514 0 -0.0020767115867827719 -0.0032235371191197499 0 -0.0020957193240373449 -0.0032656117086850107 0 -0.0020780476341327719 -0.0031986728187296514 0 -0.0020767115867827719 -0.0032235371191197499 0 -0.0020724389850319525 -0.0032051017117727442 0 -0.0018196170653181193 -0.0032720117628216769 0 -0.0018242473315608976 -0.0032551803617277518 0 -0.0018202986727947734 -0.0032373250681996505 0 -0.001782633541900755 -0.0032594418788412017 0 -0.0018198260140609636 -0.0032620370035505775 0 -0.0018242473315608976 -0.0032551803617277518 0 -0.0018831722838903641 -0.0032587322929065752 0 -0.0018198260140609636 -0.0032620370035505775 0 -0.0018242473315608976 -0.0032551803617277518 0 -0.0018831722838903641 -0.0032587322929065752 0 -0.0018196170653181193 -0.0032720117628216769 0 -0.0018242473315608976 -0.0032551803617277518 0 -0.001782633541900755 -0.0032594418788412017 0 -0.0018242473315608976 -0.0032551803617277518 0 -0.0017902295369710353 -0.0032352483791216941 0 -0.0018242473315608976 -0.0032551803617277518 0 -0.0017902295369710353 -0.0032352483791216941 0 -0.0018202986727947734 -0.0032373250681996505 0 -0.0017902295369710353 -0.0032352483791216941 0 -0.0018202986727947734 -0.0032373250681996505 0 -0.0018018603549205538 -0.0032121148397648664 0 -0.0018202986727947734 -0.0032373250681996505 0 -0.001828802667301952 -0.0032143164348482746 0 -0.0018018603549205538 -0.0032121148397648664 0 -0.0018196170653181193 -0.0032720117628216769 0 -0.0018202986727947734 -0.0032373250681996505 0 -0.0018499735545943398 -0.003223735353571578 0 -0.0019501058964808984 -0.0032758873858691282 0 -0.0019568257873663316 -0.0030842530113698707 0 -0.0018202986727947734 -0.0032373250681996505 0 -0.001828802667301952 -0.0032143164348482746 0 -0.0018499735545943398 -0.003223735353571578 0 -0.001828802667301952 -0.0032143164348482746 0 -0.0018018603549205538 -0.0032121148397648664 0 -0.0018316617179154409 -0.0031961518071450031 0 -0.001828802667301952 -0.0032143164348482746 0 -0.0018499735545943398 -0.003223735353571578 0 -0.0018316617179154409 -0.0031961518071450031 0 -0.0018018603549205538 -0.0032121148397648664 0 -0.0017736587619646858 -0.0031817115627527327 0 -0.0018316617179154409 -0.0031961518071450031 0 -0.0017902295369710353 -0.0032352483791216941 0 -0.0018018603549205538 -0.0032121148397648664 0 -0.0017736587619646858 -0.0031817115627527327 0 -0.0017902295369710353 -0.0032352483791216941 0 -0.0017736587619646858 -0.0031817115627527327 0 -0.0017250768184803044 -0.003234641595828573 0 -0.0013385425929166859 -0.0047784070901932853 0 -0.0010552662947753289 -0.0048519241212320145 0 -0.0011740959036820871 -0.0047268372662255297 0 -0.0017736587619646858 -0.0031817115627527327 0 -0.0017250768184803044 -0.003234641595828573 0 -0.0016831758491104363 -0.003180461920421727 0 -0.0010552662947753289 -0.0048519241212320145 0 -0.0011740959036820871 -0.0047268372662255297 0 -0.00099894740747481781 -0.0046886294473237082 0 -0.0015232698477846713 -0.0039916120575558016 0 -0.0015605908366001012 -0.0040221532214714511 0 -0.0010552662947753289 -0.0048519241212320145 0 -0.0008716681348335183 -0.0048166089820694934 0 -0.00074312336421418761 -0.0049277422280736604 0 -0.0015605908366001012 -0.0040221532214714511 0 -0.00025444276316775345 -0.0038626493525943692 0 -0.0010552662947753289 -0.0048519241212320145 0 -0.0008716681348335183 -0.0048166089820694934 0 -0.00099894740747481781 -0.0046886294473237082 0 -0.0008716681348335183 -0.0048166089820694934 0 -0.00068329129427515106 -0.0048008710989404409 0 -0.00074312336421418761 -0.0049277422280736604 0 -0.0008716681348335183 -0.0048166089820694934 0 -0.00068329129427515106 -0.0048008710989404409 0 -0.00099894740747481781 -0.0046886294473237082 0 -0.00033378007267263304 -0.0052321816067757857 0 -0.00082322011133837553 -0.0053290981394054264 0 -0.00033378007267263304 -0.0052321816067757857 0 -0.00025444276316775345 -0.0038626493525943692 0 0.0004509920404314061 -0.0028145647514613284 0 0.00048257041015089451 -0.0028587317231431051 0 0.0004221171449784714 -0.0028702998024335664 0 -0.00025444276316775345 -0.0038626493525943692 0 -0.00060581964373763032 -0.0029243512155972028 0 -0.0017250768184803044 -0.003234641595828573 0 -0.0016831758491104363 -0.003180461920421727 0 -0.0016234502999840459 -0.003267268298191052 0 -0.0016831758491104363 -0.003180461920421727 0 -0.0015784440262500473 -0.0031990069255215794 0 -0.0016234502999840459 -0.003267268298191052 0 0.00065538479366482251 -0.0050893079723330261 0 0.00059611042580046277 -0.0050859786706281421 0 0.00062876354268351213 -0.0051445041707939834 0 0.00065538479366482251 -0.0050893079723330261 0 0.00059611042580046277 -0.0050859786706281421 0 0.00062163099413582387 -0.0050494320425151186 0 0.0005399164419824464 -0.0050781522253522116 0 0.00051692623650867302 -0.0051126495479114336 0 0.00059611042580046277 -0.0050859786706281421 0 0.0005399164419824464 -0.0050781522253522116 0 0.00059611042580046277 -0.0050859786706281421 0 0.000567933084517829 -0.0050366418423042712 0 0.0004509920404314061 -0.0028145647514613284 0 0.00053958413163161952 -0.002827439236893806 0 0.00048257041015089451 -0.0028587317231431051 0 0.00051692623650867302 -0.0051126495479114336 0 0.00059611042580046277 -0.0050859786706281421 0 0.00062876354268351213 -0.0051445041707939834 0 -0.00025444276316775345 -0.0038626493525943692 0 0.00067136420328638645 -0.0041332219108140182 0 0.00053958413163161952 -0.002827439236893806 0 0.00052520304216793323 -0.0028840556375218634 0 0.00058287887826038119 -0.0028905749395765675 0 0.00053958413163161952 -0.002827439236893806 0 0.00048257041015089451 -0.0028587317231431051 0 0.00052520304216793323 -0.0028840556375218634 0 0.00048257041015089451 -0.0028587317231431051 0 0.00048124849266205686 -0.0029049933670850523 0 0.00052520304216793323 -0.0028840556375218634 0 0.00048124849266205686 -0.0029049933670850523 0 0.00052520304216793323 -0.0028840556375218634 0 0.00054002444996320781 -0.0029359224794242001 0 0.0011365347732416775 -0.002253677753150819 0 0.0011826038743622234 -0.0020533180856051108 0 0.00052520304216793323 -0.0028840556375218634 0 0.00054002444996320781 -0.0029359224794242001 0 0.00058287887826038119 -0.0028905749395765675 0 0.00048257041015089451 -0.0028587317231431051 0 0.00048124849266205686 -0.0029049933670850523 0 0.0004221171449784714 -0.0028702998024335664 0 0.00048124849266205686 -0.0029049933670850523 0 0.0004221171449784714 -0.0028702998024335664 0 0.00038929453703854893 -0.0029300623399826243 0 -0.00060581964373763032 -0.0029243512155972028 0 -0.0006862144336617043 -0.0030683681998798481 0 -0.0017323214173881028 -0.0032941548432747938 0 -0.0016234502999840459 -0.003267268298191052 0 -0.0016584752726464811 -0.0033391040481881291 0 0.00017102914491370474 -0.0024671752962989956 0 9.4324452975170462e-05 -0.0024045414648499915 0 0.00021593800664669211 -0.0023718143940108932 0 -0.0006862144336617043 -0.0030683681998798481 0 0.00035117683534077228 -0.0027399408131125831 0 0.00048124849266205686 -0.0029049933670850523 0 0.00038929453703854893 -0.0029300623399826243 0 0.00044603837611528226 -0.0029581055883012089 0 9.4324452975170462e-05 -0.0024045414648499915 0 1.7982201597706483e-05 -0.0023427645584857336 0 0.00011663072733151493 -0.0023184819662543763 0 0.00035117683534077228 -0.0027399408131125831 0 0.00083090092619246526 -0.0019578861840132428 0 0.0001788649368719987 -0.0022823630690089422 0 0.00011663072733151493 -0.0023184819662543763 0 0.00021593800664669211 -0.0023718143940108932 0 9.4324452975170462e-05 -0.0024045414648499915 0 0.00011663072733151493 -0.0023184819662543763 0 0.00021593800664669211 -0.0023718143940108932 0 0.00048124849266205686 -0.0029049933670850523 0 0.00044603837611528226 -0.0029581055883012089 0 0.00049293343840217435 -0.0029444170808926168 0 0.00054002444996320781 -0.0029359224794242001 0 0.00049293343840217435 -0.0029444170808926168 0 0.0005003197633982353 -0.0029813829353530774 0 0.00048124849266205686 -0.0029049933670850523 0 0.00054002444996320781 -0.0029359224794242001 0 0.00049293343840217435 -0.0029444170808926168 0 0.00044603837611528226 -0.0029581055883012089 0 0.00049293343840217435 -0.0029444170808926168 0 0.0005003197633982353 -0.0029813829353530774 0 0.0011365347732416775 -0.002253677753150819 0 0.00083090092619246526 -0.0019578861840132428 0 0.0017420823625243162 -0.0014129835645559231 0 0.0017004277403357552 -0.0014162496383594582 0 0.0016980955957903458 -0.0013661979634188466 0 0.0017117966756558496 -0.0014659967353678192 0 0.0017004277403357552 -0.0014162496383594582 0 0.0016563993745557092 -0.0014205898163672122 0 0.0017117966756558496 -0.0014659967353678192 0 0.0017420823625243162 -0.0014129835645559231 0 0.0017004277403357552 -0.0014162496383594582 0 0.0011314587837143886 -0.0012622090980640797 0 0.0011161833559034716 -0.0012409794841166011 0 0.0011297343720299024 -0.0012278167776426227 0 0.00083090092619246526 -0.0019578861840132428 0 0.0014844371095351575 -0.0012485933619024862 0 0.00083090092619246526 -0.0019578861840132428 0 0.00058044025581087627 -0.0017321320203103538 0 0.0011314587837143886 -0.0012622090980640797 0 0.0011297343720299024 -0.0012278167776426227 0 0.0011457302218744606 -0.0012401348591995433 0 0.001143807855386136 -0.0012185178609368898 0 0.0011297343720299024 -0.0012278167776426227 0 0.0011457302218744606 -0.0012401348591995433 0 0.0011161833559034716 -0.0012409794841166011 0 0.0011297343720299024 -0.0012278167776426227 0 0.0011135496145957258 -0.0012203394993427971 0 0.0011225946937339787 -0.0012102614402035991 0 0.0011297343720299024 -0.0012278167776426227 0 0.0011135496145957258 -0.0012203394993427971 0 0.00014553767660544734 -0.0022427143477327526 0 0.0001788649368719987 -0.0022823630690089422 0 0.00011663072733151493 -0.0023184819662543763 0 0.0001788649368719987 -0.0022823630690089422 0 0.00018674376812597763 -0.0022280718684779799 0 0.00021873560668595826 -0.0022689852352598405 0 0.00014553767660544734 -0.0022427143477327526 0 0.0001788649368719987 -0.0022823630690089422 0 0.00018674376812597763 -0.0022280718684779799 0 1.7982201597706483e-05 -0.0023427645584857336 0 0.00011663072733151493 -0.0023184819662543763 0 8.5939888706455206e-05 -0.00224115509006141 0 0.00014553767660544734 -0.0022427143477327526 0 0.00011663072733151493 -0.0023184819662543763 0 8.5939888706455206e-05 -0.00224115509006141 0 0.00067574911221035365 -0.0016384290716522823 0 0.00058044025581087627 -0.0017321320203103538 0 0.0011589931886626327 -0.0012206885845285184 0 0.001143807855386136 -0.0012185178609368898 0 0.0011457302218744606 -0.0012401348591995433 0 0.00016146063487723091 -0.0021343982830529101 0 0.00014553767660544734 -0.0022427143477327526 0 0.00018674376812597763 -0.0022280718684779799 0 0.00016146063487723091 -0.0021343982830529101 0 0.00018674376812597763 -0.0022280718684779799 0 0.00023086200057367742 -0.0022152268383688624 0 0.00016146063487723091 -0.0021343982830529101 0 0.00014553767660544734 -0.0022427143477327526 0 8.5939888706455206e-05 -0.00224115509006141 0 0.00067574911221035365 -0.0016384290716522823 0 0.00014599769759986335 -0.0022827634085445746 0 -0.00013709068576208062 -0.0022363233282127796 0 -0.0010576751898776363 -0.0027826781812428946 0 0.00015320346796925653 -0.0021125331578287186 0 0.00022304052156748875 -0.0021802980122264913 0 0.00023086200057367742 -0.0022152268383688624 0 0.00022304052156748875 -0.0021802980122264913 0 0.00023086200057367742 -0.0022152268383688624 0 0.00026344684352914435 -0.0022753591128739422 0 -0.00041007523388232175 -0.0022063163251371024 0 -0.00052590888539760902 -0.0022616357443282064 0 -0.00047881011871405083 -0.0023590639062486766 0 0.00018674376812597763 -0.0022280718684779799 0 0.00023086200057367742 -0.0022152268383688624 0 0.00021873560668595826 -0.0022689852352598405 0 -0.0013079913288032775 -0.0026185798942817708 0 -0.0010576751898776363 -0.0027826781812428946 0 -0.0021307576194992358 -0.0030239766613819048 0 -0.0021446988877733787 -0.0031281608118412367 0 -0.0020739870704781171 -0.0031340594777355662 0 -0.0021446988877733787 -0.0031281608118412367 0 -0.0021002878584359466 -0.003176831575969861 0 -0.0020739870704781171 -0.0031340594777355662 0 -0.0010576751898776363 -0.0027826781812428946 0 -0.0019752336479850223 -0.0033043222386306636 0 0.0001788649368719987 -0.0022823630690089422 0 0.00021873560668595826 -0.0022689852352598405 0 0.00021593800664669211 -0.0023718143940108932 0 -0.0010576751898776363 -0.0027826781812428946 0 -0.00071184503754523408 -0.0028438351962542067 0 0.00021873560668595826 -0.0022689852352598405 0 0.00026344684352914435 -0.0022753591128739422 0 0.00021593800664669211 -0.0023718143940108932 0 0.00023086200057367742 -0.0022152268383688624 0 0.00021873560668595826 -0.0022689852352598405 0 0.00026344684352914435 -0.0022753591128739422 0 -0.001699998679600656 -0.0033792211122294653 0 -0.0017534780761659992 -0.0033870422763061349 0 -0.001731879562564573 -0.0033472849306804518 0 -0.0017202580419873159 -0.0034195648399082319 0 -0.001699998679600656 -0.0033792211122294653 0 -0.0017534780761659992 -0.0033870422763061349 0 -0.0019752336479850223 -0.0033043222386306636 0 -0.0019197268585261673 -0.0032681360017648739 0 -0.0017534780761659992 -0.0033870422763061349 0 -0.001763341174002655 -0.0033540041006097591 0 -0.0018032667214087821 -0.0033498710119450217 0 -0.0017534780761659992 -0.0033870422763061349 0 -0.001763341174002655 -0.0033540041006097591 0 -0.001731879562564573 -0.0033472849306804518 0 -0.001763341174002655 -0.0033540041006097591 0 -0.0017664204629040357 -0.0033279150097423253 0 -0.0018032667214087821 -0.0033498710119450217 0 -0.001763341174002655 -0.0033540041006097591 0 -0.0017664204629040357 -0.0033279150097423253 0 -0.001731879562564573 -0.0033472849306804518 0 -0.0006862144336617043 -0.0030683681998798481 0 -0.00071184503754523408 -0.0028438351962542067 0 -0.001669836600922284 -0.0033263051921473201 0 -0.001699998679600656 -0.0033792211122294653 0 -0.001731879562564573 -0.0033472849306804518 0 -0.0020497156300420252 -0.0031877437682648795 0 -0.0020566008639792775 -0.0031895837546045357 0 -0.0020532985083290939 -0.0031964133552494002 0 -0.0020497156300420252 -0.0031877437682648795 0 -0.0020532985083290939 -0.0031964133552494002 0 -0.0020476893657308849 -0.0031942924075802417 0 -0.0020497156300420252 -0.0031877437682648795 0 -0.0020566008639792775 -0.0031895837546045357 0 -0.0020503016892037609 -0.0031787513148037049 0 -0.0020629066154743136 -0.0031957786502151068 0 -0.0020566008639792775 -0.0031895837546045357 0 -0.0020627037094441865 -0.0031920172517593292 0 -0.0020629066154743136 -0.0031957786502151068 0 -0.0020566008639792775 -0.0031895837546045357 0 -0.0020532985083290939 -0.0031964133552494002 0 -0.0020532985083290939 -0.0031964133552494002 0 -0.0020333541085399763 -0.0031999910223003388 0 -0.0020476893657308849 -0.0031942924075802417 0 -0.0018831722838903641 -0.0032587322929065752 0 -0.002046500932565505 -0.0032041920916841033 0 -0.0020333541085399763 -0.0031999910223003388 0 -0.002046500932565505 -0.0032041920916841033 0 -0.0020333541085399763 -0.0031999910223003388 0 -0.0020557282747898464 -0.0031846064863019549 0 -0.0020333541085399763 -0.0031999910223003388 0 -0.0020476893657308849 -0.0031942924075802417 0 -0.0020557282747898464 -0.0031846064863019549 0 -0.0020497156300420252 -0.0031877437682648795 0 -0.0020476893657308849 -0.0031942924075802417 0 -0.0020557282747898464 -0.0031846064863019549 0 -0.0020557282747898464 -0.0031846064863019549 0 -0.0020427970019865241 -0.0031689273437880533 0 -0.0020739870704781171 -0.0031340594777355662 0 -0.0021002878584359466 -0.003176831575969861 0 -0.002046500932565505 -0.0032041920916841033 0 -0.0020557282747898464 -0.0031846064863019549 0 -0.0021002878584359466 -0.003176831575969861 0 -0.0020557282747898464 -0.0031846064863019549 0 -0.0020739870704781171 -0.0031340594777355662 0 -0.0020497156300420252 -0.0031877437682648795 0 -0.0020557282747898464 -0.0031846064863019549 0 -0.0020427970019865241 -0.0031689273437880533 0 -0.0020497156300420252 -0.0031877437682648795 0 -0.0020427970019865241 -0.0031689273437880533 0 -0.0020503016892037609 -0.0031787513148037049 0 -0.0020427970019865241 -0.0031689273437880533 0 -0.0020739870704781171 -0.0031340594777355662 0 -0.002015321454459713 -0.0031383950231083676 0 -0.0020203315343478748 -0.0030034633337873108 0 -0.0021307576194992358 -0.0030239766613819048 0 -0.0020739870704781171 -0.0031340594777355662 0 -0.0020203315343478748 -0.0030034633337873108 0 -0.0020739870704781171 -0.0031340594777355662 0 -0.002015321454459713 -0.0031383950231083676 0 -0.0020506616565790338 -0.0031995324792800659 0 -0.002015321454459713 -0.0031383950231083676 0 -0.002060838881717948 -0.0031673960211495347 0 -0.0020098984879967198 -0.0031382680983390093 0 -0.0019993420561104287 -0.0031315620849855937 0 -0.0018981211701729432 -0.0030460005115915743 0 -0.0020203315343478748 -0.0030034633337873108 0 -0.002015321454459713 -0.0031383950231083676 0 -0.0020427970019865241 -0.0031689273437880533 0 -0.002015321454459713 -0.0031383950231083676 0 -0.0020487799083985783 -0.0031639540157759622 0 -0.002015321454459713 -0.0031383950231083676 0 -0.002060838881717948 -0.0031673960211495347 0 -0.0020487799083985783 -0.0031639540157759622 0 -0.002060838881717948 -0.0031673960211495347 0 -0.0020918951067833095 -0.0031658813056038397 0 -0.0020487799083985783 -0.0031639540157759622 0 -0.0020506616565790338 -0.0031995324792800659 0 -0.002060838881717948 -0.0031673960211495347 0 -0.0020890249038427256 -0.0031924706647187195 0 -0.0021365772713384979 -0.0032105048613263157 0 -0.0020890249038427256 -0.0031924706647187195 0 -0.0020918951067833095 -0.0031658813056038397 0 -0.002060838881717948 -0.0031673960211495347 0 -0.0020890249038427256 -0.0031924706647187195 0 -0.0020918951067833095 -0.0031658813056038397 0 -0.0039015114880934054 -0.0032131397959602424 0 -0.0037828629016954975 -0.0032708426884290286 0 -0.005476784638730782 -0.0031048722475035557 0 -0.0054990945339885569 -0.003406075807011973 0 -0.0053218889565327309 -0.0032042759616454164 0 -0.0054990945339885569 -0.003406075807011973 0 -0.0053218889565327309 -0.0032042759616454164 0 -0.0052960570022872275 -0.0034027889026841426 0 -0.0054990945339885569 -0.003406075807011973 0 -0.0053380702289058104 -0.0035556950773557154 0 -0.0052960570022872275 -0.0034027889026841426 0 -0.0053380702289058104 -0.0035556950773557154 0 -0.0055137015078612862 -0.0036847763011432851 0 -0.0052082730552960718 -0.0037579272931551524 0 -0.0037828629016954975 -0.0032708426884290286 0 -0.0037827015746462111 -0.0034359211616848428 0 -0.0055137015078612862 -0.0036847763011432851 0 -0.0052082730552960718 -0.0037579272931551524 0 -0.0053690923225830018 -0.0038965944828177946 0 -0.0054990945339885569 -0.003406075807011973 0 -0.0053380702289058104 -0.0035556950773557154 0 -0.0055137015078612862 -0.0036847763011432851 0 -0.0020656027614047692 -0.0031728940897146332 0 -0.0020574178939901638 -0.0031774968137202771 0 -0.0020604910634424724 -0.0031914709570863525 0 -0.0020561173630316049 -0.003181429621320387 0 -0.0020627037094441865 -0.0031920172517593292 0 -0.0020604910634424724 -0.0031914709570863525 0 -0.0020574178939901638 -0.0031774968137202771 0 -0.0020561173630316049 -0.003181429621320387 0 -0.0020604910634424724 -0.0031914709570863525 0 -0.0020566008639792775 -0.0031895837546045357 0 -0.0020561173630316049 -0.003181429621320387 0 -0.0020627037094441865 -0.0031920172517593292 0 -0.0020566008639792775 -0.0031895837546045357 0 -0.0020503016892037609 -0.0031787513148037049 0 -0.0020561173630316049 -0.003181429621320387 0 -0.0020574178939901638 -0.0031774968137202771 0 -0.0020561173630316049 -0.003181429621320387 0 -0.0020487799083985783 -0.0031639540157759622 0 -0.0020503016892037609 -0.0031787513148037049 0 -0.0020561173630316049 -0.003181429621320387 0 -0.0020487799083985783 -0.0031639540157759622 0 -0.0020427970019865241 -0.0031689273437880533 0 -0.0020503016892037609 -0.0031787513148037049 0 -0.0020487799083985783 -0.0031639540157759622 0 -0.0020918951067833095 -0.0031658813056038397 0 -0.0020656027614047692 -0.0031728940897146332 0 -0.0020487799083985783 -0.0031639540157759622 0 -0.0020656027614047692 -0.0031728940897146332 0 -0.0020574178939901638 -0.0031774968137202771 0 -0.0020487799083985783 -0.0031639540157759622 0 -0.0047762035170226891 -0.0035385600560082948 0 -0.0048455474771396242 -0.0033817810664785808 0 -0.0049121150396592506 -0.0035188609979826626 0 -0.0047046763661802125 -0.0033891755683711283 0 -0.0047762035170226891 -0.0035385600560082948 0 -0.0048455474771396242 -0.0033817810664785808 0 -0.0047385733220176966 -0.0032371063717945951 0 -0.0047046763661802125 -0.0033891755683711283 0 -0.0047887650642115314 -0.0033053280312182161 0 -0.0047046763661802125 -0.0033891755683711283 0 -0.0048455474771396242 -0.0033817810664785808 0 -0.0047887650642115314 -0.0033053280312182161 0 -0.0047385733220176966 -0.0032371063717945951 0 -0.0047887650642115314 -0.0033053280312182161 0 -0.0048634689981344294 -0.0032139932898616465 0 -0.0048455474771396242 -0.0033817810664785808 0 -0.0047887650642115314 -0.0033053280312182161 0 -0.0048634689981344294 -0.0032139932898616465 0 -0.0048455474771396242 -0.0033817810664785808 0 -0.0048634689981344294 -0.0032139932898616465 0 -0.0049633445717712022 -0.0032231136704722633 0 -0.0048455474771396242 -0.0033817810664785808 0 -0.0049633445717712022 -0.0032231136704722633 0 -0.0049919749553725664 -0.0033456051919948052 0 -0.0049331402523599506 -0.0031062029402996213 0 -0.0048634689981344294 -0.0032139932898616465 0 -0.0049633445717712022 -0.0032231136704722633 0 -0.0050538289456720743 -0.0031655123562881441 0 -0.0049633445717712022 -0.0032231136704722633 0 -0.0049919749553725664 -0.0033456051919948052 0 -0.0048455474771396242 -0.0033817810664785808 0 -0.0049919749553725664 -0.0033456051919948052 0 -0.0049121150396592506 -0.0035188609979826626 0 -0.0049919749553725664 -0.0033456051919948052 0 -0.0049121150396592506 -0.0035188609979826626 0 -0.0050489522391535075 -0.0034673153390256126 0 -0.0049919749553725664 -0.0033456051919948052 0 -0.0050489522391535075 -0.0034673153390256126 0 -0.0051451631566273529 -0.0033170040566600431 0 -0.0050489522391535075 -0.0034673153390256126 0 -0.0051451631566273529 -0.0033170040566600431 0 -0.0051767280791092558 -0.0035273024945443022 0 -0.0050538289456720743 -0.0031655123562881441 0 -0.0049919749553725664 -0.0033456051919948052 0 -0.0051451631566273529 -0.0033170040566600431 0 -0.005185224997444793 -0.0031476906451506099 0 -0.0050538289456720743 -0.0031655123562881441 0 -0.0051451631566273529 -0.0033170040566600431 0 -0.0051451631566273529 -0.0033170040566600431 0 -0.0053218889565327309 -0.0032042759616454164 0 -0.0052960570022872275 -0.0034027889026841426 0 -0.005185224997444793 -0.0031476906451506099 0 -0.0051451631566273529 -0.0033170040566600431 0 -0.0053218889565327309 -0.0032042759616454164 0 -0.0053380702289058104 -0.0035556950773557154 0 -0.0052960570022872275 -0.0034027889026841426 0 -0.0051767280791092558 -0.0035273024945443022 0 -0.0051451631566273529 -0.0033170040566600431 0 -0.0052960570022872275 -0.0034027889026841426 0 -0.0051767280791092558 -0.0035273024945443022 0 -0.0053380702289058104 -0.0035556950773557154 0 -0.0051767280791092558 -0.0035273024945443022 0 -0.0052082730552960718 -0.0037579272931551524 0 -0.0052082730552960718 -0.0037579272931551524 0 -0.0050119461931492568 -0.0037894563521502704 0 -0.0050315566159186489 -0.0036261018260450879 0 -0.0051767280791092558 -0.0035273024945443022 0 -0.0052082730552960718 -0.0037579272931551524 0 -0.0050315566159186489 -0.0036261018260450879 0 -0.0050489522391535075 -0.0034673153390256126 0 -0.0051767280791092558 -0.0035273024945443022 0 -0.0050315566159186489 -0.0036261018260450879 0 -0.0049121150396592506 -0.0035188609979826626 0 -0.0050315566159186489 -0.0036261018260450879 0 -0.0048628392181255635 -0.0036982871611301693 0 -0.0049121150396592506 -0.0035188609979826626 0 -0.0050489522391535075 -0.0034673153390256126 0 -0.0050315566159186489 -0.0036261018260450879 0 -0.0050119461931492568 -0.0037894563521502704 0 -0.0050315566159186489 -0.0036261018260450879 0 -0.0048628392181255635 -0.0036982871611301693 0 -0.0050119461931492568 -0.0037894563521502704 0 -0.0048628392181255635 -0.0036982871611301693 0 -0.0048837709367641055 -0.00391302980131352 0 -0.0048628392181255635 -0.0036982871611301693 0 -0.0047546941932064754 -0.0038214834356414106 0 -0.0048837709367641055 -0.00391302980131352 0 -0.0046844393919833966 -0.0037093122531195841 0 -0.0048628392181255635 -0.0036982871611301693 0 -0.0047546941932064754 -0.0038214834356414106 0 -0.0046844393919833966 -0.0037093122531195841 0 -0.0047762035170226891 -0.0035385600560082948 0 -0.0048628392181255635 -0.0036982871611301693 0 -0.0047762035170226891 -0.0035385600560082948 0 -0.0049121150396592506 -0.0035188609979826626 0 -0.0048628392181255635 -0.0036982871611301693 0 -0.0047319745931921793 -0.0039824193897095997 0 -0.0048993593305017508 -0.0040798263900730476 0 -0.0047190482549954397 -0.004131860507412535 0 -0.0047546941932064754 -0.0038214834356414106 0 -0.0047319745931921793 -0.0039824193897095997 0 -0.0048837709367641055 -0.00391302980131352 0 -0.0046094555690758387 -0.0038741035822321196 0 -0.0047546941932064754 -0.0038214834356414106 0 -0.0047319745931921793 -0.0039824193897095997 0 -0.0050119461931492568 -0.0037894563521502704 0 -0.0048837709367641055 -0.00391302980131352 0 -0.0050438394092838304 -0.0039540579365082802 0 -0.0048837709367641055 -0.00391302980131352 0 -0.0048993593305017508 -0.0040798263900730476 0 -0.0050438394092838304 -0.0039540579365082802 0 -0.0047319745931921793 -0.0039824193897095997 0 -0.0048837709367641055 -0.00391302980131352 0 -0.0048993593305017508 -0.0040798263900730476 0 -0.0048993593305017508 -0.0040798263900730476 0 -0.0050438394092838304 -0.0039540579365082802 0 -0.0050626466574161203 -0.0041751671693405013 0 -0.0050438394092838304 -0.0039540579365082802 0 -0.0052124352539568144 -0.004007524688994589 0 -0.0050626466574161203 -0.0041751671693405013 0 -0.0052082730552960718 -0.0037579272931551524 0 -0.0050119461931492568 -0.0037894563521502704 0 -0.0050438394092838304 -0.0039540579365082802 0 -0.0052082730552960718 -0.0037579272931551524 0 -0.0052124352539568144 -0.004007524688994589 0 -0.0053690923225830018 -0.0038965944828177946 0 -0.0052082730552960718 -0.0037579272931551524 0 -0.0050438394092838304 -0.0039540579365082802 0 -0.0052124352539568144 -0.004007524688994589 0 -0.0052356169610277767 -0.00417274250401243 0 -0.0051789009023921499 -0.0043384898201815555 0 -0.0050626466574161203 -0.0041751671693405013 0 -0.0052124352539568144 -0.004007524688994589 0 -0.0052356169610277767 -0.00417274250401243 0 -0.0050626466574161203 -0.0041751671693405013 0 -0.0039764826328069847 -0.0047467742577751784 0 -0.0038913244505920297 -0.0047972528527626497 0 -0.0051789009023921499 -0.0043384898201815555 0 -0.0050626466574161203 -0.0041751671693405013 0 -0.0049781710649649856 -0.004410565683257474 0 -0.0050626466574161203 -0.0041751671693405013 0 -0.0048518050213847592 -0.0042602578641091826 0 -0.0049781710649649856 -0.004410565683257474 0 -0.0048993593305017508 -0.0040798263900730476 0 -0.0050626466574161203 -0.0041751671693405013 0 -0.0048518050213847592 -0.0042602578641091826 0 -0.0048518050213847592 -0.0042602578641091826 0 -0.0047780040644089831 -0.0044776843373022434 0 -0.0049781710649649856 -0.004410565683257474 0 -0.004446021208927225 -0.0042585785217769028 0 -0.0038503683411261714 -0.0049148085585623879 0 -0.0046713141115085699 -0.0042867048528823261 0 -0.0048518050213847592 -0.0042602578641091826 0 -0.0047780040644089831 -0.0044776843373022434 0 -0.0040532636870299898 -0.0042585858597241899 0 -0.0040020650176734252 -0.0046069031521836605 0 -0.0043778360061855941 -0.0047617969246176737 0 -0.0046713141115085699 -0.0042867048528823261 0 -0.0048518050213847592 -0.0042602578641091826 0 -0.0047190482549954397 -0.004131860507412535 0 -0.0048993593305017508 -0.0040798263900730476 0 -0.0048518050213847592 -0.0042602578641091826 0 -0.0047190482549954397 -0.004131860507412535 0 -0.0020617204860452383 -0.0032192452329158922 0 -0.0020547217298483443 -0.0032048057006820825 0 -0.0020533455579918578 -0.0032521729303752614 0 -0.0038657487148783956 -0.0035462639350705284 0 -0.003235811986562219 -0.0038911105834369946 0 -0.0020617204860452383 -0.0032192452329158922 0 -0.0020767115867827719 -0.0032235371191197499 0 -0.0020714490682583971 -0.0032366452826903974 0 -0.0020767115867827719 -0.0032235371191197499 0 -0.0020724389850319525 -0.0032051017117727442 0 -0.002067511250692218 -0.0032078611007145758 0 -0.0020617204860452383 -0.0032192452329158922 0 -0.0020767115867827719 -0.0032235371191197499 0 -0.002067511250692218 -0.0032078611007145758 0 -0.002067511250692218 -0.0032078611007145758 0 -0.0020668294985321371 -0.0031986026785022271 0 -0.0020604910634424724 -0.0031914709570863525 0 -0.0020617204860452383 -0.0032192452329158922 0 -0.002067511250692218 -0.0032078611007145758 0 -0.0020604910634424724 -0.0031914709570863525 0 -0.0020724389850319525 -0.0032051017117727442 0 -0.002067511250692218 -0.0032078611007145758 0 -0.0020668294985321371 -0.0031986026785022271 0 -0.0020696021276506021 -0.0031980075140751836 0 -0.0020724389850319525 -0.0032051017117727442 0 -0.0020668294985321371 -0.0031986026785022271 0 -0.0020696021276506021 -0.0031980075140751836 0 -0.0020668294985321371 -0.0031986026785022271 0 -0.0020627037094441865 -0.0031920172517593292 0 -0.0020668294985321371 -0.0031986026785022271 0 -0.0020627037094441865 -0.0031920172517593292 0 -0.0020604910634424724 -0.0031914709570863525 0 -0.0020617204860452383 -0.0032192452329158922 0 -0.0020604910634424724 -0.0031914709570863525 0 -0.0020547217298483443 -0.0032048057006820825 0 -0.0020656027614047692 -0.0031728940897146332 0 -0.0020604910634424724 -0.0031914709570863525 0 -0.0020547217298483443 -0.0032048057006820825 0 -0.0055137015078612862 -0.0036847763011432851 0 -0.0055295521499065994 -0.0039452252520593744 0 -0.0053690923225830018 -0.0038965944828177946 0 -0.0037827015746462111 -0.0034359211616848428 0 -0.0038657487148783956 -0.0035462639350705284 0 -0.0052124352539568144 -0.004007524688994589 0 -0.0052356169610277767 -0.00417274250401243 0 -0.0053776000499659877 -0.0040795631554634577 0 -0.0052124352539568144 -0.004007524688994589 0 -0.0053690923225830018 -0.0038965944828177946 0 -0.0053776000499659877 -0.0040795631554634577 0 -0.0055295521499065994 -0.0039452252520593744 0 -0.0053690923225830018 -0.0038965944828177946 0 -0.0053776000499659877 -0.0040795631554634577 0 -0.0055295521499065994 -0.0039452252520593744 0 -0.0053776000499659877 -0.0040795631554634577 0 -0.005553864039537836 -0.0041902448167023994 0 -0.0042782760202374898 -0.0047349677458782876 0 -0.003235811986562219 -0.0038911105834369946 0 -0.0053776000499659877 -0.0040795631554634577 0 -0.0053734584984826495 -0.0042617049323696986 0 -0.005553864039537836 -0.0041902448167023994 0 -0.0052356169610277767 -0.00417274250401243 0 -0.0053776000499659877 -0.0040795631554634577 0 -0.0053734584984826495 -0.0042617049323696986 0 -0.0039764826328069847 -0.0047467742577751784 0 -0.0042782760202374898 -0.0047349677458782876 0 -0.0028322705481764621 -0.0051492748809419337 0 -0.0028573282479474682 -0.0051296038587856857 0 -0.0028418226279736595 -0.0051605382536058812 0 -0.0052356169610277767 -0.00417274250401243 0 -0.0051789009023921499 -0.0043384898201815555 0 -0.0053734584984826495 -0.0042617049323696986 0 -0.0028573282479474682 -0.0051296038587856857 0 -0.002855547753134464 -0.005140663169293176 0 -0.0028418226279736595 -0.0051605382536058812 0 -0.0028573282479474682 -0.0051296038587856857 0 -0.002855547753134464 -0.005140663169293176 0 -0.0028642765644864656 -0.005117976657073196 0 -0.003235811986562219 -0.0038911105834369946 0 -0.0022219736357623832 -0.004103351540767658 0 -0.0028642765644864656 -0.005117976657073196 0 -0.002845231881374683 -0.0051309833071634409 0 -0.0028454974887261626 -0.0051313090847223981 0 -0.002855547753134464 -0.005140663169293176 0 -0.0028642765644864656 -0.005117976657073196 0 -0.0028454974887261626 -0.0051313090847223981 0 -0.0020337007394712744 -0.0032600133807365538 0 -0.0020957193240373449 -0.0032656117086850107 0 -0.0020533459461208889 -0.0033767965632735008 0 -0.0020617204860452383 -0.0032192452329158922 0 -0.0020533455579918578 -0.0032521729303752614 0 -0.0020596666743608666 -0.0032477172663450985 0 -0.0020337007394712744 -0.0032600133807365538 0 -0.0020596666743608666 -0.0032477172663450985 0 -0.0020957193240373449 -0.0032656117086850107 0 -0.003235811986562219 -0.0038911105834369946 0 -0.0022275123361725668 -0.0037255270468156683 0 -0.0020617204860452383 -0.0032192452329158922 0 -0.0020596666743608666 -0.0032477172663450985 0 -0.0020714490682583971 -0.0032366452826903974 0 -0.0020767115867827719 -0.0032235371191197499 0 -0.0020714490682583971 -0.0032366452826903974 0 -0.0020957193240373449 -0.0032656117086850107 0 -0.0020596666743608666 -0.0032477172663450985 0 -0.0020714490682583971 -0.0032366452826903974 0 -0.0020957193240373449 -0.0032656117086850107 0 -0.0018499735545943398 -0.003223735353571578 0 -0.0018660666491483405 -0.0032055504014762331 0 -0.0018316617179154409 -0.0031961518071450031 0 -0.0019568257873663316 -0.0030842530113698707 0 -0.0022219736357623832 -0.004103351540767658 0 -0.0018656318509745657 -0.0032039118228880262 0 -0.0018660666491483405 -0.0032055504014762331 0 -0.0018316617179154409 -0.0031961518071450031 0 -0.0021789702308422573 -0.0044554243953808742 0 -0.0016626655399087841 -0.0038890315014012355 0 -0.0017077367927095654 -0.0045574399096551099 0 -0.0018423854085018038 -0.0046514904678523752 0 -0.0015969885779111878 -0.0047118186661928877 0 -0.0017077367927095654 -0.0045574399096551099 0 -0.0018423854085018038 -0.0046514904678523752 0 -0.001792365798954732 -0.0044227462721165194 0 -0.0017077367927095654 -0.0045574399096551099 0 -0.001792365798954732 -0.0044227462721165194 0 -0.0015464247080449226 -0.0045083208474496197 0 -0.0021789702308422573 -0.0044554243953808742 0 -0.0020563186225965044 -0.0052112612061451461 0 -0.0028379443013329562 -0.0051403603990385497 0 -0.0028443493680143394 -0.0051376943562092678 0 -0.0028426052905518051 -0.00519728479766857 0 -0.0028093936155218439 -0.0051819212784632611 0 -0.0028379443013329562 -0.0051403603990385497 0 -0.0028426052905518051 -0.00519728479766857 0 -0.0028379443013329562 -0.0051403603990385497 0 -0.0028454974887261626 -0.0051313090847223981 0 -0.0027730979977418722 -0.0051561049926960598 0 -0.0028379443013329562 -0.0051403603990385497 0 -0.0028423043231183844 -0.0051364233754337294 0 -0.0028454974887261626 -0.0051313090847223981 0 -0.0024166945053185921 -0.00452019344036969 0 -0.0021789702308422573 -0.0044554243953808742 0 -0.0028379443013329562 -0.0051403603990385497 0 -0.0028423043231183844 -0.0051364233754337294 0 -0.0028473313241121892 -0.0051338607757555089 0 -0.0022157887160279758 -0.0043114795691063775 0 -0.0022219736357623832 -0.004103351540767658 0 -0.0028423043231183844 -0.0051364233754337294 0 -0.002845231881374683 -0.0051309833071634409 0 -0.0028454974887261626 -0.0051313090847223981 0 -0.0028423043231183844 -0.0051364233754337294 0 -0.0028473313241121892 -0.0051338607757555089 0 -0.00284476825937873 -0.005123478718404368 0 -0.0021789702308422573 -0.0044554243953808742 0 -0.0022219736357623832 -0.004103351540767658 0 -0.0028427587142060002 -0.005135411970065242 0 -0.0028124034408337612 -0.0051618354402740204 0 -0.002855547753134464 -0.005140663169293176 0 -0.0028454974887261626 -0.0051313090847223981 0 -0.0028543239549819431 -0.0051664156393742043 0 -0.002855547753134464 -0.005140663169293176 0 -0.0028418226279736595 -0.0051605382536058812 0 -0.0028543239549819431 -0.0051664156393742043 0 -0.0028124034408337612 -0.0051618354402740204 0 -0.0027722345140505649 -0.0051956986210320707 0 -0.0028418226279736595 -0.0051605382536058812 0 -0.0028543239549819431 -0.0051664156393742043 0 -0.0028158220242256973 -0.0052062349876462102 0 -0.0027730979977418722 -0.0051561049926960598 0 -0.0027552939185639279 -0.0051991141686613821 0 -0.0027266307801289379 -0.0051894744544357134 0 -0.0028093936155218439 -0.0051819212784632611 0 -0.0027730979977418722 -0.0051561049926960598 0 -0.0027552939185639279 -0.0051991141686613821 0 -0.0028093936155218439 -0.0051819212784632611 0 -0.0028379443013329562 -0.0051403603990385497 0 -0.0027730979977418722 -0.0051561049926960598 0 -0.0028093936155218439 -0.0051819212784632611 0 -0.0027890862189795915 -0.0052182594846385006 0 -0.0027552939185639279 -0.0051991141686613821 0 -0.0027890862189795915 -0.0052182594846385006 0 -0.0027552939185639279 -0.0051991141686613821 0 -0.0027432389967729748 -0.0052266037668960777 0 -0.0023533922790622028 -0.0054110226739284631 0 -0.0025361376259047399 -0.0053258589855560865 0 -0.0024504756649740894 -0.0052384786722542206 0 -0.0026607066051741405 -0.0053162391093393279 0 -0.0026183523512307814 -0.0052776722509623869 0 -0.0023533922790622028 -0.0054110226739284631 0 -0.0023248537416168833 -0.0052412270708663659 0 -0.0024504756649740894 -0.0052384786722542206 0 -0.0023533922790622028 -0.0054110226739284631 0 -0.0021267483517610074 -0.005324868614344949 0 -0.0021627573410433381 -0.0054853901733678363 0 -0.0023533922790622028 -0.0054110226739284631 0 -0.0021267483517610074 -0.005324868614344949 0 -0.0023248537416168833 -0.0052412270708663659 0 -0.0018049974279241083 -0.0053781597555937997 0 -0.0020563186225965044 -0.0052112612061451461 0 -0.001502175027829027 -0.0053105570975832189 0 -0.0015604887955307822 -0.005570116320135445 0 -0.0013047794943444658 -0.005468562484155534 0 -0.0026607066051741405 -0.0053162391093393279 0 -0.0020563186225965044 -0.0052112612061451461 0 -0.0028093936155218439 -0.0051819212784632611 0 -0.0027890862189795915 -0.0052182594846385006 0 -0.0028426052905518051 -0.00519728479766857 0 -0.0029866840442572835 -0.0051493740783130756 0 -0.002880414223441553 -0.0052328716245616204 0 -0.0028289153416745346 -0.0051843847009673252 0 -0.002880414223441553 -0.0052328716245616204 0 -0.0028026117301403696 -0.0052152834794765845 0 -0.0028289153416745346 -0.0051843847009673252 0 -0.002880414223441553 -0.0052328716245616204 0 -0.0028197251236053121 -0.0052483912663826762 0 -0.0028026117301403696 -0.0052152834794765845 0 -0.0029839230758426337 -0.0052812232503976399 0 -0.002880414223441553 -0.0052328716245616204 0 -0.0028338477271648592 -0.005278332083555176 0 -0.0039478595693899568 -0.0049125276551386628 0 -0.0040020650176734252 -0.0046069031521836605 0 -0.0043778360061855941 -0.0047617969246176737 0 -0.003414284879246954 -0.0051017332387894819 0 -0.0038503683411261714 -0.0049148085585623879 0 -0.002880414223441553 -0.0052328716245616204 0 -0.0028338477271648592 -0.005278332083555176 0 -0.0028197251236053121 -0.0052483912663826762 0 -0.0038503683411261714 -0.0049148085585623879 0 -0.0036702834040464459 -0.0048984336150452524 0 -0.0038503683411261714 -0.0049148085585623879 0 -0.0038913244505920297 -0.0047972528527626497 0 -0.0028197251236053121 -0.0052483912663826762 0 -0.0027863880130422495 -0.0052071428348052073 0 -0.0028005859185403974 -0.0051933995941390943 0 -0.0028211932966878254 -0.0052474175566869473 0 -0.0028197251236053121 -0.0052483912663826762 0 -0.0028005859185403974 -0.0051933995941390943 0 -0.0028197251236053121 -0.0052483912663826762 0 -0.0028026117301403696 -0.0052152834794765845 0 -0.0027863880130422495 -0.0052071428348052073 0 -0.0028026117301403696 -0.0052152834794765845 0 -0.0027863880130422495 -0.0052071428348052073 0 -0.0027534267040331024 -0.0052051332129819513 0 -0.0027863880130422495 -0.0052071428348052073 0 -0.0028158220242256973 -0.0052062349876462102 0 -0.0027534267040331024 -0.0052051332129819513 0 -0.0027863880130422495 -0.0052071428348052073 0 -0.0028141730218941797 -0.0051835206550197707 0 -0.0028158220242256973 -0.0052062349876462102 0 -0.0028322705481764621 -0.0051492748809419337 0 -0.0028005859185403974 -0.0051933995941390943 0 -0.0028141730218941797 -0.0051835206550197707 0 -0.0027863880130422495 -0.0052071428348052073 0 -0.0028005859185403974 -0.0051933995941390943 0 -0.0028141730218941797 -0.0051835206550197707 0 -0.0028322705481764621 -0.0051492748809419337 0 -0.0028418226279736595 -0.0051605382536058812 0 -0.0028141730218941797 -0.0051835206550197707 0 -0.0028418226279736595 -0.0051605382536058812 0 -0.0028141730218941797 -0.0051835206550197707 0 -0.0028158220242256973 -0.0052062349876462102 0 -0.0027552939185639279 -0.0051991141686613821 0 -0.0027266307801289379 -0.0051894744544357134 0 -0.0027177966622990647 -0.0052037335367488592 0 -0.0027552939185639279 -0.0051991141686613821 0 -0.0027432389967729748 -0.0052266037668960777 0 -0.0027177966622990647 -0.0052037335367488592 0 -0.0026183523512307814 -0.0052776722509623869 0 -0.0026740906473350524 -0.0052388813296318651 0 -0.0027432389967729748 -0.0052266037668960777 0 -0.0027177966622990647 -0.0052037335367488592 0 -0.0026664895586342484 -0.0052348971643913431 0 -0.0027177966622990647 -0.0052037335367488592 0 -0.0027154447048410735 -0.0052043495294254701 0 -0.0026664895586342484 -0.0052348971643913431 0 -0.0027177966622990647 -0.0052037335367488592 0 -0.0027534267040331024 -0.0052051332129819513 0 -0.0027154447048410735 -0.0052043495294254701 0 -0.0027266307801289379 -0.0051894744544357134 0 -0.0027177966622990647 -0.0052037335367488592 0 -0.0027534267040331024 -0.0052051332129819513 0 -0.0027722345140505649 -0.0051956986210320707 0 -0.0027567643258630623 -0.0052041922791791137 0 -0.0027534267040331024 -0.0052051332129819513 0 -0.0027154447048410735 -0.0052043495294254701 0 -0.0028289153416745346 -0.0051843847009673252 0 -0.0028026117301403696 -0.0052152834794765845 0 -0.0027534267040331024 -0.0052051332129819513 0 -0.0028289153416745346 -0.0051843847009673252 0 -0.0028662548590570676 -0.0051767368900377305 0 -0.0027154447048410735 -0.0052043495294254701 0 -0.002708764370177078 -0.0052132733576930991 0 -0.0028662548590570676 -0.0051767368900377305 0 -0.0027154447048410735 -0.0052043495294254701 0 -0.0028289153416745346 -0.0051843847009673252 0 -0.0026829451912672637 -0.0051816873162074204 0 -0.0025719076613005499 -0.0052071499365616046 0 -0.0025607985653854745 -0.0051324706906595227 0 -0.0025719076613005499 -0.0052071499365616046 0 -0.002708764370177078 -0.0052132733576930991 0 -0.0025855180979518924 -0.0052650029389976327 0 -0.0026829451912672637 -0.0051816873162074204 0 -0.0025719076613005499 -0.0052071499365616046 0 -0.002708764370177078 -0.0052132733576930991 0 -0.0027154447048410735 -0.0052043495294254701 0 -0.0025855180979518924 -0.0052650029389976327 0 -0.0026664895586342484 -0.0052348971643913431 0 -0.0027154447048410735 -0.0052043495294254701 0 -0.002708764370177078 -0.0052132733576930991 0 -0.0025855180979518924 -0.0052650029389976327 0 -0.0025719076613005499 -0.0052071499365616046 0 -0.0025855180979518924 -0.0052650029389976327 0 -0.0023523895965077125 -0.0052233445305689017 0 -0.0025539473556386162 -0.0052685428364297954 0 -0.0023696256681922257 -0.0052572114511227003 0 -0.0023523895965077125 -0.0052233445305689017 0 -0.0021201486606642964 -0.0053510653655057337 0 -0.002169062176382431 -0.0051255347202416304 0 -0.0025855180979518924 -0.0052650029389976327 0 -0.0023523895965077125 -0.0052233445305689017 0 -0.0021201486606642964 -0.0053510653655057337 0 -0.0025855180979518924 -0.0052650029389976327 0 -0.0026664895586342484 -0.0052348971643913431 0 -0.0026285877163156755 -0.0051784463160827058 0 -0.0025361376259047399 -0.0053258589855560865 0 -0.0026285877163156755 -0.0051784463160827058 0 -0.0024504756649740894 -0.0052384786722542206 0 -0.0025361376259047399 -0.0053258589855560865 0 -0.0026664895586342484 -0.0052348971643913431 0 -0.0026285877163156755 -0.0051784463160827058 0 -0.0021201486606642964 -0.0053510653655057337 0 -0.0018042093617551787 -0.0053065334669018215 0 -0.0019066655451280535 -0.005142483341816142 0 -0.0023696256681922257 -0.0052572114511227003 0 -0.0021222717062687217 -0.0052010485618904497 0 -0.0021201486606642964 -0.0053510653655057337 0 -0.002169062176382431 -0.0051255347202416304 0 -0.0019066655451280535 -0.005142483341816142 0 -0.0019346693699374613 -0.0049999464739878836 0 -0.002169062176382431 -0.0051255347202416304 0 -0.0019066655451280535 -0.005142483341816142 0 -0.0019346693699374613 -0.0049999464739878836 0 -0.002169062176382431 -0.0051255347202416304 0 -0.0022011017099538262 -0.0049999383312570251 0 -0.0023523895965077125 -0.0052233445305689017 0 -0.002169062176382431 -0.0051255347202416304 0 -0.0023978001785708038 -0.0051185103689259364 0 -0.0025719076613005499 -0.0052071499365616046 0 -0.0023523895965077125 -0.0052233445305689017 0 -0.0023978001785708038 -0.0051185103689259364 0 -0.002169062176382431 -0.0051255347202416304 0 -0.0023978001785708038 -0.0051185103689259364 0 -0.0022011017099538262 -0.0049999383312570251 0 -0.0023978001785708038 -0.0051185103689259364 0 -0.0022011017099538262 -0.0049999383312570251 0 -0.0024674500008055327 -0.0049999590728297474 0 -0.0023978001785708038 -0.0051185103689259364 0 -0.0024674500008055327 -0.0049999590728297474 0 -0.0025607985653854745 -0.0051324706906595227 0 -0.0025719076613005499 -0.0052071499365616046 0 -0.0023978001785708038 -0.0051185103689259364 0 -0.0025607985653854745 -0.0051324706906595227 0 -0.0022346674789942619 -0.0051544274455770185 0 -0.0021425540945698082 -0.0050631237885964192 0 -0.0022668602286593812 -0.0050369417038714582 0 -0.0017852650488104382 -0.0050819683841486756 0 -0.001446877447763017 -0.0049930324075984946 0 -0.0022346674789942619 -0.0051544274455770185 0 -0.0020865109666689708 -0.0051630680107035299 0 -0.0021425540945698082 -0.0050631237885964192 0 -0.0020865109666689708 -0.0051630680107035299 0 -0.0021425540945698082 -0.0050631237885964192 0 -0.0020443071468027063 -0.0049953250174417036 0 -0.0018049974279241083 -0.0053781597555937997 0 -0.0017852650488104382 -0.0050819683841486756 0 -0.0021267483517610074 -0.005324868614344949 0 -0.0022346674789942619 -0.0051544274455770185 0 -0.0020865109666689708 -0.0051630680107035299 0 -0.0021267483517610074 -0.005324868614344949 0 -0.0022346674789942619 -0.0051544274455770185 0 -0.0023248537416168833 -0.0052412270708663659 0 -0.0023248537416168833 -0.0052412270708663659 0 -0.0024504756649740894 -0.0052384786722542206 0 -0.0024551176683513688 -0.0050999242674927637 0 -0.0026285877163156755 -0.0051784463160827058 0 -0.0024504756649740894 -0.0052384786722542206 0 -0.0024551176683513688 -0.0050999242674927637 0 -0.0022346674789942619 -0.0051544274455770185 0 -0.0023248537416168833 -0.0052412270708663659 0 -0.0024551176683513688 -0.0050999242674927637 0 -0.0022346674789942619 -0.0051544274455770185 0 -0.0024551176683513688 -0.0050999242674927637 0 -0.0022668602286593812 -0.0050369417038714582 0 -0.0018042093617551787 -0.0053065334669018215 0 -0.0017090242191252812 -0.0051507808038473834 0 -0.0015691519343620159 -0.0052330222298353985 0 -0.0017090242191252812 -0.0051507808038473834 0 -0.0015244628480855546 -0.005085384150287562 0 -0.0015691519343620159 -0.0052330222298353985 0 -0.0021222717062687217 -0.0052010485618904497 0 -0.0019534486295901088 -0.0051383049631384759 0 -0.0018042093617551787 -0.0053065334669018215 0 -0.0017090242191252812 -0.0051507808038473834 0 -0.0019066655451280535 -0.005142483341816142 0 -0.0019346693699374613 -0.0049999464739878836 0 -0.0019066655451280535 -0.005142483341816142 0 -0.0016683805762413306 -0.0049999853989088818 0 -0.0017090242191252812 -0.0051507808038473834 0 -0.0019066655451280535 -0.005142483341816142 0 -0.0016683805762413306 -0.0049999853989088818 0 -0.0015676497745187106 -0.0049999825366682845 0 -0.0016682422009981733 -0.0050000153387068855 0 -0.0014824097492764177 -0.0050927319424676053 0 -0.0016682904857022417 -0.0049999960100694145 0 -0.0014665828655859947 -0.0051060714116659576 0 -0.0017090242191252812 -0.0051507808038473834 0 -0.0016683805762413306 -0.0049999853989088818 0 -0.0015244628480855546 -0.005085384150287562 0 -0.0015676087253996959 -0.0049999998255501419 0 -0.0013897801984495467 -0.0050347489775691154 0 -0.0013824747619741102 -0.0049999998224236515 0 -0.0015676497745187106 -0.0049999825366682845 0 -0.0014824097492764177 -0.0050927319424676053 0 -0.0014135759731135423 -0.005036143006084284 0 -0.0015675617656026554 -0.0050000108017782662 0 -0.0014048884435942212 -0.0050350248746352921 0 -0.0015244628480855546 -0.005085384150287562 0 -0.0015691519343620159 -0.0052330222298353985 0 -0.0013674818734586774 -0.0051708845411536624 0 -0.0019534486295901088 -0.0051383049631384759 0 -0.001551776006735718 -0.0050927084888394633 0 -0.0021425540945698082 -0.0050631237885964192 0 -0.0022668602286593812 -0.0050369417038714582 0 -0.0020733499617768304 -0.0049797660709850373 0 -0.0021425540945698082 -0.0050631237885964192 0 -0.0020733499617768304 -0.0049797660709850373 0 -0.0020443071468027063 -0.0049953250174417036 0 -0.0013324660072954288 -0.0051667071152255778 0 -0.0013120987154902925 -0.0051604594211829913 0 -0.0013404615648001763 -0.0050974284641962832 0 -0.001551776006735718 -0.0050927084888394633 0 -0.001446877447763017 -0.0049930324075984946 0 -0.001551776006735718 -0.0050927084888394633 0 -0.0014966943909046004 -0.0050874683351920681 0 -0.0013334075488008012 -0.0051662290999668842 0 -0.0013120987154902925 -0.0051604594211829913 0 -0.0013051631421579116 -0.0051810082617351674 0 -0.0014824097492764177 -0.0050927319424676053 0 -0.0014135759731135423 -0.005036143006084284 0 -0.0013404615648001763 -0.0050974284641962832 0 -0.0014665828655859947 -0.0051060714116659576 0 -0.001551776006735718 -0.0050927084888394633 0 -0.0013824747619741102 -0.0049999998224236515 0 -0.0011973415850958849 -0.0049999995652433987 0 -0.0012120073495726592 -0.0050694218134199002 0 -0.0013120987154902925 -0.0051604594211829913 0 -0.0013404615648001763 -0.0050974284641962832 0 -0.0012792446857636905 -0.00506357662727754 0 -0.0014048884435942212 -0.0050350248746352921 0 -0.0012247839827685385 -0.0050305285714760577 0 -0.0013897801984495467 -0.0050347489775691154 0 -0.0013824747619741102 -0.0049999998224236515 0 -0.0012120073495726592 -0.0050694218134199002 0 -0.0014135759731135423 -0.005036143006084284 0 -0.0013404615648001763 -0.0050974284641962832 0 -0.0012792446857636905 -0.00506357662727754 0 -0.0014824097492764177 -0.0050927319424676053 0 -0.0013324660072954288 -0.0051667071152255778 0 -0.0013404615648001763 -0.0050974284641962832 0 -0.0011973407709377402 -0.0049999992984232069 0 -0.0012118773180741017 -0.0050692986655220514 0 -0.00097471199725704665 -0.0049999994101164987 0 -0.0011973731013078049 -0.0050000358197688083 0 -0.0012247839827685385 -0.0050305285714760577 0 -0.0012247839827685385 -0.0050305285714760577 0 -0.001446877447763017 -0.0049930324075984946 0 -0.0012288063839568982 -0.0049102309043788286 0 -0.0010015031928800931 -0.0049544563559091358 0 -0.0011352021300493908 -0.0050126326329561653 0 -0.0012247839827685385 -0.0050305285714760577 0 -0.00098235167301607062 -0.0050293724478825321 0 -0.0012118773180741017 -0.0050692986655220514 0 -0.00095761594888162604 -0.0051187066473650034 0 -0.00097471199725704665 -0.0049999994101164987 0 -0.0010015031928800931 -0.0049544563559091358 0 -0.0011352021300493908 -0.0050126326329561653 0 -0.0010616873354648627 -0.0051525027499659832 0 -0.0012584622625850463 -0.0050486244216795019 0 -0.0011352021300493908 -0.0050126326329561653 0 -0.0010616873354648627 -0.0051525027499659832 0 -0.0013904660822981973 -0.0047900402932402617 0 -0.0013038500558152986 -0.0049434042182769896 0 -0.0011259732803858247 -0.0049280467211993235 0 -0.001446877447763017 -0.0049930324075984946 0 -0.001072696276503694 -0.0050372875635879503 0 -0.0013120987154902925 -0.0051604594211829913 0 -0.0012792446857636905 -0.00506357662727754 0 -0.0013051631421579116 -0.0051810082617351674 0 -0.0012288063839568982 -0.0049102309043788286 0 -0.0012584622625850463 -0.0050486244216795019 0 -0.0011352021300493908 -0.0050126326329561653 0 -0.00075208110963274498 -0.0049999993932028034 0 -0.00065286119395802967 -0.0050848160121565065 0 -0.00058225372782513796 -0.0049999992038155163 0 -0.00075208110963274498 -0.0049999993932028034 0 -0.00065286119395802967 -0.0050848160121565065 0 -0.0007027409354872753 -0.0051670720283499881 0 -0.00075205389259571731 -0.0050001051437780584 0 -0.00072719652249949565 -0.0051032045206017302 0 -0.00065286119395802967 -0.0050848160121565065 0 -0.00064813311340528067 -0.0051776775464551644 0 -0.00057908561092142599 -0.005078639494799881 0 -0.00065286119395802967 -0.0050848160121565065 0 -0.0007027409354872753 -0.0051670720283499881 0 -0.00064813311340528067 -0.0051776775464551644 0 -0.00095761594888162604 -0.0051187066473650034 0 -0.00097471199725704665 -0.0049999994101164987 0 -0.00075208763693504856 -0.0049999988092752712 0 -0.00095761594888162604 -0.0051187066473650034 0 -0.00075208763693504856 -0.0049999988092752712 0 -0.00070418374210353763 -0.005167575549361236 0 -0.00098235167301607062 -0.0050293724478825321 0 -0.00072719652249949565 -0.0051032045206017302 0 -0.0010015031928800931 -0.0049544563559091358 0 -0.00087579126580369601 -0.0050586180851625341 0 -0.00077476576102590577 -0.004999223541867868 0 -0.0010015031928800931 -0.0049544563559091358 0 -0.00087579126580369601 -0.0050586180851625341 0 -0.0010616873354648627 -0.0051525027499659832 0 -0.00059313140975687719 -0.0051438723933482939 0 -0.00055819307728443603 -0.0052618215652914524 0 -0.0005378362915124358 -0.0051738055974051168 0 -0.00087579126580369601 -0.0050586180851625341 0 -0.00077476576102590577 -0.004999223541867868 0 -0.0007584856842810262 -0.0050560164830330996 0 -0.00071007092871702758 -0.0051017606553614599 0 -0.00082059392903123909 -0.0051543323066238437 0 -0.00087579126580369601 -0.0050586180851625341 0 -0.0007584856842810262 -0.0050560164830330996 0 -0.00083686455621393048 -0.0051688773906442076 0 -0.00055781022567579224 -0.0051446656311803559 0 -0.00059313140975687719 -0.0051438723933482939 0 -0.0005378362915124358 -0.0051738055974051168 0 -0.00055781022567579224 -0.0051446656311803559 0 -0.00059313140975687719 -0.0051438723933482939 0 -0.00056790593331450246 -0.0051075961643932037 0 -0.00055781022567579224 -0.0051446656311803559 0 -0.00056790593331450246 -0.0051075961643932037 0 -0.00054553810632646221 -0.0051120491853689064 0 -0.00071007092871702758 -0.0051017606553614599 0 -0.00064088496327256825 -0.00510654188752027 0 -0.00072719652249949565 -0.0051032045206017302 0 -0.00071007092871702758 -0.0051017606553614599 0 -0.00072719652249949565 -0.0051032045206017302 0 -0.00064088496327256825 -0.00510654188752027 0 -0.00069677805255300481 -0.0051130836723017725 0 -0.00069810885992778633 -0.0051083758339706626 0 -0.00070070813806747399 -0.0051122915083120935 0 -0.00064088496327256825 -0.00510654188752027 0 -0.00061119537398799881 -0.0051109856787222427 0 -0.00075874046233625244 -0.0050571301204885262 0 -0.00071531194271347136 -0.0052077791107851372 0 -0.00083686455621393048 -0.0051688773906442076 0 -0.00071007092871702758 -0.0051017606553614599 0 -0.00063314305356923809 -0.005244963608645078 0 -0.00071531194271347136 -0.0052077791107851372 0 -0.00077220635530730615 -0.0052477778773705151 0 -0.00083686455621393048 -0.0051688773906442076 0 -0.00077220635530730615 -0.0052477778773705151 0 -0.00083686455621393048 -0.0051688773906442076 0 -0.00086547600172551785 -0.0052559329717242302 0 -0.00087003868893038838 -0.0051564462554998325 0 -0.001072696276503694 -0.0050372875635879503 0 -0.00087579126580369601 -0.0050586180851625341 0 -0.00083686455621393048 -0.0051688773906442076 0 -0.0010616873354648627 -0.0051525027499659832 0 -0.00083686455621393048 -0.0051688773906442076 0 -0.00086547600172551785 -0.0052559329717242302 0 -0.0010616873354648627 -0.0051525027499659832 0 -0.00085937976776717055 -0.0050678148582857544 0 -0.0008525805351661909 -0.0052656940864839507 0 -0.0011754375865370384 -0.0052415367425728936 0 -0.00071531194271347136 -0.0052077791107851372 0 -0.00077220635530730615 -0.0052477778773705151 0 -0.00067117372399487149 -0.0053583498421462695 0 -0.00085937976776717055 -0.0050678148582857544 0 -0.0008525805351661909 -0.0052656940864839507 0 -0.00059107936684680391 -0.0052099472222542787 0 -0.00077220635530730615 -0.0052477778773705151 0 -0.00086547600172551785 -0.0052559329717242302 0 -0.00067117372399487149 -0.0053583498421462695 0 -0.00087003868893038838 -0.0051564462554998325 0 -0.00061839299764408491 -0.0053190760955941227 0 -0.0014459142178324083 -0.0050503018799641277 0 -0.0013904660822981973 -0.0047900402932402617 0 -0.0013038500558152986 -0.0049434042182769896 0 -0.0014459142178324083 -0.0050503018799641277 0 -0.0013038500558152986 -0.0049434042182769896 0 -0.0011754375865370384 -0.0052415367425728936 0 -0.0013038500558152986 -0.0049434042182769896 0 -0.0011259732803858247 -0.0049280467211993235 0 -0.0011754375865370384 -0.0052415367425728936 0 -0.00085937976776717055 -0.0050678148582857544 0 -0.0011259732803858247 -0.0049280467211993235 0 -0.0011754375865370384 -0.0052415367425728936 0 -0.001502175027829027 -0.0053105570975832189 0 -0.0014459142178324083 -0.0050503018799641277 0 -0.0011754375865370384 -0.0052415367425728936 0 -0.001502175027829027 -0.0053105570975832189 0 -0.0011754375865370384 -0.0052415367425728936 0 -0.0013047794943444658 -0.005468562484155534 0 -0.0020563186225965044 -0.0052112612061451461 0 -0.0013165721958325117 -0.0050832281166552267 0 -0.0015604887955307822 -0.005570116320135445 0 -0.0013047794943444658 -0.005468562484155534 0 -0.0012365774393581625 -0.00569760971754659 0 -0.0013047794943444658 -0.005468562484155534 0 -0.0010520472929165547 -0.0056009631927686539 0 -0.0012365774393581625 -0.00569760971754659 0 -0.0011754375865370384 -0.0052415367425728936 0 -0.0010520472929165547 -0.0056009631927686539 0 -0.0009118418821004884 -0.005441207000681814 0 -0.0011754375865370384 -0.0052415367425728936 0 -0.0013047794943444658 -0.005468562484155534 0 -0.0010520472929165547 -0.0056009631927686539 0 -0.0008525805351661909 -0.0052656940864839507 0 -0.0011754375865370384 -0.0052415367425728936 0 -0.0009118418821004884 -0.005441207000681814 0 -0.0008525805351661909 -0.0052656940864839507 0 -0.0009118418821004884 -0.005441207000681814 0 -0.00072352096225184002 -0.0053669980789234238 0 -0.0008525805351661909 -0.0052656940864839507 0 -0.00072352096225184002 -0.0053669980789234238 0 -0.00059107936684680391 -0.0052099472222542787 0 -0.0009118418821004884 -0.005441207000681814 0 -0.00072352096225184002 -0.0053669980789234238 0 -0.00067927252129606813 -0.0055333082876066015 0 -0.00072352096225184002 -0.0053669980789234238 0 -0.00067927252129606813 -0.0055333082876066015 0 -0.00053710271790491815 -0.0053939900597634611 0 -0.00067927252129606813 -0.0055333082876066015 0 -0.00084597281367569156 -0.0056235884409501303 0 -0.0006823958473621193 -0.005719842185417285 0 -0.0009118418821004884 -0.005441207000681814 0 -0.00067927252129606813 -0.0055333082876066015 0 -0.00084597281367569156 -0.0056235884409501303 0 -0.0010520472929165547 -0.0056009631927686539 0 -0.0009118418821004884 -0.005441207000681814 0 -0.00084597281367569156 -0.0056235884409501303 0 -0.0010520472929165547 -0.0056009631927686539 0 -0.00084597281367569156 -0.0056235884409501303 0 -0.00090809775336637619 -0.0058212150638591691 0 -0.00084597281367569156 -0.0056235884409501303 0 -0.00090809775336637619 -0.0058212150638591691 0 -0.0006823958473621193 -0.005719842185417285 0 -0.0012857334276255171 -0.0045945606837292652 0 -0.0011740959036820871 -0.0047268372662255297 0 -0.00099894740747481781 -0.0046886294473237082 0 -0.0011061684236146816 -0.0052057107719568783 0 -0.00082322011133837553 -0.0053290981394054264 0 -0.00090809775336637619 -0.0058212150638591691 0 -0.0006823958473621193 -0.005719842185417285 0 -0.00059223004357170127 -0.0059249411478493373 0 -0.0013385425929166859 -0.0047784070901932853 0 -0.0012857334276255171 -0.0045945606837292652 0 -0.0014443294655974502 -0.0046539403615782982 0 -0.0013385425929166859 -0.0047784070901932853 0 -0.0012857334276255171 -0.0045945606837292652 0 -0.0011740959036820871 -0.0047268372662255297 0 -0.0015232698477846713 -0.0039916120575558016 0 -0.0016626655399087841 -0.0038890315014012355 0 -0.0013385425929166859 -0.0047784070901932853 0 -0.0014443294655974502 -0.0046539403615782982 0 -0.0015969885779111878 -0.0047118186661928877 0 -0.0014443294655974502 -0.0046539403615782982 0 -0.0015969885779111878 -0.0047118186661928877 0 -0.0015464247080449226 -0.0045083208474496197 0 -0.0017077367927095654 -0.0045574399096551099 0 -0.0015969885779111878 -0.0047118186661928877 0 -0.0015464247080449226 -0.0045083208474496197 0 -0.0012857334276255171 -0.0045945606837292652 0 -0.0014443294655974502 -0.0046539403615782982 0 -0.0015464247080449226 -0.0045083208474496197 0 -0.0010520472929165547 -0.0056009631927686539 0 -0.00090809775336637619 -0.0058212150638591691 0 -0.0012365774393581625 -0.00569760971754659 0 -0.0011061684236146816 -0.0052057107719568783 0 -0.0013165721958325117 -0.0050832281166552267 0 0.00062242547471084552 -0.0050086920578352343 0 0.000567933084517829 -0.0050366418423042712 0 0.0006210685462358079 -0.0049664165028193621 0 -0.00024920571920464724 -0.0058808775848965371 0 -0.00032416649368889844 -0.0057033979583949873 0 -0.00014201497211455537 -0.0056437103707380424 0 0.00013217094684465591 -0.0054600228915869173 0 0.00024550780489482143 -0.0053064028270954139 0 0.00064672448410712483 -0.0049817080767906845 0 0.00062242547471084552 -0.0050086920578352343 0 0.0006210685462358079 -0.0049664165028193621 0 0.00064672448410712483 -0.0049817080767906845 0 0.00062242547471084552 -0.0050086920578352343 0 0.00065590396630005213 -0.0050141348337439879 0 0.00062242547471084552 -0.0050086920578352343 0 0.00062163099413582387 -0.0050494320425151186 0 0.000567933084517829 -0.0050366418423042712 0 0.00062242547471084552 -0.0050086920578352343 0 0.00062163099413582387 -0.0050494320425151186 0 0.00065590396630005213 -0.0050141348337439879 0 0.00062163099413582387 -0.0050494320425151186 0 0.00065590396630005213 -0.0050141348337439879 0 0.00067322698401058316 -0.0050516708153936331 0 0.00065538479366482251 -0.0050893079723330261 0 0.00062163099413582387 -0.0050494320425151186 0 0.00067322698401058316 -0.0050516708153936331 0 0.00059611042580046277 -0.0050859786706281421 0 0.00062163099413582387 -0.0050494320425151186 0 0.000567933084517829 -0.0050366418423042712 0 -0.00033378007267263304 -0.0052321816067757857 0 0.00013217094684465591 -0.0054600228915869173 0 -0.00031000742603312583 -0.006015768793747437 0 -0.00024920571920464724 -0.0058808775848965371 0 -0.00040259493088067489 -0.005879661954201679 0 -0.00031000742603312583 -0.006015768793747437 0 -0.00040259493088067489 -0.005879661954201679 0 -0.00059223004357170127 -0.0059249411478493373 0 -0.00040259493088067489 -0.005879661954201679 0 -0.00046473570252164077 -0.0057711799425954604 0 -0.00035996747998182744 -0.0058087284651058913 0 -0.00024920571920464724 -0.0058808775848965371 0 -0.00040259493088067489 -0.005879661954201679 0 -0.00035996747998182744 -0.0058087284651058913 0 -0.00040259493088067489 -0.005879661954201679 0 -0.00059223004357170127 -0.0059249411478493373 0 -0.00046473570252164077 -0.0057711799425954604 0 -0.0006823958473621193 -0.005719842185417285 0 -0.00059223004357170127 -0.0059249411478493373 0 -0.00046473570252164077 -0.0057711799425954604 0 -0.0006823958473621193 -0.005719842185417285 0 -0.00046473570252164077 -0.0057711799425954604 0 -0.00048443833866502708 -0.0055893374364509316 0 -0.00024920571920464724 -0.0058808775848965371 0 -0.00035996747998182744 -0.0058087284651058913 0 -0.00032416649368889844 -0.0057033979583949873 0 -0.00046473570252164077 -0.0057711799425954604 0 -0.00032416649368889844 -0.0057033979583949873 0 -0.00048443833866502708 -0.0055893374364509316 0 -0.00046473570252164077 -0.0057711799425954604 0 -0.00035996747998182744 -0.0058087284651058913 0 -0.00032416649368889844 -0.0057033979583949873 0 -0.00032416649368889844 -0.0057033979583949873 0 -0.00036265020722692275 -0.0055538248123504948 0 -0.00026046731584581018 -0.0056063673383070353 0 -0.00032416649368889844 -0.0057033979583949873 0 -0.00036265020722692275 -0.0055538248123504948 0 -0.00048443833866502708 -0.0055893374364509316 0 -0.00036265020722692275 -0.0055538248123504948 0 -0.00048443833866502708 -0.0055893374364509316 0 -0.00043756502571825739 -0.0055122489728836521 0 -0.00067927252129606813 -0.0055333082876066015 0 -0.00048443833866502708 -0.0055893374364509316 0 -0.00053710271790491815 -0.0053939900597634611 0 -0.00067927252129606813 -0.0055333082876066015 0 -0.0006823958473621193 -0.005719842185417285 0 -0.00048443833866502708 -0.0055893374364509316 0 -0.00048443833866502708 -0.0055893374364509316 0 -0.00049213169226416909 -0.005485359917540818 0 -0.00043756502571825739 -0.0055122489728836521 0 -0.00048558889107236077 -0.0055694169522861143 0 -0.00051806222591393016 -0.0054441770658240924 0 -0.00049213169226416909 -0.005485359917540818 0 -0.00044865268701754123 -0.0054501525255480207 0 -0.00043756502571825739 -0.0055122489728836521 0 -0.00044865268701754123 -0.0054501525255480207 0 -0.00049626537559520421 -0.0054239960505354547 0 -0.00043134739117247825 -0.00538913445991365 0 -0.00049213169226416909 -0.005485359917540818 0 -0.00044865268701754123 -0.0054501525255480207 0 -0.00049626537559520421 -0.0054239960505354547 0 -0.00049213169226416909 -0.005485359917540818 0 -0.00049626537559520421 -0.0054239960505354547 0 -0.00052051502158772373 -0.0053815161756273992 0 -0.00072352096225184002 -0.0053669980789234238 0 -0.00053710271790491815 -0.0053939900597634611 0 -0.00059107936684680391 -0.0052099472222542787 0 -0.00051806222591393016 -0.0054441770658240924 0 -0.00061839299764408491 -0.0053190760955941227 0 -0.00038955702388402492 -0.0054580836508122893 0 -0.00027292867981531437 -0.0054823824243014092 0 -0.00035040587643219307 -0.0053752385238288606 0 -0.00036265020722692275 -0.0055538248123504948 0 -0.00038955702388402492 -0.0054580836508122893 0 -0.00027292867981531437 -0.0054823824243014092 0 -0.00036265020722692275 -0.0055538248123504948 0 -0.00043756502571825739 -0.0055122489728836521 0 -0.00038955702388402492 -0.0054580836508122893 0 -0.00044865268701754123 -0.0054501525255480207 0 -0.00043756502571825739 -0.0055122489728836521 0 -0.00038955702388402492 -0.0054580836508122893 0 -0.00044865268701754123 -0.0054501525255480207 0 -0.00038955702388402492 -0.0054580836508122893 0 -0.00043134739117247825 -0.00538913445991365 0 -0.00027292867981531437 -0.0054823824243014092 0 -9.8493256328654734e-05 -0.0055387734744937684 0 -0.00018476416848443175 -0.0052071188880429093 0 -0.00032416649368889844 -0.0057033979583949873 0 -0.00026046731584581018 -0.0056063673383070353 0 -0.00014201497211455537 -0.0056437103707380424 0 -0.00026046731584581018 -0.0056063673383070353 0 -0.00014201497211455537 -0.0056437103707380424 0 -9.8493256328654734e-05 -0.0055387734744937684 0 -0.00036265020722692275 -0.0055538248123504948 0 -0.00027292867981531437 -0.0054823824243014092 0 -0.00026046731584581018 -0.0056063673383070353 0 -0.00027292867981531437 -0.0054823824243014092 0 -0.00026046731584581018 -0.0056063673383070353 0 -9.8493256328654734e-05 -0.0055387734744937684 0 -0.00014201497211455537 -0.0056437103707380424 0 -9.8493256328654734e-05 -0.0055387734744937684 0 -2.4579457716136484e-05 -0.0054766668892523799 0 0.0006210685462358079 -0.0049664165028193621 0 0.00064500347817760884 -0.0049607710659329632 0 0.00066470761677651956 -0.0049734962732740006 0 0.00024550780489482143 -0.0053064028270954139 0 0.00031526638335562207 -0.0052281614840691531 0 0.00064672448410712483 -0.0049817080767906845 0 0.0006210685462358079 -0.0049664165028193621 0 0.00064500347817760884 -0.0049607710659329632 0 -9.8493256328654734e-05 -0.0055387734744937684 0 -2.4579457716136484e-05 -0.0054766668892523799 0 -0.00010471532985102062 -0.0053758094035287864 0 -2.4579457716136484e-05 -0.0054766668892523799 0 -0.00010471532985102062 -0.0053758094035287864 0 8.3067672788517344e-05 -0.0053544122460738777 0 -8.9547062752052241e-05 -0.0055085462988750389 0 -0.0001800023472058491 -0.0053456675576295928 0 -0.00027292867981531437 -0.0054823824243014092 0 -0.00024718329311372925 -0.0053222155402422961 0 -0.00035040587643219307 -0.0053752385238288606 0 -0.00024718329311372925 -0.0053222155402422961 0 -0.00032074254783477966 -0.005277318837798875 0 -0.00035040587643219307 -0.0053752385238288606 0 -0.00027608214556098685 -0.0054414140925667072 0 -0.0001800023472058491 -0.0053456675576295928 0 -0.00018055316651589433 -0.005454969955795903 0 -0.00010828480105108252 -0.0052325982914890965 0 -0.00023735060951426127 -0.0052412458129518042 0 -0.0001800023472058491 -0.0053456675576295928 0 -0.0002638490889707035 -0.0052159538869591101 0 -0.00024718329311372925 -0.0053222155402422961 0 -0.00032074254783477966 -0.005277318837798875 0 -0.00028734588317785257 -0.005182975493567007 0 -0.00032074254783477966 -0.005277318837798875 0 -0.00035055928551999953 -0.0052093472670530971 0 -0.00028734588317785257 -0.005182975493567007 0 -0.00010471532985102062 -0.0053758094035287864 0 -5.0654112042780769e-06 -0.0052961903076504425 0 -6.0527665108834292e-05 -0.0052138712669522261 0 -0.00010471532985102062 -0.0053758094035287864 0 -5.0654112042780769e-06 -0.0052961903076504425 0 8.3067672788517344e-05 -0.0053544122460738777 0 -0.0001800023472058491 -0.0053456675576295928 0 -8.2555084671296028e-05 -0.0052331937201497295 0 -0.00049751653637728236 -0.005416142209190432 0 -0.00050453473728364186 -0.0052403550242965989 0 -0.00063314305356923809 -0.005244963608645078 0 -0.00061839299764408491 -0.0053190760955941227 0 -0.00049626537559520421 -0.0054239960505354547 0 -0.00052051502158772373 -0.0053815161756273992 0 -0.00050988799071232326 -0.0052297885003727016 0 -0.00049626537559520421 -0.0054239960505354547 0 -0.00045712469152190023 -0.005328401784532844 0 -0.00050369188965515295 -0.0052518863784468553 0 -0.00049626537559520421 -0.0054239960505354547 0 -0.00045712469152190023 -0.005328401784532844 0 -0.00043134739117247825 -0.00538913445991365 0 -0.00032074254783477966 -0.005277318837798875 0 -0.00035040587643219307 -0.0053752385238288606 0 -0.00040621243707517773 -0.0053108966803790802 0 -0.00045712469152190023 -0.005328401784532844 0 -0.00043134739117247825 -0.00538913445991365 0 -0.00040621243707517773 -0.0053108966803790802 0 -0.00043134739117247825 -0.00538913445991365 0 -0.00035040587643219307 -0.0053752385238288606 0 -0.00040621243707517773 -0.0053108966803790802 0 -0.00038955702388402492 -0.0054580836508122893 0 -0.00043134739117247825 -0.00538913445991365 0 -0.00035040587643219307 -0.0053752385238288606 0 -0.00032074254783477966 -0.005277318837798875 0 -0.0003993938906885875 -0.0052382189672352661 0 -0.00040621243707517773 -0.0053108966803790802 0 -0.00032074254783477966 -0.005277318837798875 0 -0.0003993938906885875 -0.0052382189672352661 0 -0.00035055928551999953 -0.0052093472670530971 0 -0.0003993938906885875 -0.0052382189672352661 0 -0.00044741577857523119 -0.0052714787322681216 0 -0.00044728653112828141 -0.0052259510357088408 0 -0.0003993938906885875 -0.0052382189672352661 0 -0.00040621243707517773 -0.0053108966803790802 0 -0.00044741577857523119 -0.0052714787322681216 0 -0.00045712469152190023 -0.005328401784532844 0 -0.00040621243707517773 -0.0053108966803790802 0 -0.00044741577857523119 -0.0052714787322681216 0 -0.00055819307728443603 -0.0052618215652914524 0 -0.00052051502158772373 -0.0053815161756273992 0 -0.00050988799071232326 -0.0052297885003727016 0 -0.00045712469152190023 -0.005328401784532844 0 -0.00044741577857523119 -0.0052714787322681216 0 -0.00050369188965515295 -0.0052518863784468553 0 -0.00044741577857523119 -0.0052714787322681216 0 -0.00044728653112828141 -0.0052259510357088408 0 -0.00050369188965515295 -0.0052518863784468553 0 -0.00055819307728443603 -0.0052618215652914524 0 -0.00050988799071232326 -0.0052297885003727016 0 -0.0005378362915124358 -0.0051738055974051168 0 -0.00050453473728364186 -0.0052403550242965989 0 -0.00055649163170767878 -0.0050590022969409006 0 -0.00047044567458155891 -0.0051831758726189232 0 -0.00047855770144323504 -0.0051080351388508635 0 -0.00054163677105433829 -0.0050649796216545254 0 -0.00054553810632646221 -0.0051120491853689064 0 -0.0005378362915124358 -0.0051738055974051168 0 -0.00052126290944821041 -0.0050390841584651647 0 -0.00050369188965515295 -0.0052518863784468553 0 -0.00047044567458155891 -0.0051831758726189232 0 -0.00054163677105433829 -0.0050649796216545254 0 -0.00050988799071232326 -0.0052297885003727016 0 -0.0005378362915124358 -0.0051738055974051168 0 -0.00052126290944821041 -0.0050390841584651647 0 -0.00055781022567579224 -0.0051446656311803559 0 -0.00054553810632646221 -0.0051120491853689064 0 -0.0005378362915124358 -0.0051738055974051168 0 -0.00044728653112828141 -0.0052259510357088408 0 -0.00050369188965515295 -0.0052518863784468553 0 -0.00047044567458155891 -0.0051831758726189232 0 -0.00047044567458155891 -0.0051831758726189232 0 -0.00041771375945365838 -0.0051226637013687595 0 -0.00047855770144323504 -0.0051080351388508635 0 -0.00041771375945365838 -0.0051226637013687595 0 -0.00040723708686132376 -0.005190505268016273 0 -0.00035890841224637187 -0.0051597721151289185 0 -0.00047044567458155891 -0.0051831758726189232 0 -0.00041771375945365838 -0.0051226637013687595 0 -0.00040723708686132376 -0.005190505268016273 0 -0.00044728653112828141 -0.0052259510357088408 0 -0.00047044567458155891 -0.0051831758726189232 0 -0.00040723708686132376 -0.005190505268016273 0 -0.0003993938906885875 -0.0052382189672352661 0 -0.00044728653112828141 -0.0052259510357088408 0 -0.00040723708686132376 -0.005190505268016273 0 -0.0003993938906885875 -0.0052382189672352661 0 -0.00040723708686132376 -0.005190505268016273 0 -0.00035055928551999953 -0.0052093472670530971 0 -0.00040723708686132376 -0.005190505268016273 0 -0.00035055928551999953 -0.0052093472670530971 0 -0.00035890841224637187 -0.0051597721151289185 0 -0.00041771375945365838 -0.0051226637013687595 0 -0.00035890841224637187 -0.0051597721151289185 0 -0.00034586079106851595 -0.0050938793134199878 0 -0.0005233132374259556 -0.0049999903496777982 0 -0.00030159988632245401 -0.0050173254617004543 0 -0.0002764491453133724 -0.0049999915872569658 0 -0.00041308506130700607 -0.0050598512179717125 0 -0.0005233132374259556 -0.0049999903496777982 0 -0.00030159988632245401 -0.0050173254617004543 0 -0.00034586079106851595 -0.0050938793134199878 0 -0.00041308506130700607 -0.0050598512179717125 0 -0.00030159988632245401 -0.0050173254617004543 0 -0.00041771375945365838 -0.0051226637013687595 0 -0.00041308506130700607 -0.0050598512179717125 0 -0.00047886781640762597 -0.005067131516507035 0 -0.00041771375945365838 -0.0051226637013687595 0 -0.00034586079106851595 -0.0050938793134199878 0 -0.00041308506130700607 -0.0050598512179717125 0 -0.00047855770144323504 -0.0051080351388508635 0 -0.00047886781640762597 -0.005067131516507035 0 -0.00054163677105433829 -0.0050649796216545254 0 -0.00041771375945365838 -0.0051226637013687595 0 -0.00047855770144323504 -0.0051080351388508635 0 -0.00047886781640762597 -0.005067131516507035 0 -0.00041308506130700607 -0.0050598512179717125 0 -0.00047886781640762597 -0.005067131516507035 0 -0.0005233132374259556 -0.0049999903496777982 0 -0.00047886781640762597 -0.005067131516507035 0 -0.0005233132374259556 -0.0049999903496777982 0 -0.00054163677105433829 -0.0050649796216545254 0 -0.00058222550302360879 -0.0050000463699963627 0 -0.00055649163170767878 -0.0050590022969409006 0 -0.00052340440776117833 -0.00500000000215355 0 -0.00058224942387695997 -0.0049999997676124092 0 -0.0005783472722794196 -0.0050792329021747875 0 -0.00052341829913043168 -0.0050000353197257857 0 -0.00055649163170767878 -0.0050590022969409006 0 -0.00065286119395802967 -0.0050848160121565065 0 -0.00058225372782513796 -0.0049999992038155163 0 -0.00057908561092142599 -0.005078639494799881 0 -0.00064088496327256825 -0.00510654188752027 0 -0.00055649163170767878 -0.0050590022969409006 0 -0.0005679456103860267 -0.0051076993849692616 0 -0.00054553810632646221 -0.0051120491853689064 0 -0.00052126290944821041 -0.0050390841584651647 0 -5.0654112042780769e-06 -0.0052961903076504425 0 -6.0527665108834292e-05 -0.0052138712669522261 0 6.9375039354450395e-05 -0.0052283584125939458 0 -0.00035055928551999953 -0.0052093472670530971 0 -0.00035890841224637187 -0.0051597721151289185 0 -0.00028734588317785257 -0.005182975493567007 0 -0.00035890841224637187 -0.0051597721151289185 0 -0.00034586079106851595 -0.0050938793134199878 0 -0.00028734588317785257 -0.005182975493567007 0 -0.00010828480105108252 -0.0052325982914890965 0 -0.00023735060951426127 -0.0052412458129518042 0 -0.00019747948978956735 -0.0051060347637417814 0 -0.00023735060951426127 -0.0052412458129518042 0 -0.00019747948978956735 -0.0051060347637417814 0 -0.00030159988632245401 -0.0050173254617004543 0 -0.00034586079106851595 -0.0050938793134199878 0 -0.00028734588317785257 -0.005182975493567007 0 -0.00030159988632245401 -0.0050173254617004543 0 -0.0002638490889707035 -0.0052159538869591101 0 -0.00030126460458241471 -0.0050260587510297713 0 -0.00019747948978956735 -0.0051060347637417814 0 -0.0002764491453133724 -0.0049999915872569658 0 -2.938864237482818e-05 -0.0050000021617895218 0 -0.00019747948978956735 -0.0051060347637417814 0 -0.00030159988632245401 -0.0050173254617004543 0 -0.0002764491453133724 -0.0049999915872569658 0 -0.00010828480105108252 -0.0052325982914890965 0 -0.00019747948978956735 -0.0051060347637417814 0 -2.938864237482818e-05 -0.0050000021617895218 0 -6.0527665108834292e-05 -0.0052138712669522261 0 -2.9342999887045937e-05 -0.0049999676955765392 0 9.7552652150648971e-05 -0.0051156427998279843 0 -8.2555084671296028e-05 -0.0052331937201497295 0 -2.9408045738587898e-05 -0.0050000226540352043 0 -2.9342999887045937e-05 -0.0049999676955765392 0 9.7552652150648971e-05 -0.0051156427998279843 0 0.0002506285620888829 -0.0049999894068248002 0 0.00029294048776684769 -0.0051520522700750897 0 0.00029841743313816269 -0.0052579045488674288 0 9.7552652150648971e-05 -0.0051156427998279843 0 6.9375039354450395e-05 -0.0052283584125939458 0 0.00027684012796867812 -0.0051550555822969342 0 6.9375039354450395e-05 -0.0052283584125939458 0 0.00027684012796867812 -0.0051550555822969342 0 8.3067672788517344e-05 -0.0053544122460738777 0 -6.0527665108834292e-05 -0.0052138712669522261 0 9.7552652150648971e-05 -0.0051156427998279843 0 6.9375039354450395e-05 -0.0052283584125939458 0 0.00027684012796867812 -0.0051550555822969342 0 0.00043229018550430294 -0.0051317498643644582 0 0.00041866844628977605 -0.0052062773456850965 0 0.00027684012796867812 -0.0051550555822969342 0 0.0002506285620888829 -0.0049999894068248002 0 0.00043229018550430294 -0.0051317498643644582 0 9.7552652150648971e-05 -0.0051156427998279843 0 0.00027684012796867812 -0.0051550555822969342 0 0.0002506285620888829 -0.0049999894068248002 0 0.0002506285620888829 -0.0049999894068248002 0 0.00053043331033215133 -0.0049999721348104155 0 0.00043229018550430294 -0.0051317498643644582 0 0.00053043331033215133 -0.0049999721348104155 0 0.00043229018550430294 -0.0051317498643644582 0 0.00062185132840791217 -0.0051433007249848395 0 0.00043229018550430294 -0.0051317498643644582 0 0.00051841181598937783 -0.0052280424713244686 0 0.00062185132840791217 -0.0051433007249848395 0 0.00043229018550430294 -0.0051317498643644582 0 0.00051841181598937783 -0.0052280424713244686 0 0.00041866844628977605 -0.0052062773456850965 0 0.00051841181598937783 -0.0052280424713244686 0 0.0004452025513894107 -0.0052431352047735743 0 0.00041866844628977605 -0.0052062773456850965 0 0.00051841181598937783 -0.0052280424713244686 0 0.00065575599936747034 -0.0052608964598123836 0 0.00063215630251113445 -0.0053813193052027484 0 0.00051841181598937783 -0.0052280424713244686 0 0.00062185132840791217 -0.0051433007249848395 0 0.00065575599936747034 -0.0052608964598123836 0 0.00051841181598937783 -0.0052280424713244686 0 0.0004452025513894107 -0.0052431352047735743 0 0.00063215630251113445 -0.0053813193052027484 0 0.00063187042580353618 -0.005020752925246022 0 0.00081097353749087168 -0.0050517242069804177 0 0.0004452025513894107 -0.0052431352047735743 0 0.00047227100939921775 -0.0051654153741234375 0 0.00057592987446145267 -0.004999963980913907 0 0.0004452025513894107 -0.0052431352047735743 0 0.00047227100939921775 -0.0051654153741234375 0 0.00041866844628977605 -0.0052062773456850965 0 0.00031526638335562207 -0.0052281614840691531 0 0.00029841743313816269 -0.0052579045488674288 0 0.00066470761677651956 -0.0049734962732740006 0 0.00051324528981557991 -0.0051970502796927758 0 0.00057592987446145267 -0.004999963980913907 0 0.00047227100939921775 -0.0051654153741234375 0 0.00051324528981557991 -0.0051970502796927758 0 0.00057592987446145267 -0.004999963980913907 0 -5.0654112042780769e-06 -0.0052961903076504425 0 6.9375039354450395e-05 -0.0052283584125939458 0 8.3067672788517344e-05 -0.0053544122460738777 0 0.00027684012796867812 -0.0051550555822969342 0 0.00051324528981557991 -0.0051970502796927758 0 0.00041866844628977605 -0.0052062773456850965 0 0.00047227100939921775 -0.0051654153741234375 0 0.00051324528981557991 -0.0051970502796927758 0 0.00041866844628977605 -0.0052062773456850965 0 0.0011223494920147644 -0.0051786034659601016 0 0.0011889671233488816 -0.0052389082525825872 0 0.0012355196531963588 -0.0051876304710601843 0 0.0011889671233488816 -0.0052389082525825872 0 0.001256185460040327 -0.005243321348759533 0 0.0012355196531963588 -0.0051876304710601843 0 0.0011223494920147644 -0.0051786034659601016 0 0.0012366917252475446 -0.0051063250728045637 0 0.0012355196531963588 -0.0051876304710601843 0 0.0011223494920147644 -0.0051786034659601016 0 0.0012366917252475446 -0.0051063250728045637 0 0.0010902538386550792 -0.0049999635525310162 0 0.0012366917252475446 -0.0051063250728045637 0 0.0010902538386550792 -0.0049999635525310162 0 0.0013700764729468098 -0.0049999803633547684 0 0.00095478010339344768 -0.0051023036721966697 0 0.0010902538386550792 -0.0049999635525310162 0 0.00081032024352560561 -0.0049999549166050436 0 0.0011223494920147644 -0.0051786034659601016 0 0.00095478010339344768 -0.0051023036721966697 0 0.0010902538386550792 -0.0049999635525310162 0 0.0011223494920147644 -0.0051786034659601016 0 0.00095478010339344768 -0.0051023036721966697 0 0.00097806721407568058 -0.0052395123820690309 0 0.00095478010339344768 -0.0051023036721966697 0 0.00082474786916341325 -0.0052027646544124473 0 0.00097806721407568058 -0.0052395123820690309 0 0.00095478010339344768 -0.0051023036721966697 0 0.00082474786916341325 -0.0052027646544124473 0 0.00081032024352560561 -0.0049999549166050436 0 0.00053043331033215133 -0.0049999721348104155 0 0.00081032024352560561 -0.0049999549166050436 0 0.00062185132840791217 -0.0051433007249848395 0 0.00082474786916341325 -0.0052027646544124473 0 0.00062185132840791217 -0.0051433007249848395 0 0.00065575599936747034 -0.0052608964598123836 0 0.00082474786916341325 -0.0052027646544124473 0 0.00081032024352560561 -0.0049999549166050436 0 0.00062185132840791217 -0.0051433007249848395 0 0.00081097353749087168 -0.0050517242069804177 0 0.0010502996271534195 -0.005045425742182909 0 0.00065575599936747034 -0.0052608964598123836 0 0.00063215630251113445 -0.0053813193052027484 0 0.00089277155200055247 -0.005436766964051867 0 0.00082474786916341325 -0.0052027646544124473 0 0.00065575599936747034 -0.0052608964598123836 0 0.00089277155200055247 -0.005436766964051867 0 0.00082474786916341325 -0.0052027646544124473 0 0.00089277155200055247 -0.005436766964051867 0 0.00097806721407568058 -0.0052395123820690309 0 0.00089277155200055247 -0.005436766964051867 0 0.00097806721407568058 -0.0052395123820690309 0 0.0010921916755380994 -0.0052871339818126939 0 0.0011223494920147644 -0.0051786034659601016 0 0.00097806721407568058 -0.0052395123820690309 0 0.0010921916755380994 -0.0052871339818126939 0 0.0010502996271534195 -0.005045425742182909 0 0.0012249465699278618 -0.0051847512840424255 0 0.00089277155200055247 -0.005436766964051867 0 0.0011574319519859566 -0.0053579214936633323 0 0.0011838761141443426 -0.005440266862731474 0 0.00089277155200055247 -0.005436766964051867 0 0.0010921916755380994 -0.0052871339818126939 0 0.0011574319519859566 -0.0053579214936633323 0 0.0012228894139760095 -0.0053524021364633797 0 0.0012249465699278618 -0.0051847512840424255 0 0.0013033800481528199 -0.0053742910365716925 0 0.0012789341150211176 -0.0053744700902087113 0 0.0013088528720325925 -0.0053449289099598762 0 0.0012007851299089538 -0.0054038584864752881 0 0.0012789341150211176 -0.0053744700902087113 0 0.001225642278984643 -0.0053632648563596312 0 0.0012249465699278618 -0.0051847512840424255 0 0.0012542792192636622 -0.0052576393588946247 0 0.0011574319519859566 -0.0053579214936633323 0 0.001225642278984643 -0.0053632648563596312 0 0.0012366950576706394 -0.0053268082204297176 0 0.0012789341150211176 -0.0053744700902087113 0 0.001225642278984643 -0.0053632648563596312 0 0.0012893426286677183 -0.0053651787355293969 0 0.0011574319519859566 -0.0053579214936633323 0 0.0012007851299089538 -0.0054038584864752881 0 0.001225642278984643 -0.0053632648563596312 0 0.001225642278984643 -0.0053632648563596312 0 0.0012366950576706394 -0.0053268082204297176 0 0.0012893426286677183 -0.0053651787355293969 0 0.0011574319519859566 -0.0053579214936633323 0 0.0012366950576706394 -0.0053268082204297176 0 0.0011834027662461387 -0.0052993616453370007 0 0.0012366950576706394 -0.0053268082204297176 0 0.0011834027662461387 -0.0052993616453370007 0 0.0012369776168940051 -0.0052826871170520298 0 0.0010921916755380994 -0.0052871339818126939 0 0.0011574319519859566 -0.0053579214936633323 0 0.0011834027662461387 -0.0052993616453370007 0 0.0011223494920147644 -0.0051786034659601016 0 0.0010921916755380994 -0.0052871339818126939 0 0.0011889671233488816 -0.0052389082525825872 0 0.0010921916755380994 -0.0052871339818126939 0 0.0011834027662461387 -0.0052993616453370007 0 0.0011889671233488816 -0.0052389082525825872 0 0.0011889671233488816 -0.0052389082525825872 0 0.0012369776168940051 -0.0052826871170520298 0 0.001256185460040327 -0.005243321348759533 0 0.0011834027662461387 -0.0052993616453370007 0 0.0011889671233488816 -0.0052389082525825872 0 0.0012369776168940051 -0.0052826871170520298 0 0.0013278303199617475 -0.0048710020403489596 0 0.0014112476469013069 -0.0048185436111562036 0 0.001299026404241447 -0.0047758131307824277 0 0.0013278303199617475 -0.0048710020403489596 0 0.0014112476469013069 -0.0048185436111562036 0 0.0014025384962450384 -0.0049059663560996614 0 0.0012249465699278618 -0.0051847512840424255 0 0.0013904495060815716 -0.0050229119317377474 0 0.0013033800481528199 -0.0053742910365716925 0 0.0013561244070775858 -0.0052975490834164234 0 0.0013088528720325925 -0.0053449289099598762 0 0.0013583570565693854 -0.0046745007658266858 0 0.0014112476469013069 -0.0048185436111562036 0 0.001299026404241447 -0.0047758131307824277 0 0.0011803631230156398 -0.0046876308012845395 0 0.001299026404241447 -0.0047758131307824277 0 0.0012036451279195234 -0.0048559641200150655 0 0.0011803631230156398 -0.0046876308012845395 0 0.0013583570565693854 -0.0046745007658266858 0 0.001299026404241447 -0.0047758131307824277 0 0.0013278303199617475 -0.0048710020403489596 0 0.001299026404241447 -0.0047758131307824277 0 0.0012036451279195234 -0.0048559641200150655 0 0.0013278303199617475 -0.0048710020403489596 0 0.0012036451279195234 -0.0048559641200150655 0 0.001277223138994986 -0.0049270152761139822 0 0.0012036451279195234 -0.0048559641200150655 0 0.0010804198441375474 -0.0048129748434363644 0 0.0010736489612043851 -0.0049276451913560235 0 0.0011803631230156398 -0.0046876308012845395 0 0.0012036451279195234 -0.0048559641200150655 0 0.0010804198441375474 -0.0048129748434363644 0 0.00098208316474819612 -0.0047225529842989267 0 0.0011803631230156398 -0.0046876308012845395 0 0.0010804198441375474 -0.0048129748434363644 0 0.00098208316474819612 -0.0047225529842989267 0 0.0010804198441375474 -0.0048129748434363644 0 0.00093491466201459799 -0.0048811599345248268 0 0.0009747784807824201 -0.0049647098091020799 0 0.0010736489612043851 -0.0049276451913560235 0 0.00093491466201459799 -0.0048811599345248268 0 0.0010804198441375474 -0.0048129748434363644 0 0.0010736489612043851 -0.0049276451913560235 0 0.00093491466201459799 -0.0048811599345248268 0 0.0010736489612043851 -0.0049276451913560235 0 0.0010312174529782199 -0.0050009998712760052 0 0.0011149264661471489 -0.0050119531760278802 0 0.0009747784807824201 -0.0049647098091020799 0 0.0010736489612043851 -0.0049276451913560235 0 0.0010312174529782199 -0.0050009998712760052 0 0.0009747784807824201 -0.0049647098091020799 0 0.0010312174529782199 -0.0050009998712760052 0 0.00095852045164347244 -0.0050466835937504912 0 0.0010312174529782199 -0.0050009998712760052 0 0.0010578792005517231 -0.0050527045190801485 0 0.00095852045164347244 -0.0050466835937504912 0 0.0010578792005517231 -0.0050527045190801485 0 0.00095852045164347244 -0.0050466835937504912 0 0.0010487383412438305 -0.005124687367189391 0 0.0010312174529782199 -0.0050009998712760052 0 0.0010578792005517231 -0.0050527045190801485 0 0.0011149264661471489 -0.0050119531760278802 0 0.0011149264661471489 -0.0050119531760278802 0 0.00119909991678955 -0.0050311606193588114 0 0.0011410833073855083 -0.0050815451535018525 0 0.0010578792005517231 -0.0050527045190801485 0 0.0011149264661471489 -0.0050119531760278802 0 0.0011410833073855083 -0.0050815451535018525 0 0.00119909991678955 -0.0050311606193588114 0 0.0011410833073855083 -0.0050815451535018525 0 0.0012512456149026238 -0.0050879444119055674 0 0.0011149264661471489 -0.0050119531760278802 0 0.00119909991678955 -0.0050311606193588114 0 0.0011870059315091306 -0.0049649154391311857 0 0.0012036451279195234 -0.0048559641200150655 0 0.0010736489612043851 -0.0049276451913560235 0 0.0011870059315091306 -0.0049649154391311857 0 0.0010736489612043851 -0.0049276451913560235 0 0.0011149264661471489 -0.0050119531760278802 0 0.0011870059315091306 -0.0049649154391311857 0 0.0012036451279195234 -0.0048559641200150655 0 0.0011870059315091306 -0.0049649154391311857 0 0.001277223138994986 -0.0049270152761139822 0 0.001277223138994986 -0.0049270152761139822 0 0.001305530972595234 -0.0050082289800634332 0 0.001364115537863237 -0.0049505670284655367 0 0.0011870059315091306 -0.0049649154391311857 0 0.001277223138994986 -0.0049270152761139822 0 0.001305530972595234 -0.0050082289800634332 0 0.00119909991678955 -0.0050311606193588114 0 0.0011870059315091306 -0.0049649154391311857 0 0.001305530972595234 -0.0050082289800634332 0 0.00119909991678955 -0.0050311606193588114 0 0.001305530972595234 -0.0050082289800634332 0 0.0012512456149026238 -0.0050879444119055674 0 0.0013397520306270294 -0.0050630924714739414 0 0.001305530972595234 -0.0050082289800634332 0 0.0012512456149026238 -0.0050879444119055674 0 0.001305530972595234 -0.0050082289800634332 0 0.00139385042100742 -0.0049972142449299971 0 0.001364115537863237 -0.0049505670284655367 0 0.001305530972595234 -0.0050082289800634332 0 0.001407620016060196 -0.0050447700568078385 0 0.00139385042100742 -0.0049972142449299971 0 0.0013397520306270294 -0.0050630924714739414 0 0.001305530972595234 -0.0050082289800634332 0 0.001407620016060196 -0.0050447700568078385 0 0.001407620016060196 -0.0050447700568078385 0 0.0014879360083038229 -0.0050750510800611614 0 0.0014639904969035939 -0.0050196981109502077 0 0.001407620016060196 -0.0050447700568078385 0 0.00139385042100742 -0.0049972142449299971 0 0.0014639904969035939 -0.0050196981109502077 0 0.00139385042100742 -0.0049972142449299971 0 0.0014263856917314647 -0.0049644006124844979 0 0.0014639904969035939 -0.0050196981109502077 0 0.0014263856917314647 -0.0049644006124844979 0 0.001364115537863237 -0.0049505670284655367 0 0.0014025384962450384 -0.0049059663560996614 0 0.00139385042100742 -0.0049972142449299971 0 0.0014263856917314647 -0.0049644006124844979 0 0.001364115537863237 -0.0049505670284655367 0 0.0013278303199617475 -0.0048710020403489596 0 0.001364115537863237 -0.0049505670284655367 0 0.0014025384962450384 -0.0049059663560996614 0 0.0013278303199617475 -0.0048710020403489596 0 0.001277223138994986 -0.0049270152761139822 0 0.001364115537863237 -0.0049505670284655367 0 0.00068735735084379584 -0.0049587295888930977 0 0.0007878015261441367 -0.0049287244040333664 0 0.00078710940399748773 -0.0049840990199418057 0 0.00068735735084379584 -0.0049587295888930977 0 0.00067743515695033207 -0.0049324814937104005 0 0.0007878015261441367 -0.0049287244040333664 0 0.00068735735084379584 -0.0049587295888930977 0 0.00063579606710067874 -0.0049535586078608331 0 0.00067743515695033207 -0.0049324814937104005 0 0.00068735735084379584 -0.0049587295888930977 0 0.00065468957482631195 -0.0049622007437221905 0 0.00067609132498451855 -0.0049868057086136387 0 0.00064672448410712483 -0.0049817080767906845 0 0.00064500347817760884 -0.0049607710659329632 0 0.00065468957482631195 -0.0049622007437221905 0 0.00064500347817760884 -0.0049607710659329632 0 0.00065468957482631195 -0.0049622007437221905 0 0.00063579606710067874 -0.0049535586078608331 0 0.00068735735084379584 -0.0049587295888930977 0 0.00065468957482631195 -0.0049622007437221905 0 0.00063579606710067874 -0.0049535586078608331 0 0.00063579606710067874 -0.0049535586078608331 0 0.00057592987446145267 -0.004999963980913907 0 0.00067743515695033207 -0.0049324814937104005 0 0.00064500347817760884 -0.0049607710659329632 0 0.00066470761677651956 -0.0049734962732740006 0 0.00063579606710067874 -0.0049535586078608331 0 0.00066470761677651956 -0.0049734962732740006 0 0.00063579606710067874 -0.0049535586078608331 0 0.00057592987446145267 -0.004999963980913907 0 0.00077842002394456133 -0.0047981215018404961 0 0.00057592987446145267 -0.004999963980913907 0 0.00067743515695033207 -0.0049324814937104005 0 0.00063187042580353618 -0.005020752925246022 0 0.00059791081038826127 -0.005002307628153891 0 0.00077842002394456133 -0.0047981215018404961 0 0.00067743515695033207 -0.0049324814937104005 0 0.0007878015261441367 -0.0049287244040333664 0 0.00077842002394456133 -0.0047981215018404961 0 0.00093491466201459799 -0.0048811599345248268 0 0.0007878015261441367 -0.0049287244040333664 0 0.00077842002394456133 -0.0047981215018404961 0 0.00098208316474819612 -0.0047225529842989267 0 0.00093491466201459799 -0.0048811599345248268 0 0.00093491466201459799 -0.0048811599345248268 0 0.0007878015261441367 -0.0049287244040333664 0 0.00087663877243598541 -0.0049724825435170476 0 0.0007878015261441367 -0.0049287244040333664 0 0.00078710940399748773 -0.0049840990199418057 0 0.00087663877243598541 -0.0049724825435170476 0 0.00078710940399748773 -0.0049840990199418057 0 0.00087663877243598541 -0.0049724825435170476 0 0.00083877421713682081 -0.0050245596848833753 0 0.00078710940399748773 -0.0049840990199418057 0 0.00083877421713682081 -0.0050245596848833753 0 0.0007556940327897399 -0.00503219414927779 0 0.0009747784807824201 -0.0049647098091020799 0 0.00093491466201459799 -0.0048811599345248268 0 0.00087663877243598541 -0.0049724825435170476 0 0.0009747784807824201 -0.0049647098091020799 0 0.00087663877243598541 -0.0049724825435170476 0 0.00095852045164347244 -0.0050466835937504912 0 0.00087663877243598541 -0.0049724825435170476 0 0.00095852045164347244 -0.0050466835937504912 0 0.00083877421713682081 -0.0050245596848833753 0 0.00087538575672547071 -0.0050715456054614746 0 0.00095852045164347244 -0.0050466835937504912 0 0.00083877421713682081 -0.0050245596848833753 0 0.00087538575672547071 -0.0050715456054614746 0 0.00083877421713682081 -0.0050245596848833753 0 0.00078734639526172197 -0.0050822631793693328 0 0.00083877421713682081 -0.0050245596848833753 0 0.0007556940327897399 -0.00503219414927779 0 0.00078734639526172197 -0.0050822631793693328 0 0.0007556940327897399 -0.00503219414927779 0 0.00071877843986693898 -0.0050774625506576831 0 0.00078734639526172197 -0.0050822631793693328 0 0.0007556940327897399 -0.00503219414927779 0 0.00069862826627155739 -0.0050246461632848568 0 0.00071877843986693898 -0.0050774625506576831 0 0.00068735735084379584 -0.0049587295888930977 0 0.00078710940399748773 -0.0049840990199418057 0 0.00071944233226931855 -0.004995258948459925 0 0.00078710940399748773 -0.0049840990199418057 0 0.0007556940327897399 -0.00503219414927779 0 0.00071944233226931855 -0.004995258948459925 0 0.0007556940327897399 -0.00503219414927779 0 0.00071944233226931855 -0.004995258948459925 0 0.00069862826627155739 -0.0050246461632848568 0 0.00068735735084379584 -0.0049587295888930977 0 0.00071944233226931855 -0.004995258948459925 0 0.00067609132498451855 -0.0049868057086136387 0 0.00064672448410712483 -0.0049817080767906845 0 0.00065468957482631195 -0.0049622007437221905 0 0.00067609132498451855 -0.0049868057086136387 0 0.00071944233226931855 -0.004995258948459925 0 0.00067609132498451855 -0.0049868057086136387 0 0.00069862826627155739 -0.0050246461632848568 0 0.00067609132498451855 -0.0049868057086136387 0 0.00065590396630005213 -0.0050141348337439879 0 0.00069862826627155739 -0.0050246461632848568 0 0.00064672448410712483 -0.0049817080767906845 0 0.00067609132498451855 -0.0049868057086136387 0 0.00065590396630005213 -0.0050141348337439879 0 0.00065590396630005213 -0.0050141348337439879 0 0.00069862826627155739 -0.0050246461632848568 0 0.00067322698401058316 -0.0050516708153936331 0 0.00069862826627155739 -0.0050246461632848568 0 0.00067322698401058316 -0.0050516708153936331 0 0.00071877843986693898 -0.0050774625506576831 0 0.00065538479366482251 -0.0050893079723330261 0 0.00071877843986693898 -0.0050774625506576831 0 0.00071261044075522379 -0.005125131119405677 0 0.00065538479366482251 -0.0050893079723330261 0 0.00067322698401058316 -0.0050516708153936331 0 0.00071877843986693898 -0.0050774625506576831 0 0.00071877843986693898 -0.0050774625506576831 0 0.00074186457944825745 -0.0051115576507114501 0 0.00078734639526172197 -0.0050822631793693328 0 0.00074186457944825745 -0.0051115576507114501 0 0.00077837787435251586 -0.0051242316329027657 0 0.00074967187012094148 -0.0051325447962277922 0 0.00071877843986693898 -0.0050774625506576831 0 0.00074186457944825745 -0.0051115576507114501 0 0.00071261044075522379 -0.005125131119405677 0 0.00074186457944825745 -0.0051115576507114501 0 0.00077837787435251586 -0.0051242316329027657 0 0.00078734639526172197 -0.0050822631793693328 0 0.0007494172543382545 -0.0051685357339596779 0 0.00081010693374415806 -0.005164936324666693 0 0.00079230570444763031 -0.00514875461849096 0 0.00077837787435251586 -0.0051242316329027657 0 0.00076561923607299702 -0.0051453272630420394 0 0.00079230570444763031 -0.00514875461849096 0 0.00077837787435251586 -0.0051242316329027657 0 0.00074967187012094148 -0.0051325447962277922 0 0.00076561923607299702 -0.0051453272630420394 0 0.00074967187012094148 -0.0051325447962277922 0 0.0007490740179599242 -0.0051507226269975259 0 0.00071261044075522379 -0.005125131119405677 0 0.00074186457944825745 -0.0051115576507114501 0 0.00074967187012094148 -0.0051325447962277922 0 0.00071261044075522379 -0.005125131119405677 0 0.00074967187012094148 -0.0051325447962277922 0 0.0007490740179599242 -0.0051507226269975259 0 0.00076561923607299702 -0.0051453272630420394 0 0.0007494172543382545 -0.0051685357339596779 0 0.0007490740179599242 -0.0051507226269975259 0 0.00071261044075522379 -0.005125131119405677 0 0.0007494172543382545 -0.0051685357339596779 0 0.0007490740179599242 -0.0051507226269975259 0 0.00076561923607299702 -0.0051453272630420394 0 0.0007494172543382545 -0.0051685357339596779 0 0.00076561923607299702 -0.0051453272630420394 0 0.00079230570444763031 -0.00514875461849096 0 0.00065538479366482251 -0.0050893079723330261 0 0.00062876354268351213 -0.0051445041707939834 0 0.00071261044075522379 -0.005125131119405677 0 0.00067136420328638645 -0.0041332219108140182 0 0.0011094238789999158 -0.0031234020283152203 0 0.00062876354268351213 -0.0051445041707939834 0 0.0007494172543382545 -0.0051685357339596779 0 0.00071261044075522379 -0.005125131119405677 0 0.00053958413163161952 -0.002827439236893806 0 0.00062757978652469961 -0.0028433445774457581 0 0.00058287887826038119 -0.0028905749395765675 0 0.0011094238789999158 -0.0031234020283152203 0 0.0011826038743622234 -0.0020533180856051108 0 0.0016367696221506469 -0.0016032371240761447 0 0.0016214150178083156 -0.0015478104865179914 0 0.0015866127091224487 -0.0015863897411606312 0 0.0016367696221506469 -0.0016032371240761447 0 0.0016214150178083156 -0.0015478104865179914 0 0.0016786885960623176 -0.0015289760782553079 0 0.0011094238789999158 -0.0031234020283152203 0 0.0012160031873627093 -0.0033780092630439633 0 0.0016214150178083156 -0.0015478104865179914 0 0.0016178582431796286 -0.0014923575668959132 0 0.0016786885960623176 -0.0015289760782553079 0 0.0016214150178083156 -0.0015478104865179914 0 0.0016178582431796286 -0.0014923575668959132 0 0.0015781042244596808 -0.0015199002751348975 0 0.0017117966756558496 -0.0014659967353678192 0 0.0016786885960623176 -0.0015289760782553079 0 0.0016619662157931875 -0.0014737749024519176 0 0.0016178582431796286 -0.0014923575668959132 0 0.0016786885960623176 -0.0015289760782553079 0 0.0016619662157931875 -0.0014737749024519176 0 0.0015781042244596808 -0.0015199002751348975 0 0.0015327307044876147 -0.0015720736688342276 0 0.0015207643930544362 -0.0014700659348485764 0 0.0012444995719657907 -0.0032349359382731185 0 0.0015351792488731543 -0.001094826639489576 0 0.0015781042244596808 -0.0015199002751348975 0 0.001581317160970206 -0.0014531268039363423 0 0.0015207643930544362 -0.0014700659348485764 0 0.0016178582431796286 -0.0014923575668959132 0 0.0015781042244596808 -0.0015199002751348975 0 0.001581317160970206 -0.0014531268039363423 0 0.0015781042244596808 -0.0015199002751348975 0 0.0015866127091224487 -0.0015863897411606312 0 0.0015327307044876147 -0.0015720736688342276 0 0.00081010693374415806 -0.005164936324666693 0 0.00084213687785261303 -0.0051569979549064802 0 0.00083561150229759782 -0.0051443562373550784 0 0.0012160031873627093 -0.0033780092630439633 0 0.0012444995719657907 -0.0032349359382731185 0 0.0016214150178083156 -0.0015478104865179914 0 0.0015781042244596808 -0.0015199002751348975 0 0.0015866127091224487 -0.0015863897411606312 0 0.0012444995719657907 -0.0032349359382731185 0 0.00097246058905403469 -0.0054571657215944517 0 0.00093485255220141698 -0.0053088150191296559 0 0.00089686736069804812 -0.0052185916581315066 0 0.0010387302041634584 -0.005231787320123661 0 0.00089686736069804812 -0.0052185916581315066 0 0.00094546413048805518 -0.0051318842146624759 0 0.0010387302041634584 -0.005231787320123661 0 0.00081010693374415806 -0.005164936324666693 0 0.00083561150229759782 -0.0051443562373550784 0 0.00079230570444763031 -0.00514875461849096 0 0.00083561150229759782 -0.0051443562373550784 0 0.00079230570444763031 -0.00514875461849096 0 0.00081462566245613002 -0.0051347234959890128 0 0.00083561150229759782 -0.0051443562373550784 0 0.00081462566245613002 -0.0051347234959890128 0 0.00084507829228221262 -0.0051174462823495772 0 0.00097246058905403469 -0.0054571657215944517 0 0.0008201083842822145 -0.0050328597107784905 0 0.00077837787435251586 -0.0051242316329027657 0 0.00079230570444763031 -0.00514875461849096 0 0.00081462566245613002 -0.0051347234959890128 0 0.00087538575672547071 -0.0050715456054614746 0 0.00084507829228221262 -0.0051174462823495772 0 0.00078734639526172197 -0.0050822631793693328 0 0.00077837787435251586 -0.0051242316329027657 0 0.00084507829228221262 -0.0051174462823495772 0 0.00078734639526172197 -0.0050822631793693328 0 0.00077837787435251586 -0.0051242316329027657 0 0.00081462566245613002 -0.0051347234959890128 0 0.00084507829228221262 -0.0051174462823495772 0 0.00095852045164347244 -0.0050466835937504912 0 0.00094546413048805518 -0.0051318842146624759 0 0.0010487383412438305 -0.005124687367189391 0 0.00087538575672547071 -0.0050715456054614746 0 0.00095852045164347244 -0.0050466835937504912 0 0.00094546413048805518 -0.0051318842146624759 0 0.00089686736069804812 -0.0052185916581315066 0 0.00084507829228221262 -0.0051174462823495772 0 0.00094546413048805518 -0.0051318842146624759 0 0.00087538575672547071 -0.0050715456054614746 0 0.00084507829228221262 -0.0051174462823495772 0 0.00094546413048805518 -0.0051318842146624759 0 0.00094546413048805518 -0.0051318842146624759 0 0.0010487383412438305 -0.005124687367189391 0 0.0010387302041634584 -0.005231787320123661 0 0.0010578792005517231 -0.0050527045190801485 0 0.0010487383412438305 -0.005124687367189391 0 0.0011410833073855083 -0.0050815451535018525 0 0.0011410833073855083 -0.0050815451535018525 0 0.0011761009322694867 -0.0051829823035151002 0 0.0012512456149026238 -0.0050879444119055674 0 0.0010487383412438305 -0.005124687367189391 0 0.0011410833073855083 -0.0050815451535018525 0 0.0011761009322694867 -0.0051829823035151002 0 0.0011761009322694867 -0.0051829823035151002 0 0.0010387302041634584 -0.005231787320123661 0 0.0012048419211332414 -0.0052841819698707521 0 0.0010487383412438305 -0.005124687367189391 0 0.0011761009322694867 -0.0051829823035151002 0 0.0010387302041634584 -0.005231787320123661 0 0.0014227928958325759 -0.0050882569197966453 0 0.0013645714474939548 -0.0051317766550071052 0 0.0014879677360196142 -0.0051273551860632699 0 0.001407620016060196 -0.0050447700568078385 0 0.0014227928958325759 -0.0050882569197966453 0 0.0014879360083038229 -0.0050750510800611614 0 0.0014227928958325759 -0.0050882569197966453 0 0.0014879360083038229 -0.0050750510800611614 0 0.0014879677360196142 -0.0051273551860632699 0 0.0013397520306270294 -0.0050630924714739414 0 0.001407620016060196 -0.0050447700568078385 0 0.0014227928958325759 -0.0050882569197966453 0 0.0013397520306270294 -0.0050630924714739414 0 0.0014227928958325759 -0.0050882569197966453 0 0.0013645714474939548 -0.0051317766550071052 0 0.0011761009322694867 -0.0051829823035151002 0 0.0012512456149026238 -0.0050879444119055674 0 0.0012789072685452391 -0.0051552862820259263 0 0.0013645714474939548 -0.0051317766550071052 0 0.0012512456149026238 -0.0050879444119055674 0 0.0012789072685452391 -0.0051552862820259263 0 0.0013397520306270294 -0.0050630924714739414 0 0.0013645714474939548 -0.0051317766550071052 0 0.0012512456149026238 -0.0050879444119055674 0 0.0011761009322694867 -0.0051829823035151002 0 0.0012789072685452391 -0.0051552862820259263 0 0.0013192805189804651 -0.0052219821884129059 0 0.0011761009322694867 -0.0051829823035151002 0 0.0013192805189804651 -0.0052219821884129059 0 0.0012048419211332414 -0.0052841819698707521 0 0.0013645714474939548 -0.0051317766550071052 0 0.0012789072685452391 -0.0051552862820259263 0 0.0013192805189804651 -0.0052219821884129059 0 0.0013192805189804651 -0.0052219821884129059 0 0.0014350647862726915 -0.0051892975798011392 0 0.0014302615249403303 -0.0053008316773871383 0 0.0013645714474939548 -0.0051317766550071052 0 0.0013192805189804651 -0.0052219821884129059 0 0.0014350647862726915 -0.0051892975798011392 0 0.0013645714474939548 -0.0051317766550071052 0 0.0014350647862726915 -0.0051892975798011392 0 0.0014879677360196142 -0.0051273551860632699 0 0.0014350647862726915 -0.0051892975798011392 0 0.0014302615249403303 -0.0053008316773871383 0 0.0015678750449364906 -0.0051931274506366266 0 0.0013192805189804651 -0.0052219821884129059 0 0.0014302615249403303 -0.0053008316773871383 0 0.0012865982179856171 -0.0053849707137219541 0 0.0013192805189804651 -0.0052219821884129059 0 0.0012865982179856171 -0.0053849707137219541 0 0.0012048419211332414 -0.0052841819698707521 0 0.0015378294987340735 -0.0014360952179528958 0 0.0015087128464470704 -0.0014207531656217312 0 0.0015279946031314727 -0.0013814856902831247 0 0.0014302615249403303 -0.0053008316773871383 0 0.0012865982179856171 -0.0053849707137219541 0 0.0014812768157601601 -0.005413319944047798 0 0.0014148986293894684 -0.0034127201609650635 0 0.0014714724203845279 -0.003381739708638969 0 0.00093485255220141698 -0.0053088150191296559 0 0.0010387302041634584 -0.005231787320123661 0 0.0011020034427154813 -0.0053487119130523645 0 0.0012444995719657907 -0.0032349359382731185 0 0.0013430977082350345 -0.0034238083911953508 0 0.0012865982179856171 -0.0053849707137219541 0 0.0011020034427154813 -0.0053487119130523645 0 0.0012048419211332414 -0.0052841819698707521 0 0.0010387302041634584 -0.005231787320123661 0 0.0011020034427154813 -0.0053487119130523645 0 0.0012048419211332414 -0.0052841819698707521 0 0.0014148986293894684 -0.0034127201609650635 0 0.0013430977082350345 -0.0034238083911953508 0 0.0015378294987340735 -0.0014360952179528958 0 0.0015605378930624659 -0.0014626217407777279 0 0.0015619134031088391 -0.0014047569711927012 0 0.0016174237771953957 -0.0014981083103032841 0 0.0015605378930624659 -0.0014626217407777279 0 0.0015934835035079228 -0.0014178695725422744 0 0.0015605378930624659 -0.0014626217407777279 0 0.0015619134031088391 -0.0014047569711927012 0 0.0015934835035079228 -0.0014178695725422744 0 0.0015486443839520829 -0.0013876253832605149 0 0.001542300066579458 -0.0013798824066013587 0 0.0015934835035079228 -0.0014178695725422744 0 0.0015619134031088391 -0.0014047569711927012 0 0.0015486443839520829 -0.0013876253832605149 0 0.0015934835035079228 -0.0014178695725422744 0 0.0015701422415593483 -0.0015281091689154614 0 0.0015351792488731543 -0.001094826639489576 0 0.0015619134031088391 -0.0014047569711927012 0 0.0015566708791453034 -0.0013768456335351046 0 0.0015486443839520829 -0.0013876253832605149 0 0.0015619134031088391 -0.0014047569711927012 0 0.0015485174988220639 -0.0013931355020256504 0 0.0015566708791453034 -0.0013768456335351046 0 0.0015378294987340735 -0.0014360952179528958 0 0.0015619134031088391 -0.0014047569711927012 0 0.0015485174988220639 -0.0013931355020256504 0 0.0015485174988220639 -0.0013931355020256504 0 0.0015566708791453034 -0.0013768456335351046 0 0.0015468515978006977 -0.0013631229060992226 0 0.0015566708791453034 -0.0013768456335351046 0 0.0015486443839520829 -0.0013876253832605149 0 0.0015646128499428023 -0.0013407223201497155 0 0.0015566708791453034 -0.0013768456335351046 0 0.0015468515978006977 -0.0013631229060992226 0 0.0015646128499428023 -0.0013407223201497155 0 0.0015461108266052403 -0.001381538552181332 0 0.0015129676121390359 -0.0013359922829697299 0 0.001542300066579458 -0.0013798824066013587 0 0.0015286195934232035 -0.001330931771032088 0 0.0015530895439283888 -0.0013747450053372262 0 0.0015486443839520829 -0.0013876253832605149 0 0.001542300066579458 -0.0013798824066013587 0 0.001463797268526942 -0.0013357714108924727 0 0.0015087128464470704 -0.0014207531656217312 0 0.0015279946031314727 -0.0013814856902831247 0 0.0014958765529693016 -0.0013788607807585338 0 0.0015279946031314727 -0.0013814856902831247 0 0.0015017575459605804 -0.0013334765992206482 0 0.0014958765529693016 -0.0013788607807585338 0 0.0015378294987340735 -0.0014360952179528958 0 0.0015485174988220639 -0.0013931355020256504 0 0.0015279946031314727 -0.0013814856902831247 0 0.0015485174988220639 -0.0013931355020256504 0 0.0015279946031314727 -0.0013814856902831247 0 0.0015468515978006977 -0.0013631229060992226 0 0.0015468515978006977 -0.0013631229060992226 0 0.0015341117491092713 -0.0013279018334736976 0 0.0015646128499428023 -0.0013407223201497155 0 0.0015279946031314727 -0.0013814856902831247 0 0.0015468515978006977 -0.0013631229060992226 0 0.0015341117491092713 -0.0013279018334736976 0 0.0015279946031314727 -0.0013814856902831247 0 0.0015341117491092713 -0.0013279018334736976 0 0.0015017575459605804 -0.0013334765992206482 0 0.0015341117491092713 -0.0013279018334736976 0 0.0014915014342972901 -0.0012702014252921944 0 0.0015017575459605804 -0.0013334765992206482 0 0.0015341117491092713 -0.0013279018334736976 0 0.0015345611480467357 -0.0012639015788372067 0 0.0014915014342972901 -0.0012702014252921944 0 0.0014675495368712212 -0.0012559352833928881 0 0.0015129676121390359 -0.0013359922829697299 0 0.0015341117491092713 -0.0013279018334736976 0 0.0015345611480467357 -0.0012639015788372067 0 0.0015646128499428023 -0.0013407223201497155 0 0.0014125580216086621 -0.001235677201902628 0 0.0013956544525065286 -0.0012134936117556795 0 0.0013954991008892496 -0.0012474604993830082 0 0.001463797268526942 -0.0013357714108924727 0 0.0014710435501836348 -0.0012437957283965568 0 0.0013954991008892496 -0.0012474604993830082 0 0.0014710435501836348 -0.0012437957283965568 0 0.0013955181210364819 -0.0012098318223242178 0 0.0013954991008892496 -0.0012474604993830082 0 0.0013955181210364819 -0.0012098318223242178 0 0.0014551225323738367 -0.0011946435461041955 0 0.0014675495368712212 -0.0012559352833928881 0 0.0014550921591058954 -0.0012047310537205453 0 0.001542300066579458 -0.0013798824066013587 0 0.0015286195934232035 -0.001330931771032088 0 0.001463797268526942 -0.0013357714108924727 0 0.0015286195934232035 -0.001330931771032088 0 0.001463797268526942 -0.0013357714108924727 0 0.0014710435501836348 -0.0012437957283965568 0 0.0015286195934232035 -0.001330931771032088 0 0.0014710435501836348 -0.0012437957283965568 0 0.0015469045974240193 -0.0012926235242864373 0 0.001351786999721886 -0.0012250316766895474 0 0.0013909357436357535 -0.0012714725464971941 0 0.0013774873598662132 -0.0012293819310184879 0 0.0014125580216086621 -0.001235677201902628 0 0.0014690837145879296 -0.0012809985162462829 0 0.0013909357436357535 -0.0012714725464971941 0 0.0014986726182659499 -0.0013135227675133978 0 0.0014174090496223853 -0.0012327864766460909 0 0.0015469045974240193 -0.0012926235242864373 0 0.0015674511034286631 -0.0013508952114212791 0 0.0015985647857007005 -0.0013293108976779983 0 0.0014690837145879296 -0.0012809985162462829 0 0.0015501345043989225 -0.0013200329654236413 0 0.0015286195934232035 -0.001330931771032088 0 0.0015674511034286631 -0.0013508952114212791 0 0.0015530895439283888 -0.0013747450053372262 0 0.0015286195934232035 -0.001330931771032088 0 0.0015469045974240193 -0.0012926235242864373 0 0.0015674511034286631 -0.0013508952114212791 0 0.0015674511034286631 -0.0013508952114212791 0 0.0015915132161540429 -0.0013692897239973021 0 0.0015985647857007005 -0.0013293108976779983 0 0.0015915132161540429 -0.0013692897239973021 0 0.0015985647857007005 -0.0013293108976779983 0 0.0016198986788881677 -0.0013764939690924312 0 0.0015674511034286631 -0.0013508952114212791 0 0.0015915132161540429 -0.0013692897239973021 0 0.0015728931990938496 -0.001381337630425695 0 0.0014986726182659499 -0.0013135227675133978 0 0.0014174090496223853 -0.0012327864766460909 0 0.0014801118996030035 -0.0012283320415625329 0 0.0014986726182659499 -0.0013135227675133978 0 0.0016007022324258581 -0.0012940427758889551 0 0.0014801118996030035 -0.0012283320415625329 0 0.0013431746176719508 -0.0012565866730563607 0 0.0013162492719240278 -0.0012123943997441376 0 0.0014986726182659499 -0.0013135227675133978 0 0.0016007022324258581 -0.0012940427758889551 0 0.0016436312636235167 -0.0013436811513108191 0 0.0011051486799552974 -0.0012099917635392842 0 0.0011135496145957258 -0.0012203394993427971 0 0.0011065501544692429 -0.0012125469543255566 0 0.0011161833559034716 -0.0012409794841166011 0 0.0011051486799552974 -0.0012099917635392842 0 0.0011135496145957258 -0.0012203394993427971 0 0.0014844371095351575 -0.0012485933619024862 0 0.0013431746176719508 -0.0012565866730563607 0 0.0016436312636235167 -0.0013436811513108191 0 0.0016620526854739361 -0.0013864125786899786 0 0.0016198986788881677 -0.0013764939690924312 0 0.0017004277403357552 -0.0014162496383594582 0 0.0016980955957903458 -0.0013661979634188466 0 0.0016620526854739361 -0.0013864125786899786 0 0.0016980955957903458 -0.0013661979634188466 0 0.0016007022324258581 -0.0012940427758889551 0 0.0016436312636235167 -0.0013436811513108191 0 0.0016980955957903458 -0.0013661979634188466 0 0.0016436312636235167 -0.0013436811513108191 0 0.0016620526854739361 -0.0013864125786899786 0 0.0015985647857007005 -0.0013293108976779983 0 0.0016436312636235167 -0.0013436811513108191 0 0.0016198986788881677 -0.0013764939690924312 0 0.0015501345043989225 -0.0013200329654236413 0 0.001637850745894385 -0.0013423591357953862 0 0.0016198986788881677 -0.0013764939690924312 0 0.0016219422429907776 -0.0014374284505188288 0 0.001590447183036873 -0.0014053090005042715 0 0.0016198986788881677 -0.0013764939690924312 0 0.0016563993745557092 -0.0014205898163672122 0 0.0016219422429907776 -0.0014374284505188288 0 0.0016620526854739361 -0.0013864125786899786 0 0.0016198986788881677 -0.0013764939690924312 0 0.0016563993745557092 -0.0014205898163672122 0 0.0017004277403357552 -0.0014162496383594582 0 0.0016620526854739361 -0.0013864125786899786 0 0.0016563993745557092 -0.0014205898163672122 0 0.0017117966756558496 -0.0014659967353678192 0 0.0016563993745557092 -0.0014205898163672122 0 0.0016619662157931875 -0.0014737749024519176 0 0.0016178582431796286 -0.0014923575668959132 0 0.0016619662157931875 -0.0014737749024519176 0 0.0016219422429907776 -0.0014374284505188288 0 0.0016563993745557092 -0.0014205898163672122 0 0.0016619662157931875 -0.0014737749024519176 0 0.0016219422429907776 -0.0014374284505188288 0 0.0016178582431796286 -0.0014923575668959132 0 0.0016219422429907776 -0.0014374284505188288 0 0.001581317160970206 -0.0014531268039363423 0 0.0016219422429907776 -0.0014374284505188288 0 0.001581317160970206 -0.0014531268039363423 0 0.001590447183036873 -0.0014053090005042715 0 0.001581317160970206 -0.0014531268039363423 0 0.0015599383773046069 -0.00140819510391181 0 0.001590447183036873 -0.0014053090005042715 0 0.0015207643930544362 -0.0014700659348485764 0 0.0015599383773046069 -0.00140819510391181 0 0.0015449462531842795 -0.0014064403381983711 0 0.001581317160970206 -0.0014531268039363423 0 0.0015207643930544362 -0.0014700659348485764 0 0.0015599383773046069 -0.00140819510391181 0 0.001542300066579458 -0.0013798824066013587 0 0.0015207643930544362 -0.0014700659348485764 0 0.0015449462531842795 -0.0014064403381983711 0 0.0015599383773046069 -0.00140819510391181 0 0.0015449462531842795 -0.0014064403381983711 0 0.0015530895439283888 -0.0013747450053372262 0 0.001542300066579458 -0.0013798824066013587 0 0.0015449462531842795 -0.0014064403381983711 0 0.0015530895439283888 -0.0013747450053372262 0 0.0015674511034286631 -0.0013508952114212791 0 0.0015530895439283888 -0.0013747450053372262 0 0.0015728931990938496 -0.001381337630425695 0 0.0015599383773046069 -0.00140819510391181 0 0.0015530895439283888 -0.0013747450053372262 0 0.0015728931990938496 -0.001381337630425695 0 0.0015915132161540429 -0.0013692897239973021 0 0.0015728931990938496 -0.001381337630425695 0 0.001590447183036873 -0.0014053090005042715 0 0.0015915132161540429 -0.0013692897239973021 0 0.0016198986788881677 -0.0013764939690924312 0 0.001590447183036873 -0.0014053090005042715 0 0.0015599383773046069 -0.00140819510391181 0 0.0015728931990938496 -0.001381337630425695 0 0.001590447183036873 -0.0014053090005042715 0 0.001500051954498438 -0.0044089678707305161 0 0.0015675662342174396 -0.0043033042637552615 0 0.0014877885884852034 -0.0044149380139718898 0 0.001500051954498438 -0.0044089678707305161 0 0.0015675662342174396 -0.0043033042637552615 0 0.0015048661458244485 -0.0043974300592168015 0 0.0015675662342174396 -0.0043033042637552615 0 0.0014877885884852034 -0.0044149380139718898 0 0.0014768476232637363 -0.0044524849977900316 0 0.0014877885884852034 -0.0044149380139718898 0 0.0014768476232637363 -0.0044524849977900316 0 0.0015156231727741175 -0.0044153910966799187 0 0.0014877885884852034 -0.0044149380139718898 0 0.0015005369227357966 -0.0044471570215247414 0 0.0015156231727741175 -0.0044153910966799187 0 0.0015494655796222292 -0.0044783163968588786 0 0.0015156231727741175 -0.0044153910966799187 0 0.0016552393056254383 -0.004420759186814646 0 0.0015005369227357966 -0.0044471570215247414 0 0.0015494655796222292 -0.0044783163968588786 0 0.0015156231727741175 -0.0044153910966799187 0 0.0015005369227357966 -0.0044471570215247414 0 0.0015494655796222292 -0.0044783163968588786 0 0.0014956766761662595 -0.0045227571651979877 0 0.0015494655796222292 -0.0044783163968588786 0 0.0014956766761662595 -0.0045227571651979877 0 0.0016086039303382152 -0.0046661747612259177 0 0.001500051954498438 -0.0044089678707305161 0 0.0015005369227357966 -0.0044471570215247414 0 0.0014956766761662595 -0.0045227571651979877 0 0.001500051954498438 -0.0044089678707305161 0 0.0014877885884852034 -0.0044149380139718898 0 0.0015005369227357966 -0.0044471570215247414 0 0.001364912718753741 -0.00456517632352876 0 0.001747389198468305 -0.0044660602637853217 0 0.0013867201014664318 -0.0046262288108081737 0 0.0014999214032286197 -0.0047460616082666386 0 0.001379635996617777 -0.0049330076739511975 0 0.001500051954498438 -0.0044089678707305161 0 0.0014956766761662595 -0.0045227571651979877 0 0.0015048661458244485 -0.0043974300592168015 0 0.001365973113313987 -0.0046531815303417811 0 0.001767525177238825 -0.0050389594920853863 0 0.0013867201014664318 -0.0046262288108081737 0 0.0014956766761662595 -0.0045227571651979877 0 0.0011746327156503479 -0.004682511097615776 0 0.0013867201014664318 -0.0046262288108081737 0 0.0014956766761662595 -0.0045227571651979877 0 0.0014999214032286197 -0.0047460616082666386 0 0.0014956766761662595 -0.0045227571651979877 0 0.0014999214032286197 -0.0047460616082666386 0 0.0016086039303382152 -0.0046661747612259177 0 0.0014999214032286197 -0.0047460616082666386 0 0.0015827918309172094 -0.0048162938886679588 0 0.0015286330645159401 -0.0048729067624272036 0 0.001747389198468305 -0.0044660602637853217 0 0.001767525177238825 -0.0050389594920853863 0 0.0013867201014664318 -0.0046262288108081737 0 0.0011746327156503479 -0.004682511097615776 0 0.0013364984116845848 -0.0050207009689549574 0 0.0015675662342174396 -0.0043033042637552615 0 0.0013530375401358031 -0.0038910893029489844 0 0.0017152923268020331 -0.0039823707308908425 0 0.0014971307927686029 -0.004175705340639946 0 0.001747389198468305 -0.0044660602637853217 0 0.001747389198468305 -0.0044660602637853217 0 0.0022231160592504277 -0.0041645098608650167 0 0.0013530375401358031 -0.0038910893029489844 0 0.0017152923268020331 -0.0039823707308908425 0 0.0019087916109389979 -0.0036285561365218917 0 0.0019609219305763981 -0.0038604598063932309 0 0.0017152923268020331 -0.0039823707308908425 0 0.0019087916109389979 -0.0036285561365218917 0 0.0019609219305763981 -0.0038604598063932309 0 0.0017152923268020331 -0.0039823707308908425 0 0.0018850417293495971 -0.0042128753527295821 0 0.0022998853222045645 -0.0036523540331778307 0 0.0022111579738620058 -0.003701700822176609 0 0.0023240837094416237 -0.0036266096285772465 0 0.0024325970804922703 -0.003225128631864309 0 0.0022660749350546859 -0.0035608880125170667 0 0.0019609219305763981 -0.0038604598063932309 0 0.0023240837094416237 -0.0036266096285772465 0 0.0019087916109389979 -0.0036285561365218917 0 0.0023240837094416237 -0.0036266096285772465 0 0.0024325970804922703 -0.003225128631864309 0 0.0025537488623624169 -0.0032244298857314778 0 0.0019609219305763981 -0.0038604598063932309 0 0.0023240837094416237 -0.0036266096285772465 0 0.0018850417293495971 -0.0042128753527295821 0 0.0024325970804922703 -0.003225128631864309 0 0.0023587749531339543 -0.0030091260215905735 0 0.0022153466750003455 -0.0030291508413593606 0 0.0024325970804922703 -0.003225128631864309 0 0.0025021038779741859 -0.0030781505168726571 0 0.0023587749531339543 -0.0030091260215905735 0 0.0022111579738620058 -0.003701700822176609 0 0.0021252963446044891 -0.0038301585527006645 0 0.0015675662342174396 -0.0043033042637552615 0 0.0018850417293495971 -0.0042128753527295821 0 0.0014768476232637363 -0.0044524849977900316 0 0.0025537488623624169 -0.0032244298857314778 0 0.0025808259066852899 -0.003027020446863214 0 0.0027118864661625276 -0.0029988677473948202 0 0.0015675662342174396 -0.0043033042637552615 0 0.0017152923268020331 -0.0039823707308908425 0 0.0018850417293495971 -0.0042128753527295821 0 0.0025537488623624169 -0.0032244298857314778 0 0.0025021038779741859 -0.0030781505168726571 0 0.0025808259066852899 -0.003027020446863214 0 0.0024325970804922703 -0.003225128631864309 0 0.0025537488623624169 -0.0032244298857314778 0 0.0025021038779741859 -0.0030781505168726571 0 0.0025021038779741859 -0.0030781505168726571 0 0.0025808259066852899 -0.003027020446863214 0 0.0025047827099265868 -0.0029407470209282544 0 0.0025047827099265868 -0.0029407470209282544 0 0.0026248845919551334 -0.0029099763034495076 0 0.0025350437642752631 -0.0028134696884482197 0 0.0025808259066852899 -0.003027020446863214 0 0.0025047827099265868 -0.0029407470209282544 0 0.0026248845919551334 -0.0029099763034495076 0 0.0025047827099265868 -0.0029407470209282544 0 0.0023587749531339543 -0.0030091260215905735 0 0.0023682402277132755 -0.0028263397018120193 0 0.0023587749531339543 -0.0030091260215905735 0 0.0023682402277132755 -0.0028263397018120193 0 0.0022388921767253528 -0.0029209502770410501 0 0.0025021038779741859 -0.0030781505168726571 0 0.0025047827099265868 -0.0029407470209282544 0 0.0023587749531339543 -0.0030091260215905735 0 0.0023682402277132755 -0.0028263397018120193 0 0.002460025700737745 -0.0027101575877069273 0 0.0022564980592310931 -0.0026305140442478528 0 0.0025047827099265868 -0.0029407470209282544 0 0.0023682402277132755 -0.0028263397018120193 0 0.0025350437642752631 -0.0028134696884482197 0 0.0023682402277132755 -0.0028263397018120193 0 0.0025350437642752631 -0.0028134696884482197 0 0.002460025700737745 -0.0027101575877069273 0 0.0026248845919551334 -0.0029099763034495076 0 0.0025350437642752631 -0.0028134696884482197 0 0.0026781369485754328 -0.0027973725775240692 0 0.0025350437642752631 -0.0028134696884482197 0 0.002460025700737745 -0.0027101575877069273 0 0.0025819768600269665 -0.0026950821478741952 0 0.0025350437642752631 -0.0028134696884482197 0 0.0026781369485754328 -0.0027973725775240692 0 0.0025819768600269665 -0.0026950821478741952 0 0.0026781369485754328 -0.0027973725775240692 0 0.0027276405750293305 -0.0028836687623098379 0 0.002897315605191264 -0.0028282311046219791 0 0.0027183301067194945 -0.0027051659917896481 0 0.0026781369485754328 -0.0027973725775240692 0 0.002897315605191264 -0.0028282311046219791 0 0.0027183301067194945 -0.0027051659917896481 0 0.0026781369485754328 -0.0027973725775240692 0 0.0025819768600269665 -0.0026950821478741952 0 0.0026248845919551334 -0.0029099763034495076 0 0.0026781369485754328 -0.0027973725775240692 0 0.0027276405750293305 -0.0028836687623098379 0 0.0026248845919551334 -0.0029099763034495076 0 0.0027276405750293305 -0.0028836687623098379 0 0.0027118864661625276 -0.0029988677473948202 0 0.0027276405750293305 -0.0028836687623098379 0 0.0027118864661625276 -0.0029988677473948202 0 0.002897315605191264 -0.0028282311046219791 0 0.0025808259066852899 -0.003027020446863214 0 0.0026248845919551334 -0.0029099763034495076 0 0.0027118864661625276 -0.0029988677473948202 0 0.0015156231727741175 -0.0044153910966799187 0 0.0015373037989281453 -0.0042966577765742482 0 0.0016552393056254383 -0.004420759186814646 0 0.0014768476232637363 -0.0044524849977900316 0 0.0015156231727741175 -0.0044153910966799187 0 0.0015373037989281453 -0.0042966577765742482 0 0.0021252963446044891 -0.0038301585527006645 0 0.0017998731660108052 -0.0026459922146703507 0 0.0017998731660108052 -0.0026459922146703507 0 0.0022853481601261987 -0.0017235461019780532 0 0.0027183301067194945 -0.0027051659917896481 0 0.002897315605191264 -0.0028282311046219791 0 0.0027782155283954217 -0.0026119960147185997 0 0.0017261795095439903 -0.00099293343195973197 0 0.0017049349417410195 -0.0010640265885815401 0 0.0018095733663245294 -0.0011159348405458606 0 0.0017261795095439903 -0.00099293343195973197 0 0.0017049349417410195 -0.0010640265885815401 0 0.0015828962772664774 -0.0010870693729811217 0 0.0014864918159858025 -0.0023869462056440413 0 0.0017459011889069298 -0.0024869776998161304 0 0.001541447643084967 -0.0020217815042329721 0 0.0011835933708567432 -0.0023199008370433372 0 0.0014864918159858025 -0.0023869462056440413 0 0.001541447643084967 -0.0020217815042329721 0 0.0017998731660108052 -0.0026459922146703507 0 0.001606092799799348 -0.0013691809137455376 0 0.0014927673552381081 -0.0011869484065785308 0 0.0014533021044489806 -0.001226766808698561 0 0.0015462291887436978 -0.0011453928209994798 0 0.0014927673552381081 -0.0011869484065785308 0 0.0015313464290057596 -0.0011578188860522885 0 0.0015126183845914827 -0.001169582065136558 0 0.001623423634296711 -0.0019443814078300892 0 0.001606092799799348 -0.0013691809137455376 0 0.0014927673552381081 -0.0011869484065785308 0 0.0015313464290057596 -0.0011578188860522885 0 0.0015462291887436978 -0.0011453928209994798 0 0.0014927673552381081 -0.0011869484065785308 0 0.0014865283792103239 -0.0011909351861310088 0 0.0015126183845914827 -0.001169582065136558 0 0.0014927673552381081 -0.0011869484065785308 0 0.0014533021044489806 -0.001226766808698561 0 0.0014722243514827542 -0.0012193507331606675 0 0.0014927673552381081 -0.0011869484065785308 0 0.0014865283792103239 -0.0011909351861310088 0 0.0014722243514827542 -0.0012193507331606675 0 0.0014533021044489806 -0.001226766808698561 0 0.0014626601314097413 -0.0012652399343344865 0 0.0014364934761196761 -0.0013249278863213853 0 0.001623423634296711 -0.0019443814078300892 0 0.0016490828724549335 -0.0018893347167272835 0 0.0014533021044489806 -0.001226766808698561 0 0.0014722243514827542 -0.0012193507331606675 0 0.0014626601314097413 -0.0012652399343344865 0 0.0014864918159858025 -0.0023869462056440413 0 0.0017459011889069298 -0.0024869776998161304 0 0.0014740489982812527 -0.0028138085100258411 0 0.0011835933708567432 -0.0023199008370433372 0 0.0014864918159858025 -0.0023869462056440413 0 0.0014740489982812527 -0.0028138085100258411 0 0.0017998731660108052 -0.0026459922146703507 0 0.0015323647643012092 -0.003683307440726289 0 0.0015345611480467357 -0.0012639015788372067 0 0.0014915014342972901 -0.0012702014252921944 0 0.0014551225323738367 -0.0011946435461041955 0 0.0014716537740749654 -0.0012120725388902486 0 0.0014915014342972901 -0.0012702014252921944 0 0.0014551225323738367 -0.0011946435461041955 0 0.0014716537740749654 -0.0012120725388902486 0 0.0014551225323738367 -0.0011946435461041955 0 0.0014851207346399525 -0.0011839422065827723 0 0.0014716537740749654 -0.0012120725388902486 0 0.0014865283792103239 -0.0011909351861310088 0 0.0014851207346399525 -0.0011839422065827723 0 0.0014716537740749654 -0.0012120725388902486 0 0.0014865283792103239 -0.0011909351861310088 0 0.0014722243514827542 -0.0012193507331606675 0 0.0014722243514827542 -0.0012193507331606675 0 0.0014626601314097413 -0.0012652399343344865 0 0.0014748186341638065 -0.0012571850340832116 0 0.0014626601314097413 -0.0012652399343344865 0 0.0014748186341638065 -0.0012571850340832116 0 0.0014781528701067626 -0.0013013743036939403 0 0.0014716537740749654 -0.0012120725388902486 0 0.0014722243514827542 -0.0012193507331606675 0 0.0014748186341638065 -0.0012571850340832116 0 0.0014716537740749654 -0.0012120725388902486 0 0.0014748186341638065 -0.0012571850340832116 0 0.0014915014342972901 -0.0012702014252921944 0 0.0014748186341638065 -0.0012571850340832116 0 0.0014915014342972901 -0.0012702014252921944 0 0.0014781528701067626 -0.0013013743036939403 0 0.0014915014342972901 -0.0012702014252921944 0 0.0015017575459605804 -0.0013334765992206482 0 0.0014781528701067626 -0.0013013743036939403 0 0.0015017575459605804 -0.0013334765992206482 0 0.0014781528701067626 -0.0013013743036939403 0 0.0014724211463261936 -0.0013520609902651195 0 0.0015017575459605804 -0.0013334765992206482 0 0.0014724211463261936 -0.0013520609902651195 0 0.0014958765529693016 -0.0013788607807585338 0 0.0014781528701067626 -0.0013013743036939403 0 0.0014724211463261936 -0.0013520609902651195 0 0.0014364934761196761 -0.0013249278863213853 0 0.0014626601314097413 -0.0012652399343344865 0 0.0014781528701067626 -0.0013013743036939403 0 0.0014364934761196761 -0.0013249278863213853 0 0.001617278831414295 -0.0037400725535667715 0 0.0017306199143900694 -0.0042548878706033287 0 0.00214599677212057 -0.003412483114815428 0 0.0019459556579101882 -0.0029494841730997442 0 0.0017609305533614712 -0.0033041530143296501 0 0.001617278831414295 -0.0037400725535667715 0 0.0016490828724549335 -0.0018893347167272835 0 0.0014724211463261936 -0.0013520609902651195 0 0.0014562973595747481 -0.001410080488868849 0 0.0014364934761196761 -0.0013249278863213853 0 0.0015087128464470704 -0.0014207531656217312 0 0.0014562973595747481 -0.001410080488868849 0 0.0014958765529693016 -0.0013788607807585338 0 0.0014724211463261936 -0.0013520609902651195 0 0.0014562973595747481 -0.001410080488868849 0 0.0014958765529693016 -0.0013788607807585338 0 0.0015494655796222292 -0.0044783163968588786 0 0.0016552393056254383 -0.004420759186814646 0 0.0016086039303382152 -0.0046661747612259177 0 0.0017459011889069298 -0.0024869776998161304 0 0.0014740489982812527 -0.0028138085100258411 0 0.0019459556579101882 -0.0029494841730997442 0 0.0014740489982812527 -0.0028138085100258411 0 0.0019459556579101882 -0.0029494841730997442 0 0.0017609305533614712 -0.0033041530143296501 0 0.0015323647643012092 -0.003683307440726289 0 0.0017306199143900694 -0.0042548878706033287 0 0.0017432741606480983 -0.0049651040273241886 0 0.001708437197187734 -0.004876168429491989 0 0.0017114651762146255 -0.004959748397603222 0 0.001708437197187734 -0.004876168429491989 0 0.0016512621818890703 -0.0048610145367244395 0 0.0016910609159081433 -0.0049541107471899395 0 0.0017306199143900694 -0.0042548878706033287 0 0.0016557446792293535 -0.0047357592238099792 0 0.001708437197187734 -0.004876168429491989 0 0.0016512621818890703 -0.0048610145367244395 0 0.0016086039303382152 -0.0046661747612259177 0 0.0016552393056254383 -0.004420759186814646 0 0.0018459011833490216 -0.0047155495089385626 0 0.0016086039303382152 -0.0046661747612259177 0 0.0014999214032286197 -0.0047460616082666386 0 0.0016086039303382152 -0.0046661747612259177 0 0.0015827918309172094 -0.0048162938886679588 0 0.0016512621818890703 -0.0048610145367244395 0 0.0016086039303382152 -0.0046661747612259177 0 0.0015827918309172094 -0.0048162938886679588 0 0.0016512621818890703 -0.0048610145367244395 0 0.0015827918309172094 -0.0048162938886679588 0 0.0016078701451688075 -0.0049119509269196782 0 0.0015827918309172094 -0.0048162938886679588 0 0.0016078701451688075 -0.0049119509269196782 0 0.0015286330645159401 -0.0048729067624272036 0 0.0016078701451688075 -0.0049119509269196782 0 0.0015286330645159401 -0.0048729067624272036 0 0.0015579010263598975 -0.0049907206851932603 0 0.0016078701451688075 -0.0049119509269196782 0 0.0016234783073152722 -0.0049951999876068709 0 0.0015579010263598975 -0.0049907206851932603 0 0.0016234783073152722 -0.0049951999876068709 0 0.0016545621438573618 -0.0049496969098303074 0 0.0016748982886634594 -0.0050370930091259937 0 0.0016078701451688075 -0.0049119509269196782 0 0.0016234783073152722 -0.0049951999876068709 0 0.0016545621438573618 -0.0049496969098303074 0 0.0016512621818890703 -0.0048610145367244395 0 0.0016545621438573618 -0.0049496969098303074 0 0.0016910609159081433 -0.0049541107471899395 0 0.0016512621818890703 -0.0048610145367244395 0 0.0016078701451688075 -0.0049119509269196782 0 0.0016545621438573618 -0.0049496969098303074 0 0.001708437197187734 -0.004876168429491989 0 0.0016910609159081433 -0.0049541107471899395 0 0.0017114651762146255 -0.004959748397603222 0 0.0016910609159081433 -0.0049541107471899395 0 0.0017114651762146255 -0.004959748397603222 0 0.0017040065486232329 -0.0050402236772292596 0 0.0016910609159081433 -0.0049541107471899395 0 0.0016748982886634594 -0.0050370930091259937 0 0.0017040065486232329 -0.0050402236772292596 0 0.0016545621438573618 -0.0049496969098303074 0 0.0016910609159081433 -0.0049541107471899395 0 0.0016748982886634594 -0.0050370930091259937 0 0.0016748982886634594 -0.0050370930091259937 0 0.0016865028965008071 -0.0051150412433579049 0 0.0016736809788145328 -0.0051104278743827085 0 0.0016748982886634594 -0.0050370930091259937 0 0.0016865028965008071 -0.0051150412433579049 0 0.0017040065486232329 -0.0050402236772292596 0 0.0016865028965008071 -0.0051150412433579049 0 0.0016736809788145328 -0.0051104278743827085 0 0.0016826053992767492 -0.0051358549359391973 0 0.0016736809788145328 -0.0051104278743827085 0 0.0016230671499420013 -0.0050746302395733786 0 0.0016643756376898929 -0.0051431161681089847 0 0.0016230671499420013 -0.0050746302395733786 0 0.0016643756376898929 -0.0051431161681089847 0 0.00154993802008332 -0.0051278728209820067 0 0.0016230671499420013 -0.0050746302395733786 0 0.00154993802008332 -0.0051278728209820067 0 0.0015579010263598975 -0.0049907206851932603 0 0.0016234783073152722 -0.0049951999876068709 0 0.0016230671499420013 -0.0050746302395733786 0 0.0015579010263598975 -0.0049907206851932603 0 0.0016234783073152722 -0.0049951999876068709 0 0.0016748982886634594 -0.0050370930091259937 0 0.0016230671499420013 -0.0050746302395733786 0 0.0016748982886634594 -0.0050370930091259937 0 0.0016736809788145328 -0.0051104278743827085 0 0.0016230671499420013 -0.0050746302395733786 0 0.0014812768157601601 -0.005413319944047798 0 0.0016513602093130941 -0.0054325831339653956 0 0.0016035695925153107 -0.0053315798600897827 0 0.0014714724203845279 -0.003381739708638969 0 0.001617278831414295 -0.0037400725535667715 0 0.0014302615249403303 -0.0053008316773871383 0 0.0014812768157601601 -0.005413319944047798 0 0.0016035695925153107 -0.0053315798600897827 0 0.0017432741606480983 -0.0049651040273241886 0 0.0017040065486232329 -0.0050402236772292596 0 0.0017094174181703648 -0.0050924190868970893 0 0.001617278831414295 -0.0037400725535667715 0 0.001739946520261709 -0.0054449279380727527 0 0.0017432741606480983 -0.0049651040273241886 0 0.0017114651762146255 -0.004959748397603222 0 0.0017040065486232329 -0.0050402236772292596 0 0.0017040065486232329 -0.0050402236772292596 0 0.0016740241307229985 -0.0051315712200147483 0 0.0017094174181703648 -0.0050924190868970893 0 0.0016865028965008071 -0.0051150412433579049 0 0.0017040065486232329 -0.0050402236772292596 0 0.0016740241307229985 -0.0051315712200147483 0 0.0016865028965008071 -0.0051150412433579049 0 0.0016740241307229985 -0.0051315712200147483 0 0.0016431906819897549 -0.0051528323349794361 0 0.001739946520261709 -0.0054449279380727527 0 0.0015471412742633741 -0.0050921604576245859 0 0.0016740241307229985 -0.0051315712200147483 0 0.0017094174181703648 -0.0050924190868970893 0 0.0015678750449364906 -0.0051931274506366266 0 0.0014302615249403303 -0.0053008316773871383 0 0.0016035695925153107 -0.0053315798600897827 0 0.0015678750449364906 -0.0051931274506366266 0 0.0015678750449364906 -0.0051931274506366266 0 0.0015828670347044183 -0.0051384048934021613 0 0.0014879677360196142 -0.0051273551860632699 0 0.0014350647862726915 -0.0051892975798011392 0 0.0015678750449364906 -0.0051931274506366266 0 0.0014879677360196142 -0.0051273551860632699 0 0.0015678750449364906 -0.0051931274506366266 0 0.0015828670347044183 -0.0051384048934021613 0 0.0016431906819897549 -0.0051528323349794361 0 0.0015828670347044183 -0.0051384048934021613 0 0.0016431906819897549 -0.0051528323349794361 0 0.001635213052584976 -0.0051366495465967575 0 0.0016740241307229985 -0.0051315712200147483 0 0.0015678750449364906 -0.0051931274506366266 0 0.0016431906819897549 -0.0051528323349794361 0 0.0016865028965008071 -0.0051150412433579049 0 0.0016431906819897549 -0.0051528323349794361 0 0.001671255078659463 -0.005148596617170798 0 0.0016431906819897549 -0.0051528323349794361 0 0.001635213052584976 -0.0051366495465967575 0 0.001671255078659463 -0.005148596617170798 0 0.001635213052584976 -0.0051366495465967575 0 0.001647543410476618 -0.0051258533227360121 0 0.001610148046088773 -0.0051126805057544527 0 0.001635213052584976 -0.0051366495465967575 0 0.001647543410476618 -0.0051258533227360121 0 0.001679030336512715 -0.0051462901719097577 0 0.001647543410476618 -0.0051258533227360121 0 0.0016274581973207637 -0.0051004172466721145 0 0.0016865310469868073 -0.0051009199549137954 0 0.001647543410476618 -0.0051258533227360121 0 0.0016274581973207637 -0.0051004172466721145 0 0.001610148046088773 -0.0051126805057544527 0 0.0016274581973207637 -0.0051004172466721145 0 0.001610148046088773 -0.0051126805057544527 0 0.0015880781231722085 -0.005100302833891672 0 0.0015880781231722085 -0.005100302833891672 0 0.0015719127400260959 -0.0050870402288332858 0 0.0015407730482477234 -0.0051023752859114552 0 0.001610148046088773 -0.0051126805057544527 0 0.0015880781231722085 -0.005100302833891672 0 0.0015719127400260959 -0.0050870402288332858 0 0.001610148046088773 -0.0051126805057544527 0 0.0015909168229561376 -0.0051177971936034296 0 0.0015719127400260959 -0.0050870402288332858 0 0.001635213052584976 -0.0051366495465967575 0 0.001610148046088773 -0.0051126805057544527 0 0.0015909168229561376 -0.0051177971936034296 0 0.0015828670347044183 -0.0051384048934021613 0 0.001635213052584976 -0.0051366495465967575 0 0.0015909168229561376 -0.0051177971936034296 0 0.0015828670347044183 -0.0051384048934021613 0 0.0015909168229561376 -0.0051177971936034296 0 0.0015431156395318945 -0.0051083063520906812 0 0.0015909168229561376 -0.0051177971936034296 0 0.0015431156395318945 -0.0051083063520906812 0 0.0015719127400260959 -0.0050870402288332858 0 0.0015431156395318945 -0.0051083063520906812 0 0.0015719127400260959 -0.0050870402288332858 0 0.0014879360083038229 -0.0050750510800611614 0 0.0015431156395318945 -0.0051083063520906812 0 0.0014879360083038229 -0.0050750510800611614 0 0.0014879677360196142 -0.0051273551860632699 0 0.0015828670347044183 -0.0051384048934021613 0 0.0015431156395318945 -0.0051083063520906812 0 0.0014879677360196142 -0.0051273551860632699 0 0.0016643756376898929 -0.0051431161681089847 0 0.0017518258256578058 -0.0051966537414336374 0 0.00154993802008332 -0.0051278728209820067 0 0.0016643756376898929 -0.0051431161681089847 0 0.0016902637646693352 -0.0051590120990375465 0 0.0017518258256578058 -0.0051966537414336374 0 0.0016736809788145328 -0.0051104278743827085 0 0.0016643756376898929 -0.0051431161681089847 0 0.0016902637646693352 -0.0051590120990375465 0 0.0016902637646693352 -0.0051590120990375465 0 0.001679030336512715 -0.0051462901719097577 0 0.0017518258256578058 -0.0051966537414336374 0 0.0016736809788145328 -0.0051104278743827085 0 0.0016902637646693352 -0.0051590120990375465 0 0.0016826053992767492 -0.0051358549359391973 0 0.0016865028965008071 -0.0051150412433579049 0 0.0016826053992767492 -0.0051358549359391973 0 0.001671255078659463 -0.005148596617170798 0 0.0016902637646693352 -0.0051590120990375465 0 0.0016826053992767492 -0.0051358549359391973 0 0.001671255078659463 -0.005148596617170798 0 0.001635213052584976 -0.0051366495465967575 0 0.001671255078659463 -0.005148596617170798 0 0.001679030336512715 -0.0051462901719097577 0 0.0016902637646693352 -0.0051590120990375465 0 0.001671255078659463 -0.005148596617170798 0 0.001679030336512715 -0.0051462901719097577 0 0.001647543410476618 -0.0051258533227360121 0 0.001679030336512715 -0.0051462901719097577 0 0.0016865310469868073 -0.0051009199549137954 0 0.001679030336512715 -0.0051462901719097577 0 0.0016865310469868073 -0.0051009199549137954 0 0.0017533415625380991 -0.0051095551304275576 0 0.001679030336512715 -0.0051462901719097577 0 0.0017518258256578058 -0.0051966537414336374 0 0.0017533415625380991 -0.0051095551304275576 0 0.0017518258256578058 -0.0051966537414336374 0 0.001880329824992112 -0.0051172356153952655 0 0.0017533415625380991 -0.0051095551304275576 0 0.0019156701863271054 -0.0052323735585007129 0 0.0020502327467398218 -0.0051420585209031007 0 0.001880329824992112 -0.0051172356153952655 0 0.0017518258256578058 -0.0051966537414336374 0 0.0019156701863271054 -0.0052323735585007129 0 0.001880329824992112 -0.0051172356153952655 0 0.0024362434940859668 -0.0046194626329496844 0 0.0024190323152294608 -0.0046412807476267888 0 0.0024425696177580829 -0.0046205694522785069 0 0.0022331827398542376 -0.0048741586490391731 0 0.0022521968824819054 -0.0050011815783839921 0 0.0019156701863271054 -0.0052323735585007129 0 0.0020502327467398218 -0.0051420585209031007 0 0.0019786630767968565 -0.005334418585541627 0 0.0024190323152294608 -0.0046412807476267888 0 0.0024524458566405312 -0.0046449673268019256 0 0.0024425696177580829 -0.0046205694522785069 0 0.0017518258256578058 -0.0051966537414336374 0 0.0019156701863271054 -0.0052323735585007129 0 0.0018723368731975638 -0.0053866327013255546 0 0.0019156701863271054 -0.0052323735585007129 0 0.0019786630767968565 -0.005334418585541627 0 0.0018723368731975638 -0.0053866327013255546 0 0.0017334521669181565 -0.0051850446230246741 0 0.0017081416165273535 -0.0052773087318779338 0 0.00154993802008332 -0.0051278728209820067 0 0.001379635996617777 -0.0049330076739511975 0 0.0015579010263598975 -0.0049907206851932603 0 0.0019786630767968565 -0.005334418585541627 0 0.0018723368731975638 -0.0053866327013255546 0 0.0019410281194332767 -0.0055281019655744534 0 0.0017081416165273535 -0.0052773087318779338 0 0.001767525177238825 -0.0050389594920853863 0 0.0024190323152294608 -0.0046412807476267888 0 0.0024364676926012271 -0.0046774421831945806 0 0.0023982213099527209 -0.0047117305125105348 0 0.0022521968824819054 -0.0050011815783839921 0 0.001767525177238825 -0.0050389594920853863 0 0.0024190323152294608 -0.0046412807476267888 0 0.0024364676926012271 -0.0046774421831945806 0 0.0024524458566405312 -0.0046449673268019256 0 0.0024155235681238571 -0.0047527916107852211 0 0.0024409576102167995 -0.0047078264370950789 0 0.0024731011683508442 -0.0047283017679235935 0 0.0024155235681238571 -0.0047527916107852211 0 0.0024409576102167995 -0.0047078264370950789 0 0.0023982213099527209 -0.0047117305125105348 0 0.0024364676926012271 -0.0046774421831945806 0 0.0024409576102167995 -0.0047078264370950789 0 0.0023982213099527209 -0.0047117305125105348 0 0.0014999214032286197 -0.0047460616082666386 0 0.001379635996617777 -0.0049330076739511975 0 0.0015286330645159401 -0.0048729067624272036 0 0.001379635996617777 -0.0049330076739511975 0 0.0015286330645159401 -0.0048729067624272036 0 0.0015579010263598975 -0.0049907206851932603 0 0.0023240837094416237 -0.0036266096285772465 0 0.0022956218187867045 -0.0035254266936173297 0 0.0019087916109389979 -0.0036285561365218917 0 0.0023786882320251082 -0.0041135374501842228 0 0.0022231160592504277 -0.0041645098608650167 0 0.0025283203598864402 -0.0047030376145191892 0 0.0024731011683508442 -0.0047283017679235935 0 0.0025135298046501491 -0.0046776833707540292 0 0.0024409576102167995 -0.0047078264370950789 0 0.0024731011683508442 -0.0047283017679235935 0 0.0024802124201661912 -0.0046703164678836536 0 0.0024731011683508442 -0.0047283017679235935 0 0.0024802124201661912 -0.0046703164678836536 0 0.0025135298046501491 -0.0046776833707540292 0 0.0024364676926012271 -0.0046774421831945806 0 0.0024409576102167995 -0.0047078264370950789 0 0.0024802124201661912 -0.0046703164678836536 0 0.0024364676926012271 -0.0046774421831945806 0 0.0024802124201661912 -0.0046703164678836536 0 0.0024524458566405312 -0.0046449673268019256 0 0.0024802124201661912 -0.0046703164678836536 0 0.0025135298046501491 -0.0046776833707540292 0 0.0025390184448863666 -0.0046450754881325303 0 0.0025283203598864402 -0.0047030376145191892 0 0.0025135298046501491 -0.0046776833707540292 0 0.002546907248309273 -0.0046749694520574524 0 0.0025068529459934493 -0.0046099302055414145 0 0.0026632363944435757 -0.0045288547072642885 0 0.0026283896822269265 -0.0045445259229272778 0 0.0024802124201661912 -0.0046703164678836536 0 0.0025068529459934493 -0.0046099302055414145 0 0.0025390184448863666 -0.0046450754881325303 0 0.0025023995729146885 -0.0045783459577231822 0 0.0026212056957812422 -0.0046212914185460828 0 0.0024802124201661912 -0.0046703164678836536 0 0.0025068529459934493 -0.0046099302055414145 0 0.0024524458566405312 -0.0046449673268019256 0 0.0025068529459934493 -0.0046099302055414145 0 0.0024524458566405312 -0.0046449673268019256 0 0.0024425696177580829 -0.0046205694522785069 0 0.0025068529459934493 -0.0046099302055414145 0 0.0024425696177580829 -0.0046205694522785069 0 0.0024318908472946679 -0.0046137741613143761 0 0.0024362434940859668 -0.0046194626329496844 0 0.0024425696177580829 -0.0046205694522785069 0 0.0024318908472946679 -0.0046137741613143761 0 0.0025068529459934493 -0.0046099302055414145 0 0.0025926832449545741 -0.0045482925283571295 0 0.0026283896822269265 -0.0045445259229272778 0 0.0025068529459934493 -0.0046099302055414145 0 0.0024318908472946679 -0.0046137741613143761 0 0.0025926832449545741 -0.0045482925283571295 0 0.0025926832449545741 -0.0045482925283571295 0 0.0026243818521117031 -0.004440412575438357 0 0.0023617638152904517 -0.0046619920598353079 0 0.0024594441705577249 -0.0046814185232376638 0 0.0023793820976694075 -0.0046637842199309552 0 0.0022938141899028386 -0.0048619383197442707 0 0.0023617638152904517 -0.0046619920598353079 0 0.0022286579867747984 -0.0048956634799753431 0 0.0022819418864966291 -0.0049090197266817518 0 0.0022938141899028386 -0.0048619383197442707 0 0.0023617638152904517 -0.0046619920598353079 0 0.0024362434940859668 -0.0046194626329496844 0 0.0024318908472946679 -0.0046137741613143761 0 0.0023617638152904517 -0.0046619920598353079 0 0.0024318908472946679 -0.0046137741613143761 0 0.0025926832449545741 -0.0045482925283571295 0 0.0023617638152904517 -0.0046619920598353079 0 0.0022331827398542376 -0.0048741586490391731 0 0.002236036019926441 -0.004878020476919492 0 0.0020502327467398218 -0.0051420585209031007 0 0.0019864602529826234 -0.0050181795061367317 0 0.0022286579867747984 -0.0048956634799753431 0 0.0024362434940859668 -0.0046194626329496844 0 0.0023617638152904517 -0.0046619920598353079 0 0.0022286579867747984 -0.0048956634799753431 0 0.0020502327467398218 -0.0051420585209031007 0 0.001880329824992112 -0.0051172356153952655 0 0.0019864602529826234 -0.0050181795061367317 0 0.001880329824992112 -0.0051172356153952655 0 0.0019864602529826234 -0.0050181795061367317 0 0.0018461127238302494 -0.0050180178291241761 0 0.0019864602529826234 -0.0050181795061367317 0 0.0022286579867747984 -0.0048956634799753431 0 0.0019264643509876145 -0.0049131162872187726 0 0.0019864602529826234 -0.0050181795061367317 0 0.0019264643509876145 -0.0049131162872187726 0 0.0018461127238302494 -0.0050180178291241761 0 0.0022286579867747984 -0.0048956634799753431 0 0.0021038353300021299 -0.0048689768298215133 0 0.0019264643509876145 -0.0049131162872187726 0 0.0022286579867747984 -0.0048956634799753431 0 0.0021038353300021299 -0.0048689768298215133 0 0.0022709001131181257 -0.0048832781559697497 0 0.0021038353300021299 -0.0048689768298215133 0 0.0019264643509876145 -0.0049131162872187726 0 0.001863556492788417 -0.0048532812583882597 0 0.0021038353300021299 -0.0048689768298215133 0 0.0022709001131181257 -0.0048832781559697497 0 0.0021761930461967768 -0.0047555148751206406 0 0.0018717631867661239 -0.0048526447562285899 0 0.0019970303432375117 -0.0048427965960402683 0 0.0021038353300021299 -0.0048689768298215133 0 0.001863556492788417 -0.0048532812583882597 0 0.0021761930461967768 -0.0047555148751206406 0 0.0022709001131181257 -0.0048832781559697497 0 0.0023408537273808187 -0.0047875785239931837 0 0.0021761930461967768 -0.0047555148751206406 0 0.0023622457559423289 -0.0048921440767453845 0 0.0022709001131181257 -0.0048832781559697497 0 0.0023408537273808187 -0.0047875785239931837 0 0.0022819418864966291 -0.0049090197266817518 0 0.0023622457559423289 -0.0048921440767453845 0 0.0022709001131181257 -0.0048832781559697497 0 0.0022938141899028386 -0.0048619383197442707 0 0.0022286579867747984 -0.0048956634799753431 0 0.0022709001131181257 -0.0048832781559697497 0 0.0022819418864966291 -0.0049090197266817518 0 0.0022938141899028386 -0.0048619383197442707 0 0.0022709001131181257 -0.0048832781559697497 0 0.0014112476469013069 -0.0048185436111562036 0 0.0014025384962450384 -0.0049059663560996614 0 0.0014790712039767944 -0.0049455559184763487 0 0.0013561244070775858 -0.0052975490834164234 0 0.0013629849720604556 -0.005200750897939678 0 0.0014153028226483863 -0.0051714249825164406 0 0.0013629849720604556 -0.005200750897939678 0 0.0014153028226483863 -0.0051714249825164406 0 0.0015407730482477234 -0.0051023752859114552 0 0.0014263856917314647 -0.0049644006124844979 0 0.0014025384962450384 -0.0049059663560996614 0 0.0014790712039767944 -0.0049455559184763487 0 0.0015719127400260959 -0.0050870402288332858 0 0.0014790712039767944 -0.0049455559184763487 0 0.0014639904969035939 -0.0050196981109502077 0 0.0015461170577376739 -0.005080101239561618 0 0.0014535048175543545 -0.0050605233597363951 0 0.0014263856917314647 -0.0049644006124844979 0 0.0014790712039767944 -0.0049455559184763487 0 0.0014639904969035939 -0.0050196981109502077 0 0.0014732460765258806 -0.0050925747660568741 0 0.0015252643603474005 -0.0051129290547727467 0 0.0015719127400260959 -0.0050870402288332858 0 0.0014153028226483863 -0.0051714249825164406 0 0.0015407730482477234 -0.0051023752859114552 0 0.0015719127400260959 -0.0050870402288332858 0 0.0014879360083038229 -0.0050750510800611614 0 0.0014639904969035939 -0.0050196981109502077 0 0.0015713316481553426 -0.0049657035514276198 0 0.0015407730482477234 -0.0051023752859114552 0 0.0015986302544165529 -0.0050665172080889016 0 0.0015880781231722085 -0.005100302833891672 0 0.0015407730482477234 -0.0051023752859114552 0 0.0015986302544165529 -0.0050665172080889016 0 0.0016274581973207637 -0.0051004172466721145 0 0.0015880781231722085 -0.005100302833891672 0 0.0015986302544165529 -0.0050665172080889016 0 0.0016274581973207637 -0.0051004172466721145 0 0.0015986302544165529 -0.0050665172080889016 0 0.0016339165867364201 -0.0050313522383265748 0 0.0016274581973207637 -0.0051004172466721145 0 0.0016339165867364201 -0.0050313522383265748 0 0.0016865310469868073 -0.0051009199549137954 0 0.0015713316481553426 -0.0049657035514276198 0 0.0015986302544165529 -0.0050665172080889016 0 0.0016339165867364201 -0.0050313522383265748 0 0.0015713316481553426 -0.0049657035514276198 0 0.0016339165867364201 -0.0050313522383265748 0 0.0016472993153740421 -0.0049742393648411348 0 0.0015713316481553426 -0.0049657035514276198 0 0.0016472993153740421 -0.0049742393648411348 0 0.0016231365554285778 -0.0049160925710819581 0 0.0016472993153740421 -0.0049742393648411348 0 0.0017169925434321633 -0.0050313052759146651 0 0.0017343669888722716 -0.0049383697780072669 0 0.0016339165867364201 -0.0050313522383265748 0 0.0016472993153740421 -0.0049742393648411348 0 0.0017169925434321633 -0.0050313052759146651 0 0.0016339165867364201 -0.0050313522383265748 0 0.0016865310469868073 -0.0051009199549137954 0 0.0017169925434321633 -0.0050313052759146651 0 0.0016865310469868073 -0.0051009199549137954 0 0.0017169925434321633 -0.0050313052759146651 0 0.0017533415625380991 -0.0051095551304275576 0 0.001880329824992112 -0.0051172356153952655 0 0.0017533415625380991 -0.0051095551304275576 0 0.0018461127238302494 -0.0050180178291241761 0 0.0017169925434321633 -0.0050313052759146651 0 0.0017533415625380991 -0.0051095551304275576 0 0.0018461127238302494 -0.0050180178291241761 0 0.0019264643509876145 -0.0049131162872187726 0 0.0018461127238302494 -0.0050180178291241761 0 0.0017343669888722716 -0.0049383697780072669 0 0.0017169925434321633 -0.0050313052759146651 0 0.0018461127238302494 -0.0050180178291241761 0 0.0017343669888722716 -0.0049383697780072669 0 0.0019264643509876145 -0.0049131162872187726 0 0.001811119217835188 -0.0048849491265002404 0 0.0017343669888722716 -0.0049383697780072669 0 0.0019264643509876145 -0.0049131162872187726 0 0.001863556492788417 -0.0048532812583882597 0 0.001811119217835188 -0.0048849491265002404 0 0.001863556492788417 -0.0048532812583882597 0 0.001811119217835188 -0.0048849491265002404 0 0.001796129011111286 -0.0049225869140044768 0 0.001811119217835188 -0.0048849491265002404 0 0.0017897939196547924 -0.0049008939137337084 0 0.001796129011111286 -0.0049225869140044768 0 0.001811119217835188 -0.0048849491265002404 0 0.0017897939196547924 -0.0049008939137337084 0 0.0017343669888722716 -0.0049383697780072669 0 0.0016472993153740421 -0.0049742393648411348 0 0.0017343669888722716 -0.0049383697780072669 0 0.0016231365554285778 -0.0049160925710819581 0 0.0017056965531953509 -0.0048962930706605628 0 0.0017341636472021959 -0.00494255674853444 0 0.0016250669706140987 -0.0048727899959381971 0 0.0017343669888722716 -0.0049383697780072669 0 0.0016231365554285778 -0.0049160925710819581 0 0.0015713316481553426 -0.0049657035514276198 0 0.0016231365554285778 -0.0049160925710819581 0 0.0015806426804260575 -0.0048837947689145912 0 0.0016250669706140987 -0.0048727899959381971 0 0.0016231365554285778 -0.0049160925710819581 0 0.0015806426804260575 -0.0048837947689145912 0 0.0016250669706140987 -0.0048727899959381971 0 0.0015806426804260575 -0.0048837947689145912 0 0.0015853334560838055 -0.00487776965031856 0 0.0012992050034901195 -0.0053298058886021241 0 0.0013088528720325925 -0.0053449289099598762 0 0.0012893426286677183 -0.0053651787355293969 0 0.0013561244070775858 -0.0052975490834164234 0 0.0012992050034901195 -0.0053298058886021241 0 0.0013088528720325925 -0.0053449289099598762 0 0.0013904495060815716 -0.0050229119317377474 0 0.0014535048175543545 -0.0050605233597363951 0 0.0013561244070775858 -0.0052975490834164234 0 0.0013629849720604556 -0.005200750897939678 0 0.0012992050034901195 -0.0053298058886021241 0 0.0014732460765258806 -0.0050925747660568741 0 0.0014421591853045004 -0.0051074788744738774 0 0.0015729224480665646 -0.0048850557504974317 0 0.0015397297437131086 -0.0049166775915566539 0 0.001520027732691592 -0.0049506691919025637 0 0.0012725787467889466 -0.0052977643247140768 0 0.0013064177061016841 -0.0053541627489197621 0 0.0013312069682964974 -0.0051902268153528964 0 0.001256185460040327 -0.005243321348759533 0 0.0012725787467889466 -0.0052977643247140768 0 0.0013312069682964974 -0.0051902268153528964 0 0.0014385317461844353 -0.005116209595483188 0 0.0014214682051715919 -0.0050606746004519844 0 0.0012369776168940051 -0.0052826871170520298 0 0.001256185460040327 -0.005243321348759533 0 0.0012725787467889466 -0.0052977643247140768 0 0.0012366950576706394 -0.0053268082204297176 0 0.0012725787467889466 -0.0052977643247140768 0 0.0012893426286677183 -0.0053651787355293969 0 0.0012366950576706394 -0.0053268082204297176 0 0.0012369776168940051 -0.0052826871170520298 0 0.0012725787467889466 -0.0052977643247140768 0 0.0014421591853045004 -0.0051074788744738774 0 0.0014385317461844353 -0.005116209595483188 0 0.0012725787467889466 -0.0052977643247140768 0 0.0012893426286677183 -0.0053651787355293969 0 0.0013064177061016841 -0.0053541627489197621 0 0.0012992050034901195 -0.0053298058886021241 0 0.0012893426286677183 -0.0053651787355293969 0 0.0013064177061016841 -0.0053541627489197621 0 0.0012789341150211176 -0.0053744700902087113 0 0.0013088528720325925 -0.0053449289099598762 0 0.0012893426286677183 -0.0053651787355293969 0 0.0015729224480665646 -0.0048850557504974317 0 0.0015853334560838055 -0.00487776965031856 0 0.0015552089321554494 -0.004888396180644846 0 0.0015806426804260575 -0.0048837947689145912 0 0.0015729224480665646 -0.0048850557504974317 0 0.0015853334560838055 -0.00487776965031856 0 0.0016250669706140987 -0.0048727899959381971 0 0.0015853334560838055 -0.00487776965031856 0 0.0015552089321554494 -0.004888396180644846 0 0.0015552089321554494 -0.004888396180644846 0 0.0015397297437131086 -0.0049166775915566539 0 0.0015050879648870643 -0.0049517380362872378 0 0.0017653648853169057 -0.0049837618904138023 0 0.0017004111346262461 -0.0050428626134479933 0 0.0016352453105828277 -0.0050744882032014906 0 0.0016559804783038261 -0.0049356945498012488 0 0.0015621334794101451 -0.0050057797244026933 0 0.0015729224480665646 -0.0048850557504974317 0 0.0015552089321554494 -0.004888396180644846 0 0.0015397297437131086 -0.0049166775915566539 0 0.0017653648853169057 -0.0049837618904138023 0 0.001796129011111286 -0.0049225869140044768 0 0.0017282675801430483 -0.00503386228704441 0 0.0017653648853169057 -0.0049837618904138023 0 0.0017282675801430483 -0.00503386228704441 0 0.0017004111346262461 -0.0050428626134479933 0 0.0017056965531953509 -0.0048962930706605628 0 0.0016559804783038261 -0.0049356945498012488 0 0.0017897939196547924 -0.0049008939137337084 0 0.0017653648853169057 -0.0049837618904138023 0 0.001796129011111286 -0.0049225869140044768 0 0.001796129011111286 -0.0049225869140044768 0 0.0017282675801430483 -0.00503386228704441 0 0.0017883151677744421 -0.0049584201640366478 0 0.0017475726444527641 -0.0050363754170942594 0 0.0018276334141611732 -0.0050348965329658074 0 0.0017585903397883853 -0.0050746525548225766 0 0.0017282675801430483 -0.00503386228704441 0 0.0018493089549285922 -0.0051364113583765225 0 0.0017282675801430483 -0.00503386228704441 0 0.0017883151677744421 -0.0049584201640366478 0 0.0017859785984302161 -0.0049452236484405759 0 0.0017585903397883853 -0.0050746525548225766 0 0.0016780692004238883 -0.0049999399225845263 0 0.0019643416139037782 -0.004999960045779934 0 0.0017585903397883853 -0.0050746525548225766 0 0.0018493089549285922 -0.0051364113583765225 0 0.0019643416139037782 -0.004999960045779934 0 0.0017585903397883853 -0.0050746525548225766 0 0.0016780692004238883 -0.0049999399225845263 0 0.0016743159108757947 -0.0050644342792300987 0 0.0016780692004238883 -0.0049999399225845263 0 0.0016743159108757947 -0.0050644342792300987 0 0.0015856394888910028 -0.0050404660475007676 0 0.0017585903397883853 -0.0050746525548225766 0 0.0016743159108757947 -0.0050644342792300987 0 0.0017282675801430483 -0.00503386228704441 0 0.0016743159108757947 -0.0050644342792300987 0 0.0017282675801430483 -0.00503386228704441 0 0.0017004111346262461 -0.0050428626134479933 0 0.0015050879648870643 -0.0049517380362872378 0 0.0013913204713857097 -0.004999993276801464 0 0.001520027732691592 -0.0049506691919025637 0 0.0016743159108757947 -0.0050644342792300987 0 0.0017004111346262461 -0.0050428626134479933 0 0.0016352453105828277 -0.0050744882032014906 0 0.0015397297437131086 -0.0049166775915566539 0 0.0015050879648870643 -0.0049517380362872378 0 0.001520027732691592 -0.0049506691919025637 0 0.0016743159108757947 -0.0050644342792300987 0 0.0016352453105828277 -0.0050744882032014906 0 0.0015856394888910028 -0.0050404660475007676 0 0.0015621334794101451 -0.0050057797244026933 0 0.0013917322917830753 -0.0049999831425193179 0 0.0016352453105828277 -0.0050744882032014906 0 0.0015856394888910028 -0.0050404660475007676 0 0.0013919482280427057 -0.0049999551654964242 0 0.0016780692004238883 -0.0049999399225845263 0 0.0015856394888910028 -0.0050404660475007676 0 0.0013919482280427057 -0.0049999551654964242 0 0.0013913204713857097 -0.004999993276801464 0 0.0013705647629139704 -0.004999989891370616 0 0.001520027732691592 -0.0049506691919025637 0 0.0013701877383033361 -0.0049999796075357343 0 0.0014214682051715919 -0.0050606746004519844 0 0.0012366917252475446 -0.0051063250728045637 0 0.0013700764729468098 -0.0049999803633547684 0 0.0013312069682964974 -0.0051902268153528964 0 0.0012366917252475446 -0.0051063250728045637 0 0.0013312069682964974 -0.0051902268153528964 0 0.0012355196531963588 -0.0051876304710601843 0 0.001256185460040327 -0.005243321348759533 0 0.0013312069682964974 -0.0051902268153528964 0 0.0012355196531963588 -0.0051876304710601843 0 0.0018076203879382193 -0.0049356641037209157 0 0.0018136677276616188 -0.0049333546834525567 0 0.0018286193663575934 -0.0049293021122806717 0 0.0018076203879382193 -0.0049356641037209157 0 0.001807623017862976 -0.0049414361268637647 0 0.0018136677276616188 -0.0049333546834525567 0 0.0018076203879382193 -0.0049356641037209157 0 0.0018224352361713508 -0.0049453788077289734 0 0.0018286193663575934 -0.0049293021122806717 0 0.0018076203879382193 -0.0049356641037209157 0 0.0018224352361713508 -0.0049453788077289734 0 0.001798128628932812 -0.0049235382862050621 0 0.0020298455354552853 -0.0048560449147631553 0 0.0019970303432375117 -0.0048427965960402683 0 0.001863556492788417 -0.0048532812583882597 0 0.001798128628932812 -0.0049235382862050621 0 0.0018139196785168638 -0.0049311544695399114 0 0.0018076203879382193 -0.0049356641037209157 0 0.001798128628932812 -0.0049235382862050621 0 0.0018139196785168638 -0.0049311544695399114 0 0.001863556492788417 -0.0048532812583882597 0 0.001796129011111286 -0.0049225869140044768 0 0.0018139196785168638 -0.0049311544695399114 0 0.001796129011111286 -0.0049225869140044768 0 0.0018139196785168638 -0.0049311544695399114 0 0.0017883151677744421 -0.0049584201640366478 0 0.0018139196785168638 -0.0049311544695399114 0 0.0017883151677744421 -0.0049584201640366478 0 0.001807623017862976 -0.0049414361268637647 0 0.0018076203879382193 -0.0049356641037209157 0 0.0018139196785168638 -0.0049311544695399114 0 0.001807623017862976 -0.0049414361268637647 0 0.001807623017862976 -0.0049414361268637647 0 0.0018070662577454957 -0.0049294348550688273 0 0.0018131512209293933 -0.0049300292064885952 0 0.001807623017862976 -0.0049414361268637647 0 0.0018131512209293933 -0.0049300292064885952 0 0.0018136677276616188 -0.0049333546834525567 0 0.0017883151677744421 -0.0049584201640366478 0 0.001807623017862976 -0.0049414361268637647 0 0.0017859785984302161 -0.0049452236484405759 0 0.001807623017862976 -0.0049414361268637647 0 0.0017859785984302161 -0.0049452236484405759 0 0.0018070662577454957 -0.0049294348550688273 0 0.0018276334141611732 -0.0050348965329658074 0 0.0019277135067027466 -0.0050229268752365252 0 0.0018493089549285922 -0.0051364113583765225 0 0.0019643416139037782 -0.004999960045779934 0 0.0020759790307934732 -0.0051147159157905022 0 0.0019643416139037782 -0.004999960045779934 0 0.0020759790307934732 -0.0051147159157905022 0 0.0022507818965252576 -0.0049999976534021362 0 0.0018070662577454957 -0.0049294348550688273 0 0.0018184435558568867 -0.004924404851906177 0 0.0018131512209293933 -0.0049300292064885952 0 0.0020759790307934732 -0.0051147159157905022 0 0.0022507818965252576 -0.0049999976534021362 0 0.0022920993816386596 -0.0050474642369642683 0 0.0022507866361090438 -0.0049999997900927627 0 0.002293012348342558 -0.005048263509681101 0 0.0024089860809825238 -0.004999999604197264 0 0.0019277135067027466 -0.0050229268752365252 0 0.0021349634649868838 -0.0049863179860880564 0 0.0022507071892568314 -0.0050000666326266386 0 0.0021349634649868838 -0.0049863179860880564 0 0.0018184435558568867 -0.004924404851906177 0 0.0018131512209293933 -0.0049300292064885952 0 0.0018136677276616188 -0.0049333546834525567 0 0.0021349634649868838 -0.0049863179860880564 0 0.0021489474589076137 -0.0050507639563545526 0 0.0018184435558568867 -0.004924404851906177 0 0.0018136677276616188 -0.0049333546834525567 0 0.0018286193663575934 -0.0049293021122806717 0 0.002328463798233467 -0.0050337298668115052 0 0.0024091599598688768 -0.0049999422572416961 0 0.0025320036353172932 -0.0050652571718653666 0 0.002328463798233467 -0.0050337298668115052 0 0.0025426785583870944 -0.0051656758956036067 0 0.0025320036353172932 -0.0050652571718653666 0 0.0021349634649868838 -0.0049863179860880564 0 0.0024089873526028679 -0.0049999510737534711 0 0.0024091599598688768 -0.0049999422572416961 0 0.0025320036353172932 -0.0050652571718653666 0 0.0026801754702657729 -0.0049999551921283691 0 0.0025320036353172932 -0.0050652571718653666 0 0.0026801754702657729 -0.0049999551921283691 0 0.002647590504314911 -0.005105939886478365 0 0.0026801754702657729 -0.0049999551921283691 0 0.0027724303886651996 -0.0051258198858911358 0 0.0028681084002733829 -0.0050770203462249617 0 0.0026801754702657729 -0.0049999551921283691 0 0.0027724303886651996 -0.0051258198858911358 0 0.002647590504314911 -0.005105939886478365 0 0.0027724303886651996 -0.0051258198858911358 0 0.002647590504314911 -0.005105939886478365 0 0.0027037024596563131 -0.0051612452553607083 0 0.0027724303886651996 -0.0051258198858911358 0 0.0027037024596563131 -0.0051612452553607083 0 0.0027954134564243901 -0.0051532293265022823 0 0.0025426785583870944 -0.0051656758956036067 0 0.0025320036353172932 -0.0050652571718653666 0 0.002647590504314911 -0.005105939886478365 0 0.0025426785583870944 -0.0051656758956036067 0 0.002647590504314911 -0.005105939886478365 0 0.0027037024596563131 -0.0051612452553607083 0 0.0018224352361713508 -0.0049453788077289734 0 0.0018286193663575934 -0.0049293021122806717 0 0.001853591742386893 -0.0049450301184420309 0 0.0021489474589076137 -0.0050507639563545526 0 0.0024455285453597168 -0.0050010193528378993 0 0.0025426785583870944 -0.0051656758956036067 0 0.0027037024596563131 -0.0051612452553607083 0 0.0027342911189504578 -0.0052430456054290524 0 0.0027037024596563131 -0.0051612452553607083 0 0.0027954134564243901 -0.0051532293265022823 0 0.0027342911189504578 -0.0052430456054290524 0 0.0027954134564243901 -0.0051532293265022823 0 0.0027342911189504578 -0.0052430456054290524 0 0.002852192006503202 -0.0050789264787592676 0 0.0025582922037964135 -0.0048101121542479053 0 0.0026243277603824806 -0.0048973846077302492 0 0.0025115209215742103 -0.0048611856905979092 0 0.0025946369693190356 -0.004843135563685123 0 0.0026613750366403246 -0.0049185170617013635 0 0.0026243277603824806 -0.0048973846077302492 0 0.0024455285453597168 -0.0050010193528378993 0 0.0025095534624690651 -0.004959148528336399 0 0.0025946369693190356 -0.004843135563685123 0 0.0026613750366403246 -0.0049185170617013635 0 0.0027361128770379173 -0.0049745513966009541 0 0.0026613750366403246 -0.0049185170617013635 0 0.0026877684866700208 -0.004954561719152855 0 0.0027361128770379173 -0.0049745513966009541 0 0.0026877684866700208 -0.004954561719152855 0 0.0025968948419710738 -0.0049146095155931874 0 0.0026243277603824806 -0.0048973846077302492 0 0.0026877684866700208 -0.004954561719152855 0 0.0025968948419710738 -0.0049146095155931874 0 0.0026477988247485774 -0.0049546902357883432 0 0.0026613750366403246 -0.0049185170617013635 0 0.0026877684866700208 -0.004954561719152855 0 0.0026243277603824806 -0.0048973846077302492 0 0.0025968948419710738 -0.0049146095155931874 0 0.0025115209215742103 -0.0048611856905979092 0 0.0024938128618370217 -0.0049038296293414333 0 0.0025968948419710738 -0.0049146095155931874 0 0.0026243277603824806 -0.0048973846077302492 0 0.0025115209215742103 -0.0048611856905979092 0 0.0023408537273808187 -0.0047875785239931837 0 0.0025582922037964135 -0.0048101121542479053 0 0.0025115209215742103 -0.0048611856905979092 0 0.0020298455354552853 -0.0048560449147631553 0 0.0024455285453597168 -0.0050010193528378993 0 0.0023408537273808187 -0.0047875785239931837 0 0.0025115209215742103 -0.0048611856905979092 0 0.0024938128618370217 -0.0049038296293414333 0 0.0028420219010914871 -0.0050402999535555304 0 0.0028879836289254775 -0.0050942115913597671 0 0.0029157266023205684 -0.005106012711501187 0 0.0028420219010914871 -0.0050402999535555304 0 0.0029157266023205684 -0.005106012711501187 0 0.002777064649123129 -0.0049052402110097478 0 0.0029018199300679306 -0.0046306975364622301 0 0.0028216315397801505 -0.00458505939992073 0 0.0026877684866700208 -0.004954561719152855 0 0.0028420219010914871 -0.0050402999535555304 0 0.0026477988247485774 -0.0049546902357883432 0 0.0026877684866700208 -0.004954561719152855 0 0.0027361128770379173 -0.0049745513966009541 0 0.0028420219010914871 -0.0050402999535555304 0 0.0028164484464167075 -0.0050090737738052189 0 0.0027262298379750419 -0.0048989680121319752 0 0.0028420219010914871 -0.0050402999535555304 0 0.0027999946539168864 -0.0048335542658361659 0 0.002777064649123129 -0.0049052402110097478 0 0.0025946369693190356 -0.004843135563685123 0 0.0027361128770379173 -0.0049745513966009541 0 0.002852192006503202 -0.0050789264787592676 0 0.0027361128770379173 -0.0049745513966009541 0 0.0028420219010914871 -0.0050402999535555304 0 0.002852192006503202 -0.0050789264787592676 0 0.0024455285453597168 -0.0050010193528378993 0 0.0029020785799734215 -0.0050754762024869463 0 0.0027954134564243901 -0.0051532293265022823 0 0.002852192006503202 -0.0050789264787592676 0 0.0028628868060802206 -0.0051276118207737144 0 0.002852192006503202 -0.0050789264787592676 0 0.0028941795072307845 -0.0051137604338825421 0 0.0028628868060802206 -0.0051276118207737144 0 0.0028879836289254775 -0.0050942115913597671 0 0.0029529072085897972 -0.0051212449110616069 0 0.0029157266023205684 -0.005106012711501187 0 0.0028941795072307845 -0.0051137604338825421 0 0.0028879836289254775 -0.0050942115913597671 0 0.0029529072085897972 -0.0051212449110616069 0 0.0028420219010914871 -0.0050402999535555304 0 0.002852192006503202 -0.0050789264787592676 0 0.0028879836289254775 -0.0050942115913597671 0 0.002852192006503202 -0.0050789264787592676 0 0.0028941795072307845 -0.0051137604338825421 0 0.0028879836289254775 -0.0050942115913597671 0 0.0029529072085897972 -0.0051212449110616069 0 0.0029556631220698814 -0.005112221204358015 0 0.0030321218473942429 -0.0051283906755995069 0 0.0028941795072307845 -0.0051137604338825421 0 0.0029529072085897972 -0.0051212449110616069 0 0.0029556631220698814 -0.005112221204358015 0 0.0028941795072307845 -0.0051137604338825421 0 0.0029556631220698814 -0.005112221204358015 0 0.0028628868060802206 -0.0051276118207737144 0 0.0029556631220698814 -0.005112221204358015 0 0.0030846506750847958 -0.005079843100763811 0 0.0030321218473942429 -0.0051283906755995069 0 0.0027724303886651996 -0.0051258198858911358 0 0.0028628868060802206 -0.0051276118207737144 0 0.0028681084002733829 -0.0050770203462249617 0 0.0029556631220698814 -0.005112221204358015 0 0.0028628868060802206 -0.0051276118207737144 0 0.0028681084002733829 -0.0050770203462249617 0 0.0027724303886651996 -0.0051258198858911358 0 0.0027954134564243901 -0.0051532293265022823 0 0.0028628868060802206 -0.0051276118207737144 0 0.0029556631220698814 -0.005112221204358015 0 0.0028681084002733829 -0.0050770203462249617 0 0.0029513007619093143 -0.0049999595487423042 0 0.0026801754702657729 -0.0049999551921283691 0 0.0028681084002733829 -0.0050770203462249617 0 0.0029513007619093143 -0.0049999595487423042 0 0.0029513007619093143 -0.0049999595487423042 0 0.0032223758308060008 -0.0049999428656099919 0 0.0030846506750847958 -0.005079843100763811 0 0.0029556631220698814 -0.005112221204358015 0 0.0029513007619093143 -0.0049999595487423042 0 0.0030846506750847958 -0.005079843100763811 0 0.0032223758308060008 -0.0049999428656099919 0 0.0030846506750847958 -0.005079843100763811 0 0.0033002809902393684 -0.0050816973142096926 0 0.0032223758308060008 -0.0049999428656099919 0 0.0033002809902393684 -0.0050816973142096926 0 0.003493690310475256 -0.0049999588240075771 0 0.0035333556379302999 -0.0052229178702185132 0 0.0031189436018610795 -0.0050077495846221455 0 0.0033002809902393684 -0.0050816973142096926 0 0.0031364140001330382 -0.0051581441368476165 0 0.0032551723944863028 -0.0053116376628601358 0 0.0033002809902393684 -0.0050816973142096926 0 0.0035153141088328462 -0.0051406320478070387 0 0.0032551723944863028 -0.0053116376628601358 0 0.0031754693424465019 -0.005199453522634164 0 0.0031189436018610795 -0.0050077495846221455 0 0.0031364140001330382 -0.0051581441368476165 0 0.0030252391959414227 -0.0051366550961300314 0 0.0030755615408921216 -0.0051487201244983915 0 0.0030846506750847958 -0.005079843100763811 0 0.0033002809902393684 -0.0050816973142096926 0 0.0031364140001330382 -0.0051581441368476165 0 0.0029529072085897972 -0.0051212449110616069 0 0.0030321218473942429 -0.0051283906755995069 0 0.0030252391959414227 -0.0051366550961300314 0 0.0030321218473942429 -0.0051283906755995069 0 0.0031364140001330382 -0.0051581441368476165 0 0.0030252391959414227 -0.0051366550961300314 0 0.0030846506750847958 -0.005079843100763811 0 0.0030321218473942429 -0.0051283906755995069 0 0.0031364140001330382 -0.0051581441368476165 0 0.003493690310475256 -0.0049999588240075771 0 0.003699139851804359 -0.0051567025361831074 0 0.0037649024960126703 -0.0049999965243471556 0 0.0033002809902393684 -0.0050816973142096926 0 0.003493690310475256 -0.0049999588240075771 0 0.0035153141088328462 -0.0051406320478070387 0 0.003493690310475256 -0.0049999588240075771 0 0.0035153141088328462 -0.0051406320478070387 0 0.003699139851804359 -0.0051567025361831074 0 0.0035153141088328462 -0.0051406320478070387 0 0.0035429975914896611 -0.00530310152096399 0 0.0033418330446934323 -0.0053076655228598332 0 0.0035153141088328462 -0.0051406320478070387 0 0.003699139851804359 -0.0051567025361831074 0 0.0035429975914896611 -0.00530310152096399 0 0.003699139851804359 -0.0051567025361831074 0 0.003672664362060824 -0.0053794283820381055 0 0.0035429975914896611 -0.00530310152096399 0 0.003699139851804359 -0.0051567025361831074 0 0.003672664362060824 -0.0053794283820381055 0 0.00382852161078942 -0.0053203633967909602 0 0.003672664362060824 -0.0053794283820381055 0 0.0035429975914896611 -0.00530310152096399 0 0.0034876198694072861 -0.0055159285880118777 0 0.0035429975914896611 -0.00530310152096399 0 0.0034876198694072861 -0.0055159285880118777 0 0.0033418330446934323 -0.0053076655228598332 0 0.0036793382905741922 -0.0055115275718292406 0 0.0037022135687609292 -0.0056184798921232468 0 0.0038014824436485278 -0.0054656153773087425 0 0.003672664362060824 -0.0053794283820381055 0 0.0034876198694072861 -0.0055159285880118777 0 0.0036793382905741922 -0.0055115275718292406 0 0.0034876198694072861 -0.0055159285880118777 0 0.0036793382905741922 -0.0055115275718292406 0 0.0037022135687609292 -0.0056184798921232468 0 0.003672664362060824 -0.0053794283820381055 0 0.0036793382905741922 -0.0055115275718292406 0 0.0038014824436485278 -0.0054656153773087425 0 0.0031189436018610795 -0.0050077495846221455 0 0.0029018199300679306 -0.0046306975364622301 0 0.0029529072085897972 -0.0051212449110616069 0 0.0030252391959414227 -0.0051366550961300314 0 0.0029157266023205684 -0.005106012711501187 0 0.0029079756453719882 -0.0042544250335482571 0 0.0029057319413224561 -0.0042653345592968744 0 0.0028852437487667608 -0.0042621531263324526 0 0.0030252391959414227 -0.0051366550961300314 0 0.0030755615408921216 -0.0051487201244983915 0 0.0029157266023205684 -0.005106012711501187 0 0.0029271973149090783 -0.0042700710607097084 0 0.0029079756453719882 -0.0042544250335482571 0 0.0029057319413224561 -0.0042653345592968744 0 0.0031789234151117867 -0.0048641809846955396 0 0.0031189436018610795 -0.0050077495846221455 0 0.0029271973149090783 -0.0042700710607097084 0 0.0029057319413224561 -0.0042653345592968744 0 0.0029036042984047256 -0.0042772933378311907 0 0.0029057319413224561 -0.0042653345592968744 0 0.0028852437487667608 -0.0042621531263324526 0 0.0029036042984047256 -0.0042772933378311907 0 0.0028852437487667608 -0.0042621531263324526 0 0.0028823234203556166 -0.0042786508566484121 0 0.0029036042984047256 -0.0042772933378311907 0 0.0028823234203556166 -0.0042786508566484121 0 0.0029036042984047256 -0.0042772933378311907 0 0.0028943518755768448 -0.0042989355802944716 0 0.0029271973149090783 -0.0042700710607097084 0 0.0029036042984047256 -0.0042772933378311907 0 0.0029213891307710597 -0.0042864651597220261 0 0.0029036042984047256 -0.0042772933378311907 0 0.002912412746869104 -0.0042932838701638509 0 0.0028943518755768448 -0.0042989355802944716 0 0.0029036042984047256 -0.0042772933378311907 0 0.002912412746869104 -0.0042932838701638509 0 0.0029213891307710597 -0.0042864651597220261 0 0.002912412746869104 -0.0042932838701638509 0 0.0029213891307710597 -0.0042864651597220261 0 0.0029277175484640882 -0.0043003475869768226 0 0.0028943518755768448 -0.0042989355802944716 0 0.0029171582939925521 -0.0043066167513962587 0 0.002926041056686654 -0.0043331769151979324 0 0.002912412746869104 -0.0042932838701638509 0 0.0028943518755768448 -0.0042989355802944716 0 0.0029171582939925521 -0.0043066167513962587 0 0.0028767286218513714 -0.0042969683180871252 0 0.0029844821177190776 -0.0042933420755460108 0 0.002912412746869104 -0.0042932838701638509 0 0.0029171582939925521 -0.0043066167513962587 0 0.0029277175484640882 -0.0043003475869768226 0 0.0028943518755768448 -0.0042989355802944716 0 0.0028859656635621608 -0.0042972866400626981 0 0.0028726070015716149 -0.004293498427024544 0 0.0028943518755768448 -0.0042989355802944716 0 0.0028859656635621608 -0.0042972866400626981 0 0.0028902618381981414 -0.0042991171066921983 0 0.0028823234203556166 -0.0042786508566484121 0 0.0028943518755768448 -0.0042989355802944716 0 0.0028726070015716149 -0.004293498427024544 0 0.0034876198694072861 -0.0055159285880118777 0 0.0037022135687609292 -0.0056184798921232468 0 0.0036343818916822054 -0.0057228303583879104 0 0.0037022135687609292 -0.0056184798921232468 0 0.0036343818916822054 -0.0057228303583879104 0 0.0037404067101264398 -0.0057286401541656352 0 0.0031789234151117867 -0.0048641809846955396 0 0.0034619401315918999 -0.0049059068220490372 0 0.0029271973149090783 -0.0042700710607097084 0 0.0029598450160003274 -0.0042992120597264583 0 0.0029415633580964239 -0.0042963455368219576 0 0.0029271973149090783 -0.0042700710607097084 0 0.0029213891307710597 -0.0042864651597220261 0 0.0029415633580964239 -0.0042963455368219576 0 0.0029213891307710597 -0.0042864651597220261 0 0.0029415633580964239 -0.0042963455368219576 0 0.0029277175484640882 -0.0043003475869768226 0 0.0029498165825596742 -0.0043127828254162764 0 0.002968769005774682 -0.0043095960838283763 0 0.0029394657263323346 -0.0043303844481107122 0 0.0029277175484640882 -0.0043003475869768226 0 0.0029359110594037552 -0.0043096647877789388 0 0.0029290127139942113 -0.0043150260805268166 0 0.0029171582939925521 -0.0043066167513962587 0 0.0029277175484640882 -0.0043003475869768226 0 0.0029290127139942113 -0.0043150260805268166 0 0.0029415633580964239 -0.0042963455368219576 0 0.0029277175484640882 -0.0043003475869768226 0 0.0029396613719130556 -0.0043041314732314003 0 0.0029277175484640882 -0.0043003475869768226 0 0.0029359110594037552 -0.0043096647877789388 0 0.0029396613719130556 -0.0043041314732314003 0 0.0029171582939925521 -0.0043066167513962587 0 0.0029290127139942113 -0.0043150260805268166 0 0.002926041056686654 -0.0043331769151979324 0 0.0029335523299823711 -0.0043237041412284103 0 0.002938905943633309 -0.0043166565214904076 0 0.0029394657263323346 -0.0043303844481107122 0 0.0029290127139942113 -0.0043150260805268166 0 0.0029335523299823711 -0.0043237041412284103 0 0.002938905943633309 -0.0043166565214904076 0 0.0029359110594037552 -0.0043096647877789388 0 0.0029290127139942113 -0.0043150260805268166 0 0.002938905943633309 -0.0043166565214904076 0 0.0029359110594037552 -0.0043096647877789388 0 0.002938905943633309 -0.0043166565214904076 0 0.0029441381090347632 -0.0043095025338527587 0 0.002938905943633309 -0.0043166565214904076 0 0.0029498165825596742 -0.0043127828254162764 0 0.0029441381090347632 -0.0043095025338527587 0 0.002938905943633309 -0.0043166565214904076 0 0.0029498165825596742 -0.0043127828254162764 0 0.0029394657263323346 -0.0043303844481107122 0 0.0029498165825596742 -0.0043127828254162764 0 0.0029441381090347632 -0.0043095025338527587 0 0.0029492726958080919 -0.0043049975697769128 0 0.0029498165825596742 -0.0043127828254162764 0 0.0029492726958080919 -0.0043049975697769128 0 0.0029584402239906521 -0.0043061789014684285 0 0.0029359110594037552 -0.0043096647877789388 0 0.0029441381090347632 -0.0043095025338527587 0 0.0029396613719130556 -0.0043041314732314003 0 0.0029441381090347632 -0.0043095025338527587 0 0.0029396613719130556 -0.0043041314732314003 0 0.0029492726958080919 -0.0043049975697769128 0 0.0029415633580964239 -0.0042963455368219576 0 0.0029396613719130556 -0.0043041314732314003 0 0.0029492726958080919 -0.0043049975697769128 0 0.0029415633580964239 -0.0042963455368219576 0 0.0029492726958080919 -0.0043049975697769128 0 0.0029558786078447506 -0.0043026851138661124 0 0.0034200441100520522 -0.0045115533295521084 0 0.0031886546523037193 -0.0043384735375073978 0 0.0034513054914827742 -0.0043759169587079694 0 0.0034584875092627397 -0.0043423277914680179 0 0.003371578392184302 -0.0044114821384137045 0 0.0029498165825596742 -0.0043127828254162764 0 0.0029584402239906521 -0.0043061789014684285 0 0.002968769005774682 -0.0043095960838283763 0 0.0029598450160003274 -0.0042992120597264583 0 0.0029415633580964239 -0.0042963455368219576 0 0.0029558786078447506 -0.0043026851138661124 0 0.0029598450160003274 -0.0042992120597264583 0 0.0029558786078447506 -0.0043026851138661124 0 0.0029584402239906521 -0.0043061789014684285 0 0.0029492726958080919 -0.0043049975697769128 0 0.0029558786078447506 -0.0043026851138661124 0 0.0029584402239906521 -0.0043061789014684285 0 0.0029598450160003274 -0.0042992120597264583 0 0.0029584402239906521 -0.0043061789014684285 0 0.002968769005774682 -0.0043095960838283763 0 0.0034619401315918999 -0.0049059068220490372 0 0.0034200441100520522 -0.0045115533295521084 0 0.0034804435759968676 -0.0043804638396698547 0 0.0034666989543100097 -0.0043592082759843168 0 0.0035070280932603779 -0.0043628191864936014 0 0.0034513054914827742 -0.0043759169587079694 0 0.0034804435759968676 -0.0043804638396698547 0 0.0034584875092627397 -0.0043423277914680179 0 0.0034213663270296749 -0.004409271380158509 0 0.0034200441100520522 -0.0045115533295521084 0 0.0034513054914827742 -0.0043759169587079694 0 0.0034804435759968676 -0.0043804638396698547 0 0.0034722126741787425 -0.00439248622994868 0 0.0034619401315918999 -0.0049059068220490372 0 0.0037057258814435817 -0.0050605856210826717 0 0.0034685369023695865 -0.0048668107786979629 0 0.0035090349908963336 -0.0049257636361747063 0 0.0035759742066297281 -0.0048717017434547526 0 0.0034666989543100097 -0.0043592082759843168 0 0.0034896372511343541 -0.0043416220813062237 0 0.0035070280932603779 -0.0043628191864936014 0 0.0034200441100520522 -0.0045115533295521084 0 0.0037057258814435817 -0.0050605856210826717 0 0.0034695222786047162 -0.0043789809381804615 0 0.0034390861693872291 -0.0044054350395471486 0 0.0034030923752960446 -0.0043877126920223615 0 0.003504815571081872 -0.004381625970650848 0 0.0031886546523037193 -0.0043384735375073978 0 0.0034513054914827742 -0.0043759169587079694 0 0.0034722126741787425 -0.00439248622994868 0 0.003371578392184302 -0.0044114821384137045 0 0.0034774568944271663 -0.0044117369195320081 0 0.0034695222786047162 -0.0043789809381804615 0 0.0034390861693872291 -0.0044054350395471486 0 0.0034774568944271663 -0.0044117369195320081 0 0.0034390861693872291 -0.0044054350395471486 0 0.0034559672199108555 -0.0044487760568088508 0 0.0031092728188789054 -0.0042944308324437156 0 0.0033366398963633513 -0.0043249791873819455 0 0.0034390861693872291 -0.0044054350395471486 0 0.0033881687489521442 -0.0043999099447792553 0 0.0034559672199108555 -0.0044487760568088508 0 0.0034390861693872291 -0.0044054350395471486 0 0.0034030923752960446 -0.0043877126920223615 0 0.0033881687489521442 -0.0043999099447792553 0 0.0031886546523037193 -0.0043384735375073978 0 0.0031092728188789054 -0.0042944308324437156 0 0.0031886546523037193 -0.0043384735375073978 0 0.0029844821177190776 -0.0042933420755460108 0 0.0029290127139942113 -0.0043150260805268166 0 0.0029335523299823711 -0.0043237041412284103 0 0.002926041056686654 -0.0043331769151979324 0 0.0031382754862861986 -0.0043150014897763113 0 0.0031042632249227249 -0.0043428109965702811 0 0.0030814855077906694 -0.0043249791955816755 0 0.0029335523299823711 -0.0043237041412284103 0 0.0029394657263323346 -0.0043303844481107122 0 0.002926041056686654 -0.0043331769151979324 0 0.0031092728188789054 -0.0042944308324437156 0 0.0029844821177190776 -0.0042933420755460108 0 0.0030843630425551253 -0.0041916285814579653 0 0.0031644914297121918 -0.0041544718222123744 0 0.003134093791802369 -0.0041816357715552255 0 0.003086172375264931 -0.0040987320260196724 0 0.0030843630425551253 -0.0041916285814579653 0 0.0031644914297121918 -0.0041544718222123744 0 0.0034774568944271663 -0.0044117369195320081 0 0.0034559672199108555 -0.0044487760568088508 0 0.0035091354516039045 -0.004433382828475425 0 0.0029138981501001973 -0.0042735891494300234 0 0.0028987981424978613 -0.0042846567986699257 0 0.0029589544510842765 -0.0042387820644348758 0 0.0029149078453154145 -0.0042850772822543492 0 0.0028871804206454473 -0.0042921660844527695 0 0.0028859656635621608 -0.0042972866400626981 0 0.0028902618381981414 -0.0042991171066921983 0 0.0028871804206454473 -0.0042921660844527695 0 0.0031092728188789054 -0.0042944308324437156 0 0.0029533371207956793 -0.0041993048668293835 0 0.0029564355386810879 -0.0042404755530522495 0 0.0029589544510842765 -0.0042387820644348758 0 0.0029687856449537248 -0.004235241821693869 0 0.0029552449497461451 -0.0042394653219855437 0 0.0029564355386810879 -0.0042404755530522495 0 0.0029687856449537248 -0.004235241821693869 0 0.0028943518755768448 -0.0042989355802944716 0 0.0028931394920227236 -0.0042991100593997838 0 0.0028902618381981414 -0.0042991171066921983 0 0.0029844821177190776 -0.0042933420755460108 0 0.0029138981501001973 -0.0042735891494300234 0 0.003086172375264931 -0.0040987320260196724 0 0.0030843630425551253 -0.0041916285814579653 0 0.0029687856449537248 -0.004235241821693869 0 0.0030843630425551253 -0.0041916285814579653 0 0.0029687856449537248 -0.004235241821693869 0 0.0030216361003342455 -0.0042426087207349718 0 0.0029687856449537248 -0.004235241821693869 0 0.0029149078453154145 -0.0042850772822543492 0 0.0029529667947036939 -0.0042860827758569517 0 0.0029589544510842765 -0.0042387820644348758 0 0.0029687856449537248 -0.004235241821693869 0 0.0029149078453154145 -0.0042850772822543492 0 0.0028502531128133477 -0.0043322470041786383 0 0.0027963089394788805 -0.0043868022611310703 0 0.002879805367835931 -0.0043437075246779101 0 0.0029149078453154145 -0.0042850772822543492 0 0.0028502531128133477 -0.0043322470041786383 0 0.002879805367835931 -0.0043437075246779101 0 0.0029149078453154145 -0.0042850772822543492 0 0.0028502531128133477 -0.0043322470041786383 0 0.0028871804206454473 -0.0042921660844527695 0 0.0028502531128133477 -0.0043322470041786383 0 0.0028871804206454473 -0.0042921660844527695 0 0.002835595407289795 -0.0043205142478547265 0 0.0028871804206454473 -0.0042921660844527695 0 0.002835595407289795 -0.0043205142478547265 0 0.0028726070015716149 -0.004293498427024544 0 0.0028859656635621608 -0.0042972866400626981 0 0.0028871804206454473 -0.0042921660844527695 0 0.0028726070015716149 -0.004293498427024544 0 0.002835595407289795 -0.0043205142478547265 0 0.0027847776980786327 -0.004381496713201539 0 0.0027629304068984865 -0.0043796711612483869 0 0.0028502531128133477 -0.0043322470041786383 0 0.002835595407289795 -0.0043205142478547265 0 0.0027847776980786327 -0.004381496713201539 0 0.002835595407289795 -0.0043205142478547265 0 0.0027629304068984865 -0.0043796711612483869 0 0.0027823251330195004 -0.0042924194457775369 0 0.0027847776980786327 -0.004381496713201539 0 0.0027331840850916755 -0.0044474459630284317 0 0.0027963089394788805 -0.0043868022611310703 0 0.0028502531128133477 -0.0043322470041786383 0 0.0027847776980786327 -0.004381496713201539 0 0.0027963089394788805 -0.0043868022611310703 0 0.0027847776980786327 -0.004381496713201539 0 0.0027111079545858777 -0.0044488635595815165 0 0.0027331840850916755 -0.0044474459630284317 0 0.0027847776980786327 -0.004381496713201539 0 0.0027111079545858777 -0.0044488635595815165 0 0.0027629304068984865 -0.0043796711612483869 0 0.0025926832449545741 -0.0045482925283571295 0 0.0027111079545858777 -0.0044488635595815165 0 0.0026922289082025115 -0.0044406297775670851 0 0.0025926832449545741 -0.0045482925283571295 0 0.0027111079545858777 -0.0044488635595815165 0 0.0026774836056639066 -0.0044968784388638066 0 0.0025926832449545741 -0.0045482925283571295 0 0.0026243818521117031 -0.004440412575438357 0 0.0026922289082025115 -0.0044406297775670851 0 0.0026243818521117031 -0.004440412575438357 0 0.0026922289082025115 -0.0044406297775670851 0 0.0027584262586220101 -0.004591663602951177 0 0.0026922289082025115 -0.0044406297775670851 0 0.0027629304068984865 -0.0043796711612483869 0 0.0027823251330195004 -0.0042924194457775369 0 0.0027111079545858777 -0.0044488635595815165 0 0.0026922289082025115 -0.0044406297775670851 0 0.0027629304068984865 -0.0043796711612483869 0 0.0026922289082025115 -0.0044406297775670851 0 0.0027321285515027488 -0.0046498556653193999 0 0.0027584262586220101 -0.004591663602951177 0 0.0027107433357876757 -0.0044400065894344923 0 0.0027660826633407833 -0.0044678231626224469 0 0.0022819418864966291 -0.0049090197266817518 0 0.0023622457559423289 -0.0048921440767453845 0 0.002445720700576394 -0.004945649230511235 0 0.0024594441705577249 -0.0046814185232376638 0 0.0025974356658512443 -0.0047718252930612059 0 0.0023622457559423289 -0.0048921440767453845 0 0.0023408537273808187 -0.0047875785239931837 0 0.0024938128618370217 -0.0049038296293414333 0 0.0023622457559423289 -0.0048921440767453845 0 0.002445720700576394 -0.004945649230511235 0 0.0024938128618370217 -0.0049038296293414333 0 0.0027321285515027488 -0.0046498556653193999 0 0.0027584262586220101 -0.004591663602951177 0 0.0027999946539168864 -0.0048335542658361659 0 0.0025974356658512443 -0.0047718252930612059 0 0.0027262298379750419 -0.0048989680121319752 0 0.002445720700576394 -0.004945649230511235 0 0.0024938128618370217 -0.0049038296293414333 0 0.0026477988247485774 -0.0049546902357883432 0 0.0025968948419710738 -0.0049146095155931874 0 0.0024938128618370217 -0.0049038296293414333 0 0.0026477988247485774 -0.0049546902357883432 0 0.0027660826633407833 -0.0044678231626224469 0 0.0028216315397801505 -0.00458505939992073 0 0.0027321285515027488 -0.0046498556653193999 0 0.0027999946539168864 -0.0048335542658361659 0 0.002777064649123129 -0.0049052402110097478 0 0.0028852437487667608 -0.0042621531263324526 0 0.0028823234203556166 -0.0042786508566484121 0 0.0028519606100329206 -0.0042667471181215919 0 0.0028823234203556166 -0.0042786508566484121 0 0.0028519606100329206 -0.0042667471181215919 0 0.0028726070015716149 -0.004293498427024544 0 0.0028519606100329206 -0.0042667471181215919 0 0.0028726070015716149 -0.004293498427024544 0 0.002837224332882173 -0.0042927575610811775 0 0.002835595407289795 -0.0043205142478547265 0 0.0028726070015716149 -0.004293498427024544 0 0.002837224332882173 -0.0042927575610811775 0 0.0027823251330195004 -0.0042924194457775369 0 0.0028519606100329206 -0.0042667471181215919 0 0.002837224332882173 -0.0042927575610811775 0 0.002835595407289795 -0.0043205142478547265 0 0.0027823251330195004 -0.0042924194457775369 0 0.002837224332882173 -0.0042927575610811775 0 0.0051829649859653059 -0.0044720721352516975 0 0.0051945228593418468 -0.0047765766474619602 0 0.0053638886616962991 -0.0045768655147879851 0 0.0051829649859653059 -0.0044720721352516975 0 0.0049999860465449542 -0.0045810920111506951 0 0.0051945228593418468 -0.0047765766474619602 0 0.0051829649859653059 -0.0044720721352516975 0 0.0049999860465449542 -0.0045810920111506951 0 0.0049999927934707891 -0.0043290953870549417 0 0.0051829649859653059 -0.0044720721352516975 0 0.0053638886616962991 -0.0045768655147879851 0 0.005306889926317373 -0.0042801809106572213 0 0.0050001431705244404 -0.0045811105460726656 0 0.0049363853028580196 -0.0049427602505838358 0 0.0049998344995269804 -0.0045814897916567759 0 0.0049506918304269287 -0.0049721735520041731 0 0.0050479073243433299 -0.0048765923518683104 0 0.0049998344995269804 -0.0045814897916567759 0 0.0049999027627988064 -0.0049998999756058031 0 0.0049506918304269287 -0.0049721735520041731 0 0.0049999027627988064 -0.0049998999756058031 0 0.0049506918304269287 -0.0049721735520041731 0 0.0045788062684320834 -0.0049998365505562097 0 0.0049506918304269287 -0.0049721735520041731 0 0.0048667244436879295 -0.0050771129480995702 0 0.0045788062684320834 -0.0049998365505562097 0 0.0049363853028580196 -0.0049427602505838358 0 0.0050569726192943726 -0.0048420908837240083 0 0.0049439460979483754 -0.0049673371547502192 0 0.0049363853028580196 -0.0049427602505838358 0 0.0046341977004516937 -0.0050691697781204042 0 0.004563911287861655 -0.0050706886573306312 0 0.0045817172864706327 -0.0050342038626411895 0 0.0046341977004516937 -0.0050691697781204042 0 0.004563911287861655 -0.0050706886573306312 0 0.0045759844190882502 -0.0051161937581425641 0 0.0049363853028580196 -0.0049427602505838358 0 0.0045783064431841368 -0.0050000266681090293 0 0.0045817172864706327 -0.0050342038626411895 0 0.0045783862614036637 -0.0050000013174227179 0 0.0044372036674422306 -0.0050817378718581155 0 0.0046341977004516937 -0.0050691697781204042 0 0.0045817172864706327 -0.0050342038626411895 0 0.0045783862614036637 -0.0050000013174227179 0 0.0045783862614036637 -0.0050000013174227179 0 0.0044372036674422306 -0.0050817378718581155 0 0.0043072812161898677 -0.004999977925599257 0 0.0045817172864706327 -0.0050342038626411895 0 0.0044372036674422306 -0.0050817378718581155 0 0.0043854501190157139 -0.0052385841008749587 0 0.0045729180271394778 -0.0050417781633431396 0 0.0044414548833428416 -0.0051496680137714133 0 0.0044372036674422306 -0.0050817378718581155 0 0.0043854501190157139 -0.0052385841008749587 0 0.0043211410010929431 -0.0051253078999389523 0 0.004563911287861655 -0.0050706886573306312 0 0.0045817172864706327 -0.0050342038626411895 0 0.0045014785415419187 -0.0050593117392550586 0 0.004563911287861655 -0.0050706886573306312 0 0.0045330140273672406 -0.0050833885800414579 0 0.0045014785415419187 -0.0050593117392550586 0 0.0045330140273672406 -0.0050833885800414579 0 0.00450369553661865 -0.0051069266614721057 0 0.0045759844190882502 -0.0051161937581425641 0 0.0045330140273672406 -0.0050833885800414579 0 0.0045014785415419187 -0.0050593117392550586 0 0.00450369553661865 -0.0051069266614721057 0 0.004563911287861655 -0.0050706886573306312 0 0.0045330140273672406 -0.0050833885800414579 0 0.0045759844190882502 -0.0051161937581425641 0 0.0053638886616962991 -0.0045768655147879851 0 0.0055314318487111932 -0.0043730631157636269 0 0.005306889926317373 -0.0042801809106572213 0 0.0045273549956497986 -0.0053385221255720892 0 0.0044432293406007619 -0.0046418053979822467 0 0.00450369553661865 -0.0051069266614721057 0 0.0045759844190882502 -0.0051161937581425641 0 0.004513938030735889 -0.0051759222116748906 0 0.00450369553661865 -0.0051069266614721057 0 0.0045045340751393593 -0.0052144794864321239 0 0.0044504315053689571 -0.0051638649463172917 0 0.0050569726192943726 -0.0048420908837240083 0 0.0044432293406007619 -0.0046418053979822467 0 0.0044504315053689571 -0.0051638649463172917 0 0.0044092148900951372 -0.0052141389506765428 0 0.0043797675812597033 -0.0051187340765795602 0 0.0045045340751393593 -0.0052144794864321239 0 0.0044504315053689571 -0.0051638649463172917 0 0.0044092148900951372 -0.0052141389506765428 0 0.0044092148900951372 -0.0052141389506765428 0 0.0043308847435741859 -0.0052129123629566414 0 0.0043797675812597033 -0.0051187340765795602 0 0.0042720368329859718 -0.0052541299162893402 0 0.0041171183879263459 -0.0054542063320782205 0 0.0043308847435741859 -0.0052129123629566414 0 0.0043797675812597033 -0.0051187340765795602 0 0.0042454650462312562 -0.005203681082048728 0 0.0041660842207494114 -0.0054082336573975046 0 0.0041568866026495815 -0.0051843625566471768 0 0.0039735644488414559 -0.0053793378570625699 0 0.00450369553661865 -0.0051069266614721057 0 0.0044504315053689571 -0.0051638649463172917 0 0.0043797675812597033 -0.0051187340765795602 0 0.0044414548833428416 -0.0051496680137714133 0 0.0042720368329859718 -0.0052541299162893402 0 0.0045014785415419187 -0.0050593117392550586 0 0.00450369553661865 -0.0051069266614721057 0 0.0043797675812597033 -0.0051187340765795602 0 0.0043854501190157139 -0.0052385841008749587 0 0.0041660842207494114 -0.0054082336573975046 0 0.0041568866026495815 -0.0051843625566471768 0 0.0043854501190157139 -0.0052385841008749587 0 0.0043211410010929431 -0.0051253078999389523 0 0.0041568866026495815 -0.0051843625566471768 0 0.0043211410010929431 -0.0051253078999389523 0 0.0043072812161898677 -0.004999977925599257 0 0.0041568866026495815 -0.0051843625566471768 0 0.0044372036674422306 -0.0050817378718581155 0 0.0043211410010929431 -0.0051253078999389523 0 0.0043072812161898677 -0.004999977925599257 0 0.0043072812161898677 -0.004999977925599257 0 0.0041568866026495815 -0.0051843625566471768 0 0.0040360705881293058 -0.0049999930525431923 0 0.0041568866026495815 -0.0051843625566471768 0 0.0039097692514830137 -0.0051730844140411422 0 0.0039735644488414559 -0.0053793378570625699 0 0.0039097692514830137 -0.0051730844140411422 0 0.00382852161078942 -0.0053203633967909602 0 0.0039735644488414559 -0.0053793378570625699 0 0.0041568866026495815 -0.0051843625566471768 0 0.0039097692514830137 -0.0051730844140411422 0 0.0040360705881293058 -0.0049999930525431923 0 0.003699139851804359 -0.0051567025361831074 0 0.0039097692514830137 -0.0051730844140411422 0 0.0037649024960126703 -0.0049999965243471556 0 0.0039097692514830137 -0.0051730844140411422 0 0.0040360705881293058 -0.0049999930525431923 0 0.0037649024960126703 -0.0049999965243471556 0 0.003699139851804359 -0.0051567025361831074 0 0.0039097692514830137 -0.0051730844140411422 0 0.00382852161078942 -0.0053203633967909602 0 0.00382852161078942 -0.0053203633967909602 0 0.0039735644488414559 -0.0053793378570625699 0 0.0038014824436485278 -0.0054656153773087425 0 0.003672664362060824 -0.0053794283820381055 0 0.00382852161078942 -0.0053203633967909602 0 0.0038014824436485278 -0.0054656153773087425 0 0.0039735644488414559 -0.0053793378570625699 0 0.0039501716399337299 -0.0055702447030861607 0 0.0038014824436485278 -0.0054656153773087425 0 0.0041660842207494114 -0.0054082336573975046 0 0.0039735644488414559 -0.0053793378570625699 0 0.0039501716399337299 -0.0055702447030861607 0 0.0037022135687609292 -0.0056184798921232468 0 0.0039501716399337299 -0.0055702447030861607 0 0.0038014824436485278 -0.0054656153773087425 0 0.0037022135687609292 -0.0056184798921232468 0 0.0037404067101264398 -0.0057286401541656352 0 0.0039501716399337299 -0.0055702447030861607 0 0.004106115826337106 -0.0053058379575943128 0 0.0042454650462312562 -0.005203681082048728 0 0.0042727423659253642 -0.0053127458732576517 0 0.0037057258814435817 -0.0050605856210826717 0 0.0041171183879263459 -0.0054542063320782205 0 0.0043308847435741859 -0.0052129123629566414 0 0.0042454650462312562 -0.005203681082048728 0 0.0042727423659253642 -0.0053127458732576517 0 0.0035723433450194678 -0.0043422284472286431 0 0.0035324851524861367 -0.0043745269650101977 0 0.0036078437557501156 -0.0043932912552968398 0 0.0035723433450194678 -0.0043422284472286431 0 0.0035324851524861367 -0.0043745269650101977 0 0.0035070280932603779 -0.0043628191864936014 0 0.0034896372511343541 -0.0043416220813062237 0 0.0035723433450194678 -0.0043422284472286431 0 0.0035070280932603779 -0.0043628191864936014 0 0.0037057258814435817 -0.0050605856210826717 0 0.0040027902360206735 -0.0048557305631195908 0 0.0034804435759968676 -0.0043804638396698547 0 0.0034722126741787425 -0.00439248622994868 0 0.0035324851524861367 -0.0043745269650101977 0 0.0034804435759968676 -0.0043804638396698547 0 0.0035324851524861367 -0.0043745269650101977 0 0.0035070280932603779 -0.0043628191864936014 0 0.003504815571081872 -0.004381625970650848 0 0.0035133412724566416 -0.0043779159131398142 0 0.0034774568944271663 -0.0044117369195320081 0 0.0034695222786047162 -0.0043789809381804615 0 0.0035324851524861367 -0.0043745269650101977 0 0.0035324851524861367 -0.0043745269650101977 0 0.0035091354516039045 -0.004433382828475425 0 0.0035619196914084971 -0.0044416920050211117 0 0.0034774568944271663 -0.0044117369195320081 0 0.0035324851524861367 -0.0043745269650101977 0 0.0035091354516039045 -0.004433382828475425 0 0.0033366398963633513 -0.0043249791873819455 0 0.0033374211218531393 -0.0041493972804099036 0 0.0035091354516039045 -0.004433382828475425 0 0.0035619196914084971 -0.0044416920050211117 0 0.0035158497254895878 -0.0044914287675162021 0 0.0034559672199108555 -0.0044487760568088508 0 0.0035091354516039045 -0.004433382828475425 0 0.0035158497254895878 -0.0044914287675162021 0 0.0033787781939029712 -0.0039547941466401074 0 0.0033531636760306145 -0.00401528743904164 0 0.0034062310981467308 -0.0039451035760594659 0 0.0033875700225643231 -0.0039918033705626027 0 0.0033468204330183637 -0.0040100634783438935 0 0.0033595684654499883 -0.0040049408803187608 0 0.0033771962270240561 -0.0040039259026846174 0 0.0033468204330183637 -0.0040100634783438935 0 0.0034654752051496928 -0.0042335004424355113 0 0.0033374211218531393 -0.0041493972804099036 0 0.0033595684654499883 -0.0040049408803187608 0 0.0033468204330183637 -0.0040100634783438935 0 0.0033348960670517508 -0.0040110623382439902 0 0.0035324851524861367 -0.0043745269650101977 0 0.0035619196914084971 -0.0044416920050211117 0 0.0036078437557501156 -0.0043932912552968398 0 0.0034654752051496928 -0.0042335004424355113 0 0.0034784830520705181 -0.0041844701063570161 0 0.0033811904317816678 -0.0040008160632102815 0 0.0033771962270240561 -0.0040039259026846174 0 0.0034036666450322542 -0.0039957023136997019 0 0.0033595684654499883 -0.0040049408803187608 0 0.0033811904317816678 -0.0040008160632102815 0 0.0033771962270240561 -0.0040039259026846174 0 0.0034374277038731454 -0.0039447047861310971 0 0.0034062310981467308 -0.0039451035760594659 0 0.0034707354830642479 -0.003907342015577255 0 0.0034374277038731454 -0.0039447047861310971 0 0.0034062310981467308 -0.0039451035760594659 0 0.0034136723315311155 -0.0039719624669236593 0 0.0034062310981467308 -0.0039451035760594659 0 0.0034136723315311155 -0.0039719624669236593 0 0.0033875700225643231 -0.0039918033705626027 0 0.0034374277038731454 -0.0039447047861310971 0 0.0034136723315311155 -0.0039719624669236593 0 0.0034405764303288436 -0.003970305959820705 0 0.0034136723315311155 -0.0039719624669236593 0 0.0034405764303288436 -0.003970305959820705 0 0.003405880956597 -0.0040073162806945894 0 0.0034136723315311155 -0.0039719624669236593 0 0.0033875700225643231 -0.0039918033705626027 0 0.003405880956597 -0.0040073162806945894 0 0.0034405764303288436 -0.003970305959820705 0 0.0034593521152478297 -0.0040029635748054992 0 0.003405880956597 -0.0040073162806945894 0 0.0034405764303288436 -0.003970305959820705 0 0.0035017384012701078 -0.0039686051841338931 0 0.0034593521152478297 -0.0040029635748054992 0 0.0034374277038731454 -0.0039447047861310971 0 0.0034641740848549468 -0.00393891990879198 0 0.0034707354830642479 -0.003907342015577255 0 0.0034405764303288436 -0.003970305959820705 0 0.0034641740848549468 -0.00393891990879198 0 0.0035017384012701078 -0.0039686051841338931 0 0.0034374277038731454 -0.0039447047861310971 0 0.0034405764303288436 -0.003970305959820705 0 0.0034641740848549468 -0.00393891990879198 0 0.0034641740848549468 -0.00393891990879198 0 0.0034821272931868821 -0.003921857676820034 0 0.0034707354830642479 -0.003907342015577255 0 0.0034641740848549468 -0.00393891990879198 0 0.0034821272931868821 -0.003921857676820034 0 0.0034949153704739739 -0.0039169284590243811 0 0.0033811904317816678 -0.0040008160632102815 0 0.0034036666450322542 -0.0039957023136997019 0 0.0034005050649492251 -0.003995070555796237 0 0.0034821272931868821 -0.003921857676820034 0 0.0034707354830642479 -0.003907342015577255 0 0.0034992177391385913 -0.0039272342816338126 0 0.003536015895945625 -0.0040737627216412865 0 0.0034877676530524161 -0.003973356525418574 0 0.003536015895945625 -0.0040737627216412865 0 0.0037509540017176312 -0.004356134217198649 0 0.0034784830520705181 -0.0041844701063570161 0 0.0037509540017176312 -0.004356134217198649 0 0.0035723433450194678 -0.0043422284472286431 0 0.0036078437557501156 -0.0043932912552968398 0 0.0036531613836901801 -0.0043445873620059985 0 0.0033787781939029712 -0.0039547941466401074 0 0.003536015895945625 -0.0040737627216412865 0 0.0040027902360206735 -0.0048557305631195908 0 0.0037509540017176312 -0.004356134217198649 0 0.0042727423659253642 -0.0053127458732576517 0 0.0044205313067314884 -0.0053098012348731854 0 0.0043582134063409822 -0.0052604229838496353 0 0.0043308847435741859 -0.0052129123629566414 0 0.0042727423659253642 -0.0053127458732576517 0 0.0043582134063409822 -0.0052604229838496353 0 0.0044092148900951372 -0.0052141389506765428 0 0.0043308847435741859 -0.0052129123629566414 0 0.0043582134063409822 -0.0052604229838496353 0 0.0044432293406007619 -0.0046418053979822467 0 0.0037509540017176312 -0.004356134217198649 0 0.0044092148900951372 -0.0052141389506765428 0 0.0044205313067314884 -0.0053098012348731854 0 0.0043582134063409822 -0.0052604229838496353 0 0.0045045340751393593 -0.0052144794864321239 0 0.0044092148900951372 -0.0052141389506765428 0 0.0044205313067314884 -0.0053098012348731854 0 0.0035022542005418143 -0.0039666069282383006 0 0.0035352674359523111 -0.0039377229632250104 0 0.0035059095310629711 -0.0039561781874114747 0 0.0035288812456996965 -0.0039370218121879408 0 0.0035352674359523111 -0.0039377229632250104 0 0.0035059095310629711 -0.0039561781874114747 0 0.0035237209637850602 -0.0039288895156389721 0 0.0035059095310629711 -0.0039561781874114747 0 0.0034992177391385913 -0.0039272342816338126 0 0.003536015895945625 -0.0040737627216412865 0 0.0035314024097798827 -0.0039308880930490611 0 0.0035022542005418143 -0.0039666069282383006 0 0.0034992177391385913 -0.0039272342816338126 0 0.0034949153704739739 -0.0039169284590243811 0 0.0044432293406007619 -0.0046418053979822467 0 0.0045066138559284085 -0.0039162553005148695 0 0.0035022542005418143 -0.0039666069282383006 0 0.0035059095310629711 -0.0039561781874114747 0 0.0034992177391385913 -0.0039272342816338126 0 0.0055314318487111932 -0.0043730631157636269 0 0.005306889926317373 -0.0042801809106572213 0 0.00551030776082126 -0.0041190039950410639 0 0.005306889926317373 -0.0042801809106572213 0 0.00551030776082126 -0.0041190039950410639 0 0.0053578054513121406 -0.0040069510236374981 0 0.0034821272931868821 -0.003921857676820034 0 0.0034992177391385913 -0.0039272342816338126 0 0.0034949153704739739 -0.0039169284590243811 0 0.0045066138559284085 -0.0039162553005148695 0 0.0044948813954616609 -0.003941621075501724 0 0.00551030776082126 -0.0041190039950410639 0 0.0054855658415038705 -0.0038680477511741835 0 0.0053578054513121406 -0.0040069510236374981 0 0.0034641740848549468 -0.00393891990879198 0 0.0034949153704739739 -0.0039169284590243811 0 0.0035017384012701078 -0.0039686051841338931 0 0.0054855658415038705 -0.0038680477511741835 0 0.0053578054513121406 -0.0040069510236374981 0 0.0053474304068587457 -0.0037613290653181995 0 0.0053578054513121406 -0.0040069510236374981 0 0.0052131963348110381 -0.0038602073764360664 0 0.0053474304068587457 -0.0037613290653181995 0 0.0053578054513121406 -0.0040069510236374981 0 0.0052131963348110381 -0.0038602073764360664 0 0.0051960527059990123 -0.0040759046034403636 0 0.0052131963348110381 -0.0038602073764360664 0 0.0049999863490046243 -0.0038250414483636105 0 0.0051520250582411421 -0.003636480940694368 0 0.0049999863490046243 -0.0038250414483636105 0 0.0049999905152705772 -0.00407703680701039 0 0.0051960527059990123 -0.0040759046034403636 0 0.0052131963348110381 -0.0038602073764360664 0 0.0049999863490046243 -0.0038250414483636105 0 0.0051960527059990123 -0.0040759046034403636 0 0.0051829649859653059 -0.0044720721352516975 0 0.005306889926317373 -0.0042801809106572213 0 0.0049999927934707891 -0.0043290953870549417 0 0.005306889926317373 -0.0042801809106572213 0 0.0051960527059990123 -0.0040759046034403636 0 0.0049999927934707891 -0.0043290953870549417 0 0.0049999905152705772 -0.00407703680701039 0 0.0051960527059990123 -0.0040759046034403636 0 0.0049999927934707891 -0.0043290953870549417 0 0.005306889926317373 -0.0042801809106572213 0 0.0053578054513121406 -0.0040069510236374981 0 0.0051960527059990123 -0.0040759046034403636 0 0.0049998513660504717 -0.0031907698138904064 0 0.005029280613787151 -0.0032939168870112947 0 0.0050001009869574632 -0.0030244397722470943 0 0.0049998513660504717 -0.0031907698138904064 0 0.005029280613787151 -0.0032939168870112947 0 0.0050000889973517487 -0.0033570172370103813 0 0.005029280613787151 -0.0032939168870112947 0 0.0048865303260642321 -0.0033902783205779284 0 0.0049750602286364161 -0.0034677584105830893 0 0.005029280613787151 -0.0032939168870112947 0 0.0049936806974856937 -0.0032750594465433434 0 0.0048865303260642321 -0.0033902783205779284 0 0.0052200493534944777 -0.0033743501593893801 0 0.0051346531827550605 -0.0034718747510012224 0 0.005310825234780229 -0.0034321776399890576 0 0.005029280613787151 -0.0032939168870112947 0 0.0049936806974856937 -0.0032750594465433434 0 0.0050000889973517487 -0.0033570172370103813 0 0.0052041481405024218 -0.003284427684606967 0 0.0049998595594629956 -0.0033572646065482851 0 0.0052200493534944777 -0.0033743501593893801 0 0.0050000001040624367 -0.0033572970003612852 0 0.0051346531827550605 -0.0034718747510012224 0 0.0050000001040624367 -0.0033572970003612852 0 0.0051346531827550605 -0.0034718747510012224 0 0.0049999938381570033 -0.0035911231600323323 0 0.0051346531827550605 -0.0034718747510012224 0 0.0049999938381570033 -0.0035911231600323323 0 0.005163352728731284 -0.0036143513329201346 0 0.0050000017365707042 -0.0038250016930180182 0 0.0049999938381570033 -0.0035911231600323323 0 0.005163352728731284 -0.0036143513329201346 0 0.005000024818793157 -0.0038249714578759181 0 0.0051592521646518022 -0.0036234235065652691 0 0.0052131963348110381 -0.0038602073764360664 0 0.0051520250582411421 -0.003636480940694368 0 0.0053474304068587457 -0.0037613290653181995 0 0.0051520250582411421 -0.003636480940694368 0 0.0053128073529088481 -0.0036051202884348076 0 0.0053474304068587457 -0.0037613290653181995 0 0.0051592521646518022 -0.0036234235065652691 0 0.005303381028607195 -0.003442678765976293 0 0.0051346531827550605 -0.0034718747510012224 0 0.005163352728731284 -0.0036143513329201346 0 0.005310825234780229 -0.0034321776399890576 0 0.0051520250582411421 -0.003636480940694368 0 0.0053128073529088481 -0.0036051202884348076 0 0.005310825234780229 -0.0034321776399890576 0 0.0054598692612726988 -0.0036197963400798438 0 0.0054310466880825286 -0.0033756656859388759 0 0.005310825234780229 -0.0034321776399890576 0 0.0053128073529088481 -0.0036051202884348076 0 0.0054598692612726988 -0.0036197963400798438 0 0.005310825234780229 -0.0034321776399890576 0 0.0053128073529088481 -0.0036051202884348076 0 0.0053474304068587457 -0.0037613290653181995 0 0.0054598692612726988 -0.0036197963400798438 0 0.0035017384012701078 -0.0039686051841338931 0 0.0035111369324248628 -0.0040295195180828237 0 0.0034593521152478297 -0.0040029635748054992 0 0.0054855658415038705 -0.0038680477511741835 0 0.0053474304068587457 -0.0037613290653181995 0 0.0054598692612726988 -0.0036197963400798438 0 0.0044948813954616609 -0.003941621075501724 0 0.0044797696781320997 -0.0038176859643656502 0 0.0044797696781320997 -0.0038176859643656502 0 0.0045262575456934762 -0.0037531916086845519 0 0.0035111369324248628 -0.0040295195180828237 0 0.0034798513449142985 -0.0040711582768400076 0 0.0034365701396290361 -0.0040451597188922751 0 0.0035111369324248628 -0.0040295195180828237 0 0.0034798513449142985 -0.0040711582768400076 0 0.0035262162938457737 -0.0041054463862346237 0 0.0046585006069067968 -0.0032641385710848654 0 0.0046634525165853554 -0.0035111920391411554 0 0.0041681946195973414 -0.0033972664628399924 0 0.0045262575456934762 -0.0037531916086845519 0 0.0037279234189876594 -0.0037515072600393003 0 0.0034798513449142985 -0.0040711582768400076 0 0.0035262162938457737 -0.0041054463862346237 0 0.0034465017708946613 -0.0041066949786813679 0 0.0052041481405024218 -0.003284427684606967 0 0.0045262575456934762 -0.0037531916086845519 0 0.0052200493534944777 -0.0033743501593893801 0 0.0054310466880825286 -0.0033756656859388759 0 0.005310825234780229 -0.0034321776399890576 0 0.0049936806974856937 -0.0032750594465433434 0 0.0047825082043159014 -0.003338905722928812 0 0.0048865303260642321 -0.0033902783205779284 0 0.0049936806974856937 -0.0032750594465433434 0 0.0046585006069067968 -0.0032641385710848654 0 0.0047825082043159014 -0.003338905722928812 0 0.0047825082043159014 -0.003338905722928812 0 0.0048865303260642321 -0.0033902783205779284 0 0.0046634525165853554 -0.0035111920391411554 0 0.0048865303260642321 -0.0033902783205779284 0 0.0046634525165853554 -0.0035111920391411554 0 0.0049750602286364161 -0.0034677584105830893 0 0.0046585006069067968 -0.0032641385710848654 0 0.0047825082043159014 -0.003338905722928812 0 0.0046634525165853554 -0.0035111920391411554 0 0.0046634525165853554 -0.0035111920391411554 0 0.0041681946195973414 -0.0033972664628399924 0 0.0045083571776584723 -0.0038039202284258782 0 0.0041681946195973414 -0.0033972664628399924 0 0.0038462929429960179 -0.0039857836624077733 0 0.0045083571776584723 -0.0038039202284258782 0 0.0036710786988903791 -0.003615564698565298 0 0.0041681946195973414 -0.0033972664628399924 0 0.0038462929429960179 -0.0039857836624077733 0 0.0036710786988903791 -0.003615564698565298 0 0.003526467248641836 -0.0038895992863585203 0 0.0038462929429960179 -0.0039857836624077733 0 0.0035532965723554322 -0.0038639374819206896 0 0.0037279234189876594 -0.0037515072600393003 0 0.0033559257788889642 -0.0040926914697378587 0 0.0034465017708946613 -0.0041066949786813679 0 0.0034365701396290361 -0.0040451597188922751 0 0.0034798513449142985 -0.0040711582768400076 0 0.0034465017708946613 -0.0041066949786813679 0 0.0034365701396290361 -0.0040451597188922751 0 0.0034365701396290361 -0.0040451597188922751 0 0.0034593521152478297 -0.0040029635748054992 0 0.003405880956597 -0.0040073162806945894 0 0.0035111369324248628 -0.0040295195180828237 0 0.0034365701396290361 -0.0040451597188922751 0 0.0034593521152478297 -0.0040029635748054992 0 0.0034365701396290361 -0.0040451597188922751 0 0.003405880956597 -0.0040073162806945894 0 0.0033626974540280157 -0.0040522207366103236 0 0.003405880956597 -0.0040073162806945894 0 0.0033626974540280157 -0.0040522207366103236 0 0.0033653460585498646 -0.0040235943683509193 0 0.0033875700225643231 -0.0039918033705626027 0 0.003405880956597 -0.0040073162806945894 0 0.0033653460585498646 -0.0040235943683509193 0 0.0033559257788889642 -0.0040926914697378587 0 0.0034365701396290361 -0.0040451597188922751 0 0.0033626974540280157 -0.0040522207366103236 0 0.0033626974540280157 -0.0040522207366103236 0 0.0032755616029683369 -0.0040181000993157459 0 0.0032988086593977056 -0.0040809729639822738 0 0.0033559257788889642 -0.0040926914697378587 0 0.0033626974540280157 -0.0040522207366103236 0 0.0032988086593977056 -0.0040809729639822738 0 0.0033375704788019931 -0.0040090597538239422 0 0.0033374211218531393 -0.0041493972804099036 0 0.0033653460585498646 -0.0040235943683509193 0 0.0033468204330183637 -0.0040100634783438935 0 0.0033348960670517508 -0.0040110623382439902 0 0.0033626974540280157 -0.0040522207366103236 0 0.0033653460585498646 -0.0040235943683509193 0 0.0033348960670517508 -0.0040110623382439902 0 0.0033875700225643231 -0.0039918033705626027 0 0.0033653460585498646 -0.0040235943683509193 0 0.0033468204330183637 -0.0040100634783438935 0 0.0031658481117799063 -0.0041554538140433197 0 0.0031751886150159837 -0.0041547996514577053 0 0.0032024502999201732 -0.0041167167448102684 0 0.0033374211218531393 -0.0041493972804099036 0 0.0031945259814483151 -0.0041175470540212866 0 0.0032755616029683369 -0.0040181000993157459 0 0.0032988086593977056 -0.0040809729639822738 0 0.0032024502999201732 -0.0041167167448102684 0 0.0032988086593977056 -0.0040809729639822738 0 0.0032024502999201732 -0.0041167167448102684 0 0.0032527720994205275 -0.0041183168299161873 0 0.0032988086593977056 -0.0040809729639822738 0 0.0033231725015082513 -0.0040195351871810626 0 0.0032527720994205275 -0.0041183168299161873 0 0.0036710786988903791 -0.003615564698565298 0 0.0033231725015082513 -0.0040195351871810626 0 0.003526467248641836 -0.0038895992863585203 0 0.0035532965723554322 -0.0038639374819206896 0 0.0033575418051774537 -0.0039792365880733293 0 0.0033559257788889642 -0.0040926914697378587 0 0.0032988086593977056 -0.0040809729639822738 0 0.0033231725015082513 -0.0040195351871810626 0 0.003526467248641836 -0.0038895992863585203 0 0.0033880567555363409 -0.0040119247385115766 0 0.0038462929429960179 -0.0039857836624077733 0 0.0033231725015082513 -0.0040195351871810626 0 0.003526467248641836 -0.0038895992863585203 0 0.0033880567555363409 -0.0040119247385115766 0 0.0034026254971040205 -0.0043522093260104826 0 0.0032527720994205275 -0.0041183168299161873 0 0.0032083184232771992 -0.0043426134680808895 0 0.0034788994482963759 -0.0037078121919346691 0 0.0032663571597974796 -0.0042880541872749858 0 0.0033231725015082513 -0.0040195351871810626 0 0.0033880567555363409 -0.0040119247385115766 0 0.0032527720994205275 -0.0041183168299161873 0 0.0022846461793208329 -0.0041002023281215567 0 0.0023073455747095271 -0.0040633470716243828 0 0.0022390208737454271 -0.0040163682836632042 0 0.0022846461793208329 -0.0041002023281215567 0 0.0023073455747095271 -0.0040633470716243828 0 0.0023995787585426899 -0.0041149312796729589 0 0.0034788994482963759 -0.0037078121919346691 0 0.0025393788640045638 -0.0042217242745483941 0 0.0023073455747095271 -0.0040633470716243828 0 0.0022880283601207645 -0.0040054306246030636 0 0.0023201266519311415 -0.0040213588952833839 0 0.0023073455747095271 -0.0040633470716243828 0 0.0022390208737454271 -0.0040163682836632042 0 0.0022880283601207645 -0.0040054306246030636 0 0.0023073455747095271 -0.0040633470716243828 0 0.0023201266519311415 -0.0040213588952833839 0 0.0023608743703724165 -0.0040377649405263305 0 0.0022590827413518345 -0.0040380952482363354 0 0.0025393788640045638 -0.0042217242745483941 0 0.0034788994482963759 -0.0037078121919346691 0 0.0035057376695417641 -0.003549068827316025 0 0.0045995431313447261 -0.0027852066431270452 0 0.0047840117515694459 -0.0030439592924936163 0 0.0050854391740205529 -0.0028288352218737074 0 0.0034788994482963759 -0.0037078121919346691 0 0.0045740052727997063 -0.0033649190585786932 0 0.0022390208737454271 -0.0040163682836632042 0 0.0022545905687491753 -0.0039546053572406242 0 0.0022880283601207645 -0.0040054306246030636 0 0.0035057376695417641 -0.003549068827316025 0 0.0038978334708617418 -0.003020502792197963 0 0.0022390208737454271 -0.0040163682836632042 0 0.0022545905687491753 -0.0039546053572406242 0 0.0021996912720046069 -0.0039370137046963564 0 0.0022545905687491753 -0.0039546053572406242 0 0.0022880283601207645 -0.0040054306246030636 0 0.0023176903568786099 -0.0039644239465869138 0 0.0022880283601207645 -0.0040054306246030636 0 0.0023201266519311415 -0.0040213588952833839 0 0.0023176903568786099 -0.0039644239465869138 0 0.0023201266519311415 -0.0040213588952833839 0 0.0023176903568786099 -0.0039644239465869138 0 0.0023608743703724165 -0.0040377649405263305 0 0.0023176903568786099 -0.0039644239465869138 0 0.0022571774217036876 -0.0038638356521486206 0 0.0023481789099222107 -0.0038802187739770603 0 0.0022545905687491753 -0.0039546053572406242 0 0.0023176903568786099 -0.0039644239465869138 0 0.0022571774217036876 -0.0038638356521486206 0 0.0029905418778245194 -0.0018405783031906799 0 0.0030360585163857513 -0.0019383981175462273 0 0.0028705090253108882 -0.0019313015333883481 0 0.0022571774217036876 -0.0038638356521486206 0 0.0023481789099222107 -0.0038802187739770603 0 0.0023217620718103847 -0.0037778358230758442 0 0.0024578783652873153 -0.0028988255769655641 0 0.0026217872386951244 -0.0028723942888707658 0 0.0029905418778245194 -0.0018405783031906799 0 0.0032021710284793146 -0.001857316127836402 0 0.0030360585163857513 -0.0019383981175462273 0 0.0022545905687491753 -0.0039546053572406242 0 0.0022571774217036876 -0.0038638356521486206 0 0.0021996912720046069 -0.0039370137046963564 0 0.0024578783652873153 -0.0028988255769655641 0 0.0038978334708617418 -0.003020502792197963 0 0.0055258304526221843 -0.0027580156816890259 0 0.0054577146628428906 -0.002614778493786267 0 0.0054217348728052752 -0.0026938099196624826 0 0.0055258304526221843 -0.0027580156816890259 0 0.0054217348728052752 -0.0026938099196624826 0 0.0054242455380650468 -0.0027677493300593847 0 0.0029905418778245194 -0.0018405783031906799 0 0.0031151944551667892 -0.0017391105496230412 0 0.0032021710284793146 -0.001857316127836402 0 0.0038978334708617418 -0.003020502792197963 0 0.004320954041157162 -0.0021326367333652026 0 0.0054308890403183948 -0.0026232310043008259 0 0.0053782041898527578 -0.0026631394212786089 0 0.0053049051024921115 -0.0026451916451997659 0 0.0054577146628428906 -0.002614778493786267 0 0.0054308890403183948 -0.0026232310043008259 0 0.0054104572909414476 -0.0024907576091695977 0 0.0054308890403183948 -0.0026232310043008259 0 0.0053828440206728197 -0.0025314464371072169 0 0.0054104572909414476 -0.0024907576091695977 0 0.004320954041157162 -0.0021326367333652026 0 0.0044982631795180599 -0.0022064365943886108 0 0.0054577146628428906 -0.002614778493786267 0 0.0054308890403183948 -0.0026232310043008259 0 0.0054217348728052752 -0.0026938099196624826 0 0.0054217348728052752 -0.0026938099196624826 0 0.0053791103782887956 -0.0027467321055900692 0 0.0053585274795828405 -0.0026984980342287163 0 0.0053782041898527578 -0.0026631394212786089 0 0.0054217348728052752 -0.0026938099196624826 0 0.0053585274795828405 -0.0026984980342287163 0 0.0054308890403183948 -0.0026232310043008259 0 0.0053782041898527578 -0.0026631394212786089 0 0.0054217348728052752 -0.0026938099196624826 0 0.0054217348728052752 -0.0026938099196624826 0 0.0054242455380650468 -0.0027677493300593847 0 0.0053791103782887956 -0.0027467321055900692 0 0.0053791103782887956 -0.0027467321055900692 0 0.0053680805457116372 -0.0028071606067085406 0 0.0053411918067644273 -0.0027670156069179259 0 0.0054242455380650468 -0.0027677493300593847 0 0.0053791103782887956 -0.0027467321055900692 0 0.0053680805457116372 -0.0028071606067085406 0 0.0053680805457116372 -0.0028071606067085406 0 0.0053495456467031275 -0.0028517637022335124 0 0.0053357629129244617 -0.0028552350113297082 0 0.0053495456467031275 -0.0028517637022335124 0 0.0054390281710503677 -0.0028421900547028326 0 0.0052880537708204431 -0.0028997875563792782 0 0.0053680805457116372 -0.0028071606067085406 0 0.0053495456467031275 -0.0028517637022335124 0 0.0054390281710503677 -0.0028421900547028326 0 0.0054242455380650468 -0.0027677493300593847 0 0.0053680805457116372 -0.0028071606067085406 0 0.0054390281710503677 -0.0028421900547028326 0 0.0038978334708617418 -0.003020502792197963 0 0.0054093453648664724 -0.0028399016986739344 0 0.0055258304526221843 -0.0027580156816890259 0 0.0054242455380650468 -0.0027677493300593847 0 0.0054390281710503677 -0.0028421900547028326 0 0.0047840117515694459 -0.0030439592924936163 0 0.0049426816906165032 -0.0032817550383793781 0 0.0051451632975934927 -0.003081641983092828 0 0.0047840117515694459 -0.0030439592924936163 0 0.0051451632975934927 -0.003081641983092828 0 0.0050854391740205529 -0.0028288352218737074 0 0.0045740052727997063 -0.0033649190585786932 0 0.0048895374535829362 -0.00334763936490628 0 0.0050854391740205529 -0.0028288352218737074 0 0.0052880537708204431 -0.0028997875563792782 0 0.0053650571091397731 -0.002894202415641276 0 0.0051451632975934927 -0.003081641983092828 0 0.0050854391740205529 -0.0028288352218737074 0 0.0052880537708204431 -0.0028997875563792782 0 0.0053495456467031275 -0.0028517637022335124 0 0.0052880537708204431 -0.0028997875563792782 0 0.0053357629129244617 -0.0028552350113297082 0 0.0054093453648664724 -0.0028399016986739344 0 0.005257852196550253 -0.0029515284643533532 0 0.0053650571091397731 -0.002894202415641276 0 0.0052953007658346389 -0.0028465245212091787 0 0.0053357629129244617 -0.0028552350113297082 0 0.0052880537708204431 -0.0028997875563792782 0 0.0053650571091397731 -0.002894202415641276 0 0.0053357629129244617 -0.0028552350113297082 0 0.0046634525165853554 -0.0035111920391411554 0 0.0045083571776584723 -0.0038039202284258782 0 0.0049750602286364161 -0.0034677584105830893 0 0.0048895374535829362 -0.00334763936490628 0 0.0050629822421298662 -0.0032043141716538814 0 0.0053650571091397731 -0.002894202415641276 0 0.0052953007658346389 -0.0028465245212091787 0 0.0052034684202653305 -0.0029496659596311642 0 0.0052953007658346389 -0.0028465245212091787 0 0.0052246887396347188 -0.0028057388311705008 0 0.0052034684202653305 -0.0029496659596311642 0 0.0052953007658346389 -0.0028465245212091787 0 0.0052246887396347188 -0.0028057388311705008 0 0.0052925377827072089 -0.0027715517548954063 0 0.0053357629129244617 -0.0028552350113297082 0 0.0053411918067644273 -0.0027670156069179259 0 0.0052925377827072089 -0.0027715517548954063 0 0.0052953007658346389 -0.0028465245212091787 0 0.0053357629129244617 -0.0028552350113297082 0 0.0052925377827072089 -0.0027715517548954063 0 0.0053680805457116372 -0.0028071606067085406 0 0.0053357629129244617 -0.0028552350113297082 0 0.0053411918067644273 -0.0027670156069179259 0 0.0053791103782887956 -0.0027467321055900692 0 0.0053411918067644273 -0.0027670156069179259 0 0.0053585274795828405 -0.0026984980342287163 0 0.0053411918067644273 -0.0027670156069179259 0 0.0053128159918917868 -0.0027137164620556035 0 0.0052925377827072089 -0.0027715517548954063 0 0.0053128159918917868 -0.0027137164620556035 0 0.0053585274795828405 -0.0026984980342287163 0 0.0053049051024921115 -0.0026451916451997659 0 0.0053411918067644273 -0.0027670156069179259 0 0.0053128159918917868 -0.0027137164620556035 0 0.0053585274795828405 -0.0026984980342287163 0 0.0053782041898527578 -0.0026631394212786089 0 0.0053585274795828405 -0.0026984980342287163 0 0.0053049051024921115 -0.0026451916451997659 0 0.0054319202506959438 -0.0026208753638667722 0 0.005333142853063938 -0.0025937249349848725 0 0.0054308890403183948 -0.0026232310043008259 0 0.0053552935359122552 -0.0025417543447170655 0 0.0053828440206728197 -0.0025314464371072169 0 0.0053552935359122552 -0.0025417543447170655 0 0.0053828440206728197 -0.0025314464371072169 0 0.0053334747495372989 -0.0024696735334718222 0 0.0053049051024921115 -0.0026451916451997659 0 0.0052476867335675805 -0.0027058694950294459 0 0.0051846918863797655 -0.0025921647294439108 0 0.0053552935359122552 -0.0025417543447170655 0 0.0052061850513260826 -0.0025133900048173612 0 0.0053334747495372989 -0.0024696735334718222 0 0.005333142853063938 -0.0025937249349848725 0 0.0051892731927682435 -0.0025516442432699342 0 0.0053128159918917868 -0.0027137164620556035 0 0.0052476867335675805 -0.0027058694950294459 0 0.0052925377827072089 -0.0027715517548954063 0 0.0053128159918917868 -0.0027137164620556035 0 0.0053049051024921115 -0.0026451916451997659 0 0.0052476867335675805 -0.0027058694950294459 0 0.0052246887396347188 -0.0028057388311705008 0 0.0052476867335675805 -0.0027058694950294459 0 0.0052925377827072089 -0.0027715517548954063 0 0.0052246887396347188 -0.0028057388311705008 0 0.0051352831245493648 -0.0027106384613454892 0 0.0051245711493567592 -0.0028539968304770514 0 0.0052246887396347188 -0.0028057388311705008 0 0.0052476867335675805 -0.0027058694950294459 0 0.0051352831245493648 -0.0027106384613454892 0 0.0052476867335675805 -0.0027058694950294459 0 0.0051352831245493648 -0.0027106384613454892 0 0.0051846918863797655 -0.0025921647294439108 0 0.0051352831245493648 -0.0027106384613454892 0 0.0051846918863797655 -0.0025921647294439108 0 0.0049999968690706649 -0.0025006386593899245 0 0.0051892731927682435 -0.0025516442432699342 0 0.0050000272582967978 -0.0025005554613316172 0 0.0051352831245493648 -0.0027106384613454892 0 0.0049999968690706649 -0.0025006386593899245 0 0.00499997071263033 -0.0027622890634540868 0 0.0051352831245493648 -0.0027106384613454892 0 0.00499997071263033 -0.0027622890634540868 0 0.0051245711493567592 -0.0028539968304770514 0 0.00499997071263033 -0.0027622890634540868 0 0.0051245711493567592 -0.0028539968304770514 0 0.0049999962766885397 -0.003023900018158443 0 0.0052246887396347188 -0.0028057388311705008 0 0.0051245711493567592 -0.0028539968304770514 0 0.0052034684202653305 -0.0029496659596311642 0 0.005029280613787151 -0.0032939168870112947 0 0.0049750602286364161 -0.0034677584105830893 0 0.0050001009869574632 -0.0030244397722470943 0 0.0051245711493567592 -0.0028539968304770514 0 0.0052034684202653305 -0.0029496659596311642 0 0.0049999962766885397 -0.003023900018158443 0 0.0050629822421298662 -0.0032043141716538814 0 0.0049999250752810649 -0.0030240983377792779 0 0.0026697787745276116 -0.004418587676099173 0 0.0026633888767649155 -0.004348035314527504 0 0.0026924043691213193 -0.0042470949765577668 0 0.0026266746003473888 -0.0041983518888939718 0 0.0026697787745276116 -0.004418587676099173 0 0.0024721411819655348 -0.0040226430968292141 0 0.0026697787745276116 -0.004418587676099173 0 0.0026633888767649155 -0.004348035314527504 0 0.0026830998278072897 -0.0044076126783771609 0 0.0026633888767649155 -0.004348035314527504 0 0.0026357098154546721 -0.0044175913605940149 0 0.0026085332488405984 -0.0043178399977569556 0 0.0026633888767649155 -0.004348035314527504 0 0.0026830998278072897 -0.0044076126783771609 0 0.0026357098154546721 -0.0044175913605940149 0 0.0026633888767649155 -0.004348035314527504 0 0.0026356776600277238 -0.0042539979799968673 0 0.0026924043691213193 -0.0042470949765577668 0 0.0026633888767649155 -0.004348035314527504 0 0.0026356776600277238 -0.0042539979799968673 0 0.0026085332488405984 -0.0043178399977569556 0 0.0026356776600277238 -0.0042539979799968673 0 0.0026924043691213193 -0.0042470949765577668 0 0.0026235539684366102 -0.0041811293505710397 0 0.0026697787745276116 -0.004418587676099173 0 0.0021600965291613916 -0.0038683709265710168 0 0.0024721411819655348 -0.0040226430968292141 0 0.0021600965291613916 -0.0038683709265710168 0 0.0024721411819655348 -0.0040226430968292141 0 0.002260042627613844 -0.0036505288606590333 0 0.0026396456351919298 -0.0043716950832070394 0 0.002448387379154717 -0.0040932885178417569 0 0.0026266746003473888 -0.0041983518888939718 0 0.0024721411819655348 -0.0040226430968292141 0 0.0026649808603209082 -0.0039539975879575072 0 0.0024721411819655348 -0.0040226430968292141 0 0.0026649808603209082 -0.0039539975879575072 0 0.002260042627613844 -0.0036505288606590333 0 0.0024273595424585221 -0.0037526657552576833 0 0.0022990835135696182 -0.0036649631084592193 0 0.0022705280485529316 -0.0035898748091382116 0 0.0022796603432250662 -0.0035814195732341795 0 0.002272422572414474 -0.0035733605212709134 0 0.0022796603432250662 -0.0035814195732341795 0 0.0022884554470837164 -0.0035740913669521147 0 0.002272422572414474 -0.0035733605212709134 0 0.0022796603432250662 -0.0035814195732341795 0 0.0022884554470837164 -0.0035740913669521147 0 0.002286320440307492 -0.0035840609218645296 0 0.0026649808603209082 -0.0039539975879575072 0 0.002748190559631969 -0.0043838067660516809 0 0.0029569089511093309 -0.0042885248298347948 0 0.0026266746003473888 -0.0041983518888939718 0 0.0026649808603209082 -0.0039539975879575072 0 0.002748190559631969 -0.0043838067660516809 0 0.0022705280485529316 -0.0035898748091382116 0 0.0022796603432250662 -0.0035814195732341795 0 0.002286320440307492 -0.0035840609218645296 0 0.0024273595424585221 -0.0037526657552576833 0 0.0025642197423630573 -0.0042922679864454217 0 0.0022956218187867045 -0.0035254266936173297 0 0.0022884554470837164 -0.0035740913669521147 0 0.002286320440307492 -0.0035840609218645296 0 0.0023786882320251082 -0.0041135374501842228 0 0.0025642197423630573 -0.0042922679864454217 0 0.0023240837094416237 -0.0036266096285772465 0 0.0022956218187867045 -0.0035254266936173297 0 0.0022884554470837164 -0.0035740913669521147 0 0.0025283203598864402 -0.0047030376145191892 0 0.002546907248309273 -0.0046749694520574524 0 0.0025785490839641246 -0.0046773597968586831 0 0.002546907248309273 -0.0046749694520574524 0 0.0025785490839641246 -0.0046773597968586831 0 0.0025390184448863666 -0.0046450754881325303 0 0.0027282054106310535 -0.0044280364018665294 0 0.0027153571482782489 -0.0044540433813680435 0 0.0026632363944435757 -0.0045288547072642885 0 0.0025642197423630573 -0.0042922679864454217 0 0.0026212056957812422 -0.0046212914185460828 0 0.0025135298046501491 -0.0046776833707540292 0 0.002546907248309273 -0.0046749694520574524 0 0.0025390184448863666 -0.0046450754881325303 0 0.002748190559631969 -0.0043838067660516809 0 0.0027153571482782489 -0.0044540433813680435 0 0.0027096563168672078 -0.0044834488695447861 0 0.0026697787745276116 -0.004418587676099173 0 0.002748190559631969 -0.0043838067660516809 0 0.0027096563168672078 -0.0044834488695447861 0 0.0026266746003473888 -0.0041983518888939718 0 0.0026697787745276116 -0.004418587676099173 0 0.002748190559631969 -0.0043838067660516809 0 0.002748190559631969 -0.0043838067660516809 0 0.0027282054106310535 -0.0044280364018665294 0 0.0027153571482782489 -0.0044540433813680435 0 0.0027359080186934322 -0.0043003241116709194 0 0.0025642197423630573 -0.0042922679864454217 0 0.0026697787745276116 -0.004418587676099173 0 0.0027096563168672078 -0.0044834488695447861 0 0.0027431426777640893 -0.0044445848540661933 0 0.0027153571482782489 -0.0044540433813680435 0 0.0027096563168672078 -0.0044834488695447861 0 0.0026632363944435757 -0.0045288547072642885 0 0.0027096563168672078 -0.0044834488695447861 0 0.0026632363944435757 -0.0045288547072642885 0 0.0026283896822269265 -0.0045445259229272778 0 0.0027096563168672078 -0.0044834488695447861 0 0.0026283896822269265 -0.0045445259229272778 0 0.0026774836056639066 -0.0044968784388638066 0 0.0025926832449545741 -0.0045482925283571295 0 0.0026283896822269265 -0.0045445259229272778 0 0.0026774836056639066 -0.0044968784388638066 0 0.0027096563168672078 -0.0044834488695447861 0 0.0026774836056639066 -0.0044968784388638066 0 0.0027331840850916755 -0.0044474459630284317 0 0.0027096563168672078 -0.0044834488695447861 0 0.0027331840850916755 -0.0044474459630284317 0 0.0027431426777640893 -0.0044445848540661933 0 0.0027111079545858777 -0.0044488635595815165 0 0.0026774836056639066 -0.0044968784388638066 0 0.0027331840850916755 -0.0044474459630284317 0 0.0027331840850916755 -0.0044474459630284317 0 0.0027963089394788805 -0.0043868022611310703 0 0.0027431426777640893 -0.0044445848540661933 0 0.0027963089394788805 -0.0043868022611310703 0 0.0027431426777640893 -0.0044445848540661933 0 0.002879805367835931 -0.0043437075246779101 0 0.0026697787745276116 -0.004418587676099173 0 0.0027431426777640893 -0.0044445848540661933 0 0.0026830998278072897 -0.0044076126783771609 0 0.0027431426777640893 -0.0044445848540661933 0 0.0026830998278072897 -0.0044076126783771609 0 0.0026357098154546721 -0.0044175913605940149 0 0.0027431426777640893 -0.0044445848540661933 0 0.0029034929715854737 -0.0043780589075578238 0 0.002879805367835931 -0.0043437075246779101 0 0.0029034929715854737 -0.0043780589075578238 0 0.002879805367835931 -0.0043437075246779101 0 0.0029526972008269417 -0.0043219093308312483 0 0.0027401614573723974 -0.004429362278333215 0 0.0027642071556788477 -0.0043944953710122886 0 0.0029149078453154145 -0.0042850772822543492 0 0.002879805367835931 -0.0043437075246779101 0 0.0029529667947036939 -0.0042860827758569517 0 0.002879805367835931 -0.0043437075246779101 0 0.0029529667947036939 -0.0042860827758569517 0 0.0029526972008269417 -0.0043219093308312483 0 0.0029529667947036939 -0.0042860827758569517 0 0.0030130726481361735 -0.0042767830552691974 0 0.0029526972008269417 -0.0043219093308312483 0 0.0029687856449537248 -0.004235241821693869 0 0.0029529667947036939 -0.0042860827758569517 0 0.0030216361003342455 -0.0042426087207349718 0 0.0030843630425551253 -0.0041916285814579653 0 0.0030216361003342455 -0.0042426087207349718 0 0.0030765926504539099 -0.0042256291210056333 0 0.0030216361003342455 -0.0042426087207349718 0 0.0030130726481361735 -0.0042767830552691974 0 0.0030765926504539099 -0.0042256291210056333 0 0.0029529667947036939 -0.0042860827758569517 0 0.0030216361003342455 -0.0042426087207349718 0 0.0030130726481361735 -0.0042767830552691974 0 0.0030130726481361735 -0.0042767830552691974 0 0.0030765926504539099 -0.0042256291210056333 0 0.0030643800511410565 -0.0042542096365768946 0 0.0029034929715854737 -0.0043780589075578238 0 0.0029526972008269417 -0.0043219093308312483 0 0.0030069189204507229 -0.0043073624118575649 0 0.0030130726481361735 -0.0042767830552691974 0 0.0029526972008269417 -0.0043219093308312483 0 0.0030069189204507229 -0.0043073624118575649 0 0.0031751886150159837 -0.0041547996514577053 0 0.003134093791802369 -0.0041816357715552255 0 0.0032024502999201732 -0.0041167167448102684 0 0.0031644914297121918 -0.0041544718222123744 0 0.0031658481117799063 -0.0041554538140433197 0 0.0031751886150159837 -0.0041547996514577053 0 0.0031644914297121918 -0.0041544718222123744 0 0.0031751886150159837 -0.0041547996514577053 0 0.003134093791802369 -0.0041816357715552255 0 0.0030843630425551253 -0.0041916285814579653 0 0.003134093791802369 -0.0041816357715552255 0 0.0030765926504539099 -0.0042256291210056333 0 0.003134093791802369 -0.0041816357715552255 0 0.003112666706173385 -0.0042066514987904972 0 0.0031801070296643631 -0.0041514708893991307 0 0.003134093791802369 -0.0041816357715552255 0 0.0030765926504539099 -0.0042256291210056333 0 0.003112666706173385 -0.0042066514987904972 0 0.0030765926504539099 -0.0042256291210056333 0 0.003112666706173385 -0.0042066514987904972 0 0.0030643800511410565 -0.0042542096365768946 0 0.003112666706173385 -0.0042066514987904972 0 0.0031801070296643631 -0.0041514708893991307 0 0.0031356365818297231 -0.0042053095723320506 0 0.0031801070296643631 -0.0041514708893991307 0 0.0032024502999201732 -0.0041167167448102684 0 0.0032527720994205275 -0.0041183168299161873 0 0.003134093791802369 -0.0041816357715552255 0 0.0031801070296643631 -0.0041514708893991307 0 0.0032024502999201732 -0.0041167167448102684 0 0.0031801070296643631 -0.0041514708893991307 0 0.0032527720994205275 -0.0041183168299161873 0 0.0031356365818297231 -0.0042053095723320506 0 0.0032527720994205275 -0.0041183168299161873 0 0.0031356365818297231 -0.0042053095723320506 0 0.0031658757791329529 -0.0042401531465518861 0 0.0031356365818297231 -0.0042053095723320506 0 0.0030825419231939851 -0.0042701065013714765 0 0.0031658757791329529 -0.0042401531465518861 0 0.003112666706173385 -0.0042066514987904972 0 0.0031356365818297231 -0.0042053095723320506 0 0.0030643800511410565 -0.0042542096365768946 0 0.0031356365818297231 -0.0042053095723320506 0 0.0030825419231939851 -0.0042701065013714765 0 0.0030643800511410565 -0.0042542096365768946 0 0.0024003927287503325 -0.0041734641816854219 0 0.0025393788640045638 -0.0042217242745483941 0 0.0027921537709630472 -0.0042882760779624973 0 0.0025393788640045638 -0.0042217242745483941 0 0.0030825419231939851 -0.0042701065013714765 0 0.0031658757791329529 -0.0042401531465518861 0 0.0032083184232771992 -0.0043426134680808895 0 0.0024171489505282612 -0.0042624403067153174 0 0.0024236861455230975 -0.004209129914589411 0 0.002323859857190678 -0.0042014429808251647 0 0.0032527720994205275 -0.0041183168299161873 0 0.0031658757791329529 -0.0042401531465518861 0 0.0032083184232771992 -0.0043426134680808895 0 0.0026357098154546721 -0.0044175913605940149 0 0.0025317339193492187 -0.0043431237910596708 0 0.0026085332488405984 -0.0043178399977569556 0 0.0027642071556788477 -0.0043944953710122886 0 0.0027554436299104612 -0.0043202021788976783 0 0.0027921537709630472 -0.0042882760779624973 0 0.0027554436299104612 -0.0043202021788976783 0 0.0030825419231939851 -0.0042701065013714765 0 0.0030069189204507229 -0.0043073624118575649 0 0.0030643800511410565 -0.0042542096365768946 0 0.0030130726481361735 -0.0042767830552691974 0 0.0030069189204507229 -0.0043073624118575649 0 0.0030643800511410565 -0.0042542096365768946 0 0.0024171489505282612 -0.0042624403067153174 0 0.0025317339193492187 -0.0043431237910596708 0 0.0025446118751965329 -0.0042089905548643161 0 0.0024171489505282612 -0.0042624403067153174 0 0.0024236861455230975 -0.004209129914589411 0 0.0025446118751965329 -0.0042089905548643161 0 0.0024003927287503325 -0.0041734641816854219 0 0.0025556017460353878 -0.0042043288748496105 0 0.0025317339193492187 -0.0043431237910596708 0 0.0026085332488405984 -0.0043178399977569556 0 0.0025446118751965329 -0.0042089905548643161 0 0.0026356776600277238 -0.0042539979799968673 0 0.0026085332488405984 -0.0043178399977569556 0 0.0025446118751965329 -0.0042089905548643161 0 0.0026356776600277238 -0.0042539979799968673 0 0.0025446118751965329 -0.0042089905548643161 0 0.0026235539684366102 -0.0041811293505710397 0 0.0025446118751965329 -0.0042089905548643161 0 0.0025920085074748874 -0.0041277130229890342 0 0.0026235539684366102 -0.0041811293505710397 0 0.0025920085074748874 -0.0041277130229890342 0 0.0026214720985224733 -0.0040672925037456842 0 0.0025871744426207125 -0.0040676962905972476 0 0.0025920085074748874 -0.0041277130229890342 0 0.0026214720985224733 -0.0040672925037456842 0 0.0026235539684366102 -0.0041811293505710397 0 0.0025920085074748874 -0.0041277130229890342 0 0.0025398125948726254 -0.0041170711476675179 0 0.0025871744426207125 -0.0040676962905972476 0 0.0025398125948726254 -0.0041170711476675179 0 0.0025228770860576057 -0.0040480760187758718 0 0.0025871744426207125 -0.0040676962905972476 0 0.0025446118751965329 -0.0042089905548643161 0 0.0025920085074748874 -0.0041277130229890342 0 0.0025398125948726254 -0.0041170711476675179 0 0.0025446118751965329 -0.0042089905548643161 0 0.0025398125948726254 -0.0041170711476675179 0 0.0024834717514698656 -0.0041028185628133344 0 0.0024488054122019831 -0.0041461403954188127 0 0.0025446118751965329 -0.0042089905548643161 0 0.0024834717514698656 -0.0041028185628133344 0 0.0025398125948726254 -0.0041170711476675179 0 0.0024834717514698656 -0.0041028185628133344 0 0.0025228770860576057 -0.0040480760187758718 0 0.0025228770860576057 -0.0040480760187758718 0 0.0024723810929587241 -0.0040213076559935876 0 0.0025414376021861483 -0.003930281920110512 0 0.0024834717514698656 -0.0041028185628133344 0 0.0025228770860576057 -0.0040480760187758718 0 0.0024723810929587241 -0.0040213076559935876 0 0.0020935382477262681 -0.0029103915297868867 0 0.0021003354480913275 -0.0028488769170572138 0 0.002059303361674477 -0.0028254401827176954 0 0.0022651990782476148 -0.0036206376667042798 0 0.0023081319089330449 -0.0033414613382235746 0 0.0026167645111676301 -0.0040651142001396148 0 0.0025871744426207125 -0.0040676962905972476 0 0.0025414376021861483 -0.003930281920110512 0 0.0025228770860576057 -0.0040480760187758718 0 0.0025871744426207125 -0.0040676962905972476 0 0.0025414376021861483 -0.003930281920110512 0 0.0022651990782476148 -0.0036206376667042798 0 0.0024691906792351304 -0.0037206326739991041 0 0.0023638769404429371 -0.0041145441324251728 0 0.0024190176092391148 -0.0040716579951054453 0 0.0023608743703724165 -0.0040377649405263305 0 0.0023073455747095271 -0.0040633470716243828 0 0.0023638769404429371 -0.0041145441324251728 0 0.0023608743703724165 -0.0040377649405263305 0 0.0024488054122019831 -0.0041461403954188127 0 0.0023638769404429371 -0.0041145441324251728 0 0.0024190176092391148 -0.0040716579951054453 0 0.0024488054122019831 -0.0041461403954188127 0 0.0024834717514698656 -0.0041028185628133344 0 0.0024190176092391148 -0.0040716579951054453 0 0.0024834717514698656 -0.0041028185628133344 0 0.0024723810929587241 -0.0040213076559935876 0 0.0024190176092391148 -0.0040716579951054453 0 0.0024723810929587241 -0.0040213076559935876 0 0.0023984172375914521 -0.0039758288803131035 0 0.0024643551604465728 -0.0039423804976044131 0 0.0024723810929587241 -0.0040213076559935876 0 0.0024190176092391148 -0.0040716579951054453 0 0.0023984172375914521 -0.0039758288803131035 0 0.0023176903568786099 -0.0039644239465869138 0 0.0023984172375914521 -0.0039758288803131035 0 0.0023608743703724165 -0.0040377649405263305 0 0.0024190176092391148 -0.0040716579951054453 0 0.0023984172375914521 -0.0039758288803131035 0 0.0023608743703724165 -0.0040377649405263305 0 0.0023984172375914521 -0.0039758288803131035 0 0.0023481789099222107 -0.0038802187739770603 0 0.0024150455289521271 -0.0038841567631211779 0 0.0023176903568786099 -0.0039644239465869138 0 0.0023984172375914521 -0.0039758288803131035 0 0.0023481789099222107 -0.0038802187739770603 0 0.0023984172375914521 -0.0039758288803131035 0 0.0024643551604465728 -0.0039423804976044131 0 0.0024150455289521271 -0.0038841567631211779 0 0.0024643551604465728 -0.0039423804976044131 0 0.0024150455289521271 -0.0038841567631211779 0 0.0024751992191239711 -0.0038091294621460507 0 0.0024150455289521271 -0.0038841567631211779 0 0.0024751992191239711 -0.0038091294621460507 0 0.0023922011728050529 -0.0038091345952292227 0 0.0023481789099222107 -0.0038802187739770603 0 0.0023922011728050529 -0.0038091345952292227 0 0.0023217620718103847 -0.0037778358230758442 0 0.0023481789099222107 -0.0038802187739770603 0 0.0024150455289521271 -0.0038841567631211779 0 0.0023922011728050529 -0.0038091345952292227 0 0.0021007974542723781 -0.0027939845521620377 0 0.0021003354480913275 -0.0028488769170572138 0 0.002059303361674477 -0.0028254401827176954 0 0.0024643551604465728 -0.0039423804976044131 0 0.0024751992191239711 -0.0038091294621460507 0 0.0025414376021861483 -0.003930281920110512 0 0.0024723810929587241 -0.0040213076559935876 0 0.0024643551604465728 -0.0039423804976044131 0 0.0025414376021861483 -0.003930281920110512 0 0.00223531899645418 -0.0033628393544180642 0 0.0023081319089330449 -0.0033414613382235746 0 0.0020362334270839708 -0.002721456318248459 0 0.002059303361674477 -0.0028254401827176954 0 0.0021117660356992848 -0.002724727453475532 0 0.0021007974542723781 -0.0027939845521620377 0 0.0021117660356992848 -0.002724727453475532 0 0.0021223511939283224 -0.0028272731833384351 0 0.0021007974542723781 -0.0027939845521620377 0 0.002059303361674477 -0.0028254401827176954 0 0.0021117660356992848 -0.002724727453475532 0 0.0021117660356992848 -0.002724727453475532 0 0.0021505609278878149 -0.0027703844495570859 0 0.0021223511939283224 -0.0028272731833384351 0 0.0021505609278878149 -0.0027703844495570859 0 0.0021468503136440505 -0.0028720824452807912 0 0.0021223511939283224 -0.0028272731833384351 0 0.0021505609278878149 -0.0027703844495570859 0 0.0021468503136440505 -0.0028720824452807912 0 0.0021768083992431343 -0.0028550230622864849 0 0.0021007974542723781 -0.0027939845521620377 0 0.0021003354480913275 -0.0028488769170572138 0 0.0021223511939283224 -0.0028272731833384351 0 0.0021468503136440505 -0.0028720824452807912 0 0.0021223511939283224 -0.0028272731833384351 0 0.0021210605766447494 -0.0028812507437659942 0 0.0021003354480913275 -0.0028488769170572138 0 0.0021223511939283224 -0.0028272731833384351 0 0.0021210605766447494 -0.0028812507437659942 0 0.0020935382477262681 -0.0029103915297868867 0 0.0021210605766447494 -0.0028812507437659942 0 0.0021468479309160651 -0.0029305751297670243 0 0.0022651990782476148 -0.0036206376667042798 0 0.0021607310721201613 -0.00319404947898231 0 0.0020935382477262681 -0.0029103915297868867 0 0.0021003354480913275 -0.0028488769170572138 0 0.0021210605766447494 -0.0028812507437659942 0 0.0021468503136440505 -0.0028720824452807912 0 0.0021210605766447494 -0.0028812507437659942 0 0.0021468479309160651 -0.0029305751297670243 0 0.0021468503136440505 -0.0028720824452807912 0 0.0021468479309160651 -0.0029305751297670243 0 0.0021775991175585988 -0.0029251154432649077 0 0.0022705280485529316 -0.0035898748091382116 0 0.002260042627613844 -0.0036505288606590333 0 0.002272422572414474 -0.0035733605212709134 0 0.0022784664411158238 -0.0035475028900952034 0 0.002260042627613844 -0.0036505288606590333 0 0.002272422572414474 -0.0035733605212709134 0 0.0021600965291613916 -0.0038683709265710168 0 0.0019889715127019503 -0.0035002647915464251 0 0.002260042627613844 -0.0036505288606590333 0 0.0019889715127019503 -0.0035002647915464251 0 0.0022784664411158238 -0.0035475028900952034 0 0.002260042627613844 -0.0036505288606590333 0 0.002448387379154717 -0.0040932885178417569 0 0.0022651990782476148 -0.0036206376667042798 0 0.0026924043691213193 -0.0042470949765577668 0 0.0026214720985224733 -0.0040672925037456842 0 0.0026235539684366102 -0.0041811293505710397 0 0.0022884554470837164 -0.0035740913669521147 0 0.0022660749350546859 -0.0035608880125170667 0 0.002272422572414474 -0.0035733605212709134 0 0.0022660749350546859 -0.0035608880125170667 0 0.002272422572414474 -0.0035733605212709134 0 0.0022491465520282708 -0.0035051404448240989 0 0.0023240837094416237 -0.0036266096285772465 0 0.0022884554470837164 -0.0035740913669521147 0 0.0022660749350546859 -0.0035608880125170667 0 0.0022784664411158238 -0.0035475028900952034 0 0.002272422572414474 -0.0035733605212709134 0 0.0022491465520282708 -0.0035051404448240989 0 0.0021775991175585988 -0.0029251154432649077 0 0.0022153466750003455 -0.0030291508413593606 0 0.0022388921767253528 -0.0029209502770410501 0 0.0021607310721201613 -0.00319404947898231 0 0.0022675425099904986 -0.0032640382866956251 0 0.0021468479309160651 -0.0029305751297670243 0 0.0021775991175585988 -0.0029251154432649077 0 0.0022153466750003455 -0.0030291508413593606 0 0.0023587749531339543 -0.0030091260215905735 0 0.0022153466750003455 -0.0030291508413593606 0 0.0022388921767253528 -0.0029209502770410501 0 0.0024325970804922703 -0.003225128631864309 0 0.0022660749350546859 -0.0035608880125170667 0 0.0022491465520282708 -0.0035051404448240989 0 0.0024402566361406666 -0.003230120065616337 0 0.0022675425099904986 -0.0032640382866956251 0 0.0022388921767253528 -0.0029209502770410501 0 0.0021768083992431343 -0.0028550230622864849 0 0.0022044239555593197 -0.0027712117886794906 0 0.0021468503136440505 -0.0028720824452807912 0 0.0021775991175585988 -0.0029251154432649077 0 0.0021768083992431343 -0.0028550230622864849 0 0.0021775991175585988 -0.0029251154432649077 0 0.0022388921767253528 -0.0029209502770410501 0 0.0021768083992431343 -0.0028550230622864849 0 0.0021505609278878149 -0.0027703844495570859 0 0.0021768083992431343 -0.0028550230622864849 0 0.0022044239555593197 -0.0027712117886794906 0 0.0021505609278878149 -0.0027703844495570859 0 0.0022044239555593197 -0.0027712117886794906 0 0.0021805874018925179 -0.0026860298673400214 0 0.0023682402277132755 -0.0028263397018120193 0 0.0022044239555593197 -0.0027712117886794906 0 0.0022564980592310931 -0.0026305140442478528 0 0.0023682402277132755 -0.0028263397018120193 0 0.0022388921767253528 -0.0029209502770410501 0 0.0022044239555593197 -0.0027712117886794906 0 0.0022564980592310931 -0.0026305140442478528 0 0.0020351061993854774 -0.0024835399071385187 0 0.002195202076055159 -0.0024263921057430683 0 0.0022547717798976053 -0.002627891089617682 0 0.0021207078874317408 -0.0025832777150310874 0 0.0022044239555593197 -0.0027712117886794906 0 0.0022564980592310931 -0.0026305140442478528 0 0.0021805874018925179 -0.0026860298673400214 0 0.0020351061993854774 -0.0024835399071385187 0 0.0020775646386310192 -0.0023618083083070873 0 0.0020065767432089839 -0.0023751826911569212 0 0.0020351061993854774 -0.0024835399071385187 0 0.0020775646386310192 -0.0023618083083070873 0 0.002195202076055159 -0.0024263921057430683 0 0.0022564980592310931 -0.0026305140442478528 0 0.002195202076055159 -0.0024263921057430683 0 0.0023344928267501905 -0.0024361053837999845 0 0.0020775646386310192 -0.0023618083083070873 0 0.002195202076055159 -0.0024263921057430683 0 0.0021665072962637104 -0.0023002281556483992 0 0.002195202076055159 -0.0024263921057430683 0 0.0021665072962637104 -0.0023002281556483992 0 0.0022914515391652588 -0.0022591131034183803 0 0.0021665072962637104 -0.0023002281556483992 0 0.0021801152705728695 -0.002199034235446296 0 0.0022914515391652588 -0.0022591131034183803 0 0.0021665072962637104 -0.0023002281556483992 0 0.0021001930088332655 -0.0022614443487988362 0 0.0021801152705728695 -0.002199034235446296 0 0.0020775646386310192 -0.0023618083083070873 0 0.0021665072962637104 -0.0023002281556483992 0 0.0021001930088332655 -0.0022614443487988362 0 0.0020775646386310192 -0.0023618083083070873 0 0.0020295637146536811 -0.0022931587345824882 0 0.0020065767432089839 -0.0023751826911569212 0 0.0020775646386310192 -0.0023618083083070873 0 0.0020295637146536811 -0.0022931587345824882 0 0.0021001930088332655 -0.0022614443487988362 0 0.0021001930088332655 -0.0022614443487988362 0 0.0020577270722794971 -0.0022081492798200742 0 0.0021134647293576721 -0.0021739230015531078 0 0.0020295637146536811 -0.0022931587345824882 0 0.0020577270722794971 -0.0022081492798200742 0 0.0020151994177600831 -0.0022292689196789562 0 0.0020295637146536811 -0.0022931587345824882 0 0.0021001930088332655 -0.0022614443487988362 0 0.0020577270722794971 -0.0022081492798200742 0 0.002034383443173084 -0.0021780740389945362 0 0.0020151994177600831 -0.0022292689196789562 0 0.0020271806632686943 -0.0021293140799118746 0 0.0020577270722794971 -0.0022081492798200742 0 0.002034383443173084 -0.0021780740389945362 0 0.0020151994177600831 -0.0022292689196789562 0 0.0020577270722794971 -0.0022081492798200742 0 0.002034383443173084 -0.0021780740389945362 0 0.0020694260169141685 -0.0021586074464654903 0 0.002034383443173084 -0.0021780740389945362 0 0.0020694260169141685 -0.0021586074464654903 0 0.0020390446557348434 -0.0021254182408008636 0 0.0020577270722794971 -0.0022081492798200742 0 0.0020694260169141685 -0.0021586074464654903 0 0.0021134647293576721 -0.0021739230015531078 0 0.0020694260169141685 -0.0021586074464654903 0 0.0021134647293576721 -0.0021739230015531078 0 0.0021087552459095374 -0.0021023821314434029 0 0.0021134647293576721 -0.0021739230015531078 0 0.0021782469165102449 -0.0021064948297686756 0 0.0021801152705728695 -0.002199034235446296 0 0.0021134647293576721 -0.0021739230015531078 0 0.0021782469165102449 -0.0021064948297686756 0 0.0021087552459095374 -0.0021023821314434029 0 0.0021782469165102449 -0.0021064948297686756 0 0.0021801152705728695 -0.002199034235446296 0 0.0022494693332075146 -0.0021258803792328813 0 0.0021001930088332655 -0.0022614443487988362 0 0.0021134647293576721 -0.0021739230015531078 0 0.0021801152705728695 -0.002199034235446296 0 0.0019738460498756709 -0.0024018827625202806 0 0.0019755570754638064 -0.0022597918203344962 0 0.0019867126562930961 -0.0023105399517377423 0 0.0019738460498756709 -0.0024018827625202806 0 0.0020610353182899084 -0.0024991197338880221 0 0.0019394574756215219 -0.0025903015791693984 0 0.0019738460498756709 -0.0024018827625202806 0 0.0017815515455732454 -0.0025080283011669267 0 0.0019394574756215219 -0.0025903015791693984 0 0.0019859996579640856 -0.0023737988560374903 0 0.0018276881142262824 -0.0024105377681161652 0 0.0019755570754638064 -0.0022597918203344962 0 0.0020151994177600831 -0.0022292689196789562 0 0.0020271806632686943 -0.0021293140799118746 0 0.0020295637146536811 -0.0022931587345824882 0 0.0020151994177600831 -0.0022292689196789562 0 0.0019867126562930961 -0.0023105399517377423 0 0.0019755570754638064 -0.0022597918203344962 0 0.0020151994177600831 -0.0022292689196789562 0 0.0019867126562930961 -0.0023105399517377423 0 0.0020295637146536811 -0.0022931587345824882 0 0.0019805897548536692 -0.0023507955126180215 0 0.0020065767432089839 -0.0023751826911569212 0 0.0020295637146536811 -0.0022931587345824882 0 0.0019867126562930961 -0.0023105399517377423 0 0.0019805897548536692 -0.0023507955126180215 0 0.0019738460498756709 -0.0024018827625202806 0 0.0019805897548536692 -0.0023507955126180215 0 0.0020289051993961455 -0.0023573871115305572 0 0.0019738460498756709 -0.0024018827625202806 0 0.0019867126562930961 -0.0023105399517377423 0 0.0019805897548536692 -0.0023507955126180215 0 0.0020694654538904833 -0.0025211307695389468 0 0.0020944935894867014 -0.0024742534940142167 0 0.0019823436520920246 -0.0023664280982186037 0 0.0020853211730254423 -0.002333951191624425 0 0.0020289051993961455 -0.0023573871115305572 0 0.0019805897548536692 -0.0023507955126180215 0 0.0019823436520920246 -0.0023664280982186037 0 0.0020289051993961455 -0.0023573871115305572 0 0.0020351061993854774 -0.0024835399071385187 0 0.0019823436520920246 -0.0023664280982186037 0 0.0020065767432089839 -0.0023751826911569212 0 0.0019805897548536692 -0.0023507955126180215 0 0.0019823436520920246 -0.0023664280982186037 0 0.0020065767432089839 -0.0023751826911569212 0 0.0021207078874317408 -0.0025832777150310874 0 0.0020694654538904833 -0.0025211307695389468 0 0.0021505609278878149 -0.0027703844495570859 0 0.0021805874018925179 -0.0026860298673400214 0 0.002145464468982736 -0.0026728064805987867 0 0.0021117660356992848 -0.002724727453475532 0 0.0021505609278878149 -0.0027703844495570859 0 0.002145464468982736 -0.0026728064805987867 0 0.0021117660356992848 -0.002724727453475532 0 0.0020895015557566335 -0.0026270240196967515 0 0.0021228271831172899 -0.002613774010810737 0 0.0021117660356992848 -0.002724727453475532 0 0.002145464468982736 -0.0026728064805987867 0 0.0021228271831172899 -0.002613774010810737 0 0.0020362334270839708 -0.002721456318248459 0 0.0020895015557566335 -0.0026270240196967515 0 0.0020356837809112458 -0.0025941073595243348 0 0.0020362334270839708 -0.002721456318248459 0 0.0021117660356992848 -0.002724727453475532 0 0.0020895015557566335 -0.0026270240196967515 0 0.0020853211730254423 -0.002333951191624425 0 0.002097422020198914 -0.0024458061133274169 0 0.0021297088623218382 -0.0023528200552684381 0 0.0020895015557566335 -0.0026270240196967515 0 0.0021228271831172899 -0.002613774010810737 0 0.002097422020198914 -0.0024458061133274169 0 0.0020944935894867014 -0.0024742534940142167 0 0.0020814645164100396 -0.0024476346665201778 0 0.0020895015557566335 -0.0026270240196967515 0 0.0020356837809112458 -0.0025941073595243348 0 0.002097422020198914 -0.0024458061133274169 0 0.0020853211730254423 -0.002333951191624425 0 0.0020289051993961455 -0.0023573871115305572 0 0.0021297088623218382 -0.0023528200552684381 0 0.0024490227514428974 -0.0025394668795449861 0 0.0026217872386951244 -0.0028723942888707658 0 0.0023922011728050529 -0.0038091345952292227 0 0.0024011657892914502 -0.0036831226110884277 0 0.0023217620718103847 -0.0037778358230758442 0 0.0027553334584522349 -0.0019967032106907611 0 0.0028292364137244594 -0.0020094064101048351 0 0.0028705090253108882 -0.0019313015333883481 0 0.0024751992191239711 -0.0038091294621460507 0 0.0023922011728050529 -0.0038091345952292227 0 0.0024011657892914502 -0.0036831226110884277 0 0.00223531899645418 -0.0033628393544180642 0 0.0024490227514428974 -0.0025394668795449861 0 0.0020362334270839708 -0.002721456318248459 0 0.0020356837809112458 -0.0025941073595243348 0 0.001912231943109514 -0.0025465688719900977 0 0.0026036550661665894 -0.0018282046904070791 0 0.0024810218163973498 -0.0021549335263740541 0 0.0021683727150959434 -0.0023264893269295296 0 0.002097422020198914 -0.0024458061133274169 0 0.001912231943109514 -0.0025465688719900977 0 0.0021683727150959434 -0.0023264893269295296 0 0.0024490227514428974 -0.0025394668795449861 0 0.0021375301657796091 -0.0022139970573375736 0 0.0020356837809112458 -0.0025941073595243348 0 0.002097422020198914 -0.0024458061133274169 0 0.001912231943109514 -0.0025465688719900977 0 0.0026036550661665894 -0.0018282046904070791 0 0.002625426568077717 -0.0020837950860896444 0 0.0024810218163973498 -0.0021549335263740541 0 0.0027553334584522349 -0.0019967032106907611 0 0.0027823360592251403 -0.0020948957725901423 0 0.0028292364137244594 -0.0020094064101048351 0 0.0024490227514428974 -0.0025394668795449861 0 0.0026330663174428917 -0.0020513199057778943 0 0.0026036550661665894 -0.0018282046904070791 0 0.002625426568077717 -0.0020837950860896444 0 0.0027823360592251403 -0.0020948957725901423 0 0.0027823360592251403 -0.0020948957725901423 0 0.0028292364137244594 -0.0020094064101048351 0 0.0029009040832132489 -0.0021730991464985619 0 0.0027823360592251403 -0.0020948957725901423 0 0.0027633071880307498 -0.0022928970310128844 0 0.0029009040832132489 -0.0021730991464985619 0 0.0027823360592251403 -0.0020948957725901423 0 0.0027633071880307498 -0.0022928970310128844 0 0.0026303122743551112 -0.0022268174626433978 0 0.002625426568077717 -0.0020837950860896444 0 0.0027823360592251403 -0.0020948957725901423 0 0.0026303122743551112 -0.0022268174626433978 0 0.002625426568077717 -0.0020837950860896444 0 0.0026303122743551112 -0.0022268174626433978 0 0.0024810218163973498 -0.0021549335263740541 0 0.0027633071880307498 -0.0022928970310128844 0 0.0026303122743551112 -0.0022268174626433978 0 0.002554831221119019 -0.0024084853840119205 0 0.0026303122743551112 -0.0022268174626433978 0 0.0023865748701698583 -0.0023273053695563278 0 0.002554831221119019 -0.0024084853840119205 0 0.0023865748701698583 -0.0023273053695563278 0 0.0023361328122590381 -0.0024416678358153867 0 0.002554831221119019 -0.0024084853840119205 0 0.0026303122743551112 -0.0022268174626433978 0 0.0024810218163973498 -0.0021549335263740541 0 0.0023865748701698583 -0.0023273053695563278 0 0.0024810218163973498 -0.0021549335263740541 0 0.0023865748701698583 -0.0023273053695563278 0 0.0021683727150959434 -0.0023264893269295296 0 0.0023865748701698583 -0.0023273053695563278 0 0.0023361328122590381 -0.0024416678358153867 0 0.0021683727150959434 -0.0023264893269295296 0 0.0023361328122590381 -0.0024416678358153867 0 0.0025146795291490741 -0.0026012639545749043 0 0.00223304887816672 -0.0025626966293075086 0 0.0023361328122590381 -0.0024416678358153867 0 0.0025146795291490741 -0.0026012639545749043 0 0.002554831221119019 -0.0024084853840119205 0 0.0025146795291490741 -0.0026012639545749043 0 0.0027859877089367164 -0.0026325201960447574 0 0.0027224932020624864 -0.0024714983878035418 0 0.0025146795291490741 -0.0026012639545749043 0 0.002554831221119019 -0.0024084853840119205 0 0.0027224932020624864 -0.0024714983878035418 0 0.0027633071880307498 -0.0022928970310128844 0 0.002554831221119019 -0.0024084853840119205 0 0.0027224932020624864 -0.0024714983878035418 0 0.0027633071880307498 -0.0022928970310128844 0 0.0027224932020624864 -0.0024714983878035418 0 0.0029961103427354808 -0.0023896802820926959 0 0.0027859877089367164 -0.0026325201960447574 0 0.0027224932020624864 -0.0024714983878035418 0 0.0029961103427354808 -0.0023896802820926959 0 0.0020289051993961455 -0.0023573871115305572 0 0.0021297088623218382 -0.0023528200552684381 0 0.0021143469438234565 -0.0024222372619898173 0 0.0019738460498756709 -0.0024018827625202806 0 0.0020289051993961455 -0.0023573871115305572 0 0.0021143469438234565 -0.0024222372619898173 0 0.002097422020198914 -0.0024458061133274169 0 0.0021297088623218382 -0.0023528200552684381 0 0.0021683727150959434 -0.0023264893269295296 0 0.0023361328122590381 -0.0024416678358153867 0 0.0021683727150959434 -0.0023264893269295296 0 0.002188006049868785 -0.002408351129786841 0 0.0021297088623218382 -0.0023528200552684381 0 0.0021683727150959434 -0.0023264893269295296 0 0.002188006049868785 -0.002408351129786841 0 0.0021297088623218382 -0.0023528200552684381 0 0.002188006049868785 -0.002408351129786841 0 0.0021143469438234565 -0.0024222372619898173 0 0.002188006049868785 -0.002408351129786841 0 0.00223304887816672 -0.0025626966293075086 0 0.0021143469438234565 -0.0024222372619898173 0 0.0023361328122590381 -0.0024416678358153867 0 0.002188006049868785 -0.002408351129786841 0 0.00223304887816672 -0.0025626966293075086 0 0.00223304887816672 -0.0025626966293075086 0 0.0021143469438234565 -0.0024222372619898173 0 0.0020610353182899084 -0.0024991197338880221 0 0.0019738460498756709 -0.0024018827625202806 0 0.0021143469438234565 -0.0024222372619898173 0 0.0020610353182899084 -0.0024991197338880221 0 0.0020610353182899084 -0.0024991197338880221 0 0.0020771487502813492 -0.0026583520188445931 0 0.0019394574756215219 -0.0025903015791693984 0 0.00223304887816672 -0.0025626966293075086 0 0.0020610353182899084 -0.0024991197338880221 0 0.0020771487502813492 -0.0026583520188445931 0 0.0021925402336925833 -0.0027657554251104919 0 0.0023877911849791897 -0.0027057271061973636 0 0.0023466779722049898 -0.0028379308659673549 0 0.00223304887816672 -0.0025626966293075086 0 0.0020771487502813492 -0.0026583520188445931 0 0.0021925402336925833 -0.0027657554251104919 0 0.00223304887816672 -0.0025626966293075086 0 0.0021925402336925833 -0.0027657554251104919 0 0.0023877911849791897 -0.0027057271061973636 0 0.0035199623234829082 -0.0020524971339040111 0 0.0030462403643843443 -0.0022295421344722425 0 0.0031589608459468071 -0.0019561257783951569 0 0.0030038025409363798 -0.001972968607740779 0 0.0026217095819610708 -0.0025876219054154484 0 0.0021925402336925833 -0.0027657554251104919 0 0.0021150352433575654 -0.0028853384611546452 0 0.0023466779722049898 -0.0028379308659673549 0 0.0020771487502813492 -0.0026583520188445931 0 0.0021925402336925833 -0.0027657554251104919 0 0.0021150352433575654 -0.0028853384611546452 0 0.0020771487502813492 -0.0026583520188445931 0 0.0021150352433575654 -0.0028853384611546452 0 0.0018695457156513264 -0.0027351164586320825 0 0.0030038025409363798 -0.001972968607740779 0 0.0022209066502237411 -0.0022437653306337873 0 0.0025146795291490741 -0.0026012639545749043 0 0.0027859877089367164 -0.0026325201960447574 0 0.002633005485590827 -0.0027997746966568048 0 0.002967784022777472 -0.0025233870844530064 0 0.0028708386277338676 -0.0026945068119353776 0 0.0031170701630125006 -0.0026009127859754969 0 0.0028708301468429228 -0.0025784740960530335 0 0.0027465709780181086 -0.0026294448936838334 0 0.002633005485590827 -0.0027997746966568048 0 0.0023877911849791897 -0.0027057271061973636 0 0.0023466779722049898 -0.0028379308659673549 0 0.0025146795291490741 -0.0026012639545749043 0 0.002633005485590827 -0.0027997746966568048 0 0.0023877911849791897 -0.0027057271061973636 0 0.0025146795291490741 -0.0026012639545749043 0 0.00223304887816672 -0.0025626966293075086 0 0.0023877911849791897 -0.0027057271061973636 0 0.0025671619875212016 -0.0024061067649490961 0 0.0030462403643843443 -0.0022295421344722425 0 0.0028177946548721697 -0.0019539178086650814 0 0.0027465709780181086 -0.0026294448936838334 0 0.0026217095819610708 -0.0025876219054154484 0 0.0030462403643843443 -0.0022295421344722425 0 0.0028177946548721697 -0.0019539178086650814 0 0.0031589608459468071 -0.0019561257783951569 0 0.0030363017790457792 -0.0022897515838484904 0 0.0031786414052884749 -0.0028361433484618646 0 0.0029427612352899736 -0.0026670671599227491 0 0.0028383381221190039 -0.0028556805649809012 0 0.0030372437159306071 -0.0028247854142594213 0 0.0027465709780181086 -0.0026294448936838334 0 0.0030363017790457792 -0.0022897515838484904 0 0.0029427612352899736 -0.0026670671599227491 0 0.0030661019919695216 -0.002701131361406121 0 0.0030372437159306071 -0.0028247854142594213 0 0.0033275360497264975 -0.0027813498737426093 0 0.0033315193036422865 -0.0027680301405448413 0 0.0033286743745603886 -0.0027884916388347973 0 0.0033275360497264975 -0.0027813498737426093 0 0.0033295472674138103 -0.0027757614060636001 0 0.0033243027345357945 -0.0027873994935164173 0 0.0033275360497264975 -0.0027813498737426093 0 0.0033286743745603886 -0.0027884916388347973 0 0.0033257056708907097 -0.0027895725736037237 0 0.0033275360497264975 -0.0027813498737426093 0 0.0033243027345357945 -0.0027873994935164173 0 0.0033257056708907097 -0.0027895725736037237 0 0.0033275360497264975 -0.0027813498737426093 0 0.0033295472674138103 -0.0027757614060636001 0 0.0033315193036422865 -0.0027680301405448413 0 0.0030363017790457792 -0.0022897515838484904 0 0.0040938803789595715 -0.00076385996300970039 0 0.0033479208359987311 -0.0014797408659258764 0 0.0038004889110272093 -0.0011664228854566846 0 0.0035854738619208321 -0.0010535559465093553 0 0.0028177946548721697 -0.0019539178086650814 0 0.0031589608459468071 -0.0019561257783951569 0 0.0031119606228277837 -0.0018937277392783326 0 0.0033479208359987311 -0.0014797408659258764 0 0.0038004889110272093 -0.0011664228854566846 0 0.0039468149594029216 -0.0013590372995789029 0 0.0030363017790457792 -0.0022897515838484904 0 0.0037573215964887179 -0.0010490052671442728 0 0.004066968747367671 -0.00021070504448094963 0 0.0046150995746457252 0.00077389615666686724 0 0.0050348688154256398 0.0024376135889131096 0 0.005085147460580689 0.0023726128617451801 0 0.0049409218919851186 0.0023497116538176883 0 0.004066968747367671 -0.00021070504448094963 0 0.0040938803789595715 -0.00076385996300970039 0 0.0040094006483646786 4.9608973382290057e-05 0 0.004832909257642559 -0.00038209064809894335 0 0.0046248790234391544 -0.00075436264924509948 0 0.0040938803789595715 -0.00076385996300970039 0 0.0046150995746457252 0.00077389615666686724 0 0.0050782738790106832 0.0022264283175272032 0 0.004971477904585268 0.0020472378931562286 0 0.0053020784779669585 0.0019516002674252189 0 0.0046150995746457252 0.00077389615666686724 0 0.004960149273828058 0.00096221358962976066 0 0.0045486771418867828 -4.2562518784849074e-05 0 0.0045455773116546364 -4.8262982994703254e-05 0 0.0046255762053639621 -8.6491954185905198e-05 0 0.0046150995746457252 0.00077389615666686724 0 0.0051015425400980623 0.0023370469096262499 0 0.0040938803789595715 -0.00076385996300970039 0 0.0039640297423625039 -0.0015630481628865311 0 0.0045455773116546364 -4.8262982994703254e-05 0 0.0046255762053639621 -8.6491954185905198e-05 0 0.0046064338859076329 -0.00011145761349392274 0 0.0049389168764780791 0.0024911609775967319 0 0.0047621471097526822 0.0023231317870461097 0 0.0045131208859278708 0.0024525325634584989 0 0.003616216995628278 -0.0013621694837489897 0 0.0038931753602489934 -0.0014963112421355253 0 0.0033896150987152672 -0.0016127703395457543 0 0.0040887213565711242 -0.00060526893276888097 0 0.0040414986534543463 0.0005680584110343825 0 0.0030038025409363798 -0.001972968607740779 0 0.0040887213565711242 -0.00060526893276888097 0 0.0035199623234829082 -0.0020524971339040111 0 0.0031589608459468071 -0.0019561257783951569 0 0.0031904562288284696 -0.001878195191674131 0 0.0037412419541981109 -0.001209408756196981 0 0.0037573215964887179 -0.0010490052671442728 0 0.0031589608459468071 -0.0019561257783951569 0 0.0031904562288284696 -0.001878195191674131 0 0.0031133913965173854 -0.0018928651028614358 0 0.004066968747367671 -0.00021070504448094963 0 0.0037573215964887179 -0.0010490052671442728 0 0.0040645532727449207 -0.00045659465512335297 0 0.0040107657939438424 -0.00042927698104041245 0 0.0040387410356697477 -0.00042367171753591147 0 0.004066968747367671 -0.00021070504448094963 0 0.0040887213565711242 -0.00060526893276888097 0 0.0040887213565711242 -0.00060526893276888097 0 0.0037573215964887179 -0.0010490052671442728 0 0.0050348688154256398 0.0024376135889131096 0 0.0049389168764780791 0.0024911609775967319 0 0.0049409218919851186 0.0023497116538176883 0 0.0049389168764780791 0.0024911609775967319 0 0.0049409218919851186 0.0023497116538176883 0 0.0047621471097526822 0.0023231317870461097 0 0.004970673356624487 0.0021460455310006927 0 0.0047621471097526822 0.0023231317870461097 0 0.0046666499255215883 0.0020959635851903048 0 0.0049409218919851186 0.0023497116538176883 0 0.004970673356624487 0.0021460455310006927 0 0.0047621471097526822 0.0023231317870461097 0 0.005085147460580689 0.0023726128617451801 0 0.0049409218919851186 0.0023497116538176883 0 0.004970673356624487 0.0021460455310006927 0 0.0047621471097526822 0.0023231317870461097 0 0.0045301743663387819 0.0022531850626180045 0 0.0045131208859278708 0.0024525325634584989 0 0.0047621471097526822 0.0023231317870461097 0 0.0045301743663387819 0.0022531850626180045 0 0.0046666499255215883 0.0020959635851903048 0 0.0045301743663387819 0.0022531850626180045 0 0.0043117837493748647 0.0022821539734876649 0 0.0043855461400468098 0.0021065637534441886 0 0.0043117837493748647 0.0022821539734876649 0 0.0045131208859278708 0.0024525325634584989 0 0.0040333574988996356 0.0024256065400935401 0 0.0045301743663387819 0.0022531850626180045 0 0.0043855461400468098 0.0021065637534441886 0 0.0046666499255215883 0.0020959635851903048 0 0.0043117837493748647 0.0022821539734876649 0 0.0041074480282364432 0.002161028626957948 0 0.0043855461400468098 0.0021065637534441886 0 0.0045301743663387819 0.0022531850626180045 0 0.0043117837493748647 0.0022821539734876649 0 0.0045131208859278708 0.0024525325634584989 0 0.003616216995628278 -0.0013621694837489897 0 0.0033896150987152672 -0.0016127703395457543 0 0.0030911897989378736 -0.0015885280416594386 0 0.0033896150987152672 -0.0016127703395457543 0 0.0030911897989378736 -0.0015885280416594386 0 0.0029070674846569354 -0.0017680774634033728 0 0.0040414986534543463 0.0005680584110343825 0 0.0034299821016556503 0.00030368323282246596 0 0.0030038025409363798 -0.001972968607740779 0 0.0029797194192829131 -0.0016377560591208456 0 0.0028730534615916733 -0.001777224788688709 0 0.0027270731781482982 -0.0018224650022024133 0 0.0027491328610947255 -0.0017680908790994191 0 0.0029797194192829131 -0.0016377560591208456 0 0.0026042425731119456 -0.0018822004842528495 0 0.0030911897989378736 -0.0015885280416594386 0 0.0029070674846569354 -0.0017680774634033728 0 0.0026226165780641937 -0.0018726126251147066 0 0.0027270731781482982 -0.0018224650022024133 0 0.0026599092943750094 -0.0018161827164472435 0 0.0026985871752063886 -0.0017853064791762227 0 0.0026599092943750094 -0.0018161827164472435 0 0.0026614781384182704 -0.0017719785273677298 0 0.0026985871752063886 -0.0017853064791762227 0 0.0027270731781482982 -0.0018224650022024133 0 0.0027491328610947255 -0.0017680908790994191 0 0.0026985871752063886 -0.0017853064791762227 0 0.0043117837493748647 0.0022821539734876649 0 0.0040333574988996356 0.0024256065400935401 0 0.0041074480282364432 0.002161028626957948 0 0.0040333574988996356 0.0024256065400935401 0 0.0041074480282364432 0.002161028626957948 0 0.003814714496155319 0.0022040995375440901 0 0.0040333574988996356 0.0024256065400935401 0 0.003814714496155319 0.0022040995375440901 0 0.0035022666101746729 0.0023844844890067319 0 0.0034299821016556503 0.00030368323282246596 0 0.0030399470611208821 0.0002194622181756241 0 0.0029070674846569354 -0.0017680774634033728 0 0.0026226165780641937 -0.0018726126251147066 0 0.0024838257123821028 -0.0019508217595348239 0 0.0035022666101746729 0.0023844844890067319 0 0.003565223835158103 0.0021590537681682865 0 0.003376162141247592 0.0021866967532494872 0 0.003814714496155319 0.0022040995375440901 0 0.0035022666101746729 0.0023844844890067319 0 0.003565223835158103 0.0021590537681682865 0 0.0026226165780641937 -0.0018726126251147066 0 0.0024838257123821028 -0.0019508217595348239 0 0.0025402024134436952 -0.0018581602124414028 0 0.0024838257123821028 -0.0019508217595348239 0 0.002461529567978515 -0.0018715724990325108 0 0.0023822232293313774 -0.001903268420505291 0 0.0024838257123821028 -0.0019508217595348239 0 0.002461529567978515 -0.0018715724990325108 0 0.0025402024134436952 -0.0018581602124414028 0 0.002461529567978515 -0.0018715724990325108 0 0.0025402024134436952 -0.0018581602124414028 0 0.0025078366088973451 -0.0018187858179154459 0 0.0025402024134436952 -0.0018581602124414028 0 0.0025078366088973451 -0.0018187858179154459 0 0.0026035754001693754 -0.0018218340926464635 0 0.0025078366088973451 -0.0018187858179154459 0 0.0026035754001693754 -0.0018218340926464635 0 0.0025771676617549356 -0.0017671735561155743 0 0.002461529567978515 -0.0018715724990325108 0 0.0025078366088973451 -0.0018187858179154459 0 0.0024094260218303389 -0.0018280507381572336 0 0.0027270731781482982 -0.0018224650022024133 0 0.0026226165780641937 -0.0018726126251147066 0 0.0026599092943750094 -0.0018161827164472435 0 0.0026226165780641937 -0.0018726126251147066 0 0.0025402024134436952 -0.0018581602124414028 0 0.0026035754001693754 -0.0018218340926464635 0 0.0026226165780641937 -0.0018726126251147066 0 0.0026035754001693754 -0.0018218340926464635 0 0.0026599092943750094 -0.0018161827164472435 0 0.0026035754001693754 -0.0018218340926464635 0 0.0026286075835936255 -0.0017913071966471478 0 0.0025771676617549356 -0.0017671735561155743 0 0.0026035754001693754 -0.0018218340926464635 0 0.0026599092943750094 -0.0018161827164472435 0 0.0026286075835936255 -0.0017913071966471478 0 0.0026599092943750094 -0.0018161827164472435 0 0.0026286075835936255 -0.0017913071966471478 0 0.0026614781384182704 -0.0017719785273677298 0 0.0026614781384182704 -0.0017719785273677298 0 0.0026284154547936375 -0.0017580425350776122 0 0.0026543819946483844 -0.0017375627478974098 0 0.0026286075835936255 -0.0017913071966471478 0 0.0026614781384182704 -0.0017719785273677298 0 0.0026284154547936375 -0.0017580425350776122 0 0.0026284154547936375 -0.0017580425350776122 0 0.0025771676617549356 -0.0017671735561155743 0 0.0026084107675291338 -0.0017119050543329592 0 0.0026286075835936255 -0.0017913071966471478 0 0.0026284154547936375 -0.0017580425350776122 0 0.0025771676617549356 -0.0017671735561155743 0 0.0026084107675291338 -0.0017119050543329592 0 0.0026543819946483844 -0.0017375627478974098 0 0.0026723121741747922 -0.0017083428015326227 0 0.0026284154547936375 -0.0017580425350776122 0 0.0026084107675291338 -0.0017119050543329592 0 0.0026543819946483844 -0.0017375627478974098 0 0.0025771676617549356 -0.0017671735561155743 0 0.0026084107675291338 -0.0017119050543329592 0 0.0024955839926803112 -0.0016907340880172362 0 0.0025078366088973451 -0.0018187858179154459 0 0.0025771676617549356 -0.0017671735561155743 0 0.0024955839926803112 -0.0016907340880172362 0 0.0025078366088973451 -0.0018187858179154459 0 0.0024955839926803112 -0.0016907340880172362 0 0.0024094260218303389 -0.0018280507381572336 0 0.0021782469165102449 -0.0021064948297686756 0 0.0021682147049872031 -0.0019459010584552178 0 0.0022500687386840536 -0.0019909841430789288 0 0.0021782469165102449 -0.0021064948297686756 0 0.0021682147049872031 -0.0019459010584552178 0 0.0021087552459095374 -0.0021023821314434029 0 0.0026084107675291338 -0.0017119050543329592 0 0.0024955839926803112 -0.0016907340880172362 0 0.0026421618261949411 -0.0016416864164476097 0 0.0021682147049872031 -0.0019459010584552178 0 0.0020390446557348434 -0.0021254182408008636 0 0.0020226988016108457 -0.0021195760108337655 0 0.0021682147049872031 -0.0019459010584552178 0 0.0021087552459095374 -0.0021023821314434029 0 0.0020390446557348434 -0.0021254182408008636 0 0.0023799379788580531 -0.001773810052386671 0 0.0021791690830664161 -0.0021598141076917708 0 0.0026084107675291338 -0.0017119050543329592 0 0.0026421618261949411 -0.0016416864164476097 0 0.0026723121741747922 -0.0017083428015326227 0 0.0020694260169141685 -0.0021586074464654903 0 0.0021087552459095374 -0.0021023821314434029 0 0.0020390446557348434 -0.0021254182408008636 0 0.0021501583290516164 -0.0021471649629289905 0 0.0021791690830664161 -0.0021598141076917708 0 0.002034383443173084 -0.0021780740389945362 0 0.0020390446557348434 -0.0021254182408008636 0 0.0020271806632686943 -0.0021293140799118746 0 0.0017815515455732454 -0.0025080283011669267 0 0.0016139276782439478 -0.0025898975210786788 0 0.0018695457156513264 -0.0027351164586320825 0 0.0026421618261949411 -0.0016416864164476097 0 0.0027572344298998548 -0.0017143796726988363 0 0.0026723121741747922 -0.0017083428015326227 0 0.0018276881142262824 -0.0024105377681161652 0 0.0021791690830664161 -0.0021598141076917708 0 0.0021791690830664161 -0.0021598141076917708 0 0.0022209066502237411 -0.0022437653306337873 0 0.0020771487502813492 -0.0026583520188445931 0 0.0019394574756215219 -0.0025903015791693984 0 0.0018695457156513264 -0.0027351164586320825 0 0.0017815515455732454 -0.0025080283011669267 0 0.0019394574756215219 -0.0025903015791693984 0 0.0018695457156513264 -0.0027351164586320825 0 0.0028730534615916733 -0.001777224788688709 0 0.0027572344298998548 -0.0017143796726988363 0 0.0027491328610947255 -0.0017680908790994191 0 0.0027572344298998548 -0.0017143796726988363 0 0.0026723121741747922 -0.0017083428015326227 0 0.0026950286359624948 -0.001741156843511284 0 0.0027491328610947255 -0.0017680908790994191 0 0.0026985871752063886 -0.0017853064791762227 0 0.0026950286359624948 -0.001741156843511284 0 0.0026614781384182704 -0.0017719785273677298 0 0.0026985871752063886 -0.0017853064791762227 0 0.0026950286359624948 -0.001741156843511284 0 0.0026614781384182704 -0.0017719785273677298 0 0.0026543819946483844 -0.0017375627478974098 0 0.0026950286359624948 -0.001741156843511284 0 0.0026543819946483844 -0.0017375627478974098 0 0.0026723121741747922 -0.0017083428015326227 0 0.0026950286359624948 -0.001741156843511284 0 0.0027572344298998548 -0.0017143796726988363 0 0.0027491328610947255 -0.0017680908790994191 0 0.0026950286359624948 -0.001741156843511284 0 0.0050993301481830145 -0.0019147964863595662 0 0.0049999850092550934 -0.0020386727832635552 0 0.0049999941004038786 -0.0018077126670452686 0 0.0050993301481830145 -0.0019147964863595662 0 0.0049999850092550934 -0.0020386727832635552 0 0.0051145632928879543 -0.0021040345329996295 0 0.0052063666767899327 -0.0020197167609522127 0 0.0053050606223491248 -0.002041981418329284 0 0.0051871554185310767 -0.0018682438550756035 0 0.0050993301481830145 -0.0019147964863595662 0 0.0052377186695785651 -0.0019560384314370608 0 0.0051145632928879543 -0.0021040345329996295 0 0.0052063666767899327 -0.0020197167609522127 0 0.0052282565034646854 -0.0021651442705364872 0 0.0053050606223491248 -0.002041981418329284 0 0.0052377186695785651 -0.0019560384314370608 0 0.0052282565034646854 -0.0021651442705364872 0 0.0051145632928879543 -0.0021040345329996295 0 0.0052382486035760876 -0.0019827362429293608 0 0.0052279625140749198 -0.0021473749222973518 0 0.0052282565034646854 -0.0021651442705364872 0 0.0051145632928879543 -0.0021040345329996295 0 0.0051348265427195771 -0.0022583109608227217 0 0.0049999850092550934 -0.0020386727832635552 0 0.0051145632928879543 -0.0021040345329996295 0 0.0049999866545634023 -0.0022696214701831523 0 0.0049999866545634023 -0.0022696214701831523 0 0.0051172065828421157 -0.0023824744393680856 0 0.0051348265427195771 -0.0022583109608227217 0 0.0051145632928879543 -0.0021040345329996295 0 0.0049999866545634023 -0.0022696214701831523 0 0.0051348265427195771 -0.0022583109608227217 0 0.0049999916394311379 -0.0025004881981744286 0 0.0049999866545634023 -0.0022696214701831523 0 0.0051172065828421157 -0.0023824744393680856 0 0.0052061850513260826 -0.0025133900048173612 0 0.0049999916394311379 -0.0025004881981744286 0 0.0051172065828421157 -0.0023824744393680856 0 0.0052061850513260826 -0.0025133900048173612 0 0.0051172065828421157 -0.0023824744393680856 0 0.0052271438790424908 -0.002360679936680521 0 0.0052282565034646854 -0.0021651442705364872 0 0.0052271438790424908 -0.002360679936680521 0 0.0051348265427195771 -0.0022583109608227217 0 0.0051172065828421157 -0.0023824744393680856 0 0.0052271438790424908 -0.002360679936680521 0 0.0051348265427195771 -0.0022583109608227217 0 0.0052282565034646854 -0.0021651442705364872 0 0.0053389425781323911 -0.0023268238971278095 0 0.0054141011028569419 -0.0022223537255301289 0 0.0052282565034646854 -0.0021651442705364872 0 0.0052271438790424908 -0.002360679936680521 0 0.0053389425781323911 -0.0023268238971278095 0 0.0052061850513260826 -0.0025133900048173612 0 0.0052271438790424908 -0.002360679936680521 0 0.0053334747495372989 -0.0024696735334718222 0 0.0052271438790424908 -0.002360679936680521 0 0.0053389425781323911 -0.0023268238971278095 0 0.0053334747495372989 -0.0024696735334718222 0 0.0053389425781323911 -0.0023268238971278095 0 0.0053334747495372989 -0.0024696735334718222 0 0.0055301613794922194 -0.0024164954974229655 0 0.0053828440206728197 -0.0025314464371072169 0 0.0053334747495372989 -0.0024696735334718222 0 0.0054104572909414476 -0.0024907576091695977 0 0.005711308398231852 -0.0024734175038341939 0 0.0044982631795180599 -0.0022064365943886108 0 0.0053389425781323911 -0.0023268238971278095 0 0.0054141011028569419 -0.0022223537255301289 0 0.0055301613794922194 -0.0024164954974229655 0 0.0047047967953075601 -0.0021654073854808172 0 0.0044982631795180599 -0.0022064365943886108 0 0.0039573412462248648 -0.0021367295291553254 0 0.0038515558685927888 -0.0022655315335112238 0 0.0036607778405649835 -0.0021033091629998847 0 0.0039573412462248648 -0.0021367295291553254 0 0.0038515558685927888 -0.0022655315335112238 0 0.0040238278695368173 -0.0022772366572572852 0 0.0047047967953075601 -0.0021654073854808172 0 0.0046493905735486016 -0.0021828387069790689 0 0.0039573412462248648 -0.0021367295291553254 0 0.0040238278695368173 -0.0022772366572572852 0 0.0040588835098568582 -0.0023143700431850433 0 0.0052282565034646854 -0.0021651442705364872 0 0.0054141011028569419 -0.0022223537255301289 0 0.0053050606223491248 -0.002041981418329284 0 0.0038515558685927888 -0.0022655315335112238 0 0.0040238278695368173 -0.0022772366572572852 0 0.0037746543061506219 -0.0025899074912871757 0 0.0040414460597645221 -0.0022772582806934744 0 0.0040362175844168959 -0.0023766394037612708 0 0.0040238278695368173 -0.0022772366572572852 0 0.0040588835098568582 -0.0023143700431850433 0 0.0043124678254229587 -0.0021760577197849334 0 0.0038515558685927888 -0.0022655315335112238 0 0.003661780114701715 -0.0023154827523427499 0 0.0037746543061506219 -0.0025899074912871757 0 0.0034381877967041181 -0.0024173306755330836 0 0.003661780114701715 -0.0023154827523427499 0 0.0037746543061506219 -0.0025899074912871757 0 0.0034381877967041181 -0.0024173306755330836 0 0.0035312590510237795 -0.0022434786804712936 0 0.003661780114701715 -0.0023154827523427499 0 0.0034381877967041181 -0.0024173306755330836 0 0.0035312590510237795 -0.0022434786804712936 0 0.0033617497368699525 -0.0021349960432553512 0 0.0035312590510237795 -0.0022434786804712936 0 0.0033617497368699525 -0.0021349960432553512 0 0.0036607778405649835 -0.0021033091629998847 0 0.0038515558685927888 -0.0022655315335112238 0 0.003661780114701715 -0.0023154827523427499 0 0.0036607778405649835 -0.0021033091629998847 0 0.0035312590510237795 -0.0022434786804712936 0 0.003661780114701715 -0.0023154827523427499 0 0.0036607778405649835 -0.0021033091629998847 0 0.0039573412462248648 -0.0021367295291553254 0 0.0036607778405649835 -0.0021033091629998847 0 0.0037505858773037065 -0.0018007548979116757 0 0.0036607778405649835 -0.0021033091629998847 0 0.0037505858773037065 -0.0018007548979116757 0 0.0034515094547006159 -0.0018590125323484058 0 0.0032021710284793146 -0.001857316127836402 0 0.0033046010054055513 -0.0019955305768199591 0 0.0031358095213310355 -0.002019989615362316 0 0.0044982631795180599 -0.0022064365943886108 0 0.0031157463075051689 -0.001944769825094769 0 0.0032021710284793146 -0.001857316127836402 0 0.0031358095213310355 -0.002019989615362316 0 0.0030360585163857513 -0.0019383981175462273 0 0.0033617497368699525 -0.0021349960432553512 0 0.0036607778405649835 -0.0021033091629998847 0 0.0034515094547006159 -0.0018590125323484058 0 0.0033617497368699525 -0.0021349960432553512 0 0.0031492688392232753 -0.0019164868153685964 0 0.0030821417814064695 -0.002103044189142735 0 0.0033617497368699525 -0.0021349960432553512 0 0.0034515094547006159 -0.0018590125323484058 0 0.0031492688392232753 -0.0019164868153685964 0 0.0031157463075051689 -0.001944769825094769 0 0.0030967891426478141 -0.0019669594112619363 0 0.0031358095213310355 -0.002019989615362316 0 0.0029744439524073429 -0.0020272136174375416 0 0.0030360585163857513 -0.0019383981175462273 0 0.0028292364137244594 -0.0020094064101048351 0 0.0029744439524073429 -0.0020272136174375416 0 0.0028705090253108882 -0.0019313015333883481 0 0.0029744439524073429 -0.0020272136174375416 0 0.0030360585163857513 -0.0019383981175462273 0 0.0028705090253108882 -0.0019313015333883481 0 0.0028292364137244594 -0.0020094064101048351 0 0.0031492688392232753 -0.0019164868153685964 0 0.0030821417814064695 -0.002103044189142735 0 0.0028292364137244594 -0.0020094064101048351 0 0.0030821417814064695 -0.002103044189142735 0 0.0029009040832132489 -0.0021730991464985619 0 0.0028404225024041504 -0.0020095676859724272 0 0.0030967891426478141 -0.0019669594112619363 0 0.0029009040832132489 -0.0021730991464985619 0 0.003181607534680277 -0.0022737570396919736 0 0.0029961103427354808 -0.0023896802820926959 0 0.0030821417814064695 -0.002103044189142735 0 0.0029009040832132489 -0.0021730991464985619 0 0.003181607534680277 -0.0022737570396919736 0 0.0027633071880307498 -0.0022928970310128844 0 0.0029009040832132489 -0.0021730991464985619 0 0.0029961103427354808 -0.0023896802820926959 0 0.0033617497368699525 -0.0021349960432553512 0 0.0030821417814064695 -0.002103044189142735 0 0.003181607534680277 -0.0022737570396919736 0 0.0034381877967041181 -0.0024173306755330836 0 0.0033617497368699525 -0.0021349960432553512 0 0.003181607534680277 -0.0022737570396919736 0 0.0034381877967041181 -0.0024173306755330836 0 0.0031942901255774436 -0.0024673576063472214 0 0.0032893746738151238 -0.0026053107117256641 0 0.0034381877967041181 -0.0024173306755330836 0 0.003181607534680277 -0.0022737570396919736 0 0.0031942901255774436 -0.0024673576063472214 0 0.0031942901255774436 -0.0024673576063472214 0 0.0030655649309457339 -0.0024914711526845927 0 0.0029961103427354808 -0.0023896802820926959 0 0.0031942901255774436 -0.0024673576063472214 0 0.0030655649309457339 -0.0024914711526845927 0 0.0031170701630125006 -0.0026009127859754969 0 0.002967784022777472 -0.0025233870844530064 0 0.0030655649309457339 -0.0024914711526845927 0 0.0029961103427354808 -0.0023896802820926959 0 0.0028708301468429228 -0.0025784740960530335 0 0.0029831966965952203 -0.0024025330380205942 0 0.003181607534680277 -0.0022737570396919736 0 0.0031942901255774436 -0.0024673576063472214 0 0.0029961103427354808 -0.0023896802820926959 0 0.0029427612352899736 -0.0026670671599227491 0 0.0031170701630125006 -0.0026009127859754969 0 0.0030661019919695216 -0.002701131361406121 0 0.0027465709780181086 -0.0026294448936838334 0 0.0031503314075965218 -0.002601166842050319 0 0.002967784022777472 -0.0025233870844530064 0 0.0030655649309457339 -0.0024914711526845927 0 0.0031170701630125006 -0.0026009127859754969 0 0.0031942901255774436 -0.0024673576063472214 0 0.0031170701630125006 -0.0026009127859754969 0 0.0032893746738151238 -0.0026053107117256641 0 0.0032893746738151238 -0.0026053107117256641 0 0.0032955567576633416 -0.0027768816907611494 0 0.0034466352040317511 -0.0026605254444224393 0 0.0031170701630125006 -0.0026009127859754969 0 0.0032893746738151238 -0.0026053107117256641 0 0.0032955567576633416 -0.0027768816907611494 0 0.0032955567576633416 -0.0027768816907611494 0 0.0034041117976117046 -0.002819730979485794 0 0.0034220375769630231 -0.0027598750702868273 0 0.0031170701630125006 -0.0026009127859754969 0 0.0032955567576633416 -0.0027768816907611494 0 0.0030661019919695216 -0.002701131361406121 0 0.0032904854854647566 -0.0027761339161885392 0 0.0031786414052884749 -0.0028361433484618646 0 0.0032955567576633416 -0.0027768816907611494 0 0.0030661019919695216 -0.002701131361406121 0 0.0030372437159306071 -0.0028247854142594213 0 0.0032955567576633416 -0.0027768816907611494 0 0.0033243027345357945 -0.0027873994935164173 0 0.0033257056708907097 -0.0027895725736037237 0 0.0033257056708907097 -0.0027895725736037237 0 0.0033401374198098912 -0.0028007796776356314 0 0.0033386226079217219 -0.002805942700219958 0 0.0033286743745603886 -0.0027884916388347973 0 0.0033257056708907097 -0.0027895725736037237 0 0.0033401374198098912 -0.0028007796776356314 0 0.0039640297423625039 -0.0015630481628865311 0 0.0041022451559907134 -0.0011731218406056765 0 0.0033286743745603886 -0.0027884916388347973 0 0.0033401374198098912 -0.0028007796776356314 0 0.0033511365829206326 -0.0028050403945029364 0 0.0033401374198098912 -0.0028007796776356314 0 0.0033632454123133496 -0.0028113151829585151 0 0.0033511365829206326 -0.0028050403945029364 0 0.0033401374198098912 -0.0028007796776356314 0 0.0033386226079217219 -0.002805942700219958 0 0.0033632454123133496 -0.0028113151829585151 0 0.0039190555395866248 -0.002318190264677208 0 0.0041022451559907134 -0.0011731218406056765 0 0.0032955567576633416 -0.0027768816907611494 0 0.0033386226079217219 -0.002805942700219958 0 0.0034041117976117046 -0.002819730979485794 0 0.0033386226079217219 -0.002805942700219958 0 0.0034041117976117046 -0.002819730979485794 0 0.0033632454123133496 -0.0028113151829585151 0 0.0032955567576633416 -0.0027768816907611494 0 0.0033257056708907097 -0.0027895725736037237 0 0.0033386226079217219 -0.002805942700219958 0 0.0033643338299908904 -0.0030297786143110616 0 0.0039190555395866248 -0.002318190264677208 0 0.0049286291694063808 -0.001471150372969691 0 0.0046775579241196017 -0.001615964508556904 0 0.004634412700763587 -0.0018600580984413585 0 0.0034041117976117046 -0.002819730979485794 0 0.0033708981951926032 -0.0029351823480530995 0 0.0035377103046031135 -0.0027965242245204715 0 0.0039190555395866248 -0.002318190264677208 0 0.0041316396232749988 -0.0022889758033689694 0 0.004816140638572732 -0.0013236134593995778 0 0.004657465783489423 -0.0014372203156822936 0 0.0047120698237738722 -0.0011943998906392644 0 0.0049286291694063808 -0.001471150372969691 0 0.004816140638572732 -0.0013236134593995778 0 0.0049693828365881959 -0.0011860605279240361 0 0.0049286291694063808 -0.001471150372969691 0 0.004657465783489423 -0.0014372203156822936 0 0.0046775579241196017 -0.001615964508556904 0 0.0039190555395866248 -0.002318190264677208 0 0.0048734047849144715 -0.0009649490319897856 0 0.0049286291694063808 -0.001471150372969691 0 0.004816140638572732 -0.0013236134593995778 0 0.004657465783489423 -0.0014372203156822936 0 0.004657465783489423 -0.0014372203156822936 0 0.0044851480398592804 -0.0016946244647141778 0 0.0041849327407289302 -0.0016106770687426071 0 0.0044851480398592804 -0.0016946244647141778 0 0.004634412700763587 -0.0018600580984413585 0 0.0042923735681567998 -0.0018989913050383965 0 0.004657465783489423 -0.0014372203156822936 0 0.0044851480398592804 -0.0016946244647141778 0 0.0046775579241196017 -0.001615964508556904 0 0.0044851480398592804 -0.0016946244647141778 0 0.0046775579241196017 -0.001615964508556904 0 0.004634412700763587 -0.0018600580984413585 0 0.0041316396232749988 -0.0022889758033689694 0 0.0040362175844168959 -0.0023766394037612708 0 0.0035377103046031135 -0.0027965242245204715 0 0.0034466352040317511 -0.0026605254444224393 0 0.0037746543061506219 -0.0025899074912871757 0 0.004634412700763587 -0.0018600580984413585 0 0.0043124678254229587 -0.0021760577197849334 0 0.0042923735681567998 -0.0018989913050383965 0 0.0032955567576633416 -0.0027768816907611494 0 0.0034220375769630231 -0.0027598750702868273 0 0.0034466352040317511 -0.0026605254444224393 0 0.0035377103046031135 -0.0027965242245204715 0 0.0034220375769630231 -0.0027598750702868273 0 0.0034466352040317511 -0.0026605254444224393 0 0.0034041117976117046 -0.002819730979485794 0 0.0035377103046031135 -0.0027965242245204715 0 0.0034220375769630231 -0.0027598750702868273 0 0.0034381877967041181 -0.0024173306755330836 0 0.0034466352040317511 -0.0026605254444224393 0 0.0037746543061506219 -0.0025899074912871757 0 0.0034381877967041181 -0.0024173306755330836 0 0.0032893746738151238 -0.0026053107117256641 0 0.0034466352040317511 -0.0026605254444224393 0 0.0040588835098568582 -0.0023143700431850433 0 0.0043124678254229587 -0.0021760577197849334 0 0.0041103000582691654 -0.002085138888215272 0 0.0043124678254229587 -0.0021760577197849334 0 0.0041103000582691654 -0.002085138888215272 0 0.0042923735681567998 -0.0018989913050383965 0 0.0040588835098568582 -0.0023143700431850433 0 0.0041103000582691654 -0.002085138888215272 0 0.003879997251015762 -0.002078282107913916 0 0.0041103000582691654 -0.002085138888215272 0 0.004055501639992091 -0.0018905945342832619 0 0.003879997251015762 -0.002078282107913916 0 0.0041103000582691654 -0.002085138888215272 0 0.004055501639992091 -0.0018905945342832619 0 0.0042923735681567998 -0.0018989913050383965 0 0.004055501639992091 -0.0018905945342832619 0 0.0042923735681567998 -0.0018989913050383965 0 0.0041849327407289302 -0.0016106770687426071 0 0.0044851480398592804 -0.0016946244647141778 0 0.0042923735681567998 -0.0018989913050383965 0 0.0041849327407289302 -0.0016106770687426071 0 0.004657465783489423 -0.0014372203156822936 0 0.0042815691941391178 -0.0015521423251910278 0 0.004455533983672582 -0.0012479657212234332 0 0.0046655533833539417 -0.0014373360603773017 0 0.0041738410647050488 -0.0015935687314594033 0 0.0042815691941391178 -0.0015521423251910278 0 0.0041317588619897132 -0.0013264225412788352 0 0.004455533983672582 -0.0012479657212234332 0 0.0042815691941391178 -0.0015521423251910278 0 0.0041317588619897132 -0.0013264225412788352 0 0.0039075218963590206 -0.0016690270286434372 0 0.0041738410647050488 -0.0015935687314594033 0 0.0041589846157709751 -0.00167331199521167 0 0.004055501639992091 -0.0018905945342832619 0 0.0041849327407289302 -0.0016106770687426071 0 0.0038342210715974498 -0.0017537922509907541 0 0.0041589846157709751 -0.00167331199521167 0 0.0048820074129724963 -0.0015680465788905232 0 0.0041589846157709751 -0.00167331199521167 0 0.0047457845788180129 -0.0013391565360476333 0 0.0041317588619897132 -0.0013264225412788352 0 0.0039075218963590206 -0.0016690270286434372 0 0.0038793682634771188 -0.0013144058688387718 0 0.0047025848863497437 -0.001529225834742615 0 0.0046986074429291964 -0.0015237423257206443 0 0.0047032392844250899 -0.0015140747494990798 0 0.0046943582669726472 -0.0015217564881600967 0 0.0046986074429291964 -0.0015237423257206443 0 0.0047032392844250899 -0.0015140747494990798 0 0.0049116198331036788 -0.0014640658268358169 0 0.0047457845788180129 -0.0013391565360476333 0 0.0049116198331036788 -0.0014640658268358169 0 0.0048820074129724963 -0.0015680465788905232 0 0.0046943582669726472 -0.0015217564881600967 0 0.0046986074429291964 -0.0015237423257206443 0 0.0046984580371823466 -0.0015307998722474622 0 0.0049999997671101738 -0.0013799183099598524 0 0.0050984193690424206 -0.0015442252869720475 0 0.0049999979924844054 -0.0015767634235341842 0 0.0047025848863497437 -0.001529225834742615 0 0.0046986074429291964 -0.0015237423257206443 0 0.0046984580371823466 -0.0015307998722474622 0 0.0048820074129724963 -0.0015680465788905232 0 0.0050000823681309982 -0.0015767097774334999 0 0.0050873566973333867 -0.0017032296534252543 0 0.0049999946500520216 -0.0015767743638546231 0 0.0049999941004038786 -0.0018077126670452686 0 0.0050957457606840726 -0.001546502484569542 0 0.0050873566973333867 -0.0017032296534252543 0 0.0049999946500520216 -0.0015767743638546231 0 0.0050957457606840726 -0.001546502484569542 0 0.0050873566973333867 -0.0017032296534252543 0 0.0052263224505468371 -0.0017564767624498273 0 0.0046158846752773625 -0.0016382557873518327 0 0.0045364514442742098 -0.0016644837619424428 0 0.0046324487163789223 -0.0018134221489660399 0 0.004055501639992091 -0.0018905945342832619 0 0.0038342210715974498 -0.0017537922509907541 0 0.003879997251015762 -0.002078282107913916 0 0.0041589846157709751 -0.00167331199521167 0 0.0047365448842132318 -0.0018789761536149477 0 0.0048820074129724963 -0.0015680465788905232 0 0.0047365448842132318 -0.0018789761536149477 0 0.0050993301481830145 -0.0019147964863595662 0 0.0052377186695785651 -0.0019560384314370608 0 0.0052263224505468371 -0.0017564767624498273 0 0.0046493905735486016 -0.0021828387069790689 0 0.0047365448842132318 -0.0018789761536149477 0 0.0052382486035760876 -0.0019827362429293608 0 0.0047365448842132318 -0.0018789761536149477 0 0.0050993301481830145 -0.0019147964863595662 0 0.0050873566973333867 -0.0017032296534252543 0 0.0052263224505468371 -0.0017564767624498273 0 0.0050993301481830145 -0.0019147964863595662 0 0.0050873566973333867 -0.0017032296534252543 0 0.0049999941004038786 -0.0018077126670452686 0 0.0051437019022136715 -0.00057553285895360477 0 0.0050433023380979545 -0.00078486138295756722 0 0.0049999619257680775 -0.00054052905377570436 0 0.0049999794653989432 -0.00082030318574766148 0 0.0050433023380979545 -0.00078486138295756722 0 0.0049999619257680775 -0.00054052905377570436 0 0.0051437019022136715 -0.00057553285895360477 0 0.005185695655118467 -0.0007076079206888862 0 0.0050433023380979545 -0.00078486138295756722 0 0.0051437019022136715 -0.00057553285895360477 0 0.005185695655118467 -0.0007076079206888862 0 0.0052963628281293487 -0.00053187467760673721 0 0.0051903752779408592 -0.00077956343726815825 0 0.0050547073365883382 -0.00077815047352825623 0 0.0052394425722922132 -0.00085296546591297358 0 0.0050761465278114223 -0.00095241821945418607 0 0.0052631914903560244 -0.00097264709330714596 0 0.0052394425722922132 -0.00085296546591297358 0 0.0050433023380979545 -0.00078486138295756722 0 0.0050761465278114223 -0.00095241821945418607 0 0.0049999794653989432 -0.00082030318574766148 0 0.0050433023380979545 -0.00078486138295756722 0 0.0050761465278114223 -0.00095241821945418607 0 0.0049999794653989432 -0.00082030318574766148 0 0.0050761465278114223 -0.00095241821945418607 0 0.0049999924915281159 -0.0011001579787500706 0 0.0050761465278114223 -0.00095241821945418607 0 0.0049999924915281159 -0.0011001579787500706 0 0.0051657426356279592 -0.0010668778415989005 0 0.0049999924915281159 -0.0011001579787500706 0 0.0051834697472239993 -0.0012459817523554897 0 0.0051657426356279592 -0.0010668778415989005 0 0.0049999956182480284 -0.001379901245334697 0 0.0049999924915281159 -0.0011001579787500706 0 0.0051834697472239993 -0.0012459817523554897 0 0.0051733392892084817 -0.0012081185077748437 0 0.0051657426356279592 -0.0010668778415989005 0 0.0053757510988378587 -0.0010612593035162123 0 0.0047457845788180129 -0.0013391565360476333 0 0.0051685002607856139 -0.0010593069945260302 0 0.0052631914903560244 -0.00097264709330714596 0 0.0051657426356279592 -0.0010668778415989005 0 0.0053757510988378587 -0.0010612593035162123 0 0.0050761465278114223 -0.00095241821945418607 0 0.0052631914903560244 -0.00097264709330714596 0 0.0051657426356279592 -0.0010668778415989005 0 0.0052631914903560244 -0.00097264709330714596 0 0.0053757510988378587 -0.0010612593035162123 0 0.0054034020755488127 -0.00089860088363563617 0 0.0041317588619897132 -0.0013264225412788352 0 0.0038793682634771188 -0.0013144058688387718 0 0.0042031158219624186 -0.0010682768315980837 0 0.0047457845788180129 -0.0013391565360476333 0 0.0047332136189507908 -0.0010555542514457045 0 0.0041317588619897132 -0.0013264225412788352 0 0.0042031158219624186 -0.0010682768315980837 0 0.004455533983672582 -0.0012479657212234332 0 0.0042031158219624186 -0.0010682768315980837 0 0.004455533983672582 -0.0012479657212234332 0 0.0044634887762837671 -0.001039971602610122 0 0.004455533983672582 -0.0012479657212234332 0 0.0044634887762837671 -0.001039971602610122 0 0.0045811007240340249 -0.0011202421851651831 0 0.0053757510988378587 -0.0010612593035162123 0 0.0054034020755488127 -0.00089860088363563617 0 0.0055586967681824822 -0.00092646135124513287 0 0.0042031158219624186 -0.0010682768315980837 0 0.0044634887762837671 -0.001039971602610122 0 0.0046481307085266526 -0.00065965146488200001 0 0.0047332136189507908 -0.0010555542514457045 0 0.0052000459778254538 -0.00081034719152002597 0 0.0053214348023679168 -0.00068340801358112617 0 0.0053712949155892784 -0.00058913910344398929 0 0.0054271653522667135 -0.00063838901710356515 0 0.0054214124774723165 -0.00079672463922352259 0 0.0052000459778254538 -0.00081034719152002597 0 0.0053214348023679168 -0.00068340801358112617 0 0.0054271653522667135 -0.00063838901710356515 0 0.0054575953385299939 -0.00067517719114974339 0 0.005185695655118467 -0.0007076079206888862 0 0.0053214348023679168 -0.00068340801358112617 0 0.0052963628281293487 -0.00053187467760673721 0 0.0052394425722922132 -0.00085296546591297358 0 0.0052631914903560244 -0.00097264709330714596 0 0.0054034020755488127 -0.00089860088363563617 0 0.0051903752779408592 -0.00077956343726815825 0 0.0054214124774723165 -0.00079672463922352259 0 0.0053214348023679168 -0.00068340801358112617 0 0.0052963628281293487 -0.00053187467760673721 0 0.0053712949155892784 -0.00058913910344398929 0 0.0052963628281293487 -0.00053187467760673721 0 0.0053712949155892784 -0.00058913910344398929 0 0.005438473767353868 -0.0005244024571889708 0 0.0055042605810668981 -0.00058033263011362558 0 0.0054578192770984814 -0.00059708997659402665 0 0.005438473767353868 -0.0005244024571889708 0 0.0055042605810668981 -0.00058033263011362558 0 0.005438473767353868 -0.0005244024571889708 0 0.0055274713710473438 -0.00051655286543794048 0 0.0053712949155892784 -0.00058913910344398929 0 0.0054578192770984814 -0.00059708997659402665 0 0.005438473767353868 -0.0005244024571889708 0 0.005438473767353868 -0.0005244024571889708 0 0.0055274713710473438 -0.00051655286543794048 0 0.0054786597925454393 -0.00041090200360719727 0 0.0055274713710473438 -0.00051655286543794048 0 0.005589054858258018 -0.00054738259615785866 0 0.0055972926316909619 -0.00044500049665972564 0 0.005589054858258018 -0.00054738259615785866 0 0.0056484723488757849 -0.00056342220398208377 0 0.0055972926316909619 -0.00044500049665972564 0 0.0055242652345087505 -0.00014503011208348392 0 0.0056108158084180442 -0.00040612752012350909 0 0.005589054858258018 -0.00054738259615785866 0 0.0055701579504758725 -0.00058315680537614472 0 0.0055930623373071928 -0.00058497948902905446 0 0.005589054858258018 -0.00054738259615785866 0 0.0055701579504758725 -0.00058315680537614472 0 0.0055467022892744652 -0.00057616215564991469 0 0.005589054858258018 -0.00054738259615785866 0 0.0055930623373071928 -0.00058497948902905446 0 0.0056231546256852675 -0.00057772746473923374 0 0.0055042605810668981 -0.00058033263011362558 0 0.0055274713710473438 -0.00051655286543794048 0 0.0055467022892744652 -0.00057616215564991469 0 0.0055274713710473438 -0.00051655286543794048 0 0.005589054858258018 -0.00054738259615785866 0 0.0055467022892744652 -0.00057616215564991469 0 0.0055701579504758725 -0.00058315680537614472 0 0.0055467022892744652 -0.00057616215564991469 0 0.0055494035652382924 -0.00060201245618120617 0 0.0055042605810668981 -0.00058033263011362558 0 0.0055467022892744652 -0.00057616215564991469 0 0.0055237794682622176 -0.00060935745371856883 0 0.0055372541870087368 -0.00070918251484986265 0 0.0054575953385299939 -0.00067517719114974339 0 0.0055618939918347741 -0.00073116218326188824 0 0.0052000459778254538 -0.00081034719152002597 0 0.0054768197881863209 -0.00069489517863479777 0 0.0055042605810668981 -0.00058033263011362558 0 0.0055237794682622176 -0.00060935745371856883 0 0.0054965935989670272 -0.00062240337630340347 0 0.0055372541870087368 -0.00070918251484986265 0 0.0055233379525125902 -0.00069675395795225923 0 0.0054575953385299939 -0.00067517719114974339 0 0.0055237794682622176 -0.00060935745371856883 0 0.0055114103006781798 -0.0006299509963826513 0 0.0054965935989670272 -0.00062240337630340347 0 0.0055237794682622176 -0.00060935745371856883 0 0.0055494035652382924 -0.00060201245618120617 0 0.0055380083121287938 -0.00062391037882525565 0 0.0055467022892744652 -0.00057616215564991469 0 0.0055237794682622176 -0.00060935745371856883 0 0.0055494035652382924 -0.00060201245618120617 0 0.0055494035652382924 -0.00060201245618120617 0 0.0055380083121287938 -0.00062391037882525565 0 0.0055523191698040181 -0.00062354505383856369 0 0.0055380083121287938 -0.00062391037882525565 0 0.0055314418450729298 -0.00064202150596672934 0 0.0055237719935250411 -0.00063099211294048816 0 0.0055237794682622176 -0.00060935745371856883 0 0.0055380083121287938 -0.00062391037882525565 0 0.0055237719935250411 -0.00063099211294048816 0 0.0055380083121287938 -0.00062391037882525565 0 0.0055523191698040181 -0.00062354505383856369 0 0.0055455782381954805 -0.00063973371903229147 0 0.0055380083121287938 -0.00062391037882525565 0 0.0055314418450729298 -0.00064202150596672934 0 0.0055455782381954805 -0.00063973371903229147 0 0.0055314418450729298 -0.00064202150596672934 0 0.0055455782381954805 -0.00063973371903229147 0 0.0055325472073266104 -0.00065604573635043664 0 0.0055314418450729298 -0.00064202150596672934 0 0.0055221356895945543 -0.00064334774913097671 0 0.0055237719935250411 -0.00063099211294048816 0 0.0055314418450729298 -0.00064202150596672934 0 0.0055221356895945543 -0.00064334774913097671 0 0.0055229785701688969 -0.00065534519221368181 0 0.0055221356895945543 -0.00064334774913097671 0 0.0055127156745439282 -0.00064488763802892908 0 0.0055144884526133336 -0.00065583936702044189 0 0.0055127156745439282 -0.00064488763802892908 0 0.0055114103006781798 -0.0006299509963826513 0 0.0055237719935250411 -0.00063099211294048816 0 0.0055221356895945543 -0.00064334774913097671 0 0.0055127156745439282 -0.00064488763802892908 0 0.0055237719935250411 -0.00063099211294048816 0 0.0055127156745439282 -0.00064488763802892908 0 0.0055021392586844268 -0.00064443403042918103 0 0.0055114103006781798 -0.0006299509963826513 0 0.0055021392586844268 -0.00064443403042918103 0 0.0055114103006781798 -0.0006299509963826513 0 0.0054965935989670272 -0.00062240337630340347 0 0.0055237794682622176 -0.00060935745371856883 0 0.0055114103006781798 -0.0006299509963826513 0 0.0055237719935250411 -0.00063099211294048816 0 0.0055918311489234996 -0.00060439071074555757 0 0.0055836240606669902 -0.00062120393061076192 0 0.0056003433675503823 -0.00061525390535333382 0 0.0055918311489234996 -0.00060439071074555757 0 0.0056003433675503823 -0.00061525390535333382 0 0.0056095098473441362 -0.00059579364155109876 0 0.0055930623373071928 -0.00058497948902905446 0 0.0055918311489234996 -0.00060439071074555757 0 0.0056095098473441362 -0.00059579364155109876 0 0.0055930623373071928 -0.00058497948902905446 0 0.0055918311489234996 -0.00060439071074555757 0 0.0055728026077011446 -0.00060526731727946381 0 0.0055918311489234996 -0.00060439071074555757 0 0.0055728026077011446 -0.00060526731727946381 0 0.0055836240606669902 -0.00062120393061076192 0 0.0055701579504758725 -0.00058315680537614472 0 0.0055494035652382924 -0.00060201245618120617 0 0.0055728026077011446 -0.00060526731727946381 0 0.0055494035652382924 -0.00060201245618120617 0 0.0055728026077011446 -0.00060526731727946381 0 0.0055523191698040181 -0.00062354505383856369 0 0.0055701579504758725 -0.00058315680537614472 0 0.0055930623373071928 -0.00058497948902905446 0 0.0055728026077011446 -0.00060526731727946381 0 0.0055523191698040181 -0.00062354505383856369 0 0.0055455782381954805 -0.00063973371903229147 0 0.0055664739866752907 -0.00062663072742837175 0 0.0055455782381954805 -0.00063973371903229147 0 0.0055664739866752907 -0.00062663072742837175 0 0.0055436565728733747 -0.00065282145946100217 0 0.0055606792950482044 -0.00064632732524188467 0 0.0055664739866752907 -0.00062663072742837175 0 0.0055436565728733747 -0.00065282145946100217 0 0.0055606792950482044 -0.00064632732524188467 0 0.0055664739866752907 -0.00062663072742837175 0 0.0055741078839984422 -0.00063626060709185968 0 0.0055728026077011446 -0.00060526731727946381 0 0.0055523191698040181 -0.00062354505383856369 0 0.0055664739866752907 -0.00062663072742837175 0 0.0055664739866752907 -0.00062663072742837175 0 0.0055836240606669902 -0.00062120393061076192 0 0.0055741078839984422 -0.00063626060709185968 0 0.0055728026077011446 -0.00060526731727946381 0 0.0055664739866752907 -0.00062663072742837175 0 0.0055836240606669902 -0.00062120393061076192 0 0.0055606792950482044 -0.00064632732524188467 0 0.0055741078839984422 -0.00063626060709185968 0 0.0055759827290414775 -0.0006500013678916401 0 0.0055741078839984422 -0.00063626060709185968 0 0.0055875510297596987 -0.00063468901215578974 0 0.0055759827290414775 -0.0006500013678916401 0 0.0055836240606669902 -0.00062120393061076192 0 0.0055741078839984422 -0.00063626060709185968 0 0.0055875510297596987 -0.00063468901215578974 0 0.0055875510297596987 -0.00063468901215578974 0 0.0055891481466713291 -0.00065150976376079212 0 0.0056024200555452701 -0.00063486695322931502 0 0.0055875510297596987 -0.00063468901215578974 0 0.0055891481466713291 -0.00065150976376079212 0 0.0055759827290414775 -0.0006500013678916401 0 0.0055836240606669902 -0.00062120393061076192 0 0.0055875510297596987 -0.00063468901215578974 0 0.0056003433675503823 -0.00061525390535333382 0 0.0055875510297596987 -0.00063468901215578974 0 0.0056003433675503823 -0.00061525390535333382 0 0.0056024200555452701 -0.00063486695322931502 0 0.0055711841258261037 -0.00067296822524142179 0 0.0055708226673646648 -0.00069099107827260277 0 0.0056059895198727668 -0.00065865638935454088 0 0.0055891481466713291 -0.00065150976376079212 0 0.0055759827290414775 -0.0006500013678916401 0 0.0055711841258261037 -0.00067296822524142179 0 0.0055891481466713291 -0.00065150976376079212 0 0.0055711841258261037 -0.00067296822524142179 0 0.0056059895198727668 -0.00065865638935454088 0 0.0055606792950482044 -0.00064632732524188467 0 0.0055759827290414775 -0.0006500013678916401 0 0.0055619887194664278 -0.00066190109324188937 0 0.0055759827290414775 -0.0006500013678916401 0 0.0055711841258261037 -0.00067296822524142179 0 0.0055619887194664278 -0.00066190109324188937 0 0.0055711841258261037 -0.00067296822524142179 0 0.0055619887194664278 -0.00066190109324188937 0 0.0055481141148911719 -0.00066464920512834585 0 0.0055711841258261037 -0.00067296822524142179 0 0.0055481141148911719 -0.00066464920512834585 0 0.0055547867082817622 -0.00068995541063150213 0 0.0055481141148911719 -0.00066464920512834585 0 0.0055401476886392364 -0.00068371644263535102 0 0.0055547867082817622 -0.00068995541063150213 0 0.0055606792950482044 -0.00064632732524188467 0 0.0055619887194664278 -0.00066190109324188937 0 0.0055481141148911719 -0.00066464920512834585 0 0.0055606792950482044 -0.00064632732524188467 0 0.0055436565728733747 -0.00065282145946100217 0 0.0055481141148911719 -0.00066464920512834585 0 0.0055436565728733747 -0.00065282145946100217 0 0.0055481141148911719 -0.00066464920512834585 0 0.0055359526950505989 -0.00066796344512843285 0 0.0055481141148911719 -0.00066464920512834585 0 0.0055401476886392364 -0.00068371644263535102 0 0.0055359526950505989 -0.00066796344512843285 0 0.0055401476886392364 -0.00068371644263535102 0 0.0055372541870087368 -0.00070918251484986265 0 0.0055233379525125902 -0.00069675395795225923 0 0.0055401476886392364 -0.00068371644263535102 0 0.0055372541870087368 -0.00070918251484986265 0 0.0055547867082817622 -0.00068995541063150213 0 0.0055547867082817622 -0.00068995541063150213 0 0.0055616287962774492 -0.00070459060440701928 0 0.0055708226673646648 -0.00069099107827260277 0 0.0055711841258261037 -0.00067296822524142179 0 0.0055547867082817622 -0.00068995541063150213 0 0.0055708226673646648 -0.00069099107827260277 0 0.0055372541870087368 -0.00070918251484986265 0 0.0055547867082817622 -0.00068995541063150213 0 0.0055616287962774492 -0.00070459060440701928 0 0.0055616287962774492 -0.00070459060440701928 0 0.0055708226673646648 -0.00069099107827260277 0 0.0055812262438606581 -0.00070745111393943265 0 0.0055139581949957056 -0.00068845287951314795 0 0.0055233379525125902 -0.00069675395795225923 0 0.0054575953385299939 -0.00067517719114974339 0 0.005514999839827367 -0.0006675315297870665 0 0.0055067196523442049 -0.00067125630206569143 0 0.005505570871328901 -0.00066012762198171878 0 0.005514999839827367 -0.0006675315297870665 0 0.0055067196523442049 -0.00067125630206569143 0 0.0055077117901785079 -0.0006822699751220584 0 0.0055067196523442049 -0.00067125630206569143 0 0.0054978683824380946 -0.00067239301805272205 0 0.0055077117901785079 -0.0006822699751220584 0 0.0054978683824380946 -0.00067239301805272205 0 0.005505570871328901 -0.00066012762198171878 0 0.0054969326739777247 -0.00065909012417474089 0 0.0055067196523442049 -0.00067125630206569143 0 0.0054978683824380946 -0.00067239301805272205 0 0.005505570871328901 -0.00066012762198171878 0 0.0055021392586844268 -0.00064443403042918103 0 0.005505570871328901 -0.00066012762198171878 0 0.0054969326739777247 -0.00065909012417474089 0 0.0055127156745439282 -0.00064488763802892908 0 0.0055021392586844268 -0.00064443403042918103 0 0.005505570871328901 -0.00066012762198171878 0 0.005514999839827367 -0.0006675315297870665 0 0.005505570871328901 -0.00066012762198171878 0 0.0055144884526133336 -0.00065583936702044189 0 0.0055127156745439282 -0.00064488763802892908 0 0.005505570871328901 -0.00066012762198171878 0 0.0055144884526133336 -0.00065583936702044189 0 0.005514999839827367 -0.0006675315297870665 0 0.0055144884526133336 -0.00065583936702044189 0 0.0055229785701688969 -0.00065534519221368181 0 0.0055221356895945543 -0.00064334774913097671 0 0.0055144884526133336 -0.00065583936702044189 0 0.0055229785701688969 -0.00065534519221368181 0 0.0055314418450729298 -0.00064202150596672934 0 0.0055229785701688969 -0.00065534519221368181 0 0.0055325472073266104 -0.00065604573635043664 0 0.0055229785701688969 -0.00065534519221368181 0 0.0055325472073266104 -0.00065604573635043664 0 0.0055245042137489599 -0.00066841884996676878 0 0.0055455782381954805 -0.00063973371903229147 0 0.0055436565728733747 -0.00065282145946100217 0 0.0055325472073266104 -0.00065604573635043664 0 0.0055436565728733747 -0.00065282145946100217 0 0.0055325472073266104 -0.00065604573635043664 0 0.0055359526950505989 -0.00066796344512843285 0 0.0055325472073266104 -0.00065604573635043664 0 0.0055359526950505989 -0.00066796344512843285 0 0.0055245042137489599 -0.00066841884996676878 0 0.0055401476886392364 -0.00068371644263535102 0 0.0055359526950505989 -0.00066796344512843285 0 0.0055260360428759769 -0.00068145768785485067 0 0.0055359526950505989 -0.00066796344512843285 0 0.0055245042137489599 -0.00066841884996676878 0 0.0055260360428759769 -0.00068145768785485067 0 0.005514999839827367 -0.0006675315297870665 0 0.0055245042137489599 -0.00066841884996676878 0 0.0055260360428759769 -0.00068145768785485067 0 0.005514999839827367 -0.0006675315297870665 0 0.0055229785701688969 -0.00065534519221368181 0 0.0055245042137489599 -0.00066841884996676878 0 0.005514999839827367 -0.0006675315297870665 0 0.0055139581949957056 -0.00068845287951314795 0 0.0055260360428759769 -0.00068145768785485067 0 0.0055139581949957056 -0.00068845287951314795 0 0.0055260360428759769 -0.00068145768785485067 0 0.0055233379525125902 -0.00069675395795225923 0 0.0055401476886392364 -0.00068371644263535102 0 0.0055260360428759769 -0.00068145768785485067 0 0.0055233379525125902 -0.00069675395795225923 0 0.005514999839827367 -0.0006675315297870665 0 0.0055139581949957056 -0.00068845287951314795 0 0.0055077117901785079 -0.0006822699751220584 0 0.0055139581949957056 -0.00068845287951314795 0 0.0055077117901785079 -0.0006822699751220584 0 0.0054575953385299939 -0.00067517719114974339 0 0.0054978683824380946 -0.00067239301805272205 0 0.0054792280732224533 -0.00066954383974595006 0 0.0054575953385299939 -0.00067517719114974339 0 0.0054978683824380946 -0.00067239301805272205 0 0.0055077117901785079 -0.0006822699751220584 0 0.0054575953385299939 -0.00067517719114974339 0 0.0054792280732224533 -0.00066954383974595006 0 0.0054736188356878344 -0.00065909650690150283 0 0.0054575953385299939 -0.00067517719114974339 0 0.0054736188356878344 -0.00065909650690150283 0 0.0054604702934194678 -0.00065990239533788761 0 0.0054575953385299939 -0.00067517719114974339 0 0.0054792280732224533 -0.00066954383974595006 0 0.0054736188356878344 -0.00065909650690150283 0 0.0054825972208683094 -0.00065894219332759073 0 0.0054736188356878344 -0.00065909650690150283 0 0.0054825972208683094 -0.00065894219332759073 0 0.0054764030762785706 -0.00064216639738018833 0 0.0054736188356878344 -0.00065909650690150283 0 0.0054764030762785706 -0.00064216639738018833 0 0.0054604702934194678 -0.00065990239533788761 0 0.0054978683824380946 -0.00067239301805272205 0 0.0054792280732224533 -0.00066954383974595006 0 0.0054894282323308709 -0.00066354162860304551 0 0.0054978683824380946 -0.00067239301805272205 0 0.0054894282323308709 -0.00066354162860304551 0 0.0054969326739777247 -0.00065909012417474089 0 0.0054792280732224533 -0.00066954383974595006 0 0.0054894282323308709 -0.00066354162860304551 0 0.0054825972208683094 -0.00065894219332759073 0 0.0054825972208683094 -0.00065894219332759073 0 0.0054907486029628872 -0.00065131949611376945 0 0.0054764030762785706 -0.00064216639738018833 0 0.0054894282323308709 -0.00066354162860304551 0 0.0054825972208683094 -0.00065894219332759073 0 0.0054907486029628872 -0.00065131949611376945 0 0.0055021392586844268 -0.00064443403042918103 0 0.0054907486029628872 -0.00065131949611376945 0 0.0054969326739777247 -0.00065909012417474089 0 0.0054894282323308709 -0.00066354162860304551 0 0.0054907486029628872 -0.00065131949611376945 0 0.0054969326739777247 -0.00065909012417474089 0 0.0054907486029628872 -0.00065131949611376945 0 0.0054965935989670272 -0.00062240337630340347 0 0.0054764030762785706 -0.00064216639738018833 0 0.0055021392586844268 -0.00064443403042918103 0 0.0054907486029628872 -0.00065131949611376945 0 0.0054965935989670272 -0.00062240337630340347 0 0.0054578192770984814 -0.00059708997659402665 0 0.0054965935989670272 -0.00062240337630340347 0 0.0054764030762785706 -0.00064216639738018833 0 0.0055042605810668981 -0.00058033263011362558 0 0.0054578192770984814 -0.00059708997659402665 0 0.0054965935989670272 -0.00062240337630340347 0 0.0053712949155892784 -0.00058913910344398929 0 0.0054578192770984814 -0.00059708997659402665 0 0.0054271653522667135 -0.00063838901710356515 0 0.0054764030762785706 -0.00064216639738018833 0 0.0054271653522667135 -0.00063838901710356515 0 0.0054604702934194678 -0.00065990239533788761 0 0.0054578192770984814 -0.00059708997659402665 0 0.0054764030762785706 -0.00064216639738018833 0 0.0054271653522667135 -0.00063838901710356515 0 0.0054271653522667135 -0.00063838901710356515 0 0.0054604702934194678 -0.00065990239533788761 0 0.0054575953385299939 -0.00067517719114974339 0 0.0044634887762837671 -0.001039971602610122 0 0.0046481307085266526 -0.00065965146488200001 0 0.0046297393467754026 -0.00094554029019487023 0 0.0046481307085266526 -0.00065965146488200001 0 0.0046297393467754026 -0.00094554029019487023 0 0.0050440193823207786 -0.00085864931958003221 0 0.0044634887762837671 -0.001039971602610122 0 0.0046297393467754026 -0.00094554029019487023 0 0.0045811007240340249 -0.0011202421851651831 0 0.004657465783489423 -0.0014372203156822936 0 0.004455533983672582 -0.0012479657212234332 0 0.0047120698237738722 -0.0011943998906392644 0 0.004455533983672582 -0.0012479657212234332 0 0.0045811007240340249 -0.0011202421851651831 0 0.0047120698237738722 -0.0011943998906392644 0 0.0046297393467754026 -0.00094554029019487023 0 0.0045811007240340249 -0.0011202421851651831 0 0.0047120698237738722 -0.0011943998906392644 0 0.0046297393467754026 -0.00094554029019487023 0 0.0047120698237738722 -0.0011943998906392644 0 0.0049693828365881959 -0.0011860605279240361 0 0.004816140638572732 -0.0013236134593995778 0 0.0047120698237738722 -0.0011943998906392644 0 0.0049693828365881959 -0.0011860605279240361 0 0.0046481307085266526 -0.00065965146488200001 0 0.0050440193823207786 -0.00085864931958003221 0 0.0055618939918347741 -0.00073116218326188824 0 0.0046297393467754026 -0.00094554029019487023 0 0.0053398113874038814 -0.0010542741031215807 0 0.0055510615841506353 -0.0014447088117033218 0 0.0046297393467754026 -0.00094554029019487023 0 0.0053398113874038814 -0.0010542741031215807 0 0.0050440193823207786 -0.00085864931958003221 0 0.0048305831201379875 -0.0010988675681764632 0 0.0048734047849144715 -0.0009649490319897856 0 0.0053398113874038814 -0.0010542741031215807 0 0.0050440193823207786 -0.00085864931958003221 0 0.0055618939918347741 -0.00073116218326188824 0 0.0055372541870087368 -0.00070918251484986265 0 0.0055616287962774492 -0.00070459060440701928 0 0.0055618939918347741 -0.00073116218326188824 0 0.0055616287962774492 -0.00070459060440701928 0 0.0055618939918347741 -0.00073116218326188824 0 0.0055812262438606581 -0.00070745111393943265 0 0.0055618939918347741 -0.00073116218326188824 0 0.0056507201852961878 -0.00075286938150726879 0 0.0055812262438606581 -0.00070745111393943265 0 0.0046514975001450271 -8.6542821164163535e-05 0 0.004662067869953746 -0.00012353052081592793 0 0.0047625993172952042 -8.9925931904671544e-05 0 0.0051465738178952157 -0.00047615486734439114 0 0.0048734047849144715 -0.0009649490319897856 0 0.0044237250962038156 -0.00022958399522121842 0 0.0051830502373910788 0.00082593231368201182 0 0.0053398113874038814 -0.0010542741031215807 0 0.0056507201852961878 -0.00075286938150726879 0 0.0055510615841506353 -0.0014447088117033218 0 0.0046514975001450271 -8.6542821164163535e-05 0 0.004662067869953746 -0.00012353052081592793 0 0.0046382905952724422 -0.00016162668449810685 0 0.0053398113874038814 -0.0010542741031215807 0 0.0055618939918347741 -0.00073116218326188824 0 0.0056507201852961878 -0.00075286938150726879 0 0.004662067869953746 -0.00012353052081592793 0 0.0046638177422585634 -0.00013288240593959495 0 0.0046536871143869115 -0.00013982598733729959 0 0.0046382905952724422 -0.00016162668449810685 0 0.0046638177422585634 -0.00013288240593959495 0 0.0046527394946496801 -0.00016668246142343291 0 0.004662067869953746 -0.00012353052081592793 0 0.0046382905952724422 -0.00016162668449810685 0 0.0046638177422585634 -0.00013288240593959495 0 0.0040757632014989135 -0.0021451694502757179 0 0.004255648814870964 -0.0010505129469961095 0 0.00466463255172483 -0.0012665365709948629 0 0.0047465434092119089 -9.8509880648820606e-05 0 0.0041022451559907134 -0.0011731218406056765 0 0.0048734047849144715 -0.0009649490319897856 0 0.0041022451559907134 -0.0011731218406056765 0 0.0046638177422585634 -0.00013288240593959495 0 0.0046722026403620658 -0.00012188846776973309 0 0.0046396078875050239 -0.00011487246564914122 0 0.0046418952906867603 -0.00012450983469861684 0 0.0046536871143869115 -0.00013982598733729959 0 0.0046064338859076329 -0.00011145761349392274 0 0.0046255762053639621 -8.6491954185905198e-05 0 0.0046722026403620658 -0.00012188846776973309 0 0.0046396078875050239 -0.00011487246564914122 0 0.0046396078875050239 -0.00011487246564914122 0 0.0046418952906867603 -0.00012450983469861684 0 0.0046064338859076329 -0.00011145761349392274 0 0.0046638177422585634 -0.00013288240593959495 0 0.0046396078875050239 -0.00011487246564914122 0 0.0046418952906867603 -0.00012450983469861684 0 0.0046638177422585634 -0.00013288240593959495 0 0.0046418952906867603 -0.00012450983469861684 0 0.0046536871143869115 -0.00013982598733729959 0 0.0051830502373910788 0.00082593231368201182 0 0.0053074148645963631 0.00014789004560606528 0 0.0056370584890108374 0.001452583515604748 0 0.0058588326612451476 0.0011680885607806407 0 0.0056763258648591334 0.0011121012966654031 0 0.0056370584890108374 0.001452583515604748 0 0.0056763258648591334 0.0011121012966654031 0 0.0055189720672359352 0.0012184316221988145 0 0.0051465738178952157 -0.00047615486734439114 0 0.0053074148645963631 0.00014789004560606528 0 0.0046514975001450271 -8.6542821164163535e-05 0 0.0047625993172952042 -8.9925931904671544e-05 0 0.0046764004691925154 2.9362585342784897e-05 0 0.0056507201852961878 -0.00075286938150726879 0 0.0056059895198727668 -0.00065865638935454088 0 0.0056568843234175671 -0.00056936507624152509 0 0.0056507201852961878 -0.00075286938150726879 0 0.0055812262438606581 -0.00070745111393943265 0 0.0056059895198727668 -0.00065865638935454088 0 0.0055708226673646648 -0.00069099107827260277 0 0.0055812262438606581 -0.00070745111393943265 0 0.0056059895198727668 -0.00065865638935454088 0 0.0055891481466713291 -0.00065150976376079212 0 0.0056059895198727668 -0.00065865638935454088 0 0.0056024200555452701 -0.00063486695322931502 0 0.0056059895198727668 -0.00065865638935454088 0 0.0056211093475596295 -0.0006024271467276282 0 0.0056568843234175671 -0.00056936507624152509 0 0.0056059895198727668 -0.00065865638935454088 0 0.0056024200555452701 -0.00063486695322931502 0 0.0056211093475596295 -0.0006024271467276282 0 0.0056003433675503823 -0.00061525390535333382 0 0.0056024200555452701 -0.00063486695322931502 0 0.0056211093475596295 -0.0006024271467276282 0 0.0055930623373071928 -0.00058497948902905446 0 0.0056095098473441362 -0.00059579364155109876 0 0.0056231546256852675 -0.00057772746473923374 0 0.0056211093475596295 -0.0006024271467276282 0 0.0056095098473441362 -0.00059579364155109876 0 0.0056231546256852675 -0.00057772746473923374 0 0.0056003433675503823 -0.00061525390535333382 0 0.0056211093475596295 -0.0006024271467276282 0 0.0056095098473441362 -0.00059579364155109876 0 0.0058588326612451476 0.0011680885607806407 0 0.0058428475192208217 0.0010442811736293028 0 0.0056763258648591334 0.0011121012966654031 0 0.0056269383225566452 -0.00034539250466170102 0 0.0056405055846980847 -0.00031031001537168212 0 0.0055641307133838585 -0.00026859968842088151 0 0.0053074148645963631 0.00014789004560606528 0 0.005642849482152176 0.000194837622122667 0 0.005589054858258018 -0.00054738259615785866 0 0.0056231546256852675 -0.00057772746473923374 0 0.0056484723488757849 -0.00056342220398208377 0 0.0054859103512130761 -0.00010209747418332474 0 0.0054416532630524317 -4.3534275856620031e-05 0 0.0055405068207507015 0.00021709644862801387 0 0.0056211093475596295 -0.0006024271467276282 0 0.0056231546256852675 -0.00057772746473923374 0 0.0056484723488757849 -0.00056342220398208377 0 0.0056211093475596295 -0.0006024271467276282 0 0.0056568843234175671 -0.00056936507624152509 0 0.0056484723488757849 -0.00056342220398208377 0 0.0053074148645963631 0.00014789004560606528 0 0.0055242652345087505 -0.00014503011208348392 0 0.0055242652345087505 -0.00014503011208348392 0 0.005642849482152176 0.000194837622122667 0 0.0056763258648591334 0.0011121012966654031 0 0.0055189720672359352 0.0012184316221988145 0 0.0055012446702905849 0.00082828638189950889 0 0.0058428475192208217 0.0010442811736293028 0 0.0056763258648591334 0.0011121012966654031 0 0.0056845498780881106 0.00092023466358493475 0 0.0056845498780881106 0.00092023466358493475 0 0.0057258811256097903 0.00071732025779633834 0 0.0055012446702905849 0.00082828638189950889 0 0.0056763258648591334 0.0011121012966654031 0 0.0056845498780881106 0.00092023466358493475 0 0.0055012446702905849 0.00082828638189950889 0 0.0058428475192208217 0.0010442811736293028 0 0.0056845498780881106 0.00092023466358493475 0 0.0057258811256097903 0.00071732025779633834 0 0.0056405055846980847 -0.00031031001537168212 0 0.0056175798653657046 -0.00026081784468727178 0 0.0056602619952206314 -0.0002307488404008023 0 0.005642849482152176 0.000194837622122667 0 0.0057294611864292869 0.00033652844266096913 0 0.0056575806877952875 -0.0002184835227549782 0 0.0056709215915511984 -0.00017247652398352724 0 0.0056929070405161881 -0.00014908814583085772 0 0.005642849482152176 0.000194837622122667 0 0.0056495960025231048 -0.00027054977132388191 0 0.0056405055846980847 -0.00031031001537168212 0 0.0056175798653657046 -0.00026081784468727178 0 0.0055641307133838585 -0.00026859968842088151 0 0.0056175798653657046 -0.00026081784468727178 0 0.0056063360487269591 -0.00021944968612247126 0 0.0055641307133838585 -0.00026859968842088151 0 0.0056063360487269591 -0.00021944968612247126 0 0.0056602619952206314 -0.0002307488404008023 0 0.0056251443931429699 -0.00016041856551688631 0 0.0056175798653657046 -0.00026081784468727178 0 0.0056063360487269591 -0.00021944968612247126 0 0.0056602619952206314 -0.0002307488404008023 0 0.0056602619952206314 -0.0002307488404008023 0 0.0056251443931429699 -0.00016041856551688631 0 0.0056700430040059818 -0.0001005392470613434 0 0.0056709215915511984 -0.00017247652398352724 0 0.0056700430040059818 -0.0001005392470613434 0 0.0056929070405161881 -0.00014908814583085772 0 0.0056495960025231048 -0.00027054977132388191 0 0.005675661449743752 -9.1289470053105176e-05 0 0.0056063360487269591 -0.00021944968612247126 0 0.0056251443931429699 -0.00016041856551688631 0 0.0055744463124890679 -0.00017432345766776536 0 0.0056251443931429699 -0.00016041856551688631 0 0.0056249576944743191 -7.5892567191871674e-05 0 0.0055744463124890679 -0.00017432345766776536 0 0.0056251443931429699 -0.00016041856551688631 0 0.0056700430040059818 -0.0001005392470613434 0 0.0056249576944743191 -7.5892567191871674e-05 0 0.0057258811256097903 0.00071732025779633834 0 0.0055012446702905849 0.00082828638189950889 0 0.0054960744018638357 0.00044922048468131631 0 0.0056700430040059818 -0.0001005392470613434 0 0.0056929070405161881 -0.00014908814583085772 0 0.0056779117197886886 -2.8302479530652241e-05 0 0.0057294611864292869 0.00033652844266096913 0 0.0056490024027738839 0.0001835771837875379 0 0.0056929070405161881 -0.00014908814583085772 0 0.0056779117197886886 -2.8302479530652241e-05 0 0.0057187309967749716 1.9617757786312255e-05 0 0.0057258811256097903 0.00071732025779633834 0 0.005605292040090643 0.00039611709986358125 0 0.0054960744018638357 0.00044922048468131631 0 0.0056779117197886886 -2.8302479530652241e-05 0 0.0057187309967749716 1.9617757786312255e-05 0 0.0056550649501491525 6.823593029209878e-05 0 0.0057187309967749716 1.9617757786312255e-05 0 0.0056489289118688635 0.00013448141973575512 0 0.005632802376585676 0.00018274084823180153 0 0.0055393628427601264 0.00020941988030038158 0 0.0056490024027738839 0.0001835771837875379 0 0.0056124301933114292 0.00023496235715640899 0 0.0057187309967749716 1.9617757786312255e-05 0 0.005632802376585676 0.00018274084823180153 0 0.0056550649501491525 6.823593029209878e-05 0 0.0056489289118688635 0.00013448141973575512 0 0.0056333707038511843 0.00015019827531280116 0 0.0057187309967749716 1.9617757786312255e-05 0 0.0056550649501491525 6.823593029209878e-05 0 0.0056489289118688635 0.00013448141973575512 0 0.0056288631685713249 0.00019575960836412643 0 0.0056489289118688635 0.00013448141973575512 0 0.0056333707038511843 0.00015019827531280116 0 0.0056288631685713249 0.00019575960836412643 0 0.0056489289118688635 0.00013448141973575512 0 0.005632802376585676 0.00018274084823180153 0 0.0056333707038511843 0.00015019827531280116 0 0.0056212085419788697 3.7514380971032574e-05 0 0.005579595065195158 0.00011107816922192728 0 0.0056550649501491525 6.823593029209878e-05 0 0.0056333707038511843 0.00015019827531280116 0 0.0056212085419788697 3.7514380971032574e-05 0 0.0056212085419788697 3.7514380971032574e-05 0 0.0056249576944743191 -7.5892567191871674e-05 0 0.0055687703819887347 -2.3582387048332968e-05 0 0.0056779117197886886 -2.8302479530652241e-05 0 0.0056550649501491525 6.823593029209878e-05 0 0.0056212085419788697 3.7514380971032574e-05 0 0.0056779117197886886 -2.8302479530652241e-05 0 0.0056212085419788697 3.7514380971032574e-05 0 0.0056249576944743191 -7.5892567191871674e-05 0 0.0056700430040059818 -0.0001005392470613434 0 0.0056779117197886886 -2.8302479530652241e-05 0 0.0056249576944743191 -7.5892567191871674e-05 0 0.0056249576944743191 -7.5892567191871674e-05 0 0.0055687703819887347 -2.3582387048332968e-05 0 0.0055744463124890679 -0.00017432345766776536 0 0.0055687703819887347 -2.3582387048332968e-05 0 0.005487224186632526 -9.4671085870430953e-05 0 0.0055744463124890679 -0.00017432345766776536 0 0.0055687703819887347 -2.3582387048332968e-05 0 0.0055023367592045057 9.8999148168604507e-05 0 0.005487224186632526 -9.4671085870430953e-05 0 0.0055687703819887347 -2.3582387048332968e-05 0 0.005579595065195158 0.00011107816922192728 0 0.0055023367592045057 9.8999148168604507e-05 0 0.0056212085419788697 3.7514380971032574e-05 0 0.0055687703819887347 -2.3582387048332968e-05 0 0.005579595065195158 0.00011107816922192728 0 0.0053829519732770887 0.00028962722449504916 0 0.0055023367592045057 9.8999148168604507e-05 0 0.0053888842478827968 4.4152658150352002e-06 0 0.0055023367592045057 9.8999148168604507e-05 0 0.005487224186632526 -9.4671085870430953e-05 0 0.0053888842478827968 4.4152658150352002e-06 0 0.005487224186632526 -9.4671085870430953e-05 0 0.0055040369948510066 -0.00023866935728156246 0 0.0053426653483699257 -0.00022668831955869389 0 0.005487224186632526 -9.4671085870430953e-05 0 0.0055040369948510066 -0.00023866935728156246 0 0.0055744463124890679 -0.00017432345766776536 0 0.0055040369948510066 -0.00023866935728156246 0 0.0055744463124890679 -0.00017432345766776536 0 0.0055641307133838585 -0.00026859968842088151 0 0.0056063360487269591 -0.00021944968612247126 0 0.0055744463124890679 -0.00017432345766776536 0 0.0055641307133838585 -0.00026859968842088151 0 0.0054918481636693894 -0.00022600572132555545 0 0.0056108158084180442 -0.00040612752012350909 0 0.0055274713710473438 -0.00051655286543794048 0 0.0055972926316909619 -0.00044500049665972564 0 0.0054786597925454393 -0.00041090200360719727 0 0.0055040369948510066 -0.00023866935728156246 0 0.0055972926316909619 -0.00044500049665972564 0 0.0054786597925454393 -0.00041090200360719727 0 0.0055040369948510066 -0.00023866935728156246 0 0.0054786597925454393 -0.00041090200360719727 0 0.0053789265721048947 -0.00037744908444236133 0 0.005438473767353868 -0.0005244024571889708 0 0.0054786597925454393 -0.00041090200360719727 0 0.0053789265721048947 -0.00037744908444236133 0 0.0052963628281293487 -0.00053187467760673721 0 0.005438473767353868 -0.0005244024571889708 0 0.0053789265721048947 -0.00037744908444236133 0 0.0051437019022136715 -0.00057553285895360477 0 0.0052963628281293487 -0.00053187467760673721 0 0.0052393916623888646 -0.00039622305166109453 0 0.0052963628281293487 -0.00053187467760673721 0 0.0053789265721048947 -0.00037744908444236133 0 0.0052393916623888646 -0.00039622305166109453 0 0.0052393916623888646 -0.00039622305166109453 0 0.0053426653483699257 -0.00022668831955869389 0 0.0051495213577018722 -0.00022634471961476718 0 0.0055040369948510066 -0.00023866935728156246 0 0.0053789265721048947 -0.00037744908444236133 0 0.0053426653483699257 -0.00022668831955869389 0 0.0053789265721048947 -0.00037744908444236133 0 0.0052393916623888646 -0.00039622305166109453 0 0.0053426653483699257 -0.00022668831955869389 0 0.0053426653483699257 -0.00022668831955869389 0 0.0053888842478827968 4.4152658150352002e-06 0 0.0052233895853313166 -1.7556419030100715e-06 0 0.005487224186632526 -9.4671085870430953e-05 0 0.0053426653483699257 -0.00022668831955869389 0 0.0053888842478827968 4.4152658150352002e-06 0 0.0053829519732770887 0.00028962722449504916 0 0.0053888842478827968 4.4152658150352002e-06 0 0.0052233895853313166 -1.7556419030100715e-06 0 0.0053426653483699257 -0.00022668831955869389 0 0.0052233895853313166 -1.7556419030100715e-06 0 0.0051495213577018722 -0.00022634471961476718 0 0.0049999505689725561 1.8987195569838122e-05 0 0.0052233895853313166 -1.7556419030100715e-06 0 0.0051495213577018722 -0.00022634471961476718 0 0.0049999505689725561 1.8987195569838122e-05 0 0.0051495213577018722 -0.00022634471961476718 0 0.0049999548436015246 -0.00026078247838134456 0 0.0051495213577018722 -0.00022634471961476718 0 0.0049999548436015246 -0.00026078247838134456 0 0.005122893595552706 -0.00040850364882483918 0 0.0049999548436015246 -0.00026078247838134456 0 0.005122893595552706 -0.00040850364882483918 0 0.0049999619257680775 -0.00054052905377570436 0 0.0052393916623888646 -0.00039622305166109453 0 0.0051495213577018722 -0.00022634471961476718 0 0.005122893595552706 -0.00040850364882483918 0 0.0051437019022136715 -0.00057553285895360477 0 0.0052393916623888646 -0.00039622305166109453 0 0.005122893595552706 -0.00040850364882483918 0 0.0051437019022136715 -0.00057553285895360477 0 0.005122893595552706 -0.00040850364882483918 0 0.0049999619257680775 -0.00054052905377570436 0 0.0041458873000193045 0.0015964155934951043 0 0.0045424435377830136 0.0012008653633925402 0 0.0038947721526566693 0.0013021820833979782 0 0.0041458873000193045 0.0015964155934951043 0 0.0045424435377830136 0.0012008653633925402 0 0.0045534614320269159 0.0016286632866631648 0 0.0045424435377830136 0.0012008653633925402 0 0.0038947721526566693 0.0013021820833979782 0 0.0040971689653717044 0.00091564044002442847 0 0.0038947721526566693 0.0013021820833979782 0 0.0040971689653717044 0.00091564044002442847 0 0.0037836482784802923 0.0010253132722600161 0 0.0038947721526566693 0.0013021820833979782 0 0.0035113326744794357 0.0011140859523482052 0 0.0037836482784802923 0.0010253132722600161 0 0.0035113326744794357 0.0011140859523482052 0 0.00352387133053603 0.0014093433628034847 0 0.0033318781960784863 0.0012908642786119287 0 0.0038947721526566693 0.0013021820833979782 0 0.0035113326744794357 0.0011140859523482052 0 0.00352387133053603 0.0014093433628034847 0 0.0035113326744794357 0.0011140859523482052 0 0.0032751390459521516 0.0011162622956838301 0 0.0033318781960784863 0.0012908642786119287 0 0.00352387133053603 0.0014093433628034847 0 0.0033318781960784863 0.0012908642786119287 0 0.0033118585233407457 0.00162117754332753 0 0.00352387133053603 0.0014093433628034847 0 0.003732383601049688 0.0016089494021135787 0 0.0033118585233407457 0.00162117754332753 0 0.0041458873000193045 0.0015964155934951043 0 0.0038947721526566693 0.0013021820833979782 0 0.003732383601049688 0.0016089494021135787 0 0.0038947721526566693 0.0013021820833979782 0 0.00352387133053603 0.0014093433628034847 0 0.003732383601049688 0.0016089494021135787 0 0.003732383601049688 0.0016089494021135787 0 0.0035864209687362274 0.0018224500473125707 0 0.0038914697946043331 0.0018981561916967672 0 0.0041458873000193045 0.0015964155934951043 0 0.003732383601049688 0.0016089494021135787 0 0.0038914697946043331 0.0018981561916967672 0 0.003732383601049688 0.0016089494021135787 0 0.0035864209687362274 0.0018224500473125707 0 0.0033118585233407457 0.00162117754332753 0 0.0035864209687362274 0.0018224500473125707 0 0.0033464522303936011 0.0018257627130142363 0 0.0033118585233407457 0.00162117754332753 0 0.0035864209687362274 0.0018224500473125707 0 0.0033464522303936011 0.0018257627130142363 0 0.0034295733561408265 0.0020140577088672068 0 0.0035864209687362274 0.0018224500473125707 0 0.0034295733561408265 0.0020140577088672068 0 0.0036795936781520025 0.0020128816420398299 0 0.0034295733561408265 0.0020140577088672068 0 0.003565223835158103 0.0021590537681682865 0 0.0036795936781520025 0.0020128816420398299 0 0.0034295733561408265 0.0020140577088672068 0 0.003565223835158103 0.0021590537681682865 0 0.003376162141247592 0.0021866967532494872 0 0.0034295733561408265 0.0020140577088672068 0 0.003376162141247592 0.0021866967532494872 0 0.0032290097508945528 0.0021033471976622952 0 0.003814714496155319 0.0022040995375440901 0 0.0038914697946043331 0.0018981561916967672 0 0.0036795936781520025 0.0020128816420398299 0 0.0041074480282364432 0.002161028626957948 0 0.003814714496155319 0.0022040995375440901 0 0.0038914697946043331 0.0018981561916967672 0 0.0035864209687362274 0.0018224500473125707 0 0.0038914697946043331 0.0018981561916967672 0 0.0036795936781520025 0.0020128816420398299 0 0.003814714496155319 0.0022040995375440901 0 0.003565223835158103 0.0021590537681682865 0 0.0036795936781520025 0.0020128816420398299 0 0.0041074480282364432 0.002161028626957948 0 0.0042800963021693318 0.0018764545910534359 0 0.0043855461400468098 0.0021065637534441886 0 0.0041074480282364432 0.002161028626957948 0 0.0038914697946043331 0.0018981561916967672 0 0.0042800963021693318 0.0018764545910534359 0 0.0041458873000193045 0.0015964155934951043 0 0.0038914697946043331 0.0018981561916967672 0 0.0042800963021693318 0.0018764545910534359 0 0.0045534614320269159 0.0016286632866631648 0 0.0042800963021693318 0.0018764545910534359 0 0.0045497824663706813 0.001916354322659341 0 0.0041458873000193045 0.0015964155934951043 0 0.0045534614320269159 0.0016286632866631648 0 0.0042800963021693318 0.0018764545910534359 0 0.0042800963021693318 0.0018764545910534359 0 0.0043855461400468098 0.0021065637534441886 0 0.0045497824663706813 0.001916354322659341 0 0.0043855461400468098 0.0021065637534441886 0 0.0045497824663706813 0.001916354322659341 0 0.0046666499255215883 0.0020959635851903048 0 0.0045497824663706813 0.001916354322659341 0 0.0046666499255215883 0.0020959635851903048 0 0.0048470743063602356 0.0018762186797801185 0 0.004970673356624487 0.0021460455310006927 0 0.0046666499255215883 0.0020959635851903048 0 0.0048470743063602356 0.0018762186797801185 0 0.004971477904585268 0.0020472378931562286 0 0.0048470743063602356 0.0018762186797801185 0 0.0051018177356922908 0.0017985505693669365 0 0.0051015425400980623 0.0023370469096262499 0 0.0048127489825943101 0.0018141382695381018 0 0.0048470743063602356 0.0018762186797801185 0 0.0049440200161733989 0.0016336444463113692 0 0.0051018177356922908 0.0017985505693669365 0 0.0045534614320269159 0.0016286632866631648 0 0.0048470743063602356 0.0018762186797801185 0 0.0049440200161733989 0.0016336444463113692 0 0.0045534614320269159 0.0016286632866631648 0 0.0045497824663706813 0.001916354322659341 0 0.0048470743063602356 0.0018762186797801185 0 0.0051830502373910788 0.00082593231368201182 0 0.004960149273828058 0.00096221358962976066 0 0.0053020784779669585 0.0019516002674252189 0 0.0051018177356922908 0.0017985505693669365 0 0.0053077204354181175 0.0017278906092527235 0 0.0046255762053639621 -8.6491954185905198e-05 0 0.0046396078875050239 -0.00011487246564914122 0 0.0046064338859076329 -0.00011145761349392274 0 0.004971477904585268 0.0020472378931562286 0 0.0053020784779669585 0.0019516002674252189 0 0.0051018177356922908 0.0017985505693669365 0 0.0051018177356922908 0.0017985505693669365 0 0.0053077204354181175 0.0017278906092527235 0 0.0052087740334906003 0.0015389996442910421 0 0.0049440200161733989 0.0016336444463113692 0 0.0051018177356922908 0.0017985505693669365 0 0.0052087740334906003 0.0015389996442910421 0 0.0051830502373910788 0.00082593231368201182 0 0.0053791238269366463 0.0015543180899180696 0 0.0055257377512286081 0.0016578711542056953 0 0.0053020784779669585 0.0019516002674252189 0 0.0053077204354181175 0.0017278906092527235 0 0.0055257377512286081 0.0016578711542056953 0 0.0053077204354181175 0.0017278906092527235 0 0.0052087740334906003 0.0015389996442910421 0 0.0056370584890108374 0.001452583515604748 0 0.0055189720672359352 0.0012184316221988145 0 0.0053328642141356733 0.0013463698919481996 0 0.0055189720672359352 0.0012184316221988145 0 0.0053328642141356733 0.0013463698919481996 0 0.0053044955289877731 0.0010726009727783602 0 0.0053328642141356733 0.0013463698919481996 0 0.0053044955289877731 0.0010726009727783602 0 0.0050231163784015005 0.0012803375304303016 0 0.0053791238269366463 0.0015543180899180696 0 0.0049086943668905239 0.0013102437957969325 0 0.0055189720672359352 0.0012184316221988145 0 0.0053044955289877731 0.0010726009727783602 0 0.0055056701637029295 0.00090047363140205862 0 0.0055171754373254753 0.0011989744866261439 0 0.0055038044711251764 0.00086976927040270972 0 0.0045534614320269159 0.0016286632866631648 0 0.0049440200161733989 0.0016336444463113692 0 0.0048757219401294721 0.0013856143913368642 0 0.0045424435377830136 0.0012008653633925402 0 0.0045534614320269159 0.0016286632866631648 0 0.0048757219401294721 0.0013856143913368642 0 0.0049440200161733989 0.0016336444463113692 0 0.0052087740334906003 0.0015389996442910421 0 0.0048757219401294721 0.0013856143913368642 0 0.0053044955289877731 0.0010726009727783602 0 0.0050231163784015005 0.0012803375304303016 0 0.005119373885258534 0.00092271402523517803 0 0.0050231163784015005 0.0012803375304303016 0 0.0048524446420190898 0.00094892454884290035 0 0.005119373885258534 0.00092271402523517803 0 0.0045424435377830136 0.0012008653633925402 0 0.0050231163784015005 0.0012803375304303016 0 0.0048524446420190898 0.00094892454884290035 0 0.0045719423237871384 0.0012101936819528993 0 0.0049086943668905239 0.0013102437957969325 0 0.0048524446420190898 0.00094892454884290035 0 0.005119373885258534 0.00092271402523517803 0 0.0049427651485276364 0.00066954810787310558 0 0.0049427651485276364 0.00066954810787310558 0 0.0052552890414574102 0.00074592510158208989 0 0.0051424253318397813 0.00061387982696703316 0 0.005119373885258534 0.00092271402523517803 0 0.0049427651485276364 0.00066954810787310558 0 0.0052552890414574102 0.00074592510158208989 0 0.0048524446420190898 0.00094892454884290035 0 0.0049427651485276364 0.00066954810787310558 0 0.0045709721520129512 0.00065988259743487629 0 0.0053044955289877731 0.0010726009727783602 0 0.0055056701637029295 0.00090047363140205862 0 0.0053323193305494197 0.0008840893738382452 0 0.0055056701637029295 0.00090047363140205862 0 0.0053323193305494197 0.0008840893738382452 0 0.0054065924728303868 0.00076285712337992512 0 0.0053044955289877731 0.0010726009727783602 0 0.005119373885258534 0.00092271402523517803 0 0.0053323193305494197 0.0008840893738382452 0 0.005119373885258534 0.00092271402523517803 0 0.0053323193305494197 0.0008840893738382452 0 0.0052552890414574102 0.00074592510158208989 0 0.0052552890414574102 0.00074592510158208989 0 0.0054065924728303868 0.00076285712337992512 0 0.005376398472982929 0.0006654121510488105 0 0.0053323193305494197 0.0008840893738382452 0 0.0052552890414574102 0.00074592510158208989 0 0.0054065924728303868 0.00076285712337992512 0 0.0055038044711251764 0.00086976927040270972 0 0.0054902039942107744 0.00053757147716353073 0 0.0055056701637029295 0.00090047363140205862 0 0.0054065924728303868 0.00076285712337992512 0 0.0054835656260053232 0.00062623494327134052 0 0.0054065924728303868 0.00076285712337992512 0 0.0054835656260053232 0.00062623494327134052 0 0.005376398472982929 0.0006654121510488105 0 0.0054835656260053232 0.00062623494327134052 0 0.0054231206714250146 0.00051892105397223379 0 0.0054627301012469369 0.000450570931709296 0 0.0054835656260053232 0.00062623494327134052 0 0.005376398472982929 0.0006654121510488105 0 0.0053883779081148799 0.00058570295766630824 0 0.0053883779081148799 0.00058570295766630824 0 0.0053375280157358087 0.00051334808525300632 0 0.0054231206714250146 0.00051892105397223379 0 0.0054835656260053232 0.00062623494327134052 0 0.0053883779081148799 0.00058570295766630824 0 0.0054231206714250146 0.00051892105397223379 0 0.0052552890414574102 0.00074592510158208989 0 0.0052879006392778189 0.0006037940201873448 0 0.0051424253318397813 0.00061387982696703316 0 0.0052552890414574102 0.00074592510158208989 0 0.005376398472982929 0.0006654121510488105 0 0.0052879006392778189 0.0006037940201873448 0 0.0053883779081148799 0.00058570295766630824 0 0.0052879006392778189 0.0006037940201873448 0 0.0053375280157358087 0.00051334808525300632 0 0.005376398472982929 0.0006654121510488105 0 0.0053883779081148799 0.00058570295766630824 0 0.0052879006392778189 0.0006037940201873448 0 0.0052879006392778189 0.0006037940201873448 0 0.0053375280157358087 0.00051334808525300632 0 0.00519052557325463 0.00051760537572598632 0 0.0052879006392778189 0.0006037940201873448 0 0.0051424253318397813 0.00061387982696703316 0 0.00519052557325463 0.00051760537572598632 0 0.0051763896516583132 0.0004231396770942162 0 0.0053219234010529037 0.00041000929521182371 0 0.00519052557325463 0.00051760537572598632 0 0.0053219234010529037 0.00041000929521182371 0 0.0053375280157358087 0.00051334808525300632 0 0.0053976591223310931 0.00045072672604432246 0 0.0053219234010529037 0.00041000929521182371 0 0.0053375280157358087 0.00051334808525300632 0 0.00519052557325463 0.00051760537572598632 0 0.0054920707202084943 8.7478624973771836e-05 0 0.005605292040090643 0.00039611709986358125 0 0.0054960744018638357 0.00044922048468131631 0 0.0055401346884270493 0.00035174309199486849 0 0.0054835656260053232 0.00062623494327134052 0 0.0054627301012469369 0.000450570931709296 0 0.0055393628427601264 0.00020941988030038158 0 0.0054902039942107744 0.00053757147716353073 0 0.0054231206714250146 0.00051892105397223379 0 0.0053976591223310931 0.00045072672604432246 0 0.0054627301012469369 0.000450570931709296 0 0.0053375280157358087 0.00051334808525300632 0 0.0054231206714250146 0.00051892105397223379 0 0.0053976591223310931 0.00045072672604432246 0 0.005432097374847753 0.00037498707979581987 0 0.0053219234010529037 0.00041000929521182371 0 0.0053976591223310931 0.00045072672604432246 0 0.005432097374847753 0.00037498707979581987 0 0.0054627301012469369 0.000450570931709296 0 0.005485304058311608 0.00038061190045860367 0 0.005432097374847753 0.00037498707979581987 0 0.0053976591223310931 0.00045072672604432246 0 0.0054627301012469369 0.000450570931709296 0 0.0055401346884270493 0.00035174309199486849 0 0.0054627301012469369 0.000450570931709296 0 0.005485304058311608 0.00038061190045860367 0 0.0049427651485276364 0.00066954810787310558 0 0.0050528269426538654 0.00056511629660453027 0 0.0050205512431419274 0.00054467085279711832 0 0.0049454467765421778 0.00066196399040544169 0 0.00484375995894612 0.00050515823516000455 0 0.0050528269426538654 0.00056511629660453027 0 0.0051424253318397813 0.00061387982696703316 0 0.00519052557325463 0.00051760537572598632 0 0.0049427651485276364 0.00066954810787310558 0 0.0050528269426538654 0.00056511629660453027 0 0.0051424253318397813 0.00061387982696703316 0 0.0050528269426538654 0.00056511629660453027 0 0.00519052557325463 0.00051760537572598632 0 0.0050656625667044024 0.00050555527351072989 0 0.0051763896516583132 0.0004231396770942162 0 0.00519052557325463 0.00051760537572598632 0 0.0050656625667044024 0.00050555527351072989 0 0.0050552230227830569 0.00054769385375235844 0 0.0050656625667044024 0.00050555527351072989 0 0.0050205512431419274 0.00054467085279711832 0 0.0050528269426538654 0.00056511629660453027 0 0.0050656625667044024 0.00050555527351072989 0 0.0050205512431419274 0.00054467085279711832 0 0.0050552230227830569 0.00054769385375235844 0 0.0051136093510207141 0.00060064808319088784 0 0.0050205512431419274 0.00054467085279711832 0 0.0044366143078669847 0.00035286055291263926 0 0.0043711973436810015 0.0001759247894527781 0 0.0047530433790452381 0.00055703066682842963 0 0.0046635640438299087 0.00044143084119102101 0 0.0046479423643963737 0.00043587465612951871 0 0.0047530433790452381 0.00055703066682842963 0 0.0046635640438299087 0.00044143084119102101 0 0.0048849436744645269 0.00050692651163060343 0 0.0049301528874597144 0.00057550708314049303 0 0.00484375995894612 0.00050515823516000455 0 0.0046635640438299087 0.00044143084119102101 0 0.0046479423643963737 0.00043587465612951871 0 0.0045709721520129512 0.00065988259743487629 0 0.0049427651485276364 0.00066954810787310558 0 0.0046479423643963737 0.00043587465612951871 0 0.0045709721520129512 0.00065988259743487629 0 0.0041898048599320952 0.00022220471164203264 0 0.0042031971856902163 0.00060422465403695176 0 0.0039207743344048035 0.00051645019062911319 0 0.0045709721520129512 0.00065988259743487629 0 0.0042031971856902163 0.00060422465403695176 0 0.0040971689653717044 0.00091564044002442847 0 0.0042031971856902163 0.00060422465403695176 0 0.0040971689653717044 0.00091564044002442847 0 0.0039207743344048035 0.00051645019062911319 0 0.0041898048599320952 0.00022220471164203264 0 0.0045709721520129512 0.00065988259743487629 0 0.0042031971856902163 0.00060422465403695176 0 0.0044366143078669847 0.00035286055291263926 0 0.0045777927991030925 0.00063889038330691684 0 0.0045424435377830136 0.0012008653633925402 0 0.0045709721520129512 0.00065988259743487629 0 0.0040971689653717044 0.00091564044002442847 0 0.0045424435377830136 0.0012008653633925402 0 0.0048524446420190898 0.00094892454884290035 0 0.0045709721520129512 0.00065988259743487629 0 0.0035113326744794357 0.0011140859523482052 0 0.0036241500968909814 0.00075512472713964291 0 0.0037836482784802923 0.0010253132722600161 0 0.0035113326744794357 0.0011140859523482052 0 0.0036241500968909814 0.00075512472713964291 0 0.0032290415403848772 0.00087213106706737135 0 0.0040971689653717044 0.00091564044002442847 0 0.0036241500968909814 0.00075512472713964291 0 0.0037836482784802923 0.0010253132722600161 0 0.0040971689653717044 0.00091564044002442847 0 0.0036241500968909814 0.00075512472713964291 0 0.0039207743344048035 0.00051645019062911319 0 0.0036241500968909814 0.00075512472713964291 0 0.0039207743344048035 0.00051645019062911319 0 0.0035892242937698095 0.00051577226012307885 0 0.0039207743344048035 0.00051645019062911319 0 0.0035892242937698095 0.00051577226012307885 0 0.0036560510588321631 0.00027724867667398346 0 0.0035892242937698095 0.00051577226012307885 0 0.0036560510588321631 0.00027724867667398346 0 0.0033378118509282827 0.00050395735426619816 0 0.0036241500968909814 0.00075512472713964291 0 0.0033378118509282827 0.00050395735426619816 0 0.0032290415403848772 0.00087213106706737135 0 0.0036241500968909814 0.00075512472713964291 0 0.0035892242937698095 0.00051577226012307885 0 0.0033378118509282827 0.00050395735426619816 0 0.0036560510588321631 0.00027724867667398346 0 0.0034163933067756277 0.0001113258532543985 0 0.0033378118509282827 0.00050395735426619816 0 0.0036560510588321631 0.00027724867667398346 0 0.0034163933067756277 0.0001113258532543985 0 0.0036525935622307255 1.2416041939303207e-05 0 0.0039207743344048035 0.00051645019062911319 0 0.0036560510588321631 0.00027724867667398346 0 0.0038705762810478999 0.00015578439789721191 0 0.0041898048599320952 0.00022220471164203264 0 0.0039207743344048035 0.00051645019062911319 0 0.0038705762810478999 0.00015578439789721191 0 0.0036560510588321631 0.00027724867667398346 0 0.0038705762810478999 0.00015578439789721191 0 0.0036525935622307255 1.2416041939303207e-05 0 0.0041898048599320952 0.00022220471164203264 0 0.0038705762810478999 0.00015578439789721191 0 0.0038580656999986467 -0.00015979607364482166 0 0.0038705762810478999 0.00015578439789721191 0 0.0038580656999986467 -0.00015979607364482166 0 0.0036525935622307255 1.2416041939303207e-05 0 0.0038580656999986467 -0.00015979607364482166 0 0.0036525935622307255 1.2416041939303207e-05 0 0.0034925476577047942 -0.00020034960899975113 0 0.0034163933067756277 0.0001113258532543985 0 0.0034925476577047942 -0.00020034960899975113 0 0.0032457855125525427 -0.00011304335914525396 0 0.0034163933067756277 0.0001113258532543985 0 0.0036525935622307255 1.2416041939303207e-05 0 0.0034925476577047942 -0.00020034960899975113 0 0.003335610281882589 -0.00034698928556238171 0 0.0034925476577047942 -0.00020034960899975113 0 0.0032457855125525427 -0.00011304335914525396 0 0.0032457855125525427 -0.00011304335914525396 0 0.0029132805441790337 -0.00020704572479012735 0 0.003112542023367402 0.00018945159511082397 0 0.0034163933067756277 0.0001113258532543985 0 0.0032457855125525427 -0.00011304335914525396 0 0.003112542023367402 0.00018945159511082397 0 0.003140186112558349 -0.00033578852283892683 0 0.0032457855125525427 -0.00011304335914525396 0 0.0029132805441790337 -0.00020704572479012735 0 0.0029132805441790337 -0.00020704572479012735 0 0.0027392990347605136 3.4988593331289216e-05 0 0.003112542023367402 0.00018945159511082397 0 0.0026647319930278792 -0.00035459045179481782 0 0.0029132805441790337 -0.00020704572479012735 0 0.0027392990347605136 3.4988593331289216e-05 0 0.002840482392167921 0.00040008010709326896 0 0.003112542023367402 0.00018945159511082397 0 0.0030597366600903053 0.00058644634967900235 0 0.0027392990347605136 3.4988593331289216e-05 0 0.002840482392167921 0.00040008010709326896 0 0.003112542023367402 0.00018945159511082397 0 0.0034163933067756277 0.0001113258532543985 0 0.003112542023367402 0.00018945159511082397 0 0.0033378118509282827 0.00050395735426619816 0 0.0020600583569297904 -0.00011493096975274586 0 0.0020650878933700747 0.00013610863033405228 0 0.0018254367172436284 -6.8228131171632975e-05 0 0.0021659095375073387 -0.00030804905399069274 0 0.0020600583569297904 -0.00011493096975274586 0 0.0023549553277181431 -0.00010587117695809145 0 0.0020600583569297904 -0.00011493096975274586 0 0.0023549553277181431 -0.00010587117695809145 0 0.0020650878933700747 0.00013610863033405228 0 0.0027392990347605136 3.4988593331289216e-05 0 0.0023549553277181431 -0.00010587117695809145 0 0.0024096516284341247 0.0003206147031661574 0 0.0026647319930278792 -0.00035459045179481782 0 0.0027392990347605136 3.4988593331289216e-05 0 0.0023549553277181431 -0.00010587117695809145 0 0.0027392990347605136 3.4988593331289216e-05 0 0.002840482392167921 0.00040008010709326896 0 0.0024096516284341247 0.0003206147031661574 0 0.0023549553277181431 -0.00010587117695809145 0 0.0024096516284341247 0.0003206147031661574 0 0.0020650878933700747 0.00013610863033405228 0 0.0024096516284341247 0.0003206147031661574 0 0.0020752148102805212 0.00045824182250385443 0 0.0020650878933700747 0.00013610863033405228 0 0.0020752148102805212 0.00045824182250385443 0 0.0020650878933700747 0.00013610863033405228 0 0.0017323965694295185 0.00047034258319205726 0 0.0024096516284341247 0.0003206147031661574 0 0.0020752148102805212 0.00045824182250385443 0 0.0020824395270003277 0.00090241174115786044 0 0.0020752148102805212 0.00045824182250385443 0 0.0020824395270003277 0.00090241174115786044 0 0.0017323965694295185 0.00047034258319205726 0 0.0024096516284341247 0.0003206147031661574 0 0.0020824395270003277 0.00090241174115786044 0 0.0027219350726074227 0.00087760624695007526 0 0.002840482392167921 0.00040008010709326896 0 0.0024096516284341247 0.0003206147031661574 0 0.0027510500268301021 0.00077618385520622393 0 0.0024281194552540973 0.00034573820128135096 0 0.0027289743893837534 0.00081482067477068188 0 0.0027219350726074227 0.00087760624695007526 0 0.0027014606339164277 0.0013048483169729491 0 0.0023636684688982724 0.0012422463493896878 0 0.0020824395270003277 0.00090241174115786044 0 0.0027219350726074227 0.00087760624695007526 0 0.0023636684688982724 0.0012422463493896878 0 0.003112542023367402 0.00018945159511082397 0 0.0030597366600903053 0.00058644634967900235 0 0.0033378118509282827 0.00050395735426619816 0 0.0030597366600903053 0.00058644634967900235 0 0.0033378118509282827 0.00050395735426619816 0 0.0032290415403848772 0.00087213106706737135 0 0.002840482392167921 0.00040008010709326896 0 0.0030597366600903053 0.00058644634967900235 0 0.0027510500268301021 0.00077618385520622393 0 0.0027510500268301021 0.00077618385520622393 0 0.0032290415403848772 0.00087213106706737135 0 0.0030609808966272044 0.0012092036880519334 0 0.0027289743893837534 0.00081482067477068188 0 0.0030325151975355898 0.0012602430178402452 0 0.0030597366600903053 0.00058644634967900235 0 0.0027510500268301021 0.00077618385520622393 0 0.0032290415403848772 0.00087213106706737135 0 0.0035113326744794357 0.0011140859523482052 0 0.0032290415403848772 0.00087213106706737135 0 0.0032751390459521516 0.0011162622956838301 0 0.0032290415403848772 0.00087213106706737135 0 0.0032751390459521516 0.0011162622956838301 0 0.0030609808966272044 0.0012092036880519334 0 0.0032751390459521516 0.0011162622956838301 0 0.0030609808966272044 0.0012092036880519334 0 0.0033318781960784863 0.0012908642786119287 0 0.0030325151975355898 0.0012602430178402452 0 0.0032928442728363573 0.0016100558214633483 0 0.0029472629635898208 0.0014870847551045274 0 0.0033118585233407457 0.00162117754332753 0 0.0030515461335084326 0.001728427137764096 0 0.0029884667540895395 0.0013011353712646338 0 0.0029472629635898208 0.0014870847551045274 0 0.0033118585233407457 0.00162117754332753 0 0.0030609808966272044 0.0012092036880519334 0 0.0033318781960784863 0.0012908642786119287 0 0.0033118585233407457 0.00162117754332753 0 0.0029472629635898208 0.0014870847551045274 0 0.0027014606339164277 0.0013048483169729491 0 0.0024159085078201588 0.0016049331327049523 0 0.0029472629635898208 0.0014870847551045274 0 0.0024503270406602551 0.0012909948461599806 0 0.0027212309268382336 0.0016598421347175203 0 0.0028946005221234749 0.0014859824124319407 0 0.0024276654557419046 0.0014471901798832844 0 0.0029472629635898208 0.0014870847551045274 0 0.0030515461335084326 0.001728427137764096 0 0.0027212309268382336 0.0016598421347175203 0 0.0027219350726074227 0.00087760624695007526 0 0.0029884667540895395 0.0013011353712646338 0 0.0027014606339164277 0.0013048483169729491 0 0.0029884667540895395 0.0013011353712646338 0 0.0029472629635898208 0.0014870847551045274 0 0.0027014606339164277 0.0013048483169729491 0 0.0027014606339164277 0.0013048483169729491 0 0.0023636684688982724 0.0012422463493896878 0 0.0024159085078201588 0.0016049331327049523 0 0.0020824395270003277 0.00090241174115786044 0 0.0023636684688982724 0.0012422463493896878 0 0.0017963689794393133 0.0016366334880291847 0 0.0023636684688982724 0.0012422463493896878 0 0.0024159085078201588 0.0016049331327049523 0 0.0017963689794393133 0.0016366334880291847 0 0.0024503270406602551 0.0012909948461599806 0 0.0023653177070641963 0.0017169354251335457 0 0.0019526148307514317 0.0016507971981570696 0 0.0024276654557419046 0.0014471901798832844 0 0.0018156463870754242 0.0013945667459387258 0 0.0024503270406602551 0.0012909948461599806 0 0.0019526148307514317 0.0016507971981570696 0 0.0018727631475389478 0.0011631546449333292 0 0.0024503270406602551 0.0012909948461599806 0 0.0023653177070641963 0.0017169354251335457 0 0.0027212309268382336 0.0016598421347175203 0 0.0023653177070641963 0.0017169354251335457 0 0.0025380550608225848 0.001931552964558367 0 0.0027212309268382336 0.0016598421347175203 0 0.0023653177070641963 0.0017169354251335457 0 0.0022082808863122345 0.0019427858137495988 0 0.0025380550608225848 0.001931552964558367 0 0.0023653177070641963 0.0017169354251335457 0 0.0022082808863122345 0.0019427858137495988 0 0.0019526148307514317 0.0016507971981570696 0 0.0014340701808407642 0.00046192059874934627 0 0.0017679257231639634 0.0005563931241948061 0 0.0022082808863122345 0.0019427858137495988 0 0.0017789736431663005 0.0021560542276050825 0 0.0019526148307514317 0.0016507971981570696 0 0.0022082808863122345 0.0019427858137495988 0 0.0017789736431663005 0.0021560542276050825 0 0.0023863455755930756 0.0022542038805375814 0 0.0025380550608225848 0.001931552964558367 0 0.0027480402707689721 0.002089698307433992 0 0.0023863455755930756 0.0022542038805375814 0 0.0022082808863122345 0.0019427858137495988 0 0.0025380550608225848 0.001931552964558367 0 0.0023863455755930756 0.0022542038805375814 0 0.0027480402707689721 0.002089698307433992 0 0.0029480634490437327 0.0023264680741558177 0 0.0023863455755930756 0.0022542038805375814 0 0.0025380550608225848 0.001931552964558367 0 0.0027480402707689721 0.002089698307433992 0 0.0028512023284102011 0.0018681461835808831 0 0.0029925194822826998 0.002092345794768944 0 0.0031414791736048791 0.0019312444258384324 0 0.0028512023284102011 0.0018681461835808831 0 0.0027480402707689721 0.002089698307433992 0 0.0029925194822826998 0.002092345794768944 0 0.0028512023284102011 0.0018681461835808831 0 0.0027480402707689721 0.002089698307433992 0 0.0029925194822826998 0.002092345794768944 0 0.0029480634490437327 0.0023264680741558177 0 0.0029925194822826998 0.002092345794768944 0 0.0032290097508945528 0.0021033471976622952 0 0.0031239726854684199 0.0022417033819768406 0 0.003376162141247592 0.0021866967532494872 0 0.0032290097508945528 0.0021033471976622952 0 0.0031239726854684199 0.0022417033819768406 0 0.0034295733561408265 0.0020140577088672068 0 0.0032290097508945528 0.0021033471976622952 0 0.0031414791736048791 0.0019312444258384324 0 0.0033464522303936011 0.0018257627130142363 0 0.0034295733561408265 0.0020140577088672068 0 0.0031414791736048791 0.0019312444258384324 0 0.0029925194822826998 0.002092345794768944 0 0.0032290097508945528 0.0021033471976622952 0 0.0031414791736048791 0.0019312444258384324 0 0.0031414791736048791 0.0019312444258384324 0 0.0030515461335084326 0.001728427137764096 0 0.0028512023284102011 0.0018681461835808831 0 0.0033464522303936011 0.0018257627130142363 0 0.0031414791736048791 0.0019312444258384324 0 0.0030515461335084326 0.001728427137764096 0 0.0033464522303936011 0.0018257627130142363 0 0.0033118585233407457 0.00162117754332753 0 0.0030515461335084326 0.001728427137764096 0 0.0030515461335084326 0.001728427137764096 0 0.0027212309268382336 0.0016598421347175203 0 0.0028512023284102011 0.0018681461835808831 0 0.0025380550608225848 0.001931552964558367 0 0.0027212309268382336 0.0016598421347175203 0 0.0028512023284102011 0.0018681461835808831 0 0.00065077056813743581 0.0016644487072632931 0 0.0012065547661091836 0.0018963388022144394 0 0.00079909743430780058 0.0011350027758179637 0 0.0012065547661091836 0.0018963388022144394 0 0.0012771149634927274 0.0015726116080971686 0 0.0009850419929852076 0.001459186365042602 0 0.0011842274994387592 0.0018552813957728501 0 0.00090316947377830229 0.0012908503996178729 0 0.00065077056813743581 0.0016644487072632931 0 0.00079909743430780058 0.0011350027758179637 0 0.00016488329388300997 0.0011424073293421579 0 0.00065077056813743581 0.0016644487072632931 0 0.00012500402037236613 0.0018149816689570499 0 0.00016488329388300997 0.0011424073293421579 0 0.00093787255260618821 -0.0012025999072394393 0 0.00096413575691580258 -0.0011891055400872427 0 0.00094271921932840804 -0.0011775094033440964 0 0.00050065662371825341 0.00034690027666868875 0 0.0010431427921551223 0.00040558720290066584 0 0.00093787255260618821 -0.0012025999072394393 0 0.00098721538437215634 -0.0012103551916501445 0 0.00096413575691580258 -0.0011891055400872427 0 0.00065077056813743581 0.0016644487072632931 0 0.00012500402037236613 0.0018149816689570499 0 0.0010921231756706 0.0020351146526242001 0 0.00065077056813743581 0.0016644487072632931 0 0.0010921231756706 0.0020351146526242001 0 0.0012065547661091836 0.0018963388022144394 0 0.00098721538437215634 -0.0012103551916501445 0 0.0010114619140908976 -0.0011982105501618147 0 0.00098358400932499219 -0.0011876041111009393 0 0.00098721538437215634 -0.0012103551916501445 0 0.00098358400932499219 -0.0011876041111009393 0 0.00096413575691580258 -0.0011891055400872427 0 0.0010431427921551223 0.00040558720290066584 0 0.0014340701808407642 0.00046192059874934627 0 0.00098721538437215634 -0.0012103551916501445 0 0.0010727318802927113 -0.0012253777372843626 0 0.0010114619140908976 -0.0011982105501618147 0 0.0012065547661091836 0.0018963388022144394 0 0.0017789736431663005 0.0021560542276050825 0 0.0015493295270661161 0.0017543363621770188 0 0.0010921231756706 0.0020351146526242001 0 0.0012065547661091836 0.0018963388022144394 0 0.0017789736431663005 0.0021560542276050825 0 0.0019526148307514317 0.0016507971981570696 0 0.0015493295270661161 0.0017543363621770188 0 0.0015838747683820686 0.0014708820437729481 0 0.0017789736431663005 0.0021560542276050825 0 0.0019526148307514317 0.0016507971981570696 0 0.0015493295270661161 0.0017543363621770188 0 0.0012065547661091836 0.0018963388022144394 0 0.0015493295270661161 0.0017543363621770188 0 0.0012771149634927274 0.0015726116080971686 0 0.0015493295270661161 0.0017543363621770188 0 0.0012771149634927274 0.0015726116080971686 0 0.0015838747683820686 0.0014708820437729481 0 0.0012771149634927274 0.0015726116080971686 0 0.0015838747683820686 0.0014708820437729481 0 0.0012945719543201158 0.0010750480073165073 0 0.0019526148307514317 0.0016507971981570696 0 0.0015838747683820686 0.0014708820437729481 0 0.0018727631475389478 0.0011631546449333292 0 0.0015838747683820686 0.0014708820437729481 0 0.0018727631475389478 0.0011631546449333292 0 0.0012945719543201158 0.0010750480073165073 0 0.0020824395270003277 0.00090241174115786044 0 0.0017963689794393133 0.0016366334880291847 0 0.0015187939999585242 0.0012301349912562647 0 0.0018156463870754242 0.0013945667459387258 0 0.0012583453536003607 0.0013890920034969933 0 0.0017963689794393133 0.0016366334880291847 0 0.0011277621929885312 0.0016261315947533196 0 0.0015187939999585242 0.0012301349912562647 0 0.0011277621929885312 0.0016261315947533196 0 0.0015187939999585242 0.0012301349912562647 0 0.0011721371393406447 0.0010840840131464749 0 0.0011277621929885312 0.0016261315947533196 0 0.00046356652880065523 0.0015594071513310884 0 0.00079519636831151537 0.0010962448391377674 0 0.0012583453536003607 0.0013890920034969933 0 0.00039415284486158552 0.00089040781544320131 0 0.0012945719543201158 0.0010750480073165073 0 0.0009850419929852076 0.001459186365042602 0 0.00073314428410767827 0.00099964596030183454 0 0.00090316947377830229 0.0012908503996178729 0 0.00039415284486158552 0.00089040781544320131 0 0.0012771149634927274 0.0015726116080971686 0 0.0012945719543201158 0.0010750480073165073 0 0.0009850419929852076 0.001459186365042602 0 0.00079909743430780058 0.0011350027758179637 0 0.00016488329388300997 0.0011424073293421579 0 0.00038210148091082064 0.0004633470792533417 0 0.00016488329388300997 0.0011424073293421579 0 0.00038210148091082064 0.0004633470792533417 0 -0.00014047863070870071 0.00078874488112784167 0 0.00039415284486158552 0.00089040781544320131 0 -0.00039551313500995982 0.00039510987784648955 0 0.00046356652880065523 0.0015594071513310884 0 0.0004832935272607015 0.00094760733229528812 0 9.9072869975414126e-05 0.00091533772524498701 0 -0.0001389990976447061 0.00047619387392993441 0 -0.00034460641583109565 0.00021482630656000396 0 -0.00032718840754156697 0.00044790798855117917 0 0.00039415284486158552 0.00089040781544320131 0 -0.00015716021267878471 0.00059650071999035252 0 0.00079519636831151537 0.0010962448391377674 0 0.00086331881676070547 0.00060869729962109568 0 0.0011721371393406447 0.0010840840131464749 0 0.00046356652880065523 0.0015594071513310884 0 0.0004832935272607015 0.00094760733229528812 0 0.00079519636831151537 0.0010962448391377674 0 0.0004832935272607015 0.00094760733229528812 0 0.00079519636831151537 0.0010962448391377674 0 0.00086331881676070547 0.00060869729962109568 0 0.0004832935272607015 0.00094760733229528812 0 0.00086331881676070547 0.00060869729962109568 0 0.00033707009907282218 0.00062408236062218433 0 0.0004832935272607015 0.00094760733229528812 0 0.00033707009907282218 0.00062408236062218433 0 9.9072869975414126e-05 0.00091533772524498701 0 0.0020824395270003277 0.00090241174115786044 0 0.0015187939999585242 0.0012301349912562647 0 0.0014156794147634775 0.00076559362292969899 0 0.0011277621929885312 0.0016261315947533196 0 0.00079519636831151537 0.0010962448391377674 0 0.0011721371393406447 0.0010840840131464749 0 0.0015187939999585242 0.0012301349912562647 0 0.0011721371393406447 0.0010840840131464749 0 0.0014156794147634775 0.00076559362292969899 0 0.00086331881676070547 0.00060869729962109568 0 0.0014156794147634775 0.00076559362292969899 0 0.0013021765879955652 0.00027224158258192335 0 0.00086331881676070547 0.00060869729962109568 0 0.0011721371393406447 0.0010840840131464749 0 0.0014156794147634775 0.00076559362292969899 0 0.0020824395270003277 0.00090241174115786044 0 0.0014156794147634775 0.00076559362292969899 0 0.0017323965694295185 0.00047034258319205726 0 0.0014156794147634775 0.00076559362292969899 0 0.0017323965694295185 0.00047034258319205726 0 0.0013021765879955652 0.00027224158258192335 0 0.0017323965694295185 0.00047034258319205726 0 0.0013021765879955652 0.00027224158258192335 0 0.0016751618492545446 -0.0001462952368222281 0 0.0020650878933700747 0.00013610863033405228 0 0.0017323965694295185 0.00047034258319205726 0 0.0016751618492545446 -0.0001462952368222281 0 0.0013021765879955652 0.00027224158258192335 0 0.0012613232773362999 -5.6531876640848676e-05 0 0.0007708494080607744 8.684459761985162e-05 0 0.0013038474151486491 -0.00024753665192167812 0 0.00079217715395236889 2.3364086360399394e-05 0 0.0012885632563946338 -0.00044254882300198077 0 0.0012613232773362999 -5.6531876640848676e-05 0 0.0007708494080607744 8.684459761985162e-05 0 0.0011873830802626229 -0.00032396732064471259 0 0.00095448398735085451 -0.00049912664733074079 0 0.0007708494080607744 8.684459761985162e-05 0 0.0012885632563946338 -0.00044254882300198077 0 0.0012613232773362999 -5.6531876640848676e-05 0 0.0016751618492545446 -0.0001462952368222281 0 0.0013021765879955652 0.00027224158258192335 0 0.0012613232773362999 -5.6531876640848676e-05 0 0.0016751618492545446 -0.0001462952368222281 0 0.0015507632970293973 -0.00027263249115561073 0 0.001955227391816959 -0.00032542718467386939 0 0.0018254367172436284 -6.8228131171632975e-05 0 0.0013038474151486491 -0.00024753665192167812 0 0.0017583652559898129 -9.7851459754888141e-05 0 0.001955227391816959 -0.00032542718467386939 0 0.0020600583569297904 -0.00011493096975274586 0 0.0018254367172436284 -6.8228131171632975e-05 0 0.002027477233275178 0.00010568483637959506 0 0.0017583652559898129 -9.7851459754888141e-05 0 0.00033707009907282218 0.00062408236062218433 0 0.00038773856051286691 0.00013703879129381411 0 1.8183702997878423e-06 7.6915336434672647e-05 0 0.00033707009907282218 0.00062408236062218433 0 0.00038773856051286691 0.00013703879129381411 0 0.00058867869381728404 0.00035791403601528909 0 0.00035070790226223331 0.000671580083938464 0 -0.00015587396553061629 0.00021648875324890564 0 0.00086331881676070547 0.00060869729962109568 0 0.00033707009907282218 0.00062408236062218433 0 0.00058867869381728404 0.00035791403601528909 0 0.00086331881676070547 0.00060869729962109568 0 0.00058867869381728404 0.00035791403601528909 0 0.0007708494080607744 8.684459761985162e-05 0 0.00086331881676070547 0.00060869729962109568 0 0.0013021765879955652 0.00027224158258192335 0 0.0007708494080607744 8.684459761985162e-05 0 0.00038773856051286691 0.00013703879129381411 0 0.00058867869381728404 0.00035791403601528909 0 0.0007708494080607744 8.684459761985162e-05 0 0.00095448398735085451 -0.00049912664733074079 0 0.0007708494080607744 8.684459761985162e-05 0 0.00046947292387793143 -0.00013958635057179265 0 0.00038773856051286691 0.00013703879129381411 0 0.00024792549861152552 -0.00011072318874803786 0 1.8183702997878423e-06 7.6915336434672647e-05 0 0.00038773856051286691 0.00013703879129381411 0 0.00046947292387793143 -0.00013958635057179265 0 0.00024792549861152552 -0.00011072318874803786 0 0.00038773856051286691 0.00013703879129381411 0 0.0007708494080607744 8.684459761985162e-05 0 0.00046947292387793143 -0.00013958635057179265 0 0.00032903644536497325 -0.00035147206897369343 0 0.00046947292387793143 -0.00013958635057179265 0 0.00024792549861152552 -0.00011072318874803786 0 -0.00032354362979277547 -0.00034355112360622046 0 6.0765691516297673e-05 -0.00025277902807152954 0 1.8183702997878423e-06 7.6915336434672647e-05 0 6.0765691516297673e-05 -0.00025277902807152954 0 0.00024792549861152552 -0.00011072318874803786 0 1.8183702997878423e-06 7.6915336434672647e-05 0 0.00019070473555559051 0.00066578383038443112 0 -0.00015587396553061629 0.00021648875324890564 0 -0.00016441291997383275 0.00051518412124059321 0 -0.00025173559183107959 0.00055819628483195799 0 -0.00020938061841864085 0.00063038618460506933 0 0.00033707009907282218 0.00062408236062218433 0 -0.00016441291997383275 0.00051518412124059321 0 -0.00025173559183107959 0.00055819628483195799 0 -0.00018128841517219877 0.00049186876628501332 0 -0.00025173559183107959 0.00055819628483195799 0 -0.00025938742514475163 0.00037391760418355782 0 -0.00025173559183107959 0.00055819628483195799 0 -0.00018644898637891084 0.00060996408732478548 0 -0.00020938061841864085 0.00063038618460506933 0 -0.00018128841517219877 0.00049186876628501332 0 -0.00025173559183107959 0.00055819628483195799 0 -0.00018644898637891084 0.00060996408732478548 0 -0.00018128841517219877 0.00049186876628501332 0 -0.00018644898637891084 0.00060996408732478548 0 -9.5273014962897533e-05 0.00059933305213283295 0 -0.00018644898637891084 0.00060996408732478548 0 -0.00020938061841864085 0.00063038618460506933 0 -0.00018722257268612372 0.00071045351025512439 0 -0.00023165477174435134 0.00080628817996470314 0 -0.00016441291997383275 0.00051518412124059321 0 -0.00020938061841864085 0.00063038618460506933 0 -0.00018644898637891084 0.00060996408732478548 0 -0.00018722257268612372 0.00071045351025512439 0 -0.00012931372350936533 0.00070010084422631217 0 -0.00023165477174435134 0.00080628817996470314 0 -0.00020938061841864085 0.00063038618460506933 0 -0.00018722257268612372 0.00071045351025512439 0 -0.00013554268431306075 0.00085863034169825941 0 -0.00023165477174435134 0.00080628817996470314 0 -0.00018722257268612372 0.00071045351025512439 0 -0.00013554268431306075 0.00085863034169825941 0 -3.2178142539813235e-06 0.00076659301615710634 0 -0.00012931372350936533 0.00070010084422631217 0 -0.00013554268431306075 0.00085863034169825941 0 -0.00018722257268612372 0.00071045351025512439 0 -0.00012931372350936533 0.00070010084422631217 0 -3.2178142539813235e-06 0.00076659301615710634 0 -0.00012931372350936533 0.00070010084422631217 0 -9.5273014962897533e-05 0.00059933305213283295 0 7.0808297632355221e-05 0.001058814610341493 0 -3.2178142539813235e-06 0.00076659301615710634 0 0.00016407228139181447 0.00083228183710336409 0 -3.2178142539813235e-06 0.00076659301615710634 0 0.00016407228139181447 0.00083228183710336409 0 9.6393760030923231e-05 0.00058211705711330611 0 9.6393760030923231e-05 0.00058211705711330611 0 0.00017722637686199037 0.0003414265797726319 0 0.00032725737515342668 0.00064734723540475401 0 0.00016407228139181447 0.00083228183710336409 0 9.6393760030923231e-05 0.00058211705711330611 0 0.00032725737515342668 0.00064734723540475401 0 -3.2178142539813235e-06 0.00076659301615710634 0 9.6393760030923231e-05 0.00058211705711330611 0 -9.5273014962897533e-05 0.00059933305213283295 0 9.6393760030923231e-05 0.00058211705711330611 0 -9.5273014962897533e-05 0.00059933305213283295 0 -3.5519187349213627e-05 0.00044070228311778731 0 -0.00018644898637891084 0.00060996408732478548 0 -0.00012931372350936533 0.00070010084422631217 0 -9.5273014962897533e-05 0.00059933305213283295 0 -0.00018128841517219877 0.00049186876628501332 0 -9.5273014962897533e-05 0.00059933305213283295 0 -3.5519187349213627e-05 0.00044070228311778731 0 -0.00018128841517219877 0.00049186876628501332 0 -3.5519187349213627e-05 0.00044070228311778731 0 -0.00018225822615545485 0.00033664040758664838 0 -3.5519187349213627e-05 0.00044070228311778731 0 -3.7627375681300587e-05 0.00022548840786602782 0 -0.00018225822615545485 0.00033664040758664838 0 9.6393760030923231e-05 0.00058211705711330611 0 -3.5519187349213627e-05 0.00044070228311778731 0 0.00017722637686199037 0.0003414265797726319 0 -3.5519187349213627e-05 0.00044070228311778731 0 0.00017722637686199037 0.0003414265797726319 0 -3.7627375681300587e-05 0.00022548840786602782 0 0.00017722637686199037 0.0003414265797726319 0 0.00014524977876777443 4.117284077718107e-05 0 0.00033864368834935182 0.00014083336346780637 0 0.00017722637686199037 0.0003414265797726319 0 0.00014524977876777443 4.117284077718107e-05 0 -3.7627375681300587e-05 0.00022548840786602782 0 -3.7627375681300587e-05 0.00022548840786602782 0 -0.00021819978445498467 0.00019234522494491606 0 -7.4785236549170629e-05 -2.6434316095586895e-05 0 0.00014524977876777443 4.117284077718107e-05 0 -3.7627375681300587e-05 0.00022548840786602782 0 -7.4785236549170629e-05 -2.6434316095586895e-05 0 -3.7627375681300587e-05 0.00022548840786602782 0 -0.00021819978445498467 0.00019234522494491606 0 -0.00018225822615545485 0.00033664040758664838 0 -0.00021819978445498467 0.00019234522494491606 0 -0.00024911806733499343 5.7548234463300634e-06 0 -7.4785236549170629e-05 -2.6434316095586895e-05 0 -0.00021819978445498467 0.00019234522494491606 0 -0.00037568574446889528 0.00022637944527968302 0 -0.00029604897394988096 0.00027328515581356014 0 -0.00021819978445498467 0.00019234522494491606 0 -0.00037568574446889528 0.00022637944527968302 0 -0.00024911806733499343 5.7548234463300634e-06 0 -0.00037568574446889528 0.00022637944527968302 0 -0.00034460641583109565 0.00021482630656000396 0 -0.00032718840754156697 0.00044790798855117917 0 -0.00037568574446889528 0.00022637944527968302 0 -0.00034460641583109565 0.00021482630656000396 0 -0.00029604897394988096 0.00027328515581356014 0 -0.00022875487995417405 0.00053941659729843448 0 -0.00015716021267878471 0.00059650071999035252 0 0.00033707009907282218 0.00062408236062218433 0 -0.00025173559183107959 0.00055819628483195799 0 9.9072869975414126e-05 0.00091533772524498701 0 -0.00025173559183107959 0.00055819628483195799 0 -0.00034460641583109565 0.00021482630656000396 0 -0.00025938742514475163 0.00037391760418355782 0 -0.00034460641583109565 0.00021482630656000396 0 -0.00025938742514475163 0.00037391760418355782 0 -0.00029604897394988096 0.00027328515581356014 0 -0.00018128841517219877 0.00049186876628501332 0 -0.00025938742514475163 0.00037391760418355782 0 -0.00018225822615545485 0.00033664040758664838 0 -0.00021819978445498467 0.00019234522494491606 0 -0.00018225822615545485 0.00033664040758664838 0 -0.00029604897394988096 0.00027328515581356014 0 -0.00025938742514475163 0.00037391760418355782 0 -0.00018225822615545485 0.00033664040758664838 0 -0.00029604897394988096 0.00027328515581356014 0 0.001101057331981903 0.00084473204125812599 0 0.00075521021759668489 0.00052949927046234762 0 0.0011410007058935299 0.00038039253197767042 0 0.0013867216609625931 0.0005471785147681689 0 0.001101057331981903 0.00084473204125812599 0 0.0011410007058935299 0.00038039253197767042 0 0.00065487399019942933 0.0012821246508310311 0 0.00071253899394873069 0.001164084933448273 0 0.00060640225564882494 0.0010365423537060233 0 0.00049541953321111012 0.001249338179202015 0 0.00060640225564882494 0.0010365423537060233 0 0.00049177159706161673 0.0008982805239747579 0 0.0008916649839908838 0.0009203956678203129 0 0.00048249564330666504 0.00091458474230276415 0 0.001101057331981903 0.00084473204125812599 0 0.00075521021759668489 0.00052949927046234762 0 0.00049177159706161673 0.0008982805239747579 0 0.00075521021759668489 0.00052949927046234762 0 0.00032725737515342668 0.00064734723540475401 0 0.00048526437941921133 0.00033478805355263713 0 0.00075521021759668489 0.00052949927046234762 0 0.00049177159706161673 0.0008982805239747579 0 0.00032725737515342668 0.00064734723540475401 0 0.00032421432478254967 0.0010313302831047625 0 0.00016407228139181447 0.00083228183710336409 0 0.00032725737515342668 0.00064734723540475401 0 0.00032421432478254967 0.0010313302831047625 0 0.00049177159706161673 0.0008982805239747579 0 0.00032725737515342668 0.00064734723540475401 0 0.00017722637686199037 0.0003414265797726319 0 0.00032725737515342668 0.00064734723540475401 0 0.00048526437941921133 0.00033478805355263713 0 0.00017722637686199037 0.0003414265797726319 0 0.00033864368834935182 0.00014083336346780637 0 0.00048526437941921133 0.00033478805355263713 0 0.00014524977876777443 4.117284077718107e-05 0 0.00033864368834935182 0.00014083336346780637 0 0.00044706383886926923 -9.4413131299737432e-05 0 0.00033864368834935182 0.00014083336346780637 0 0.00059819419662323833 6.3626135295877532e-05 0 0.00044706383886926923 -9.4413131299737432e-05 0 0.00033864368834935182 0.00014083336346780637 0 0.00059819419662323833 6.3626135295877532e-05 0 0.00048526437941921133 0.00033478805355263713 0 0.00059819419662323833 6.3626135295877532e-05 0 0.00048526437941921133 0.00033478805355263713 0 0.00090173594802975038 0.00014359485154668926 0 0.00075521021759668489 0.00052949927046234762 0 0.00048526437941921133 0.00033478805355263713 0 0.00090173594802975038 0.00014359485154668926 0 0.00075521021759668489 0.00052949927046234762 0 0.00090173594802975038 0.00014359485154668926 0 0.0011410007058935299 0.00038039253197767042 0 0.00059819419662323833 6.3626135295877532e-05 0 0.00090173594802975038 0.00014359485154668926 0 0.00083695548645597306 -0.00020595797628667395 0 0.00090173594802975038 0.00014359485154668926 0 0.0010349653626062229 -0.00011265543841894427 0 0.00083695548645597306 -0.00020595797628667395 0 0.001250585740710288 -0.00019532579021843929 0 0.0010349653626062229 -0.00011265543841894427 0 0.001180810477835936 1.0517512328795788e-05 0 0.00090173594802975038 0.00014359485154668926 0 0.0010349653626062229 -0.00011265543841894427 0 0.001180810477835936 1.0517512328795788e-05 0 0.00091401259032284688 0.00013104457467954486 0 0.0012454006322194129 4.794037710103557e-05 0 0.00090173594802975038 0.00014359485154668926 0 0.0012719039794668681 8.8900868159964673e-05 0 0.0011410007058935299 0.00038039253197767042 0 0.001468078189588723 0.00023394227789960158 0 0.0012719039794668681 8.8900868159964673e-05 0 0.0011410007058935299 0.00038039253197767042 0 0.0012557084432732988 -0.00058443092021955771 0 0.001126238216966073 -0.00036515696995924779 0 0.0010950703433936207 -0.0006979208821768216 0 0.001126238216966073 -0.00036515696995924779 0 0.00088679853054897579 -0.0006062326951450103 0 0.0010950703433936207 -0.0006979208821768216 0 0.001250585740710288 -0.00019532579021843929 0 0.0010349653626062229 -0.00011265543841894427 0 0.001126238216966073 -0.00036515696995924779 0 0.0010349653626062229 -0.00011265543841894427 0 0.001126238216966073 -0.00036515696995924779 0 0.00083695548645597306 -0.00020595797628667395 0 0.001126238216966073 -0.00036515696995924779 0 0.00083695548645597306 -0.00020595797628667395 0 0.00088679853054897579 -0.0006062326951450103 0 0.00088679853054897579 -0.0006062326951450103 0 0.0005733834924885866 -0.00036975758416272038 0 0.00041726867033977695 -0.00057941967840169275 0 0.00083695548645597306 -0.00020595797628667395 0 0.00088679853054897579 -0.0006062326951450103 0 0.0005733834924885866 -0.00036975758416272038 0 0.00059819419662323833 6.3626135295877532e-05 0 0.00083695548645597306 -0.00020595797628667395 0 0.00044706383886926923 -9.4413131299737432e-05 0 0.00083695548645597306 -0.00020595797628667395 0 0.0005733834924885866 -0.00036975758416272038 0 0.00044706383886926923 -9.4413131299737432e-05 0 0.0005733834924885866 -0.00036975758416272038 0 0.00044706383886926923 -9.4413131299737432e-05 0 0.0001967298466066169 -0.00026583917130033923 0 0.0005733834924885866 -0.00036975758416272038 0 0.00041726867033977695 -0.00057941967840169275 0 0.0001967298466066169 -0.00026583917130033923 0 0.00090104391088023531 -0.00077288061615297975 0 0.00093370327265836456 -0.00085899887137540448 0 0.00089754325356801489 -0.0008771999635616576 0 0.00093370327265836456 -0.00085899887137540448 0 0.00089754325356801489 -0.0008771999635616576 0 0.00092283915429162728 -0.00096731043643172743 0 0.00093370327265836456 -0.00085899887137540448 0 0.0010073325416655834 -0.00082422957416441274 0 0.0010131755624390713 -0.00098253824826005816 0 0.00088679853054897579 -0.0006062326951450103 0 0.00093370327265836456 -0.00085899887137540448 0 0.0010073325416655834 -0.00082422957416441274 0 0.00088578253411051796 -0.00061342596024530158 0 0.00067843314249708226 -0.00066287706307751758 0 0.00088679853054897579 -0.0006062326951450103 0 0.00090104391088023531 -0.00077288061615297975 0 0.00093370327265836456 -0.00085899887137540448 0 0.00088679853054897579 -0.0006062326951450103 0 0.0010073325416655834 -0.00082422957416441274 0 0.0010950703433936207 -0.0006979208821768216 0 0.0010073325416655834 -0.00082422957416441274 0 0.0010950703433936207 -0.0006979208821768216 0 0.0011422069314676096 -0.00089104317122971324 0 0.0012592018631939121 -0.00079241825201458458 0 0.0010950703433936207 -0.0006979208821768216 0 0.0011422069314676096 -0.00089104317122971324 0 -0.00054779568297556934 0.0007089689207965946 0 -0.00076470205974991533 0.0016009581967693974 0 -0.0002972731667416304 0.0012011729376196947 0 -0.00037841139325188455 -0.00023741361665182678 0 -0.00018906927357049239 -0.00037640006132181529 0 -0.00029329333148054302 -0.00063540059997281432 0 -0.00056675002241559616 0.00041003608807416907 0 0.00024962926612471489 -0.0001713964715674178 0 -0.00037841139325188455 -0.00023741361665182678 0 -0.00018906927357049239 -0.00037640006132181529 0 -0.00019364126554493428 -0.0001770925303860262 0 0.00016488329388300997 0.0011424073293421579 0 -0.00014047863070870071 0.00078874488112784167 0 -0.0002972731667416304 0.0012011729376196947 0 -0.00054779568297556934 0.0007089689207965946 0 -0.00014047863070870071 0.00078874488112784167 0 -0.0002972731667416304 0.0012011729376196947 0 0.00038210148091082064 0.0004633470792533417 0 -0.00014047863070870071 0.00078874488112784167 0 -0.00032718840754156697 0.00044790798855117917 0 -0.00037568574446889528 0.00022637944527968302 0 -0.00054779568297556934 0.0007089689207965946 0 -0.00032718840754156697 0.00044790798855117917 0 -0.00035889068507394717 0.00014643390577961159 0 -0.00056675002241559616 0.00041003608807416907 0 -0.00054779568297556934 0.0007089689207965946 0 -0.00014047863070870071 0.00078874488112784167 0 -0.00032718840754156697 0.00044790798855117917 0 -0.00037568574446889528 0.00022637944527968302 0 -0.00037841139325188455 -0.00023741361665182678 0 -0.00024911806733499343 5.7548234463300634e-06 0 -0.00037841139325188455 -0.00023741361665182678 0 -0.00019364126554493428 -0.0001770925303860262 0 -0.00024911806733499343 5.7548234463300634e-06 0 -0.00019364126554493428 -0.0001770925303860262 0 -0.00024911806733499343 5.7548234463300634e-06 0 -7.4785236549170629e-05 -2.6434316095586895e-05 0 -7.4785236549170629e-05 -2.6434316095586895e-05 0 0.0001967298466066169 -0.00026583917130033923 0 -5.1045167964302125e-05 -0.00028148169686599089 0 -0.00019364126554493428 -0.0001770925303860262 0 -7.4785236549170629e-05 -2.6434316095586895e-05 0 -5.1045167964302125e-05 -0.00028148169686599089 0 0.00014524977876777443 4.117284077718107e-05 0 -7.4785236549170629e-05 -2.6434316095586895e-05 0 0.0001967298466066169 -0.00026583917130033923 0 0.00014524977876777443 4.117284077718107e-05 0 0.00044706383886926923 -9.4413131299737432e-05 0 0.0001967298466066169 -0.00026583917130033923 0 0.00041726867033977695 -0.00057941967840169275 0 0.0001967298466066169 -0.00026583917130033923 0 6.1917769187990574e-05 -0.00058246414089395231 0 0.0001967298466066169 -0.00026583917130033923 0 -5.1045167964302125e-05 -0.00028148169686599089 0 6.1917769187990574e-05 -0.00058246414089395231 0 -0.00018906927357049239 -0.00037640006132181529 0 -5.1045167964302125e-05 -0.00028148169686599089 0 6.1917769187990574e-05 -0.00058246414089395231 0 -0.00018906927357049239 -0.00037640006132181529 0 -0.00019364126554493428 -0.0001770925303860262 0 -5.1045167964302125e-05 -0.00028148169686599089 0 -0.00018906927357049239 -0.00037640006132181529 0 6.1917769187990574e-05 -0.00058246414089395231 0 -0.00029329333148054302 -0.00063540059997281432 0 0.00044909963146740208 -0.00077724087424982347 0 0.00024962926612471489 -0.0001713964715674178 0 0.00086393074557469796 -0.00084565890804394201 0 0.00084581158297364432 -0.00090444642049517042 0 0.00076615345016383567 -0.00086924203035450406 0 0.00090104391088023531 -0.00077288061615297975 0 0.00086393074557469796 -0.00084565890804394201 0 0.00089754325356801489 -0.0008771999635616576 0 0.00086393074557469796 -0.00084565890804394201 0 0.00089754325356801489 -0.0008771999635616576 0 0.00084581158297364432 -0.00090444642049517042 0 0.00067843314249708226 -0.00066287706307751758 0 0.00044909963146740208 -0.00077724087424982347 0 0.00089754325356801489 -0.0008771999635616576 0 0.00084581158297364432 -0.00090444642049517042 0 0.00087820620539971132 -0.00097745860308795247 0 0.00089754325356801489 -0.0008771999635616576 0 0.00087820620539971132 -0.00097745860308795247 0 0.00092283915429162728 -0.00096731043643172743 0 0.00084581158297364432 -0.00090444642049517042 0 0.00078633789130404393 -0.0009551597392955122 0 0.00087820620539971132 -0.00097745860308795247 0 0.00086152937389855305 -0.001177265102684306 0 0.00087156574703890343 -0.0012110192732086656 0 0.00090786665957914175 -0.0011772498401432469 0 0.00084581158297364432 -0.00090444642049517042 0 0.00078633789130404393 -0.0009551597392955122 0 0.00076615345016383567 -0.00086924203035450406 0 0.00084975375582133929 -0.0012203303810810785 0 0.00024962926612471489 -0.0001713964715674178 0 0.00086152937389855305 -0.001177265102684306 0 0.00090786665957914175 -0.0011772498401432469 0 0.00089074596146668326 -0.0011443836722360512 0 0.00050065662371825341 0.00034690027666868875 0 0.00024962926612471489 -0.0001713964715674178 0 0.00012500402037236613 0.0018149816689570499 0 -0.00076470205974991533 0.0016009581967693974 0 -0.0002972731667416304 0.0012011729376196947 0 0.00012500402037236613 0.0018149816689570499 0 0.00016488329388300997 0.0011424073293421579 0 -0.0002972731667416304 0.0012011729376196947 0 0.00093787255260618821 -0.0012025999072394393 0 0.00087156574703890343 -0.0012110192732086656 0 0.00090786665957914175 -0.0011772498401432469 0 0.00093787255260618821 -0.0012025999072394393 0 0.00090786665957914175 -0.0011772498401432469 0 0.00094271921932840804 -0.0011775094033440964 0 0.00090786665957914175 -0.0011772498401432469 0 0.00091974171085292802 -0.0011593569842086426 0 0.00094271921932840804 -0.0011775094033440964 0 0.00090786665957914175 -0.0011772498401432469 0 0.00091974171085292802 -0.0011593569842086426 0 0.00089074596146668326 -0.0011443836722360512 0 0.00091974171085292802 -0.0011593569842086426 0 0.00089231950059850496 -0.0011326685223100961 0 0.00089074596146668326 -0.0011443836722360512 0 0.00091974171085292802 -0.0011593569842086426 0 0.00092313618009541565 -0.0011580543367249985 0 0.00094812285297945869 -0.0011701850681537741 0 0.00091974171085292802 -0.0011593569842086426 0 0.00092313618009541565 -0.0011580543367249985 0 0.00089231950059850496 -0.0011326685223100961 0 0.00092313618009541565 -0.0011580543367249985 0 0.00089231950059850496 -0.0011326685223100961 0 0.00090637145849797797 -0.0011598867907463397 0 0.00092313618009541565 -0.0011580543367249985 0 0.00090637145849797797 -0.0011598867907463397 0 0.00094481560485851755 -0.001175238076673171 0 0.00089231950059850496 -0.0011326685223100961 0 0.00087847415724257711 -0.0011211352769443777 0 0.00090637145849797797 -0.0011598867907463397 0 0.00089231950059850496 -0.0011326685223100961 0 0.00084618860438950383 -0.0010871934447792232 0 0.00087847415724257711 -0.0011211352769443777 0 0.00084975375582133929 -0.0012203303810810785 0 0.00082824177710884295 -0.001035633889087958 0 0.00086152937389855305 -0.001177265102684306 0 0.00084618860438950383 -0.0010871934447792232 0 0.00089074596146668326 -0.0011443836722360512 0 0.00089231950059850496 -0.0011326685223100961 0 0.00084618860438950383 -0.0010871934447792232 0 0.00089074596146668326 -0.0011443836722360512 0 0.00084618860438950383 -0.0010871934447792232 0 0.00087820620539971132 -0.00097745860308795247 0 0.00091124904981395801 -0.0010638492131310145 0 0.00078633789130404393 -0.0009551597392955122 0 0.00084618860438950383 -0.0010871934447792232 0 0.00087820620539971132 -0.00097745860308795247 0 0.00087820620539971132 -0.00097745860308795247 0 0.00092283915429162728 -0.00096731043643172743 0 0.00091124904981395801 -0.0010638492131310145 0 0.00091124904981395801 -0.0010638492131310145 0 0.00098934929723967216 -0.0011908874708819073 0 0.0009759353803446008 -0.0010585346524887998 0 0.00092283915429162728 -0.00096731043643172743 0 0.00091124904981395801 -0.0010638492131310145 0 0.0009759353803446008 -0.0010585346524887998 0 0.00084618860438950383 -0.0010871934447792232 0 0.00091124904981395801 -0.0010638492131310145 0 0.00087847415724257711 -0.0011211352769443777 0 0.00087847415724257711 -0.0011211352769443777 0 0.00098934929723967216 -0.0011908874708819073 0 0.00088786643831557216 -0.0011651270837068578 0 0.00091124904981395801 -0.0010638492131310145 0 0.00087847415724257711 -0.0011211352769443777 0 0.00098934929723967216 -0.0011908874708819073 0 0.00098934929723967216 -0.0011908874708819073 0 0.0010172103764000899 -0.001161030588369835 0 0.001030747926211936 -0.0011759007108111754 0 0.00098934929723967216 -0.0011908874708819073 0 0.0011193108542204163 -0.0012155395246446405 0 0.001030747926211936 -0.0011759007108111754 0 0.0010017350408180173 -0.0012023004810504043 0 0.0010459287731056446 -0.0012426563163542858 0 0.00098934929723967216 -0.0011908874708819073 0 0.0011907533799739019 -0.0013301789513709965 0 0.0011193108542204163 -0.0012155395246446405 0 0.0010459287731056446 -0.0012426563163542858 0 0.0011380427001386573 -0.0012685002945259491 0 0.0011907533799739019 -0.0013301789513709965 0 0.0012710250605051019 -0.0012787834191454381 0 0.0011193108542204163 -0.0012155395246446405 0 0.0011907533799739019 -0.0013301789513709965 0 0.0012710250605051019 -0.0012787834191454381 0 0.0013630239983126195 -0.0013714570186573792 0 0.0012710250605051019 -0.0012787834191454381 0 0.0013630239983126195 -0.0013714570186573792 0 0.001353202993923671 -0.0012759096233624786 0 0.0013630239983126195 -0.0013714570186573792 0 0.001353202993923671 -0.0012759096233624786 0 0.0014113025835643107 -0.0013217289384073038 0 0.00088786643831557216 -0.0011651270837068578 0 0.00091427910679607431 -0.001162889841188477 0 0.00090637145849797797 -0.0011598867907463397 0 0.00091427910679607431 -0.001162889841188477 0 0.00090637145849797797 -0.0011598867907463397 0 0.00095429396478505495 -0.0011957682001816439 0 0.00090637145849797797 -0.0011598867907463397 0 0.00094481560485851755 -0.001175238076673171 0 0.00095429396478505495 -0.0011957682001816439 0 0.00087847415724257711 -0.0011211352769443777 0 0.00088786643831557216 -0.0011651270837068578 0 0.00090637145849797797 -0.0011598867907463397 0 0.0011315911881953167 -0.0010105884627085514 0 0.0011422069314676096 -0.00089104317122971324 0 0.0010131755624390713 -0.00098253824826005816 0 0.0010073325416655834 -0.00082422957416441274 0 0.0011422069314676096 -0.00089104317122971324 0 0.0010131755624390713 -0.00098253824826005816 0 0.0011315911881953167 -0.0010105884627085514 0 0.0010131755624390713 -0.00098253824826005816 0 0.0010681112689818345 -0.0010709357628558497 0 0.0010131755624390713 -0.00098253824826005816 0 0.0010203200758081702 -0.0011054966844854597 0 0.0010681112689818345 -0.0010709357628558497 0 0.0010131755624390713 -0.00098253824826005816 0 0.0009759353803446008 -0.0010585346524887998 0 0.0010203200758081702 -0.0011054966844854597 0 0.00092283915429162728 -0.00096731043643172743 0 0.0010131755624390713 -0.00098253824826005816 0 0.0009759353803446008 -0.0010585346524887998 0 0.00093370327265836456 -0.00085899887137540448 0 0.00092283915429162728 -0.00096731043643172743 0 0.0010131755624390713 -0.00098253824826005816 0 0.00098934929723967216 -0.0011908874708819073 0 0.0009759353803446008 -0.0010585346524887998 0 0.0010203200758081702 -0.0011054966844854597 0 0.00098934929723967216 -0.0011908874708819073 0 0.0010172103764000899 -0.001161030588369835 0 0.0010203200758081702 -0.0011054966844854597 0 0.0010172103764000899 -0.001161030588369835 0 0.0010203200758081702 -0.0011054966844854597 0 0.0010559463304545596 -0.0011270572622439788 0 0.0010172103764000899 -0.001161030588369835 0 0.0010559463304545596 -0.0011270572622439788 0 0.0010403392952342432 -0.0011615436534244002 0 0.0010203200758081702 -0.0011054966844854597 0 0.0010681112689818345 -0.0010709357628558497 0 0.0010559463304545596 -0.0011270572622439788 0 0.0011315911881953167 -0.0010105884627085514 0 0.0010681112689818345 -0.0010709357628558497 0 0.0011254755926252773 -0.0011130792528191164 0 0.0010559463304545596 -0.0011270572622439788 0 0.0011254755926252773 -0.0011130792528191164 0 0.0010796736866072259 -0.0011502567702401996 0 0.0010681112689818345 -0.0010709357628558497 0 0.0010559463304545596 -0.0011270572622439788 0 0.0011254755926252773 -0.0011130792528191164 0 0.0011104871903271302 -0.0011640123706480462 0 0.0010783891010543029 -0.0011718525567606048 0 0.0011123338982760287 -0.0011924328635590173 0 0.0011254755926252773 -0.0011130792528191164 0 0.0011104871903271302 -0.0011640123706480462 0 0.0010796736866072259 -0.0011502567702401996 0 0.0011104871903271302 -0.0011640123706480462 0 0.0010796736866072259 -0.0011502567702401996 0 0.0010783891010543029 -0.0011718525567606048 0 0.0010796736866072259 -0.0011502567702401996 0 0.0010783891010543029 -0.0011718525567606048 0 0.0010403392952342432 -0.0011615436534244002 0 0.0010783891010543029 -0.0011718525567606048 0 0.0010441524235083044 -0.0011677311589781243 0 0.001079063760059147 -0.0011888389094571435 0 0.0010783891010543029 -0.0011718525567606048 0 0.0010441524235083044 -0.0011677311589781243 0 0.0010403392952342432 -0.0011615436534244002 0 0.0010559463304545596 -0.0011270572622439788 0 0.0010796736866072259 -0.0011502567702401996 0 0.0010403392952342432 -0.0011615436534244002 0 0.0010403392952342432 -0.0011615436534244002 0 0.0010375552972881849 -0.0011622127479507243 0 0.001030747926211936 -0.0011759007108111754 0 0.0010172103764000899 -0.001161030588369835 0 0.0010403392952342432 -0.0011615436534244002 0 0.001030747926211936 -0.0011759007108111754 0 0.0010441524235083044 -0.0011677311589781243 0 0.0010403392952342432 -0.0011615436534244002 0 0.0010375552972881849 -0.0011622127479507243 0 0.0010441524235083044 -0.0011677311589781243 0 0.0010375552972881849 -0.0011622127479507243 0 0.0010368575150581098 -0.001154053885185524 0 0.0011061546617477911 -0.0012070979116776093 0 0.0011477976212510507 -0.0011926364959607663 0 0.0010441524235083044 -0.0011677311589781243 0 0.001052579052678524 -0.0011910608560376731 0 0.0010368575150581098 -0.001154053885185524 0 0.001234899338198793 -0.0012025139651364143 0 0.0011566709329576112 -0.0012273758391392916 0 0.0012542377163016981 -0.0012364406659739031 0 0.0013903480944641416 -0.0012018329561923142 0 0.0014174090496223853 -0.0012327864766460909 0 0.0013774873598662132 -0.0012293819310184879 0 0.0013903480944641416 -0.0012018329561923142 0 0.0014174090496223853 -0.0012327864766460909 0 0.0014801118996030035 -0.0012283320415625329 0 0.001234899338198793 -0.0012025139651364143 0 0.0011420716829014658 -0.0011905109910928849 0 0.0011566709329576112 -0.0012273758391392916 0 0.0013168839428812941 -0.0012046162631490062 0 0.0013162492719240278 -0.0012123943997441376 0 0.0013909357436357535 -0.0012714725464971941 0 0.0014174090496223853 -0.0012327864766460909 0 0.0013774873598662132 -0.0012293819310184879 0 0.0011420716829014658 -0.0011905109910928849 0 0.0011566709329576112 -0.0012273758391392916 0 0.0011001053707452005 -0.0012105466610619685 0 0.0010441524235083044 -0.0011677311589781243 0 0.001052579052678524 -0.0011910608560376731 0 0.001079063760059147 -0.0011888389094571435 0 0.0010783891010543029 -0.0011718525567606048 0 0.001079063760059147 -0.0011888389094571435 0 0.0011123338982760287 -0.0011924328635590173 0 0.001052579052678524 -0.0011910608560376731 0 0.001079063760059147 -0.0011888389094571435 0 0.0011001053707452005 -0.0012105466610619685 0 0.0011061546617477911 -0.0012070979116776093 0 0.0010997950424877997 -0.0012101706128309481 0 0.001079063760059147 -0.0011888389094571435 0 0.0011001053707452005 -0.0012105466610619685 0 0.0011123338982760287 -0.0011924328635590173 0 0.0011051486799552974 -0.0012099917635392842 0 0.0011420716829014658 -0.0011905109910928849 0 0.0011001053707452005 -0.0012105466610619685 0 0.0011051486799552974 -0.0012099917635392842 0 0.0011001053707452005 -0.0012105466610619685 0 0.0011065501544692429 -0.0012125469543255566 0 0.0011225946937339787 -0.0012102614402035991 0 0.0011104469217903513 -0.0012100332889482699 0 0.0011123338982760287 -0.0011924328635590173 0 0.0011001053707452005 -0.0012105466610619685 0 0.0011065501544692429 -0.0012125469543255566 0 0.0011104469217903513 -0.0012100332889482699 0 0.0011135496145957258 -0.0012203394993427971 0 0.0011065501544692429 -0.0012125469543255566 0 0.0011104469217903513 -0.0012100332889482699 0 0.0011225946937339787 -0.0012102614402035991 0 0.0011135496145957258 -0.0012203394993427971 0 0.0011104469217903513 -0.0012100332889482699 0 0.0011001053707452005 -0.0012105466610619685 0 0.0011104469217903513 -0.0012100332889482699 0 0.0011123338982760287 -0.0011924328635590173 0 0.0013016086078085822 -0.001205062569771351 0 0.0013581901901622985 -0.0012216591994468728 0 0.0013512228992433766 -0.0012216837406810754 0 0.0012975281057503103 -0.0012010306347153255 0 0.0012318394391379727 -0.0011792487293814395 0 0.0013016086078085822 -0.001205062569771351 0 0.0013621486422783068 -0.0012169891834119722 0 0.0013559152071437406 -0.0012207945245804694 0 0.0013016086078085822 -0.001205062569771351 0 0.0013512228992433766 -0.0012216837406810754 0 0.0013559152071437406 -0.0012207945245804694 0 0.0013016086078085822 -0.001205062569771351 0 0.0013621486422783068 -0.0012169891834119722 0 0.0013804851365736535 -0.0012351108506981495 0 0.0013621486422783068 -0.0012169891834119722 0 0.0013804851365736535 -0.0012351108506981495 0 0.0014110515306029654 -0.001216766036599512 0 0.0013016086078085822 -0.001205062569771351 0 0.0013804851365736535 -0.0012351108506981495 0 0.001353202993923671 -0.0012759096233624786 0 0.0012710250605051019 -0.0012787834191454381 0 0.0013016086078085822 -0.001205062569771351 0 0.001353202993923671 -0.0012759096233624786 0 0.0012710250605051019 -0.0012787834191454381 0 0.0013016086078085822 -0.001205062569771351 0 0.0011193108542204163 -0.0012155395246446405 0 0.0011193108542204163 -0.0012155395246446405 0 0.0010786980219198571 -0.0011693869355367393 0 0.0011086572067997124 -0.001122967844969319 0 0.0013016086078085822 -0.001205062569771351 0 0.0011193108542204163 -0.0012155395246446405 0 0.0011086572067997124 -0.001122967844969319 0 0.0011193108542204163 -0.0012155395246446405 0 0.001030747926211936 -0.0011759007108111754 0 0.0010786980219198571 -0.0011693869355367393 0 0.001030747926211936 -0.0011759007108111754 0 0.0010786980219198571 -0.0011693869355367393 0 0.0010551934392984581 -0.0011565133016076484 0 0.0010551934392984581 -0.0011565133016076484 0 0.0011086572067997124 -0.001122967844969319 0 0.0010368575150581098 -0.001154053885185524 0 0.0012318394391379727 -0.0011792487293814395 0 0.0011477976212510507 -0.0011926364959607663 0 0.0013581901901622985 -0.0012216591994468728 0 0.0013453015927556737 -0.0012134261055673225 0 0.0012542377163016981 -0.0012364406659739031 0 0.0010375552972881849 -0.0011622127479507243 0 0.001030747926211936 -0.0011759007108111754 0 0.0010551934392984581 -0.0011565133016076484 0 0.0010786980219198571 -0.0011693869355367393 0 0.0010551934392984581 -0.0011565133016076484 0 0.0011086572067997124 -0.001122967844969319 0 0.0010375552972881849 -0.0011622127479507243 0 0.0010551934392984581 -0.0011565133016076484 0 0.0010368575150581098 -0.001154053885185524 0 0.0013581901901622985 -0.0012216591994468728 0 0.0013453015927556737 -0.0012134261055673225 0 0.0013512228992433766 -0.0012216837406810754 0 0.0013453015927556737 -0.0012134261055673225 0 0.0013536208249285127 -0.0012184258133687721 0 0.0013590753489778214 -0.0012189358505555485 0 0.0013536208249285127 -0.0012184258133687721 0 0.0013590753489778214 -0.0012189358505555485 0 0.0013600061324478537 -0.0012202088965602589 0 0.0013453015927556737 -0.0012134261055673225 0 0.0013512228992433766 -0.0012216837406810754 0 0.0013536208249285127 -0.0012184258133687721 0 0.0013903480944641416 -0.0012018329561923142 0 0.0013453015927556737 -0.0012134261055673225 0 0.0013590753489778214 -0.0012189358505555485 0 0.0013168839428812941 -0.0012046162631490062 0 0.0013461700597428598 -0.0012161369462567169 0 0.001234899338198793 -0.0012025139651364143 0 0.0013453015927556737 -0.0012134261055673225 0 0.0012542377163016981 -0.0012364406659739031 0 0.001351786999721886 -0.0012250316766895474 0 0.0013774873598662132 -0.0012293819310184879 0 0.0013590753489778214 -0.0012189358505555485 0 0.0013903480944641416 -0.0012018329561923142 0 0.0013774873598662132 -0.0012293819310184879 0 0.0013590753489778214 -0.0012189358505555485 0 0.001351786999721886 -0.0012250316766895474 0 0.0013590753489778214 -0.0012189358505555485 0 0.0013600061324478537 -0.0012202088965602589 0 0.001351786999721886 -0.0012250316766895474 0 0.0013600061324478537 -0.0012202088965602589 0 0.0013955181210364819 -0.0012098318223242178 0 0.0013600061324478537 -0.0012202088965602589 0 0.0013824213068535911 -0.0012141820015972493 0 0.0013955181210364819 -0.0012098318223242178 0 0.0013600061324478537 -0.0012202088965602589 0 0.0013559152071437406 -0.0012207945245804694 0 0.0013824213068535911 -0.0012141820015972493 0 0.0013536208249285127 -0.0012184258133687721 0 0.0013600061324478537 -0.0012202088965602589 0 0.0013559152071437406 -0.0012207945245804694 0 0.0013512228992433766 -0.0012216837406810754 0 0.0013536208249285127 -0.0012184258133687721 0 0.0013559152071437406 -0.0012207945245804694 0 0.0013824213068535911 -0.0012141820015972493 0 0.0014308571782734748 -0.001204415019368559 0 0.0014110515306029654 -0.001216766036599512 0 0.0013621486422783068 -0.0012169891834119722 0 0.0013824213068535911 -0.0012141820015972493 0 0.0014110515306029654 -0.001216766036599512 0 0.0013621486422783068 -0.0012169891834119722 0 0.0013559152071437406 -0.0012207945245804694 0 0.0013824213068535911 -0.0012141820015972493 0 0.0013824213068535911 -0.0012141820015972493 0 0.0013955181210364819 -0.0012098318223242178 0 0.0014308571782734748 -0.001204415019368559 0 0.0013955181210364819 -0.0012098318223242178 0 0.0014551225323738367 -0.0011946435461041955 0 0.0014308571782734748 -0.001204415019368559 0 0.0014551225323738367 -0.0011946435461041955 0 0.0014308571782734748 -0.001204415019368559 0 0.0014709063670168823 -0.0011948254745992818 0 0.0014551225323738367 -0.0011946435461041955 0 0.0014851207346399525 -0.0011839422065827723 0 0.0014709063670168823 -0.0011948254745992818 0 0.0014851207346399525 -0.0011839422065827723 0 0.0014709063670168823 -0.0011948254745992818 0 0.0015032324719445251 -0.0011899991321164779 0 0.0015032324719445251 -0.0011899991321164779 0 0.0014897816833643177 -0.0012049839257646411 0 0.0015240233629781042 -0.0012071891192957525 0 0.0014709063670168823 -0.0011948254745992818 0 0.0015032324719445251 -0.0011899991321164779 0 0.0014897816833643177 -0.0012049839257646411 0 0.0014709063670168823 -0.0011948254745992818 0 0.0014897816833643177 -0.0012049839257646411 0 0.0014588207560935456 -0.0012121262723165747 0 0.0014897816833643177 -0.0012049839257646411 0 0.0014588207560935456 -0.0012121262723165747 0 0.0014975416171367053 -0.0012292304068850033 0 0.0014588207560935456 -0.0012121262723165747 0 0.0014417544828809502 -0.0012377133058088915 0 0.0014975416171367053 -0.0012292304068850033 0 0.0014897816833643177 -0.0012049839257646411 0 0.0014975416171367053 -0.0012292304068850033 0 0.0015240233629781042 -0.0012071891192957525 0 0.0014308571782734748 -0.001204415019368559 0 0.0014709063670168823 -0.0011948254745992818 0 0.0014588207560935456 -0.0012121262723165747 0 0.0014308571782734748 -0.001204415019368559 0 0.0014588207560935456 -0.0012121262723165747 0 0.0014110515306029654 -0.001216766036599512 0 0.0014588207560935456 -0.0012121262723165747 0 0.0014110515306029654 -0.001216766036599512 0 0.0014417544828809502 -0.0012377133058088915 0 0.0013804851365736535 -0.0012351108506981495 0 0.0014110515306029654 -0.001216766036599512 0 0.0014417544828809502 -0.0012377133058088915 0 0.0013804851365736535 -0.0012351108506981495 0 0.0014417544828809502 -0.0012377133058088915 0 0.001422645100799923 -0.0012771724552489989 0 0.0014417544828809502 -0.0012377133058088915 0 0.0014812162096505008 -0.0012739075241927286 0 0.001422645100799923 -0.0012771724552489989 0 0.0014417544828809502 -0.0012377133058088915 0 0.0014975416171367053 -0.0012292304068850033 0 0.0014812162096505008 -0.0012739075241927286 0 0.0014975416171367053 -0.0012292304068850033 0 0.0014812162096505008 -0.0012739075241927286 0 0.0015398312604441582 -0.0012625725275969724 0 0.0014812162096505008 -0.0012739075241927286 0 0.0014667363083565371 -0.0013302082382374576 0 0.001422645100799923 -0.0012771724552489989 0 0.0014812162096505008 -0.0012739075241927286 0 0.0015287679164783087 -0.0013156560250753996 0 0.0015398312604441582 -0.0012625725275969724 0 0.0014812162096505008 -0.0012739075241927286 0 0.0014667363083565371 -0.0013302082382374576 0 0.0015287679164783087 -0.0013156560250753996 0 0.0014667363083565371 -0.0013302082382374576 0 0.0015287679164783087 -0.0013156560250753996 0 0.0015296117828883684 -0.0013660114767851434 0 0.0014667363083565371 -0.0013302082382374576 0 0.001422645100799923 -0.0012771724552489989 0 0.0014113025835643107 -0.0013217289384073038 0 0.0013804851365736535 -0.0012351108506981495 0 0.001353202993923671 -0.0012759096233624786 0 0.001422645100799923 -0.0012771724552489989 0 0.001353202993923671 -0.0012759096233624786 0 0.001422645100799923 -0.0012771724552489989 0 0.0014113025835643107 -0.0013217289384073038 0 0.00172405514355282 -0.0013126501272626976 0 0.0015965723939645811 -0.0013559277859398393 0 0.0017298239941429838 -0.0014104312986371991 0 0.00172405514355282 -0.0013126501272626976 0 0.0015965723939645811 -0.0013559277859398393 0 0.0016013334472642395 -0.0012925550146623622 0 0.0015965723939645811 -0.0013559277859398393 0 0.0015287679164783087 -0.0013156560250753996 0 0.0015296117828883684 -0.0013660114767851434 0 0.0015287679164783087 -0.0013156560250753996 0 0.0016013334472642395 -0.0012925550146623622 0 0.0015398312604441582 -0.0012625725275969724 0 0.0015965723939645811 -0.0013559277859398393 0 0.0015287679164783087 -0.0013156560250753996 0 0.0016013334472642395 -0.0012925550146623622 0 0.0016013334472642395 -0.0012925550146623622 0 0.0015398312604441582 -0.0012625725275969724 0 0.001595943827017988 -0.0012446633728282982 0 0.0014975416171367053 -0.0012292304068850033 0 0.0015398312604441582 -0.0012625725275969724 0 0.0015478867358040174 -0.0012300687353084614 0 0.0015398312604441582 -0.0012625725275969724 0 0.0015478867358040174 -0.0012300687353084614 0 0.001595943827017988 -0.0012446633728282982 0 0.001595943827017988 -0.0012446633728282982 0 0.0016735265841622085 -0.0012519974131460247 0 0.0016384117051409142 -0.0012090620824945046 0 0.00172405514355282 -0.0013126501272626976 0 0.0016013334472642395 -0.0012925550146623622 0 0.0016735265841622085 -0.0012519974131460247 0 0.0016013334472642395 -0.0012925550146623622 0 0.001595943827017988 -0.0012446633728282982 0 0.0016735265841622085 -0.0012519974131460247 0 0.00172405514355282 -0.0013126501272626976 0 0.0016735265841622085 -0.0012519974131460247 0 0.0017587830880523628 -0.0012492326433688114 0 0.0016735265841622085 -0.0012519974131460247 0 0.001724111682253621 -0.0012139074268685394 0 0.0017587830880523628 -0.0012492326433688114 0 0.0016384117051409142 -0.0012090620824945046 0 0.001691747157246999 -0.0011861909011749024 0 0.001724111682253621 -0.0012139074268685394 0 0.0016735265841622085 -0.0012519974131460247 0 0.0016384117051409142 -0.0012090620824945046 0 0.001724111682253621 -0.0012139074268685394 0 0.001595943827017988 -0.0012446633728282982 0 0.0016384117051409142 -0.0012090620824945046 0 0.0015692965072631032 -0.0012050749557705653 0 0.0016384117051409142 -0.0012090620824945046 0 0.0015998618400789061 -0.0011875825917961116 0 0.0015692965072631032 -0.0012050749557705653 0 0.0016384117051409142 -0.0012090620824945046 0 0.0015998618400789061 -0.0011875825917961116 0 0.0016381716412469894 -0.0011731702849369122 0 0.0015998618400789061 -0.0011875825917961116 0 0.0015641778615589955 -0.0011775051502074716 0 0.0015975531107100768 -0.0011707116623544502 0 0.0015998618400789061 -0.0011875825917961116 0 0.0016381716412469894 -0.0011731702849369122 0 0.0015975531107100768 -0.0011707116623544502 0 0.0016384117051409142 -0.0012090620824945046 0 0.0016381716412469894 -0.0011731702849369122 0 0.001691747157246999 -0.0011861909011749024 0 0.0016381716412469894 -0.0011731702849369122 0 0.001691747157246999 -0.0011861909011749024 0 0.0016982876608633043 -0.0011533084191893131 0 0.0015478867358040174 -0.0012300687353084614 0 0.0015240233629781042 -0.0012071891192957525 0 0.0015692965072631032 -0.0012050749557705653 0 0.0014975416171367053 -0.0012292304068850033 0 0.0015478867358040174 -0.0012300687353084614 0 0.0015240233629781042 -0.0012071891192957525 0 0.0015478867358040174 -0.0012300687353084614 0 0.001595943827017988 -0.0012446633728282982 0 0.0015692965072631032 -0.0012050749557705653 0 0.0015692965072631032 -0.0012050749557705653 0 0.0015339598182226842 -0.0011894673495649376 0 0.0015641778615589955 -0.0011775051502074716 0 0.0015998618400789061 -0.0011875825917961116 0 0.0015692965072631032 -0.0012050749557705653 0 0.0015641778615589955 -0.0011775051502074716 0 0.0015240233629781042 -0.0012071891192957525 0 0.0015692965072631032 -0.0012050749557705653 0 0.0015339598182226842 -0.0011894673495649376 0 0.0015032324719445251 -0.0011899991321164779 0 0.0015240233629781042 -0.0012071891192957525 0 0.0015339598182226842 -0.0011894673495649376 0 0.0015032324719445251 -0.0011899991321164779 0 0.0015339598182226842 -0.0011894673495649376 0 0.001525603424039718 -0.0011734704639106963 0 0.0014851207346399525 -0.0011839422065827723 0 0.0015032324719445251 -0.0011899991321164779 0 0.001525603424039718 -0.0011734704639106963 0 0.001525603424039718 -0.0011734704639106963 0 0.0015553124393112422 -0.0011635014160888259 0 0.0015385597134793254 -0.0011590261448427032 0 0.001525603424039718 -0.0011734704639106963 0 0.0015641778615589955 -0.0011775051502074716 0 0.0015553124393112422 -0.0011635014160888259 0 0.0015339598182226842 -0.0011894673495649376 0 0.001525603424039718 -0.0011734704639106963 0 0.0015641778615589955 -0.0011775051502074716 0 0.0015641778615589955 -0.0011775051502074716 0 0.0015553124393112422 -0.0011635014160888259 0 0.0015796642954729789 -0.0011588580672618691 0 0.001525603424039718 -0.0011734704639106963 0 0.0015385597134793254 -0.0011590261448427032 0 0.0015126183845914827 -0.001169582065136558 0 0.0015385597134793254 -0.0011590261448427032 0 0.0015613739400027794 -0.001150714273306212 0 0.0015506744624731283 -0.0011481346508378956 0 0.0015553124393112422 -0.0011635014160888259 0 0.0015385597134793254 -0.0011590261448427032 0 0.0015613739400027794 -0.001150714273306212 0 0.0015385597134793254 -0.0011590261448427032 0 0.0015313464290057596 -0.0011578188860522885 0 0.0015506744624731283 -0.0011481346508378956 0 0.0015385597134793254 -0.0011590261448427032 0 0.0015313464290057596 -0.0011578188860522885 0 0.0015126183845914827 -0.001169582065136558 0 0.0014865283792103239 -0.0011909351861310088 0 0.0014851207346399525 -0.0011839422065827723 0 0.0015126183845914827 -0.001169582065136558 0 0.0014851207346399525 -0.0011839422065827723 0 0.001525603424039718 -0.0011734704639106963 0 0.0015126183845914827 -0.001169582065136558 0 0.0016511868649460937 -0.0011502535484289231 0 0.0016228366581686419 -0.0011351708080242333 0 0.0016672149818474172 -0.0011248580514755546 0 0.0016511868649460937 -0.0011502535484289231 0 0.0016115386608775188 -0.0011556361806902195 0 0.0016228366581686419 -0.0011351708080242333 0 0.0016511868649460937 -0.0011502535484289231 0 0.0016672149818474172 -0.0011248580514755546 0 0.0016982876608633043 -0.0011533084191893131 0 0.0016381716412469894 -0.0011731702849369122 0 0.0016511868649460937 -0.0011502535484289231 0 0.0016982876608633043 -0.0011533084191893131 0 0.0016381716412469894 -0.0011731702849369122 0 0.0016511868649460937 -0.0011502535484289231 0 0.0016115386608775188 -0.0011556361806902195 0 0.0016381716412469894 -0.0011731702849369122 0 0.0015975531107100768 -0.0011707116623544502 0 0.0016115386608775188 -0.0011556361806902195 0 0.0015975531107100768 -0.0011707116623544502 0 0.0015796642954729789 -0.0011588580672618691 0 0.0016115386608775188 -0.0011556361806902195 0 0.0015641778615589955 -0.0011775051502074716 0 0.0015975531107100768 -0.0011707116623544502 0 0.0015796642954729789 -0.0011588580672618691 0 0.0015553124393112422 -0.0011635014160888259 0 0.0015796642954729789 -0.0011588580672618691 0 0.0015613739400027794 -0.001150714273306212 0 0.0015796642954729789 -0.0011588580672618691 0 0.0015858580236021737 -0.0011450853763622394 0 0.0015613739400027794 -0.001150714273306212 0 0.0015796642954729789 -0.0011588580672618691 0 0.0016115386608775188 -0.0011556361806902195 0 0.0015858580236021737 -0.0011450853763622394 0 0.0016115386608775188 -0.0011556361806902195 0 0.0015858580236021737 -0.0011450853763622394 0 0.0016228366581686419 -0.0011351708080242333 0 0.0015858580236021737 -0.0011450853763622394 0 0.0015879248416258269 -0.0011258236128786627 0 0.0016228366581686419 -0.0011351708080242333 0 0.0015879248416258269 -0.0011258236128786627 0 0.001644134766603301 -0.0011027867769601381 0 0.0016228366581686419 -0.0011351708080242333 0 0.0015858580236021737 -0.0011450853763622394 0 0.0015613739400027794 -0.001150714273306212 0 0.0015644281325062378 -0.0011399275173508236 0 0.0015858580236021737 -0.0011450853763622394 0 0.0015879248416258269 -0.0011258236128786627 0 0.0015644281325062378 -0.0011399275173508236 0 0.0015613739400027794 -0.001150714273306212 0 0.0015644281325062378 -0.0011399275173508236 0 0.0015506744624731283 -0.0011481346508378956 0 0.0015313464290057596 -0.0011578188860522885 0 0.0015506744624731283 -0.0011481346508378956 0 0.0015462291887436978 -0.0011453928209994798 0 0.0015879248416258269 -0.0011258236128786627 0 0.0015644281325062378 -0.0011399275173508236 0 0.0015462291887436978 -0.0011453928209994798 0 0.0015644281325062378 -0.0011399275173508236 0 0.0015506744624731283 -0.0011481346508378956 0 0.0015462291887436978 -0.0011453928209994798 0 0.0015879248416258269 -0.0011258236128786627 0 0.0015828962772664774 -0.0010870693729811217 0 0.001644134766603301 -0.0011027867769601381 0 0.0015819848512534551 -0.0012950210984792622 0 0.001606092799799348 -0.0013691809137455376 0 0.0017049349417410195 -0.0010640265885815401 0 0.0015828962772664774 -0.0010870693729811217 0 0.001644134766603301 -0.0011027867769601381 0 0.001644134766603301 -0.0011027867769601381 0 0.0016228366581686419 -0.0011351708080242333 0 0.0016672149818474172 -0.0011248580514755546 0 0.001644134766603301 -0.0011027867769601381 0 0.0016672149818474172 -0.0011248580514755546 0 0.0016834385136438072 -0.0011018646158199126 0 0.0016672149818474172 -0.0011248580514755546 0 0.0016834385136438072 -0.0011018646158199126 0 0.0017167950721018181 -0.0011151898903126684 0 0.0017049349417410195 -0.0010640265885815401 0 0.001644134766603301 -0.0011027867769601381 0 0.0016834385136438072 -0.0011018646158199126 0 0.0017049349417410195 -0.0010640265885815401 0 0.0017167950721018181 -0.0011151898903126684 0 0.0018095733663245294 -0.0011159348405458606 0 0.0017049349417410195 -0.0010640265885815401 0 0.0016834385136438072 -0.0011018646158199126 0 0.0017167950721018181 -0.0011151898903126684 0 0.0016672149818474172 -0.0011248580514755546 0 0.0017167950721018181 -0.0011151898903126684 0 0.0016982876608633043 -0.0011533084191893131 0 0.0017167950721018181 -0.0011151898903126684 0 0.0016982876608633043 -0.0011533084191893131 0 0.0017583524198887621 -0.0011457164599894929 0 0.0017167950721018181 -0.0011151898903126684 0 0.0017583524198887621 -0.0011457164599894929 0 0.0018095733663245294 -0.0011159348405458606 0 0.0017583524198887621 -0.0011457164599894929 0 0.0018095733663245294 -0.0011159348405458606 0 0.0018100632672909496 -0.00116710960939513 0 0.0027183301067194945 -0.0027051659917896481 0 0.0027782155283954217 -0.0026119960147185997 0 0.0026384859646829744 -0.002582201923585195 0 0.0027782155283954217 -0.0026119960147185997 0 0.0026384859646829744 -0.002582201923585195 0 0.0026352592868357206 -0.0023632379537215755 0 0.0027183301067194945 -0.0027051659917896481 0 0.0026384859646829744 -0.002582201923585195 0 0.0025819768600269665 -0.0026950821478741952 0 0.0022853481601261987 -0.0017235461019780532 0 0.0024024880442234985 -0.0020070562105092456 0 0.0018095733663245294 -0.0011159348405458606 0 0.001902122319386004 -0.0011959612008455402 0 0.0018100632672909496 -0.00116710960939513 0 0.0026292676310594653 -0.002680819754180584 0 0.0024024880442234985 -0.0020070562105092456 0 0.001902122319386004 -0.0011959612008455402 0 0.0018156387411126156 -0.00120778597023099 0 0.0018100632672909496 -0.00116710960939513 0 0.0018156387411126156 -0.00120778597023099 0 0.001724111682253621 -0.0012139074268685394 0 0.0017522068389682777 -0.001176550384780949 0 0.001691747157246999 -0.0011861909011749024 0 0.0016982876608633043 -0.0011533084191893131 0 0.0017522068389682777 -0.001176550384780949 0 0.001691747157246999 -0.0011861909011749024 0 0.001724111682253621 -0.0012139074268685394 0 0.0017522068389682777 -0.001176550384780949 0 0.0016982876608633043 -0.0011533084191893131 0 0.0017583524198887621 -0.0011457164599894929 0 0.0017522068389682777 -0.001176550384780949 0 0.0017583524198887621 -0.0011457164599894929 0 0.0017522068389682777 -0.001176550384780949 0 0.0018100632672909496 -0.00116710960939513 0 0.0018156387411126156 -0.00120778597023099 0 0.0017522068389682777 -0.001176550384780949 0 0.0018100632672909496 -0.00116710960939513 0 0.002460025700737745 -0.0027101575877069273 0 0.0022564980592310931 -0.0026305140442478528 0 0.002472763663543028 -0.0025425733010107109 0 0.0022564980592310931 -0.0026305140442478528 0 0.002472763663543028 -0.0025425733010107109 0 0.0023344928267501905 -0.0024361053837999845 0 0.002460025700737745 -0.0027101575877069273 0 0.002472763663543028 -0.0025425733010107109 0 0.0025819768600269665 -0.0026950821478741952 0 0.0026384859646829744 -0.002582201923585195 0 0.002472763663543028 -0.0025425733010107109 0 0.0025819768600269665 -0.0026950821478741952 0 0.0026384859646829744 -0.002582201923585195 0 0.0026156189422472556 -0.0023981825365948792 0 0.002472763663543028 -0.0025425733010107109 0 0.0026156189422472556 -0.0023981825365948792 0 0.002472763663543028 -0.0025425733010107109 0 0.0024220641497901974 -0.0023628376388632618 0 0.002472763663543028 -0.0025425733010107109 0 0.0024220641497901974 -0.0023628376388632618 0 0.0023344928267501905 -0.0024361053837999845 0 0.002195202076055159 -0.0024263921057430683 0 0.0023344928267501905 -0.0024361053837999845 0 0.0022914515391652588 -0.0022591131034183803 0 0.0024220641497901974 -0.0023628376388632618 0 0.0023344928267501905 -0.0024361053837999845 0 0.0022914515391652588 -0.0022591131034183803 0 0.0024024880442234985 -0.0020070562105092456 0 0.00251376175642521 -0.002334230827915481 0 0.0026156189422472556 -0.0023981825365948792 0 0.0024220641497901974 -0.0023628376388632618 0 0.0024251688656329044 -0.0021896678503342299 0 0.0024220641497901974 -0.0023628376388632618 0 0.0022914515391652588 -0.0022591131034183803 0 0.0024251688656329044 -0.0021896678503342299 0 0.0022914515391652588 -0.0022591131034183803 0 0.0024251688656329044 -0.0021896678503342299 0 0.0023383852207408073 -0.0020887436214052364 0 0.0023383852207408073 -0.0020887436214052364 0 0.0024818744579617118 -0.0020812246493928173 0 0.0023146982458609844 -0.0019278979702432163 0 0.0024251688656329044 -0.0021896678503342299 0 0.0023383852207408073 -0.0020887436214052364 0 0.0024818744579617118 -0.0020812246493928173 0 0.0022914515391652588 -0.0022591131034183803 0 0.0023383852207408073 -0.0020887436214052364 0 0.0022494693332075146 -0.0021258803792328813 0 0.0023383852207408073 -0.0020887436214052364 0 0.0022494693332075146 -0.0021258803792328813 0 0.0022500687386840536 -0.0019909841430789288 0 0.0021782469165102449 -0.0021064948297686756 0 0.0022494693332075146 -0.0021258803792328813 0 0.0022500687386840536 -0.0019909841430789288 0 0.0021801152705728695 -0.002199034235446296 0 0.0022914515391652588 -0.0022591131034183803 0 0.0022494693332075146 -0.0021258803792328813 0 0.00172405514355282 -0.0013126501272626976 0 0.0018551524891243633 -0.001270479550964685 0 0.0017587830880523628 -0.0012492326433688114 0 0.0018156387411126156 -0.00120778597023099 0 0.001724111682253621 -0.0012139074268685394 0 0.0017587830880523628 -0.0012492326433688114 0 0.0018156387411126156 -0.00120778597023099 0 0.0018551524891243633 -0.001270479550964685 0 0.0017587830880523628 -0.0012492326433688114 0 0.001902122319386004 -0.0011959612008455402 0 0.0018156387411126156 -0.00120778597023099 0 0.0018551524891243633 -0.001270479550964685 0 0.001902122319386004 -0.0011959612008455402 0 0.0018551524891243633 -0.001270479550964685 0 0.0020212445832259265 -0.0013414741890272889 0 0.0025086544603552868 -0.0023232515736807242 0 0.0024251688656329044 -0.0021896678503342299 0 0.0024818744579617118 -0.0020812246493928173 0 0.0024024880442234985 -0.0020070562105092456 0 0.0022174603063384508 -0.0016669164599644602 0 0.0020212445832259265 -0.0013414741890272889 0 0.0018681158479007822 -0.0013533136358480796 0 0.0019013470312031274 -0.0014958366476828437 0 0.0018551524891243633 -0.001270479550964685 0 0.0020212445832259265 -0.0013414741890272889 0 0.0018681158479007822 -0.0013533136358480796 0 0.00172405514355282 -0.0013126501272626976 0 0.0018551524891243633 -0.001270479550964685 0 0.0018681158479007822 -0.0013533136358480796 0 0.00172405514355282 -0.0013126501272626976 0 0.0018681158479007822 -0.0013533136358480796 0 0.0017298239941429838 -0.0014104312986371991 0 0.0018681158479007822 -0.0013533136358480796 0 0.0019013470312031274 -0.0014958366476828437 0 0.0017298239941429838 -0.0014104312986371991 0 0.0019013470312031274 -0.0014958366476828437 0 0.0017298239941429838 -0.0014104312986371991 0 0.0017465456634343695 -0.0015885733810316583 0 0.0022174603063384508 -0.0016669164599644602 0 0.0022484152689331428 -0.0017992705261203417 0 0.0020212445832259265 -0.0013414741890272889 0 0.0019013470312031274 -0.0014958366476828437 0 0.002236289639823408 -0.0017539385106209733 0 0.0019013470312031274 -0.0014958366476828437 0 0.002236289639823408 -0.0017539385106209733 0 0.0020008389817044261 -0.0017683026373531002 0 0.002236289639823408 -0.0017539385106209733 0 0.0020008389817044261 -0.0017683026373531002 0 0.0021730200204747186 -0.0018557722881238547 0 0.0020008389817044261 -0.0017683026373531002 0 0.0017793817610907759 -0.0018822616628850052 0 0.0017465456634343695 -0.0015885733810316583 0 0.0019013470312031274 -0.0014958366476828437 0 0.0020008389817044261 -0.0017683026373531002 0 0.0017465456634343695 -0.0015885733810316583 0 0.0022500687386840536 -0.0019909841430789288 0 0.0023146982458609844 -0.0019278979702432163 0 0.0022999507022971829 -0.0018013621781987623 0 0.0023383852207408073 -0.0020887436214052364 0 0.0022500687386840536 -0.0019909841430789288 0 0.0023146982458609844 -0.0019278979702432163 0 0.0024818744579617118 -0.0020812246493928173 0 0.002236289639823408 -0.0017539385106209733 0 0.0023146982458609844 -0.0019278979702432163 0 0.002236289639823408 -0.0017539385106209733 0 0.0022999507022971829 -0.0018013621781987623 0 0.002259859094429642 -0.0018943753860323983 0 0.002236289639823408 -0.0017539385106209733 0 0.0023146982458609844 -0.0019278979702432163 0 0.0022999507022971829 -0.0018013621781987623 0 0.0024955839926803112 -0.0016907340880172362 0 0.0022999507022971829 -0.0018013621781987623 0 0.0024094260218303389 -0.0018280507381572336 0 0.0021682147049872031 -0.0019459010584552178 0 0.0022500687386840536 -0.0019909841430789288 0 0.0022999507022971829 -0.0018013621781987623 0 0.0023799379788580531 -0.001773810052386671 0 0.0022868974360544399 -0.0018184553463031494 0 0.002461529567978515 -0.0018715724990325108 0 0.0023822232293313774 -0.001903268420505291 0 0.0024094260218303389 -0.0018280507381572336 0 0.0023822232293313774 -0.001903268420505291 0 0.0024094260218303389 -0.0018280507381572336 0 0.0023279215853010946 -0.0018664256018366431 0 0.0022999507022971829 -0.0018013621781987623 0 0.0024094260218303389 -0.0018280507381572336 0 0.0023279215853010946 -0.0018664256018366431 0 0.0023822232293313774 -0.001903268420505291 0 0.0023279215853010946 -0.0018664256018366431 0 0.0023176841628409798 -0.0019121143728240816 0 0.0023279215853010946 -0.0018664256018366431 0 0.0023176841628409798 -0.0019121143728240816 0 0.002259859094429642 -0.0018943753860323983 0 0.0022999507022971829 -0.0018013621781987623 0 0.0023279215853010946 -0.0018664256018366431 0 0.002259859094429642 -0.0018943753860323983 0 0.002259859094429642 -0.0018943753860323983 0 0.0023101735554501611 -0.0019915701402613579 0 0.0021189066087409134 -0.0019788239436703244 0 0.0024299944503576752 0.00020912141783790365 0 0.0016531279226053121 -0.0017315481887954279 0 0.0023176841628409798 -0.0019121143728240816 0 0.002259859094429642 -0.0018943753860323983 0 0.0023101735554501611 -0.0019915701402613579 0 0.0035022666101746729 0.0023844844890067319 0 0.003376162141247592 0.0021866967532494872 0 0.0031239726854684199 0.0022417033819768406 0 0.0024838257123821028 -0.0019508217595348239 0 0.0023822232293313774 -0.001903268420505291 0 0.0023101735554501611 -0.0019915701402613579 0 0.0035022666101746729 0.0023844844890067319 0 0.0029547313472553125 0.0023084048214608876 0 0.0031239726854684199 0.0022417033819768406 0 0.0030399470611208821 0.0002194622181756241 0 0.0024299944503576752 0.00020912141783790365 0 0.0023822232293313774 -0.001903268420505291 0 0.0023176841628409798 -0.0019121143728240816 0 0.0023101735554501611 -0.0019915701402613579 0 0.0029925194822826998 0.002092345794768944 0 0.0029480634490437327 0.0023264680741558177 0 0.0031239726854684199 0.0022417033819768406 0 0.0024299944503576752 0.00020912141783790365 0 0.0026745506805422852 0.0013264138874702306 0 0.0012599569223484539 -0.0011185384836775543 0 0.001156995873956908 -0.0011685634039721019 0 0.0011000310669941917 -0.0011181535261017598 0 0.0016531279226053121 -0.0017315481887954279 0 0.001443735201992232 -0.0014787231754371925 0 0.0020008389817044261 -0.0017683026373531002 0 0.0021189066087409134 -0.0019788239436703244 0 0.0017793817610907759 -0.0018822616628850052 0 0.002236289639823408 -0.0017539385106209733 0 0.002259859094429642 -0.0018943753860323983 0 0.0021730200204747186 -0.0018557722881238547 0 0.0020008389817044261 -0.0017683026373531002 0 0.0021730200204747186 -0.0018557722881238547 0 0.0021189066087409134 -0.0019788239436703244 0 0.002259859094429642 -0.0018943753860323983 0 0.0021730200204747186 -0.0018557722881238547 0 0.0021189066087409134 -0.0019788239436703244 0 0.0024299944503576752 0.00020912141783790365 0 0.0017679257231639634 0.0005563931241948061 0 0.0014709142031150652 -0.0011709632764824178 0 0.0012599569223484539 -0.0011185384836775543 0 0.0012328216220160262 -0.0012232201528043938 0 0.0010727318802927113 -0.0012253777372843626 0 0.0012328216220160262 -0.0012232201528043938 0 0.001156995873956908 -0.0011685634039721019 0 0.0012599569223484539 -0.0011185384836775543 0 0.0012328216220160262 -0.0012232201528043938 0 0.001156995873956908 -0.0011685634039721019 0 0.0010727318802927113 -0.0012253777372843626 0 0.0011000310669941917 -0.0011181535261017598 0 0.0010098395304726951 -0.0011709800786966803 0 0.0010727318802927113 -0.0012253777372843626 0 0.001156995873956908 -0.0011685634039721019 0 0.0011000310669941917 -0.0011181535261017598 0 0.001443735201992232 -0.0014787231754371925 0 0.0012133985330739661 -0.0014078052537721344 0 0.0010098395304726951 -0.0011709800786966803 0 0.00098258436719135468 -0.0011656620627789808 0 0.00099632981374575785 -0.0011485872415704392 0 0.0011000310669941917 -0.0011181535261017598 0 0.0010098395304726951 -0.0011709800786966803 0 0.00099632981374575785 -0.0011485872415704392 0 0.0010098395304726951 -0.0011709800786966803 0 0.00098672927498757025 -0.0011737501740886503 0 0.00098258436719135468 -0.0011656620627789808 0 0.0010098395304726951 -0.0011709800786966803 0 0.00098358400932499219 -0.0011876041111009393 0 0.00098672927498757025 -0.0011737501740886503 0 0.0010727318802927113 -0.0012253777372843626 0 0.0010098395304726951 -0.0011709800786966803 0 0.0010114619140908976 -0.0011982105501618147 0 0.0010098395304726951 -0.0011709800786966803 0 0.0010114619140908976 -0.0011982105501618147 0 0.00098358400932499219 -0.0011876041111009393 0 0.00098358400932499219 -0.0011876041111009393 0 0.00096413575691580258 -0.0011891055400872427 0 0.00097029227764416622 -0.0011731084013221311 0 0.00098358400932499219 -0.0011876041111009393 0 0.00097029227764416622 -0.0011731084013221311 0 0.00098672927498757025 -0.0011737501740886503 0 0.00096413575691580258 -0.0011891055400872427 0 0.00097029227764416622 -0.0011731084013221311 0 0.00094271921932840804 -0.0011775094033440964 0 0.00097029227764416622 -0.0011731084013221311 0 0.00094271921932840804 -0.0011775094033440964 0 0.00094812285297945869 -0.0011701850681537741 0 0.00091974171085292802 -0.0011593569842086426 0 0.00094271921932840804 -0.0011775094033440964 0 0.00094812285297945869 -0.0011701850681537741 0 0.00094812285297945869 -0.0011701850681537741 0 0.00096329630256669022 -0.0011779514836041116 0 0.00094481560485851755 -0.001175238076673171 0 0.00092313618009541565 -0.0011580543367249985 0 0.00094812285297945869 -0.0011701850681537741 0 0.00094481560485851755 -0.001175238076673171 0 0.00097029227764416622 -0.0011731084013221311 0 0.00096329630256669022 -0.0011779514836041116 0 0.00097921109084036259 -0.0011888834036200414 0 0.00097029227764416622 -0.0011731084013221311 0 0.00094812285297945869 -0.0011701850681537741 0 0.00096329630256669022 -0.0011779514836041116 0 0.00094481560485851755 -0.001175238076673171 0 0.00097921109084036259 -0.0011888834036200414 0 0.00095429396478505495 -0.0011957682001816439 0 0.00096329630256669022 -0.0011779514836041116 0 0.00094481560485851755 -0.001175238076673171 0 0.00097921109084036259 -0.0011888834036200414 0 0.00097029227764416622 -0.0011731084013221311 0 0.00098672927498757025 -0.0011737501740886503 0 0.00098258436719135468 -0.0011656620627789808 0 0.00097029227764416622 -0.0011731084013221311 0 0.00097921109084036259 -0.0011888834036200414 0 0.00098258436719135468 -0.0011656620627789808 0 0.00097921109084036259 -0.0011888834036200414 0 0.00098258436719135468 -0.0011656620627789808 0 0.00099500151867728962 -0.0012532064954622921 0 0.0010215505807214557 -0.0012803880389072927 0 0.0012133985330739661 -0.0014078052537721344 0 0.00099500151867728962 -0.0012532064954622921 0 0.0010651784565632843 -0.0012170701636602427 0 0.0014061395260968174 -0.0016721829715283789 0 0.00098258436719135468 -0.0011656620627789808 0 0.00099500151867728962 -0.0012532064954622921 0 0.00099632981374575785 -0.0011485872415704392 0 0.00091427910679607431 -0.001162889841188477 0 0.00099500151867728962 -0.0012532064954622921 0 0.00095429396478505495 -0.0011957682001816439 0 0.00097921109084036259 -0.0011888834036200414 0 0.00099500151867728962 -0.0012532064954622921 0 0.00095429396478505495 -0.0011957682001816439 0 0.00091427910679607431 -0.001162889841188477 0 0.00099500151867728962 -0.0012532064954622921 0 0.0010651784565632843 -0.0012170701636602427 0 0.0013630239983126195 -0.0013714570186573792 0 0.0014314779383152003 -0.0013541906722236011 0 0.0014824778539871603 -0.0013959622769970455 0 0.0011380427001386573 -0.0012685002945259491 0 0.0012781044522615869 -0.0013170201766698642 0 0.0014667363083565371 -0.0013302082382374576 0 0.0014314779383152003 -0.0013541906722236011 0 0.0014113025835643107 -0.0013217289384073038 0 0.0013630239983126195 -0.0013714570186573792 0 0.0014314779383152003 -0.0013541906722236011 0 0.0014113025835643107 -0.0013217289384073038 0 0.0014667363083565371 -0.0013302082382374576 0 0.0014314779383152003 -0.0013541906722236011 0 0.0014824778539871603 -0.0013959622769970455 0 0.0014667363083565371 -0.0013302082382374576 0 0.0014824778539871603 -0.0013959622769970455 0 0.0015296117828883684 -0.0013660114767851434 0 0.0012781044522615869 -0.0013170201766698642 0 0.0015593795406489267 -0.0013986394803186071 0 0.0014824778539871603 -0.0013959622769970455 0 0.0015296117828883684 -0.0013660114767851434 0 0.001592337901290436 -0.0014237207300063042 0 0.0015965723939645811 -0.0013559277859398393 0 0.0015296117828883684 -0.0013660114767851434 0 0.001592337901290436 -0.0014237207300063042 0 0.0015965723939645811 -0.0013559277859398393 0 0.0017298239941429838 -0.0014104312986371991 0 0.001592337901290436 -0.0014237207300063042 0 0.0017298239941429838 -0.0014104312986371991 0 0.001592337901290436 -0.0014237207300063042 0 0.0017465456634343695 -0.0015885733810316583 0 0.0017793817610907759 -0.0018822616628850052 0 0.0017465456634343695 -0.0015885733810316583 0 0.0014061395260968174 -0.0016721829715283789 0 0.001592337901290436 -0.0014237207300063042 0 0.0017465456634343695 -0.0015885733810316583 0 0.0014061395260968174 -0.0016721829715283789 0 0.0010651784565632843 -0.0012170701636602427 0 0.001592337901290436 -0.0014237207300063042 0 0.0014061395260968174 -0.0016721829715283789 0 
</DataArray>
</PointData>
<CellData Scalars="region_id,cross_section_updated," Vectors="" Tensors="stress,">
<DataArray type="Float64" Name="region_id" format="ascii">
5 5 5 5 5 5 5 5 5 5 6 5 6 5 5 5 5 5 5 5 6 5 6 5 5 5 5 6 5 5 5 5 5 5 5 5 5 5 5 5 5 5 5 5 5 5 5 5 5 5 5 5 5 5 5 5 5 5 6 5 5 5 6 5 5 5 5 5 5 5 5 5 5 5 5 5 5 5 5 5 5 6 5 5 5 5 5 5 5 5 5 5 5 6 6 5 5 5 5 5 5 5 5 5 5 5 5 5 5 5 6 5 5 5 5 5 5 6 5 5 5 5 5 5 5 5 5 5 5 5 5 5 5 6 5 5 5 5 5 5 5 5 5 5 5 5 5 6 5 5 5 5 6 5 5 6 5 6 6 5 5 5 5 5 6 5 5 5 5 5 5 5 5 5 5 5 5 5 5 6 5 5 5 5 5 5 5 6 5 5 6 5 5 5 5 5 5 5 5 5 5 5 5 5 5 5 5 5 5 5 6 5 5 5 5 6 5 5 5 5 5 5 5 5 6 5 5 5 6 5 5 5 5 5 5 5 5 5 5 5 6 5 6 5 5 5 5 5 5 5 6 5 6 5 5 5 6 5 6 5 5 5 5 5 5 6 5 5 5 5 5 6 5 5 6 5 5 5 5 5 5 5 6 5 5 5 5 5 5 5 5 5 5 5 5 5 5 5 5 5 5 5 5 6 5 5 6 5 5 5 5 5 5 5 5 5 5 5 5 5 5 5 5 5 5 5 5 5 5 5 5 5 5 5 5 5 5 5 5 5 5 5 5 5 5 5 5 5 5 5 5 5 5 5 5 5 5 5 5 5 5 5 5 5 5 5 5 5 5 5 6 5 5 5 5 5 5 5 5 5 6 6 5 5 6 5 5 5 6 5 5 5 5 5 5 6 5 5 5 5 5 5 5 5 5 5 5 5 5 5 5 5 5 6 5 6 5 5 5 5 5 5 5 6 6 5 5 5 5 6 5 5 5 5 5 5 6 5 5 5 5 5 5 5 5 5 5 5 5 6 5 5 5 5 6 5 5 5 5 5 5 5 5 5 5 5 5 5 6 5 6 5 5 5 5 5 5 5 5 5 5 5 5 5 5 6 5 5 5 5 5 5 5 5 5 5 5 5 5 5 5 5 5 5 5 5 5 5 5 5 5 5 5 5 5 5 5 5 5 5 5 5 5 5 5 5 5 5 6 5 5 5 5 5 6 5 5 6 5 5 6 5 5 5 6 5 5 6 5 5 5 5 5 5 5 5 5 5 5 5 5 5 5 5 5 5 5 5 6 6 5 5 5 5 6 5 5 5 6 5 5 5 5 6 5 5 6 5 5 6 5 5 5 6 5 5 5 5 5 5 5 5 5 5 5 5 5 5 5 5 5 5 5 5 5 5 5 5 5 5 5 5 6 5 6 5 6 5 5 5 5 6 5 5 5 5 5 5 6 5 5 5 6 5 5 6 6 5 5 5 5 6 5 5 5 6 5 5 5 6 5 6 5 5 5 5 6 5 5 5 5 5 5 5 5 6 5 5 5 5 5 6 5 5 5 5 5 5 5 5 5 5 5 5 6 5 5 5 5 5 5 5 5 5 5 5 5 5 5 6 5 5 6 5 5 5 5 5 6 5 5 6 5 5 5 5 5 5 6 5 5 5 5 5 5 6 5 5 6 5 5 6 6 5 5 6 5 5 6 5 6 6 6 5 5 5 5 5 6 5 5 5 6 5 6 5 5 6 5 5 5 5 5 5 5 5 5 5 5 5 5 5 5 6 5 6 5 5 6 5 5 6 5 6 5 5 5 5 5 6 6 5 5 5 5 6 5 5 5 5 5 5 5 5 5 6 5 5 5 5 5 5 5 6 5 5 6 5 5 5 6 6 5 5 6 5 5 5 6 5 6 5 5 5 6 5 5 6 5 5 5 5 5 5 5 5 5 6 5 5 5 5 5 5 5 5 5 5 5 5 5 5 5 5 6 5 6 5 5 5 5 5 5 5 5 5 5 5 5 5 5 5 5 5 5 5 5 5 5 6 6 5 5 5 5 5 5 5 5 5 5 5 5 5 5 5 5 5 5 5 6 5 5 5 5 5 5 5 5 5 5 5 5 5 5 5 5 5 5 5 5 5 5 5 5 5 5 5 5 5 5 6 5 5 5 6 6 5 5 5 5 5 5 5 5 5 5 5 5 5 6 5 5 5 5 5 5 5 6 5 5 5 5 5 5 5 5 5 5 5 5 6 5 5 5 5 5 5 5 5 5 5 5 6 5 5 5 5 5 5 5 5 5 5 5 5 5 5 6 5 5 5 5 5 5 5 5 5 5 6 6 5 5 5 5 5 5 6 5 5 5 5 5 5 5 5 5 5 5 5 6 5 5 5 5 5 5 5 6 5 5 5 5 5 5 5 5 5 5 5 5 6 5 5 5 5 5 5 5 5 5 5 5 5 5 6 5 5 5 5 5 5 5 5 5 5 5 5 5 5 5 5 5 6 5 5 5 5 5 5 5 5 5 5 5 5 5 5 5 5 5 5 5 5 5 5 5 5 5 5 5 5 5 5 5 5 5 5 5 5 5 5 5 5 5 5 5 5 5 5 5 5 5 5 5 5 5 5 5 5 5 5 5 5 6 5 5 5 5 5 5 5 5 5 5 5 6 5 5 5 6 5 5 5 5 6 5 5 5 5 5 5 6 5 5 5 5 5 6 5 6 5 5 6 5 5 5 5 5 5 5 5 5 5 5 5 5 5 6 5 5 5 5 5 5 6 5 5 5 5 5 6 5 5 5 5 6 5 6 5 5 5 5 5 5 6 6 5 5 6 6 6 5 5 5 6 5 5 6 5 6 5 5 5 6 5 5 5 6 5 5 5 5 6 5 5 5 5 5 5 5 5 5 5 5 5 5 5 5 5 5 5 5 5 5 5 5 5 5 5 5 5 5 5 5 5 5 5 5 5 5 5 5 5 5 5 6 5 5 5 5 5 5 5 5 6 6 6 5 5 5 5 6 5 5 6 5 5 5 5 5 6 5 5 6 5 5 5 5 5 6 5 6 5 5 6 5 5 5 5 5 5 5 5 5 5 5 5 5 5 6 6 6 5 5 6 5 5 5 5 5 6 6 5 5 5 5 6 5 6 5 5 5 6 6 5 5 5 5 6 6 5 5 5 5 5 5 5 5 5 5 5 5 5 5 5 5 5 5 5 6 5 5 5 5 5 5 5 5 5 5 5 5 5 5 5 6 5 6 5 5 5 5 5 5 6 5 6 5 5 5 5 6 5 6 6 5 6 5 5 5 5 5 5 5 6 5 5 5 5 5 6 6 5 6 5 5 5 5 5 5 5 5 5 5 5 5 5 5 5 5 5 5 5 6 5 5 5 5 5 5 5 5 5 5 5 5 5 5 5 5 5 5 5 5 5 5 5 5 5 5 5 6 5 5 6 5 5 5 6 5 5 5 5 5 6 5 5 6 5 5 5 5 5 5 5 5 5 5 5 5 5 5 5 5 5 5 5 5 5 5 5 5 5 5 5 5 6 5 5 5 6 5 5 5 6 6 5 5 5 6 5 5 5 5 5 5 5 5 5 5 6 5 6 5 5 5 5 5 5 6 5 6 5 6 5 5 5 5 5 6 6 5 5 5 5 5 5 5 5 5 5 5 5 5 5 5 5 5 5 5 5 5 5 5 5 5 5 5 5 5 6 5 5 5 6 5 5 5 5 5 5 5 5 5 5 5 5 5 5 6 5 5 5 6 5 5 5 5 5 5 5 5 5 5 5 5 5 5 5 6 5 5 5 5 5 5 5 5 5 5 5 5 5 5 5 5 5 5 5 5 5 5 5 5 5 5 5 6 5 5 5 5 5 5 5 5 5 5 5 5 5 5 5 6 5 6 5 5 5 6 6 6 5 5 5 5 5 5 5 5 5 5 5 5 5 5 5 5 5 5 5 5 5 5 5 5 5 5 5 6 5 5 5 5 5 5 5 5 6 5 5 5 6 5 5 5 6 5 5 5 5 5 5 5 5 6 6 5 5 5 6 5 5 5 5 6 5 5 6 5 5 6 5 6 5 5 5 5 5 5 5 5 5 5 5 5 5 5 6 5 5 6 5 6 6 5 5 5 6 5 5 5 5 5 6 6 5 6 5 5 6 5 5 5 5 5 5 5 5 5 5 5 5 5 6 6 5 5 5 5 5 5 5 5 6 5 5 5 5 5 6 5 5 5 5 6 5 5 5 5 5 5 5 6 6 5 5 5 5 5 5 5 5 5 6 5 5 5 6 5 5 5 5 5 5 5 5 5 5 5 5 5 5 5 5 5 5 5 5 6 5 5 5 5 5 6 5 6 5 5 5 5 5 5 5 5 5 6 5 5 5 5 5 5 5 6 5 5 6 5 5 5 6 5 5 6 5 5 5 5 5 5 5 5 5 5 5 5 5 5 5 5 5 5 5 5 5 5 5 5 5 5 5 5 5 6 5 5 5 5 5 5 5 5 5 5 5 5 5 5 5 5 5 5 5 5 5 5 5 5 5 5 5 5 5 5 5 6 5 5 5 5 5 5 5 5 5 5 5 5 5 5 5 5 5 5 5 5 5 5 5 5 6 5 5 5 5 5 5 5 5 5 6 5 5 5 6 5 5 6 5 5 6 5 5 5 6 5 5 5 5 6 5 5 5 5 5 5 5 5 5 6 5 6 5 5 5 5 6 5 5 5 6 5 6 5 5 5 5 5 5 5 5 5 5 5 5 5 5 5 5 5 5 5 5 5 5 5 5 5 5 5 5 5 5 5 5 5 5 5 6 6 5 5 5 5 5 5 5 5 5 5 5 5 6 5 5 5 5 5 5 5 6 6 5 5 5 5 6 5 5 5 5 5 5 5 5 5 5 5 5 5 5 5 5 6 5 5 5 5 6 5 5 6 5 6 5 5 5 6 5 6 5 5 5 5 5 5 5 6 5 5 5 6 5 5 5 5 5 5 5 5 5 5 5 5 5 6 5 6 5 5 6 5 5 5 5 5 5 5 5 5 5 5 5 6 5 5 5 5 5 5 5 5 5 5 5 5 5 5 5 5 5 5 5 6 5 5 5 5 5 5 6 5 5 5 6 5 5 5 5 5 5 5 5 5 5 5 5 5 5 5 5 5 5 5 6 5 5 5 5 5 5 5 5 5 5 5 5 5 5 5 5 5 5 5 5 5 5 5 5 6 5 5 5 5 5 5 6 5 5 5 5 6 5 5 5 5 6 6 6 5 5 5 5 5 5 6 5 5 5 6 5 5 5 5 6 5 5 6 6 5 5 5 5 6 5 5 6 5 5 5 5 5 5 5 5 5 5 5 5 5 5 6 5 6 5 6 5 6 5 5 5 5 5 5 6 5 5 5 5 6 5 5 5 5 5 6 5 6 5 5 5 5 5 5 5 5 5 6 5 5 5 5 5 5 5 5 5 5 5 5 5 5 5 5 6 5 5 5 5 5 5 5 5 5 5 5 5 5 5 5 5 5 5 5 5 5 5 5 5 5 6 5 5 6 5 5 5 5 6 5 6 5 5 5 5 5 5 5 5 5 5 5 5 6 5 5 5 6 5 5 5 5 6 5 5 5 5 5 5 5 5 6 5 5 5 5 5 5 5 5 5 5 5 5 5 5 5 5 5 5 5 5 5 5 5 5 5 5 5 5 5 5 5 5 6 5 5 6 5 5 5 5 5 5 5 5 5 5 5 5 6 5 6 5 5 5 6 5 5 5 5 6 6 5 6 6 5 5 6 5 5 5 5 5 5 5 5 5 5 5 5 6 5 5 5 5 5 5 5 5 5 5 5 5 5 5 5 6 5 5 5 5 5 6 5 5 6 5 6 5 5 5 5 5 5 5 5 5 5 5 6 5 5 5 5 6 5 5 6 5 5 5 5 5 5 6 5 6 6 5 5 5 6 6 5 5 5 5 5 6 5 5 5 5 5 5 5 5 5 5 5 5 5 6 5 6 5 5 5 5 5 5 5 6 5 5 6 5 5 5 5 5 5 6 5 6 5 5 5 5 5 5 5 5 6 5 5 5 6 5 5 5 5 5 5 5 5 5 5 5 5 6 5 5 5 6 5 6 5 5 5 5 5 6 6 5 5 5 5 5 5 5 5 5 5 5 5 5 5 5 5 5 5 5 5 5 5 5 5 5 5 5 5 5 5 5 5 5 5 5 5 5 5 5 5 5 5 5 5 5 5 5 5 6 5 6 5 5 5 5 5 5 6 5 5 5 5 5 5 5 5 5 5 5 5 5 5 5 5 5 5 5 5 5 5 5 5 5 5 5 6 5 5 5 5 6 5 5 6 6 5 5 5 5 6 5 5 6 5 5 6 5 5 5 5 5 5 5 5 5 6 5 5 5 5 5 5 5 5 5 5 5 5 5 5 5 5 5 5 5 5 5 5 5 5 5 6 5 5 5 5 6 5 6 5 5 5 5 5 5 5 5 5 5 5 5 5 6 5 6 5 5 5 5 5 5 5 5 5 5 5 5 5 5 5 5 5 5 5 5 5 5 6 5 5 5 5 5 5 5 5 5 5 5 5 5 5 5 5 5 5 5 5 5 5 5 5 5 5 6 5 5 5 5 5 5 5 5 5 5 5 5 5 5 5 5 5 5 5 5 5 5 5 5 5 5 5 5 5 5 6 5 5 5 5 5 5 5 5 5 5 5 5 5 5 5 5 5 5 5 6 5 5 5 5 5 5 5 5 5 5 5 5 5 5 5 5 5 5 5 5 5 5 5 5 6 5 6 5 5 5 5 5 5 5 5 5 5 5 5 5 6 5 5 6 5 6 5 6 5 5 5 5 5 5 5 5 5 5 5 6 5 5 5 5 5 6 5 5 6 5 5 5 5 5 5 6 5 5 5 6 5 5 5 5 5 5 5 5 6 5 5 5 5 5 5 5 5 5 5 6 5 5 5 5 5 6 5 5 5 6 5 5 5 6 5 5 5 6 6 5 5 5 6 5 5 6 5 5 6 5 5 5 5 5 5 5 5 5 5 6 5 5 6 5 5 5 5 6 5 6 5 5 5 5 6 5 5 5 5 5 5 5 6 5 5 5 5 6 5 5 6 5 5 6 5 5 5 5 5 5 5 5 5 5 5 5 5 5 5 5 5 5 5 5 5 5 6 5 5 5 5 6 5 5 5 5 5 5 6 5 5 5 5 5 5 5 5 6 5 6 5 5 5 5 5 5 5 5 5 5 5 5 5 5 5 5 5 5 5 5 5 6 5 5 5 5 5 5 5 6 5 5 5 6 5 5 6 6 5 5 5 5 5 5 5 5 5 6 5 5 5 5 5 5 5 5 5 5 5 5 5 5 5 5 5 5 5 5 5 5 5 5 5 5 5 5 5 5 6 5 5 5 5 5 5 5 5 5 5 6 5 5 5 5 5 5 5 5 5 5 5 5 5 6 5 5 5 5 5 5 5 5 5 5 5 5 6 5 6 5 5 5 6 6 5 5 5 5 5 5 5 5 6 5 5 5 6 5 5 5 5 5 5 5 5 5 5 5 5 5 5 5 5 5 5 5 5 5 5 6 6 5 5 5 5 5 6 5 5 5 5 5 5 6 5 5 5 5 5 5 5 5 5 5 5 5 5 5 5 5 5 5 5 5 5 5 5 5 5 5 5 5 5 5 5 5 5 6 5 5 5 5 5 5 5 5 5 5 5 5 6 5 5 6 5 5 6 5 6 5 5 5 6 6 5 5 5 5 5 5 6 5 5 5 5 5 5 5 6 6 5 6 5 5 5 6 5 5 5 5 5 5 5 5 5 5 5 6 6 5 5 5 5 5 6 5 5 5 5 5 5 5 5 6 6 5 5 5 5 6 5 5 5 6 5 5 5 5 5 5 5 6 5 5 5 5 5 5 5 5 5 5 5 6 5 5 6 5 5 6 5 6 5 5 6 5 6 5 6 5 5 6 5 5 6 5 5 5 5 6 5 5 5 5 6 5 5 5 5 5 6 5 5 5 5 5 5 5 5 6 5 5 5 5 5 5 5 5 6 5 5 5 5 5 5 5 5 5 5 5 5 5 5 5 5 5 5 5 5 6 5 5 5 5 5 5 5 5 5 5 5 6 5 5 5 5 5 5 5 5 5 5 5 5 5 6 5 5 5 5 5 6 5 5 6 5 5 5 5 5 5 6 5 5 6 5 6 5 5 6 6 5 5 5 5 5 5 5 5 5 5 5 5 5 5 5 6 5 5 5 5 5 5 5 5 5 5 5 5 5 5 5 5 5 5 5 5 6 5 5 5 5 5 5 5 5 5 5 5 5 5 5 5 5 5 6 5 5 5 5 5 5 5 5 5 5 5 6 5 5 5 5 5 5 5 5 5 5 5 5 5 5 6 5 5 5 5 5 5 6 5 5 5 5 5 5 5 5 5 5 5 5 5 5 5 5 5 5 5 5 5 5 5 5 5 5 5 5 5 5 5 5 5 5 5 5 5 5 5 5 5 5 5 5 5 5 5 5 5 5 6 5 5 5 5 6 5 6 5 5 5 5 5 6 5 5 5 5 5 5 5 5 5 5 5 5 5 5 5 5 5 5 6 5 5 5 5 6 5 5 5 5 6 5 5 6 6 5 6 5 5 5 5 5 6 5 5 6 5 5 5 5 5 5 5 5 5 5 5 5 5 5 5 5 5 5 6 5 5 5 5 5 5 5 5 5 5 5 5 5 6 5 5 6 6 5 5 5 6 5 6 5 6 6 5 5 5 5 6 5 5 5 6 5 5 5 5 5 5 5 5 5 5 5 5 5 5 5 5 5 5 5 6 6 5 5 6 5 6 5 6 5 5 5 5 5 5 5 5 5 5 5 5 5 6 6 5 5 5 6 5 5 6 5 5 5 6 5 5 5 5 5 6 5 5 5 5 6 6 5 5 5 5 5 5 5 5 5 5 5 6 5 5 5 5 5 5 5 5 5 5 5 5 5 5 5 5 5 5 5 6 5 5 5 5 6 5 5 5 5 6 6 5 5 5 5 5 5 6 5 5 5 5 5 5 6 5 5 5 5 6 6 5 5 5 5 5 5 5 5 6 5 5 5 5 5 6 5 5 5 5 6 5 5 5 5 5 5 5 5 5 5 5 5 5 5 5 5 5 5 5 5 5 5 5 5 5 5 5 5 5 5 5 5 5 5 5 5 6 5 5 5 6 5 6 5 5 5 6 5 5 5 6 5 5 5 5 5 5 6 5 5 5 5 5 5 5 5 5 5 5 5 5 5 5 5 5 5 5 5 5 5 5 5 5 5 5 5 5 5 5 5 5 5 5 5 5 5 5 5 5 5 5 5 5 5 5 5 5 5 5 5 5 5 5 5 5 5 5 5 5 5 5 5 5 5 5 5 5 5 5 5 5 5 5 5 5 5 5 5 5 5 5 5 5 5 5 5 5 5 5 5 5 5 5 5 5 5 5 5 5 5 5 6 5 5 5 5 5 6 5 5 5 5 5 5 5 5 5 5 5 5 5 5 5 5 5 5 5 5 5 5 5 5 5 5 6 5 5 5 6 5 5 5 5 5 6 5 5 5 5 5 5 5 5 5 5 5 5 5 5 5 5 5 5 5 5 5 6 5 5 5 6 5 5 6 5 5 5 5 6 5 5 5 5 5 5 5 5 5 5 5 5 6 5 6 5 5 5 5 5 5 5 5 5 5 5 5 5 5 6 5 5 5 5 5 5 5 6 5 5 6 5 5 5 5 5 5 5 5 5 5 5 5 5 5 5 5 5 5 6 6 5 5 5 5 5 5 5 5 5 5 5 5 5 5 5 5 5 5 5 5 6 5 6 5 5 5 5 5 5 5 5 6 5 5 5 5 5 5 6 5 5 6 5 5 5 5 5 5 6 6 6 6 5 5 6 5 5 5 5 5 5 5 5 5 5 5 5 5 5 5 5 5 5 5 6 5 5 5 5 5 5 5 5 5 5 5 5 5 5 5 5 5 5 5 5 5 5 5 5 5 5 6 6 6 5 5 5 6 5 5 5 5 5 5 5 5 5 5 5 5 5 5 5 5 5 5 5 5 5 5 5 5 5 5 5 5 5 5 5 5 5 5 5 5 5 5 5 6 5 5 5 5 6 6 5 6 5 5 6 5 5 6 5 5 5 5 5 5 6 5 5 5 5 5 5 5 6 5 6 5 6 6 5 5 5 5 5 5 5 5 5 5 5 5 6 5 5 5 5 5 5 5 5 5 5 5 6 5 5 5 5 5 5 5 5 5 5 5 5 5 5 5 5 6 5 5 5 5 5 5 5 5 5 5 5 6 5 5 5 5 5 5 6 5 5 6 6 5 5 6 5 5 5 5 5 6 5 5 5 6 5 6 5 5 5 5 6 5 5 5 6 5 5 6 5 5 5 5 5 5 6 5 5 5 5 5 6 5 6 5 5 6 6 5 5 5 5 5 5 6 5 5 5 5 5 5 5 5 5 5 5 5 5 5 5 5 6 5 5 5 5 5 6 5 5 6 5 5 5 5 6 5 5 5 5 6 5 5 5 5 5 5 5 5 6 5 5 5 5 5 5 6 5 5 6 5 5 5 6 5 5 5 6 6 5 5 5 5 5 5 5 5 6 5 5 6 5 5 5 5 5 5 5 5 5 5 6 5 5 5 5 5 5 5 6 5 5 5 5 6 5 5 5 6 5 5 5 5 6 6 6 5 6 5 6 5 5 5 6 5 6 5 6 6 6 6 5 5 5 5 6 5 6 5 5 5 6 5 6 5 6 5 5 6 5 5 5 5 5 5 6 5 5 5 5 5 5 5 5 5 5 5 5 5 5 5 5 6 5 5 5 6 5 6 6 5 5 6 5 5 6 5 5 5 5 5 5 5 6 5 5 5 5 5 5 5 6 5 5 5 6 6 5 5 5 5 5 5 5 6 5 6 6 5 6 6 5 6 6 5 5 5 6 5 5 5 5 5 5 5 5 5 5 5 5 5 5 5 5 6 5 5 6 5 5 5 5 5 5 5 5 5 5 5 5 5 5 5 5 5 5 5 5 5 5 5 5 5 5 5 5 5 5 5 5 5 5 5 5 5 5 5 5 5 5 5 5 6 5 5 6 5 5 5 5 5 5 5 5 5 5 5 5 5 5 5 5 5 5 5 5 5 5 5 5 5 5 5 6 6 5 6 5 5 5 5 5 5 5 5 5 5 5 5 5 5 5 5 5 5 5 5 5 5 5 5 5 5 5 6 5 5 5 5 5 5 6 5 6 5 5 6 5 5 5 5 5 5 5 5 5 5 5 5 5 5 5 6 5 5 5 5 5 5 5 5 5 5 5 5 5 5 5 5 5 5 5 5 5 5 5 5 5 5 5 5 5 5 5 5 5 5 5 5 5 5 5 5 5 5 5 5 5 5 5 5 5 5 5 5 5 5 5 5 5 5 5 5 5 5 5 5 5 5 5 6 5 5 6 5 5 6 6 5 6 5 6 5 5 5 5 5 5 6 5 5 5 5 5 5 5 5 6 5 5 5 6 5 5 5 5 5 5 5 5 5 5 5 6 6 5 5 5 5 5 6 6 5 5 5 5 5 5 5 5 5 6 5 5 5 6 5 6 5 5 5 5 5 5 5 5 5 5 5 5 5 5 5 5 5 5 5 5 6 5 5 5 5 5 5 5 5 5 5 5 6 5 5 5 5 5 5 6 6 5 5 5 6 5 5 5 5 5 5 6 5 5 5 5 5 5 5 5 5 5 5 5 5 5 5 5 5 5 5 5 5 5 5 5 5 5 5 5 6 5 5 5 5 5 5 6 5 5 5 5 5 5 5 5 5 5 5 5 5 5 5 5 5 5 5 5 5 5 5 5 5 5 5 5 5 5 5 5 5 5 5 5 5 5 5 5 5 5 5 6 5 6 5 5 5 5 6 5 5 6 5 5 5 5 5 5 5 5 5 6 5 5 6 6 6 5 5 5 6 5 5 5 5 5 5 5 5 5 5 5 5 6 5 5 5 6 6 6 5 5 5 6 5 6 5 5 5 5 5 6 5 5 5 5 5 5 6 5 5 5 5 5 5 5 5 5 5 5 5 5 5 5 6 6 5 5 6 5 5 5 5 5 5 6 5 5 5 5 5 6 5 5 5 5 5 6 5 5 5 5 6 5 5 6 5 5 5 5 6 5 5 5 5 5 5 5 5 6 5 5 5 5 5 5 6 5 5 5 5 5 5 6 5 5 5 5 6 5 5 5 6 6 5 5 5 6 5 6 6 6 5 5 5 5 5 5 5 5 5 5 5 5 5 5 5 5 5 5 6 6 5 5 5 6 6 5 5 5 6 5 5 5 5 5 5 5 5 5 5 5 5 5 5 5 5 5 5 5 5 5 5 5 5 5 5 5 5 5 6 5 5 5 5 5 5 5 6 5 5 5 5 5 6 5 6 5 5 5 6 5 5 6 5 5 5 5 6 5 5 5 5 5 5 5 6 6 5 5 5 5 6 5 6 5 5 5 6 5 5 5 5 6 5 5 5 5 6 5 6 6 5 5 5 5 6 5 6 6 6 6 6 5 5 5 6 5 5 6 6 5 5 6 5 5 5 5 5 6 6 5 5 5 6 5 5 6 5 5 5 5 5 5 5 5 5 5 5 5 5 5 5 5 5 5 5 5 5 5 5 5 6 5 5 5 5 5 6 5 6 5 5 5 5 5 6 5 5 5 5 5 5 5 5 5 5 5 5 5 5 5 5 5 5 5 5 5 5 5 5 5 5 5 5 5 5 5 5 5 5 5 5 5 5 6 5 5 6 5 5 5 6 5 6 5 6 6 5 6 5 6 5 5 5 6 5 5 5 5 5 5 6 5 5 5 5 5 6 5 5 6 5 5 5 5 5 6 5 6 5 5 5 6 5 5 5 5 6 5 5 5 5 6 5 5 6 5 6 5 5 5 5 5 5 5 5 6 5 5 5 5 6 5 5 5 5 5 5 5 5 5 5 5 6 5 5 5 5 5 5 5 5 5 5 5 5 6 5 5 5 5 5 6 5 6 5 5 6 5 5 6 6 5 5 5 5 5 5 5 5 5 5 6 5 5 5 6 5 5 5 5 5 5 6 5 5 5 5 5 5 5 5 5 5 5 5 5 5 5 5 5 5 5 5 5 5 5 5 5 5 5 5 5 5 5 5 6 5 5 5 5 5 5 5 6 5 5 6 5 5 5 5 5 5 5 5 5 5 5 5 5 6 5 5 5 5 5 5 5 5 5 5 5 5 5 5 5 5 5 5 5 5 6 5 5 5 6 5 5 5 5 5 5 6 5 5 5 6 5 5 5 5 5 5 5 5 5 5 5 5 5 5 5 5 5 5 5 5 6 5 5 5 5 6 5 5 5 5 5 5 5 5 5 5 5 5 5 5 5 5 5 5 5 6 5 5 5 5 5 5 5 6 5 5 5 5 5 5 5 5 5 5 5 5 5 5 5 6 5 5 5 5 5 5 5 6 5 5 6 6 5 5 6 6 5 5 5 6 5 5 5 6 5 5 5 5 5 5 5 5 5 6 5 5 5 5 5 5 6 5 5 5 5 5 5 5 5 6 6 6 5 5 6 5 5 5 5 5 5 5 5 5 5 5 5 5 5 6 5 5 5 5 6 6 6 5 5 5 6 5 5 5 5 5 5 5 5 5 5 5 5 5 5 5 5 5 5 5 5 6 6 5 5 6 6 5 5 5 5 5 5 5 5 6 5 5 6 5 5 5 5 5 5 5 5 5 5 5 5 5 5 5 5 5 5 5 6 5 5 5 5 5 5 6 5 5 5 5 5 5 5 5 5 5 5 5 5 5 5 5 5 5 5 5 5 5 5 5 5 5 5 5 5 5 5 5 5 5 5 5 5 5 5 5 5 5 5 5 5 5 5 5 5 5 6 5 5 5 6 5 5 5 5 6 5 6 5 5 5 6 6 5 5 5 5 6 5 5 6 5 5 5 5 5 5 6 5 6 5 5 5 5 5 5 5 5 5 5 6 5 6 5 5 5 5 5 5 5 5 6 5 5 5 5 5 6 5 5 5 6 5 5 5 5 5 6 5 5 5 5 5 5 5 5 6 5 5 5 5 5 5 5 5 6 5 5 6 6 5 5 6 6 5 6 5 5 5 5 5 5 5 5 5 5 5 5 5 5 5 5 5 5 5 5 5 5 5 5 5 5 5 5 5 5 5 6 5 5 5 5 5 5 5 5 5 5 5 5 5 5 5 5 6 5 5 5 5 5 5 5 5 6 5 5 5 5 5 5 5 5 5 5 5 5 6 5 5 5 5 5 5 5 5 5 5 5 5 5 5 5 5 5 5 5 5 5 5 5 5 6 5 6 5 5 5 5 5 5 5 5 5 5 6 5 5 5 5 5 6 5 5 5 5 5 5 5 5 5 5 5 5 5 5 5 5 5 5 5 5 5 6 5 5 5 5 5 5 5 5 5 5 5 5 5 6 6 5 5 5 6 5 5 5 6 5 5 6 5 5 5 5 5 5 5 6 5 5 5 5 5 5 6 6 5 6 5 5 5 5 5 5 5 5 6 5 5 5 5 5 5 5 5 5 5 5 5 5 5 6 5 5 5 5 6 5 5 5 5 5 5 5 5 5 5 5 5 5 5 5 5 5 5 5 6 5 5 5 5 5 6 5 5 5 5 5 5 6 5 5 5 5 5 5 5 5 5 6 5 5 5 6 6 5 5 5 5 5 6 5 5 5 5 5 5 5 5 5 5 5 5 5 5 5 5 5 5 5 5 5 5 5 5 6 6 5 5 5 6 5 5 5 5 5 5 5 5 5 5 5 5 5 5 6 5 5 5 5 5 6 5 5 5 6 5 5 5 5 5 5 5 5 5 5 5 5 5 5 5 5 5 5 5 5 6 5 5 5 5 5 5 5 5 5 5 6 5 5 5 5 5 5 5 5 5 5 5 5 5 5 5 5 5 6 5 6 5 5 5 5 5 5 5 5 5 6 5 5 5 5 5 5 5 5 5 5 5 5 5 5 5 5 5 5 5 5 5 5 5 5 5 5 5 5 5 5 5 5 5 6 5 5 5 5 5 5 5 5 5 5 6 5 5 5 5 5 6 5 5 5 5 5 6 5 5 5 5 6 5 5 5 5 5 5 5 5 5 5 5 5 5 5 5 6 5 5 5 5 5 5 5 6 5 5 5 5 6 5 5 5 5 5 5 5 5 6 5 5 5 5 5 5 5 5 5 5 6 5 5 5 5 5 5 5 5 6 5 5 5 6 6 5 5 6 5 5 5 5 5 5 5 5 5 5 6 5 5 5 6 5 5 5 5 5 5 5 5 5 5 5 6 5 5 5 5 5 5 5 5 5 5 5 5 5 5 5 5 5 5 5 6 5 5 5 5 5 5 5 5 5 5 5 5 5 5 5 5 5 6 5 5 5 5 6 5 5 5 5 6 5 5 5 5 5 5 5 5 5 5 5 6 5 5 5 6 5 5 5 5 5 5 5 6 5 5 5 5 5 5 5 5 5 5 6 5 6 5 5 5 5 6 6 5 5 5 5 5 5 5 5 5 5 5 5 5 5 5 5 5 5 5 5 5 6 5 5 5 5 5 6 5 5 5 5 5 6 5 5 5 6 5 5 5 5 5 5 5 5 5 5 5 5 5 5 5 5 6 5 5 5 5 5 5 5 5 5 6 5 6 5 5 5 6 6 5 6 5 5 5 5 5 5 5 5 6 5 5 5 5 6 5 5 5 6 5 5 6 5 5 6 5 5 5 5 5 5 6 5 5 5 5 6 6 5 5 5 5 5 5 5 5 5 6 5 5 5 5 6 6 5 5 5 5 6 5 5 6 5 6 5 5 5 5 6 5 5 5 5 6 5 5 5 5 5 5 5 5 5 5 5 5 5 5 5 5 5 5 5 5 6 5 5 5 5 5 5 5 6 5 5 5 5 6 5 5 5 5 5 5 5 5 5 5 5 5 5 5 5 5 5 5 5 5 5 5 5 5 5 5 5 5 5 5 5 5 5 5 5 5 5 5 5 5 5 5 5 5 5 5 5 5 5 5 5 5 5 5 5 5 5 6 5 5 5 5 6 5 5 5 5 5 6 5 5 5 5 5 5 5 5 5 5 5 5 6 5 5 5 5 6 5 5 6 5 5 5 5 6 5 5 5 5 5 6 5 5 5 5 6 5 6 5 5 5 6 5 5 5 5 6 5 6 5 5 6 6 5 5 6 5 5 5 5 5 5 5 6 5 5 5 6 5 6 5 5 5 5 5 5 6 5 6 6 5 5 5 5 5 5 5 5 5 5 5 5 6 5 5 5 5 6 5 5 5 5 5 5 5 5 5 5 6 5 5 5 5 5 5 6 5 5 5 5 5 5 5 5 5 5 6 5 5 6 5 5 5 5 5 5 5 5 6 5 5 5 5 6 5 5 5 6 5 6 5 5 5 6 6 5 5 6 5 5 6 5 5 5 5 6 6 5 6 5 5 5 5 6 5 5 5 5 6 5 5 5 5 6 5 5 5 5 6 5 5 5 5 6 6 6 5 6 5 6 5 5 6 5 5 5 5 5 5 6 5 5 5 5 5 5 6 5 5 5 5 5 5 5 5 5 5 5 5 5 5 5 6 5 5 5 6 5 5 5 5 5 6 5 5 6 5 5 5 5 5 5 5 6 5 5 5 5 5 5 5 5 5 5 5 5 5 5 5 5 6 5 5 5 5 5 6 5 5 5 5 5 5 5 5 5 5 5 5 6 5 5 5 6 5 5 6 5 6 5 5 5 5 6 6 6 5 5 5 5 5 5 5 5 5 5 5 5 5 5 5 5 6 5 5 5 5 5 5 5 5 5 5 5 5 5 5 5 5 5 5 5 5 5 5 5 6 5 6 5 6 5 5 5 5 5 5 5 6 5 5 5 5 6 5 6 5 5 5 5 5 5 5 5 5 5 5 5 5 5 6 5 5 6 5 5 5 5 5 5 5 5 5 5 5 5 5 5 5 5 5 5 6 5 5 5 5 5 6 5 5 6 5 5 6 5 5 5 5 5 5 5 5 5 5 5 5 5 6 5 5 5 5 5 5 5 5 5 5 5 5 5 5 5 5 5 5 5 5 5 5 5 5 5 5 5 5 5 5 5 5 5 5 5 5 5 5 5 5 5 5 5 5 5 5 5 5 5 5 5 6 5 5 5 5 5 5 5 5 5 5 5 5 5 5 5 5 5 5 5 5 5 5 5 5 5 5 5 5 5 5 5 5 5 5 5 5 5 5 5 5 5 6 5 5 6 5 5 6 5 5 5 5 5 6 5 5 5 5 6 5 6 5 5 5 5 5 6 5 5 5 5 5 5 5 5 5 5 5 5 5 5 5 5 5 5 5 5 5 5 5 5 5 5 5 5 5 5 5 5 5 6 5 6 5 5 6 5 5 5 5 5 6 5 5 5 5 5 5 6 5 5 5 5 5 5 5 5 5 5 5 6 5 6 5 5 5 6 5 5 5 5 6 5 5 6 5 5 5 5 5 5 5 6 5 5 5 6 5 5 5 5 5 6 5 5 5 5 5 5 5 5 5 5 5 5 5 5 5 5 5 5 5 5 5 5 5 5 5 5 5 5 5 5 5 6 5 5 6 5 5 5 5 6 5 5 6 6 5 5 5 6 5 5 5 5 5 5 6 5 5 5 5 5 5 5 5 5 5 5 5 5 5 5 5 5 5 5 5 5 5 5 5 5 5 6 6 5 5 5 5 5 6 5 5 6 5 5 5 5 5 6 5 5 5 6 5 5 5 5 5 5 5 5 5 5 5 5 5 5 5 6 5 6 5 5 5 5 5 5 6 5 5 6 5 5 5 5 5 5 5 5 5 5 5 5 5 5 5 5 5 5 5 5 5 5 5 5 5 5 6 5 5 6 5 5 5 5 6 5 5 5 5 5 5 5 5 5 5 5 5 5 5 5 5 5 5 5 5 5 5 5 5 5 5 5 5 5 5 5 5 5 5 5 5 5 5 5 5 6 5 5 5 5 6 5 5 6 5 6 5 5 5 5 5 5 5 6 5 5 5 5 5 5 5 5 5 6 5 5 5 5 5 5 5 6 5 5 5 5 6 5 5 5 5 5 5 5 5 5 5 6 5 5 5 5 5 5 5 5 5 5 5 6 5 6 5 5 5 5 5 5 5 5 5 5 5 5 5 5 5 5 5 5 5 5 5 5 5 5 6 5 5 5 5 5 5 6 5 6 5 5 5 6 5 5 5 6 5 5 5 5 5 5 5 5 6 5 5 5 6 5 5 6 5 5 5 5 5 5 5 5 5 5 5 5 6 5 5 5 6 5 5 5 5 5 5 5 6 5 5 5 5 5 5 5 5 5 5 6 5 5 5 5 5 6 6 5 6 5 5 5 6 5 5 5 5 5 5 5 5 5 6 5 5 5 5 5 6 5 5 5 5 5 5 5 5 6 5 5 5 6 5 5 6 5 5 5 6 5 5 5 5 5 5 5 5 5 5 5 5 5 5 5 5 5 5 5 6 5 5 6 5 5 5 5 5 5 5 5 5 5 5 5 5 5 5 5 5 5 6 5 5 5 5 6 5 5 5 5 5 5 5 5 5 5 6 5 5 5 5 5 5 6 5 5 5 5 5 5 5 5 5 5 5 5 5 5 5 5 5 5 5 5 5 6 5 5 5 5 5 5 6 5 5 6 5 6 5 5 6 5 6 5 5 5 6 5 5 6 6 5 5 5 6 5 5 5 6 5 5 6 5 5 5 6 5 5 5 5 5 5 5 5 5 5 5 5 5 5 5 5 5 5 5 5 5 5 5 5 6 5 6 5 5 5 6 5 5 6 5 5 5 5 5 5 5 5 5 5 5 6 5 5 5 5 6 6 5 5 6 5 5 5 5 6 5 5 5 5 5 5 5 6 5 5 6 5 5 5 6 5 5 5 6 5 5 5 5 5 5 5 5 5 5 5 5 5 5 5 5 5 5 5 6 5 5 5 5 6 5 5 6 5 5 5 6 5 5 6 5 5 6 5 5 6 5 5 5 5 5 5 5 5 5 5 5 5 5 5 5 5 5 6 6 6 5 6 6 5 5 5 6 5 5 5 5 5 6 5 6 5 5 5 5 6 5 5 5 5 5 5 5 5 5 5 5 5 5 5 5 5 5 5 6 5 5 5 5 6 5 5 6 5 5 5 5 5 5 5 6 6 5 5 5 6 5 6 5 5 5 5 5 5 5 5 5 5 6 5 5 5 5 5 5 5 5 5 5 6 5 5 5 5 6 5 5 5 5 6 5 5 5 5 6 5 5 5 6 5 5 5 6 6 5 6 5 6 5 5 5 5 5 5 5 5 6 5 5 6 5 5 5 6 5 5 5 6 5 5 5 5 5 5 5 5 5 5 5 6 5 5 5 6 5 5 5 6 5 5 5 6 5 5 5 5 5 5 5 5 5 5 5 6 5 5 5 5 6 5 5 5 5 5 5 5 6 5 5 5 5 5 5 6 5 5 5 5 5 5 5 5 5 5 6 5 5 6 5 5 5 5 5 5 6 5 6 5 5 5 5 6 5 5 5 5 5 6 5 5 5 5 5 5 5 5 5 5 5 5 5 5 6 5 5 5 5 5 5 5 5 5 5 5 5 5 5 5 5 5 5 5 5 5 5 5 5 5 6 6 5 5 5 5 6 6 5 5 5 5 6 5 5 5 5 5 5 5 5 5 5 5 5 5 5 5 6 5 5 6 5 5 5 5 5 5 5 5 5 5 5 5 5 5 5 5 5 5 5 6 5 5 5 5 5 5 5 5 5 5 6 5 5 5 5 5 5 5 6 5 5 5 5 5 5 6 5 5 5 6 5 5 5 5 5 5 5 5 6 5 5 5 5 5 5 5 5 5 5 5 5 5 5 5 5 5 5 5 5 5 5 5 5 5 5 5 6 5 5 5 5 5 5 5 6 5 5 5 5 6 5 5 5 5 5 5 5 5 6 5 5 6 5 5 5 6 5 5 5 6 5 5 5 6 5 5 5 5 5 5 5 5 5 5 5 5 5 5 5 5 5 5 5 5 5 5 5 5 5 5 5 5 5 5 5 5 5 5 5 6 5 5 5 6 5 5 6 5 5 5 5 6 5 6 5 6 5 5 5 5 5 5 6 5 5 5 6 6 5 6 5 6 5 6 5 6 6 5 5 5 6 6 5 6 5 6 5 6 6 5 5 5 5 5 5 5 5 5 5 5 5 5 5 6 6 5 6 5 5 5 5 5 5 5 6 5 5 5 5 5 5 5 5 5 5 5 5 5 5 5 5 5 5 5 5 5 5 5 5 5 5 5 5 5 5 6 5 5 6 5 5 5 6 6 5 5 5 5 5 5 5 5 5 5 5 5 5 5 5 6 5 5 5 5 5 5 5 5 5 5 5 5 5 5 5 6 5 6 5 5 6 5 5 5 6 5 5 5 5 5 5 5 5 5 5 5 6 5 5 5 5 6 5 5 5 5 5 6 5 5 5 5 5 5 5 5 5 5 6 5 5 6 5 5 5 5 5 5 6 5 5 5 5 6 5 5 5 6 5 5 5 6 5 5 6 5 5 5 6 5 5 5 5 5 6 5 5 5 5 5 5 5 5 5 5 5 5 5 5 5 6 5 5 6 5 6 6 5 5 5 6 6 5 5 5 6 5 5 5 5 5 6 6 5 6 6 5 5 5 5 5 5 6 5 5 5 5 5 5 5 5 6 5 5 5 5 6 5 5 5 5 5 6 5 6 5 5 5 6 5 5 5 5 5 5 5 5 6 5 5 5 5 5 5 5 5 6 5 5 5 5 5 5 5 5 5 5 5 5 5 5 5 5 5 5 5 5 5 5 5 5 5 5 5 5 5 5 5 5 5 5 5 5 5 5 5 5 5 5 5 5 5 5 5 5 5 5 5 5 5 5 5 5 5 5 5 5 5 5 5 5 5 5 5 5 5 5 5 5 5 5 5 5 5 5 5 5 5 5 5 5 5 5 5 5 5 5 5 5 5 5 5 5 5 5 5 5 5 5 5 5 5 5 5 5 5 5 5 5 5 5 5 5 5 5 6 5 5 5 5 5 6 6 5 5 5 5 5 5 5 6 6 5 5 5 5 5 5 6 5 5 6 5 5 5 5 5 5 5 5 5 5 5 5 5 6 5 5 5 5 6 6 5 5 5 5 5 5 6 5 6 5 5 5 5 5 5 6 5 5 5 5 5 6 5 5 5 5 6 5 5 5 5 5 5 5 5 5 5 5 5 5 5 5 5 5 5 5 5 5 5 6 5 5 5 5 5 5 5 5 5 5 5 5 5 5 5 5 5 5 5 5 5 5 5 5 5 5 5 5 5 5 5 5 5 5 5 5 5 5 5 5 5 5 5 5 5 5 5 5 5 5 5 5 5 5 5 5 6 5 5 5 6 5 5 5 5 5 6 5 5 5 5 5 6 5 6 5 5 5 5 5 5 6 5 5 5 5 5 5 5 5 5 5 6 5 5 5 5 5 5 5 5 5 5 5 5 5 5 5 5 5 6 5 5 5 5 5 5 5 6 5 5 5 5 5 5 5 6 5 5 6 5 5 5 5 5 5 6 5 5 5 5 5 5 5 5 5 5 5 5 5 5 5 5 5 5 5 5 5 5 5 5 5 5 5 5 5 5 5 5 5 5 5 5 5 5 5 5 5 5 5 6 5 5 5 5 5 5 6 5 5 5 5 6 5 5 5 5 5 6 5 5 5 5 5 5 5 6 5 5 5 5 5 6 5 5 5 5 5 5 5 5 5 5 5 5 5 5 5 5 5 5 5 5 5 6 5 5 5 6 5 5 5 5 5 6 5 5 5 5 5 5 5 5 5 5 5 6 5 5 5 6 5 6 5 5 5 6 5 5 6 5 5 5 5 5 5 5 5 5 5 5 5 5 5 5 6 5 5 5 5 5 6 5 6 5 5 6 5 5 5 5 5 5 5 5 5 5 5 6 5 5 5 5 5 5 5 5 5 5 5 5 5 5 5 5 5 5 5 5 5 5 5 5 5 5 5 5 5 5 5 5 5 5 5 5 6 5 5 5 5 5 5 5 5 5 5 6 5 5 5 5 5 5 5 5 5 5 5 5 5 5 5 5 5 6 5 5 5 5 5 5 5 5 5 5 5 5 5 5 5 5 5 6 5 5 5 5 5 5 6 5 5 5 5 5 6 5 5 5 5 5 5 5 5 5 5 5 5 5 6 5 5 5 6 5 5 5 5 5 6 5 6 5 5 5 5 5 5 5 5 5 5 5 5 5 6 5 5 5 5 5 5 5 5 5 5 5 5 6 5 6 5 5 5 5 5 5 5 5 5 5 5 5 5 5 5 5 5 5 5 5 5 5 5 5 5 5 5 5 5 5 5 5 5 5 6 5 5 5 5 5 6 5 5 5 5 5 6 5 5 5 5 5 5 5 5 5 6 5 5 5 5 5 5 5 5 5 5 5 5 6 5 5 5 5 5 5 5 5 5 6 5 5 5 5 5 5 5 5 5 5 5 5 5 5 5 5 5 5 5 5 5 5 5 5 5 5 5 5 5 5 5 5 5 5 5 5 5 5 5 5 5 5 5 5 5 5 5 5 5 5 5 5 5 5 5 5 5 5 5 5 5 5 5 5 5 5 5 5 5 5 5 5 5 5 5 5 5 5 5 5 5 5 5 5 5 5 5 5 5 5 5 5 5 5 5 5 5 5 5 5 5 6 5 5 5 5 5 5 5 5 5 5 5 5 5 5 6 5 6 5 5 5 5 5 5 5 5 5 5 5 5 5 5 5 5 6 5 5 5 5 5 5 5 5 5 5 5 5 5 5 5 6 5 5 5 5 5 5 6 5 5 5 5 5 5 5 5 5 5 5 5 6 5 5 5 5 5 5 5 6 5 5 5 5 6 5 5 6 5 6 5 5 5 5 6 5 5 5 5 5 6 5 5 5 5 5 5 5 5 5 5 5 5 5 5 5 5 5 5 5 5 6 5 5 5 5 5 5 6 5 5 5 5 6 5 5 5 5 5 5 5 
</DataArray>
<DataArray type="Float64" Name="stress" NumberOfComponents="9" format="ascii">
447.26778112880675 -240.74879007162963 0 -240.74879007162963 -0.17071849803323857 0 0 0 0 -0.11835804962493057 -334.92950553458627 0 -334.92950553458627 211.94152820139334 0 0 0 0 205.52208778974273 -431.13238906836432 0 -431.13238906836432 120.5246239008402 0 0 0 0 263.66090168726078 -382.46530218901717 0 -382.46530218901717 143.70201021492176 0 0 0 0 79.85631921869458 -262.84856402663047 0 -262.84856402663047 95.745153136942463 0 0 0 0 84.426393111154539 -282.72010454214524 0 -282.72010454214524 159.57803799131216 0 0 0 0 51.9346804515244 -113.97141173947603 0 -113.97141173947603 36.815114819646624 0 0 0 0 59.354869146995043 -313.74805745960293 0 -313.74805745960293 33.417770635001943 0 0 0 0 147.26849411013609 -65.282043780791355 0 -65.282043780791355 54.832805874590122 0 0 0 0 82.050879547134173 -81.15443771939681 0 -81.15443771939681 63.041098731722741 0 0 0 0 -0.1068515838686217 -4.1838234793915312 0 -4.1838234793915312 -3.4260632855263893 0 0 0 0 259.2619984713474 -168.52584161677169 0 -168.52584161677169 34.228441923913124 0 0 0 0 -0.67714758724253521 -2.9330945702645579 0 -2.9330945702645579 7.1775146010205475 0 0 0 0 232.43040208463208 -145.50043725671912 0 -145.50043725671912 46.715527641739754 0 0 0 0 -28.476535411956775 -47.494656438666311 0 -47.494656438666311 32.318057519914873 0 0 0 0 514.12166307808729 -117.24140431906744 0 -117.24140431906744 47.784991395267753 0 0 0 0 81.334172417309674 -11.844032948632048 0 -11.844032948632048 -44.775791979441237 0 0 0 0 2.536825685072472 -13.677612217021306 0 -13.677612217021306 36.595882915408765 0 0 0 0 93.571752952007955 -32.321352334896801 0 -32.321352334896801 -0.56286328608985059 0 0 0 0 -62.37849982933767 -27.672055765501682 0 -27.672055765501682 75.324010673291923 0 0 0 0 -1.1059165961045494 -1.7191400742335006 0 -1.7191400742335006 -2.3936417130463781 0 0 0 0 807.19892834340317 -235.47677453243705 0 -235.47677453243705 -8.6172835404158832 0 0 0 0 0.50574053587404499 -0.80588255430737377 0 -0.80588255430737377 2.4558193360506024 0 0 0 0 550.07703730058165 -367.90069023375327 0 -367.90069023375327 116.05466494283382 0 0 0 0 145.01195270702556 -164.77984572070091 0 -164.77984572070091 164.39118509250966 0 0 0 0 -161.01036173766443 -144.89692435735014 0 -144.89692435735014 36.43941108582294 0 0 0 0 -212.66347945592133 -7.0343515613558338 0 -7.0343515613558338 20.812147214088327 0 0 0 0 -0.36080058224604983 -0.70267881766125484 0 -0.70267881766125484 -0.60223739870779269 0 0 0 0 50.97794167293614 -248.97259170505731 0 -248.97259170505731 -0.13372701524167496 0 0 0 0 11.787481174960703 -208.31826141027159 0 -208.31826141027159 51.616111461363289 0 0 0 0 1.5386315167997964 -48.134617169414923 0 -48.134617169414923 11.10261706966844 0 0 0 0 15.287921338735941 -71.154301340671964 0 -71.154301340671964 45.831752845064329 0 0 0 0 182.57014888840786 -231.10663010660664 0 -231.10663010660664 6.1752420774537313 0 0 0 0 166.78015493888779 -245.60510100559895 0 -245.60510100559895 0.010262947384965426 0 0 0 0 88.753352948058364 -194.83371564022173 0 -194.83371564022173 7.1583555097531644 0 0 0 0 184.86108335883 -227.7364151223619 0 -227.7364151223619 0.76598663660342936 0 0 0 0 196.55814573006046 -246.37303224833113 0 -246.37303224833113 4.9546048585943936 0 0 0 0 169.92290841028898 -244.41838307406942 0 -244.41838307406942 57.043292485450365 0 0 0 0 183.40468530328053 -247.73060930062684 0 -247.73060930062684 101.5882786920447 0 0 0 0 201.79344087850041 -224.93034825321229 0 -224.93034825321229 64.219258340924171 0 0 0 0 202.80783767826165 -201.99902365535075 0 -201.99902365535075 97.010237767861327 0 0 0 0 195.78778533718355 -258.6668425798656 0 -258.6668425798656 144.78875084570245 0 0 0 0 153.02127072386975 -189.44726227700085 0 -189.44726227700085 254.22932725245118 0 0 0 0 172.50021642342381 -176.58773331382145 0 -176.58773331382145 129.48623374362433 0 0 0 0 120.14478632420469 -198.70278880655678 0 -198.70278880655678 98.000959839018833 0 0 0 0 92.827821142362154 -107.57826418297009 0 -107.57826418297009 63.985081962495315 0 0 0 0 107.24183492552766 -108.22738917378342 0 -108.22738917378342 38.540636055127834 0 0 0 0 134.84496130872321 -237.47524595128834 0 -237.47524595128834 79.833856973576985 0 0 0 0 131.50454112742955 -159.56735109404963 0 -159.56735109404963 41.689356950821093 0 0 0 0 179.7732556465744 -245.82382919501833 0 -245.82382919501833 208.27699472033237 0 0 0 0 196.74213896346942 -179.54357021979013 0 -179.54357021979013 100.72662249242057 0 0 0 0 139.57666393815634 -194.6865710948523 0 -194.6865710948523 177.61271138359916 0 0 0 0 189.80818205480318 -188.5491816030426 0 -188.5491816030426 95.345478835307404 0 0 0 0 197.16524412475155 -267.78725848776139 0 -267.78725848776139 264.2028687914717 0 0 0 0 229.08203052532554 -226.08432929599621 0 -226.08432929599621 166.61874089072171 0 0 0 0 173.47102133281987 -233.91478316612574 0 -233.91478316612574 375.70662191814336 0 0 0 0 209.35197684036575 -419.14581255615576 0 -419.14581255615576 458.15220517566286 0 0 0 0 219.95078682636915 -246.1231246147687 0 -246.1231246147687 19.833054969476507 0 0 0 0 -0.19171415177840601 -1.4057424178339737 0 -1.4057424178339737 -0.46605259026262047 0 0 0 0 342.01113723229901 -385.1487940313109 0 -385.1487940313109 164.43983302568677 0 0 0 0 235.615307500992 -357.15855771808538 0 -357.15855771808538 198.46011319091303 0 0 0 0 134.14858604888514 -356.13862683588673 0 -356.13862683588673 547.58845997718527 0 0 0 0 -0.2160075476314276 -2.152261898026147 0 -2.152261898026147 -0.9048054431438679 0 0 0 0 124.03915674974087 -402.29674398675343 0 -402.29674398675343 362.9144255320125 0 0 0 0 234.93202431977079 -224.14702030452645 0 -224.14702030452645 210.93508477167654 0 0 0 0 204.74415495988615 -308.59560455921746 0 -308.59560455921746 321.35603321265808 0 0 0 0 210.37622896900575 -196.32904848380895 0 -196.32904848380895 192.01196212019977 0 0 0 0 81.056261301700033 -286.03108046564148 0 -286.03108046564148 137.48252345233141 0 0 0 0 30.956982461919324 -120.99201484016339 0 -120.99201484016339 -116.03774470466306 0 0 0 0 165.07206785746621 -189.53471055173986 0 -189.53471055173986 278.71638678754698 0 0 0 0 163.34367558828126 -168.13969774033012 0 -168.13969774033012 20.144396078988393 0 0 0 0 168.97552144994916 -299.83074470791234 0 -299.83074470791234 269.91495322353148 0 0 0 0 211.61370675144644 -211.1180381608458 0 -211.1180381608458 257.38344825640343 0 0 0 0 237.76549598187739 -307.03145350808336 0 -307.03145350808336 63.350487441831319 0 0 0 0 221.15284582173263 -198.45162786900437 0 -198.45162786900437 252.59517944002414 0 0 0 0 215.68303624975488 -226.83936048921123 0 -226.83936048921123 350.51794117049212 0 0 0 0 238.95846997524677 -198.61956989484679 0 -198.61956989484679 306.84329327246701 0 0 0 0 174.45031491438203 -308.51755717335163 0 -308.51755717335163 373.93107019616218 0 0 0 0 310.42004095677839 -274.77971482537305 0 -274.77971482537305 287.16440955442886 0 0 0 0 291.15137222418116 -379.97521874906386 0 -379.97521874906386 413.25372412121942 0 0 0 0 855.90787086240744 -444.30222028534718 0 -444.30222028534718 160.04782565151072 0 0 0 0 0.23310848424244979 -1.6020541910630186 0 -1.6020541910630186 1.945127214210352 0 0 0 0 -448.76158368034885 -154.75268757688855 0 -154.75268757688855 -30.550794788501662 0 0 0 0 158.54371782176804 -294.70174216494866 0 -294.70174216494866 374.75480538103329 0 0 0 0 -49.538008542999705 -276.52647770490739 0 -276.52647770490739 509.87919669790426 0 0 0 0 0.21197026452227874 -265.74448071225038 0 -265.74448071225038 110.82294060767617 0 0 0 0 5.7463549515468912 -174.2206634019085 0 -174.2206634019085 237.44093367430924 0 0 0 0 70.797461706373724 -413.82188750964406 0 -413.82188750964406 343.90830441357775 0 0 0 0 -414.29534724904806 -264.9550724464807 0 -264.9550724464807 298.80833078789647 0 0 0 0 -27.439852189580051 -225.63166523319387 0 -225.63166523319387 -175.25644852961886 0 0 0 0 -26.726677791514703 -213.30973502961297 0 -213.30973502961297 8.9182969379598944 0 0 0 0 -162.21198389376059 -120.22052956943662 0 -120.22052956943662 63.919769944119253 0 0 0 0 266.41414071053441 -178.42086832771292 0 -178.42086832771292 95.049906412266864 0 0 0 0 0.58074142297923359 -2.1552108182766894 0 -2.1552108182766894 -0.99031278695510139 0 0 0 0 -0.85885441388813799 -3.9589445570159612 0 -3.9589445570159612 5.695839399674135 0 0 0 0 267.95933927919759 -172.82781126357986 0 -172.82781126357986 77.52116604288949 0 0 0 0 255.51912055793036 -164.22662771553587 0 -164.22662771553587 94.721580165483829 0 0 0 0 428.3030783272211 -215.08243288341055 0 -215.08243288341055 95.908762671439035 0 0 0 0 256.60110984650237 -175.77500388394128 0 -175.77500388394128 114.3705158906123 0 0 0 0 16.33331695745801 -37.646702343614379 0 -37.646702343614379 -3.0617930457410694 0 0 0 0 169.43533288118124 -204.24052793090505 0 -204.24052793090505 -27.402329132356499 0 0 0 0 -24.917637131551601 -113.90471079000508 0 -113.90471079000508 135.34446522947655 0 0 0 0 -16.123711307954522 -233.8421940933805 0 -233.8421940933805 -70.199310709500423 0 0 0 0 174.60506982963375 -95.234354707564989 0 -95.234354707564989 46.933820375135838 0 0 0 0 138.43518699758806 -151.30483820867903 0 -151.30483820867903 -0.20224333312944509 0 0 0 0 53.588518255387555 -172.73709893135501 0 -172.73709893135501 59.482016611411382 0 0 0 0 56.31473952597662 -129.45275481422777 0 -129.45275481422777 45.20276077397466 0 0 0 0 24.744687061888726 -175.31907227378451 0 -175.31907227378451 79.063863241617582 0 0 0 0 54.041813085498688 -202.40486522371339 0 -202.40486522371339 0.79689073588997417 0 0 0 0 56.402266000140571 -224.07325454552756 0 -224.07325454552756 87.901606926634486 0 0 0 0 0.49300433354028428 -0.87881822334810877 0 -0.87881822334810877 -0.39596072404097882 0 0 0 0 36.066299172253821 -196.84379463241521 0 -196.84379463241521 274.3337813262533 0 0 0 0 4.1818065473398747 -188.5424887442241 0 -188.5424887442241 120.80527050751334 0 0 0 0 35.663329519443323 -209.33843185311162 0 -209.33843185311162 -3.9863034159225208 0 0 0 0 68.360313297106586 -160.9060067301898 0 -160.9060067301898 67.414860392553237 0 0 0 0 -19.949291600840297 -167.40528019744761 0 -167.40528019744761 81.378026562395235 0 0 0 0 73.927846549488095 -90.353543089063351 0 -90.353543089063351 -224.43766496273838 0 0 0 0 -0.94007228432145951 -1.4308566703280476 0 -1.4308566703280476 -0.5031142151761383 0 0 0 0 35.180319208362562 -118.82266411998989 0 -118.82266411998989 122.06345881771267 0 0 0 0 19.026385723049316 -68.618707061442365 0 -68.618707061442365 -33.805963066541381 0 0 0 0 66.613270704654497 -205.16250804865376 0 -205.16250804865376 164.65499498447321 0 0 0 0 54.876111226878493 -166.27497667863372 0 -166.27497667863372 36.0305793650532 0 0 0 0 11.770066094268259 -132.99796760413756 0 -132.99796760413756 149.17944933893023 0 0 0 0 93.216872032624451 -212.38523735686613 0 -212.38523735686613 64.097265114469337 0 0 0 0 112.49521315681704 -221.42831923305584 0 -221.42831923305584 65.910162020596545 0 0 0 0 81.476956832156475 -202.93602889843464 0 -202.93602889843464 57.733445630179631 0 0 0 0 103.48042684003121 -144.85270869848046 0 -144.85270869848046 42.830694696085629 0 0 0 0 95.663930201671974 -208.20082075088521 0 -208.20082075088521 24.320914945345066 0 0 0 0 72.531812503702895 -38.057871637876815 0 -38.057871637876815 0.16035300253133755 0 0 0 0 99.069795528949271 -109.38477818718184 0 -109.38477818718184 181.40961572595188 0 0 0 0 133.69351437638215 -253.5924007422127 0 -253.5924007422127 215.94073424132102 0 0 0 0 209.362503032924 -178.74541857013992 0 -178.74541857013992 0.10996916196017992 0 0 0 0 154.37650869195386 -246.31032077146119 0 -246.31032077146119 -31.977748140636322 0 0 0 0 0.47827422068703385 -0.84585884775063747 0 -0.84585884775063747 -0.46449861875981568 0 0 0 0 130.66568653107197 -143.35548471388438 0 -143.35548471388438 -95.878103762543105 0 0 0 0 192.15999797727818 -234.54453010395991 0 -234.54453010395991 5.9764269327647526 0 0 0 0 200.27842018681622 -248.57623501756098 0 -248.57623501756098 87.05208446818142 0 0 0 0 200.48691031400222 -236.76314055533999 0 -236.76314055533999 6.4279131662588043 0 0 0 0 196.51155597851175 -241.83355299671257 0 -241.83355299671257 0.016872987495864682 0 0 0 0 188.69425416541708 -237.40220468220923 0 -237.40220468220923 44.073378105347729 0 0 0 0 183.15400589714227 -230.90637320038513 0 -230.90637320038513 43.904278434678616 0 0 0 0 181.89979955686522 -220.34538965722641 0 -220.34538965722641 71.606864397863319 0 0 0 0 147.0884316076349 -232.22578637705215 0 -232.22578637705215 41.898184502859294 0 0 0 0 204.63105091524994 -240.89249377397937 0 -240.89249377397937 43.188026550562427 0 0 0 0 114.08763130738953 -263.3495306907771 0 -263.3495306907771 142.73197470012792 0 0 0 0 115.5720441146068 -241.39273389165237 0 -241.39273389165237 137.68461819151707 0 0 0 0 210.38822504615291 -431.32584535899105 0 -431.32584535899105 435.06384583166073 0 0 0 0 0.31724191742971897 -1.0410256335662886 0 -1.0410256335662886 -0.3701437999579511 0 0 0 0 311.59447889825242 -185.4228883646374 0 -185.4228883646374 533.97889354536892 0 0 0 0 173.21665636278885 -186.71119492186881 0 -186.71119492186881 63.093820113865149 0 0 0 0 207.36937237766324 -416.17549725795288 0 -416.17549725795288 592.59624926674951 0 0 0 0 397.0647422287675 -436.3970283649669 0 -436.3970283649669 489.28781837916722 0 0 0 0 -5.3394382161148215 -4.2153100068463907 0 -4.2153100068463907 -0.35337248468922233 0 0 0 0 26.755820330573442 -42.4699684470379 0 -42.4699684470379 252.12031437829137 0 0 0 0 -86.863904481300779 25.220696384705661 0 25.220696384705661 693.6757058164676 0 0 0 0 -1.0734397929482569 -1.5604323956486965 0 -1.5604323956486965 1.9109023632106954 0 0 0 0 70.461915596662607 -59.640377015581407 0 -59.640377015581407 41.867287750757896 0 0 0 0 -0.29087296028809817 -4.7531315476929734 0 -4.7531315476929734 2.9223211489215259 0 0 0 0 0.64126826293980344 -1.8240451285615578 0 -1.8240451285615578 0.26789468758584256 0 0 0 0 248.345805807121 -349.55788620379462 0 -349.55788620379462 439.65750380849204 0 0 0 0 -28.806294118239748 -70.064934937272483 0 -70.064934937272483 -148.34649037241797 0 0 0 0 -98.984805278115346 -97.34572012514036 0 -97.34572012514036 -77.003699359793245 0 0 0 0 -42.932614402425315 -163.15983630366236 0 -163.15983630366236 0.27119711233899579 0 0 0 0 -336.83696989558757 -96.444046552899636 0 -96.444046552899636 90.497958071942776 0 0 0 0 0.3237598450041097 -3.207749327630145 0 -3.207749327630145 2.6339095139648023 0 0 0 0 248.62110228930487 -78.966474029855817 0 -78.966474029855817 -38.915484901009222 0 0 0 0 75.181645361410119 -73.539013460708702 0 -73.539013460708702 12.049792864677102 0 0 0 0 111.94512660296641 -96.948415410524376 0 -96.948415410524376 3.8415486920512194 0 0 0 0 78.00599327090822 -102.70611397046741 0 -102.70611397046741 2.8661115186391726 0 0 0 0 97.004286447741833 -70.829932126654057 0 -70.829932126654057 12.344916256973193 0 0 0 0 68.69749283620331 -159.62420669906214 0 -159.62420669906214 -81.732404729027621 0 0 0 0 -32.907422003119791 -138.99975849639395 0 -138.99975849639395 25.300641843738049 0 0 0 0 59.110042114055204 -101.34118459409251 0 -101.34118459409251 40.712521504239703 0 0 0 0 22.456954132459941 -113.39650054827098 0 -113.39650054827098 203.7732374820589 0 0 0 0 40.748933134045728 -60.043411105179075 0 -60.043411105179075 49.925647211350224 0 0 0 0 47.398721395253915 -132.95089052650246 0 -132.95089052650246 70.524215198229285 0 0 0 0 13.80762001803123 -74.65950077612888 0 -74.65950077612888 88.824087363439503 0 0 0 0 25.476693758949295 -189.23455117830326 0 -189.23455117830326 372.83666065093894 0 0 0 0 25.664671812136021 -126.32131064243003 0 -126.32131064243003 131.68693877126316 0 0 0 0 -3.1220376675810257 -2.9275893729824176 0 -2.9275893729824176 -1.1976345346148385 0 0 0 0 84.744406563553639 -92.157975973643261 0 -92.157975973643261 194.08794573496289 0 0 0 0 70.902138149111124 -118.57118907083441 0 -118.57118907083441 158.77902947202529 0 0 0 0 -47.009765135364432 -130.84025624474089 0 -130.84025624474089 343.50223826342699 0 0 0 0 -10.050228406807037 -166.12920701232633 0 -166.12920701232633 224.8616749719622 0 0 0 0 -67.509733721590806 -18.887741533531539 0 -18.887741533531539 79.015695989262895 0 0 0 0 105.9010179313791 -160.52730515502572 0 -160.52730515502572 100.52895964518757 0 0 0 0 -84.347807178006406 -126.54758613084687 0 -126.54758613084687 158.59417207693798 0 0 0 0 0.39148387871694368 -0.61954228275325285 0 -0.61954228275325285 0.59216951101723225 0 0 0 0 145.53017562209698 -57.054829761302017 0 -57.054829761302017 28.528789980171496 0 0 0 0 -49.24932250454583 10.259898895081676 0 10.259898895081676 5.4073721776221646 0 0 0 0 1.0116580331555003 -1.4895510804458798 0 -1.4895510804458798 1.2003670247127971 0 0 0 0 -34.463366276640045 -65.551969959285998 0 -65.551969959285998 -24.63387176118863 0 0 0 0 -8.3434086096681312 -8.0015671703154112 0 -8.0015671703154112 -134.21154433480024 0 0 0 0 15.991681438817068 -3.5292405989648614 0 -3.5292405989648614 -41.416761161540535 0 0 0 0 47.832039437817912 12.788347757455313 0 12.788347757455313 -7.2222526388177357 0 0 0 0 80.758702472357299 -59.409739756745694 0 -59.409739756745694 -14.63525317607855 0 0 0 0 119.37931352829764 -44.940380910826207 0 -44.940380910826207 -9.343741866045093 0 0 0 0 49.686207474524053 -43.299907295478988 0 -43.299907295478988 -32.826241788157859 0 0 0 0 94.336481653355804 -44.768037109838588 0 -44.768037109838588 -37.196703801286276 0 0 0 0 36.977092795352291 -45.491114517850747 0 -45.491114517850747 41.54202330944463 0 0 0 0 13.861852835029822 -136.65569603223048 0 -136.65569603223048 40.30887084657661 0 0 0 0 48.556121444586552 -148.38094197251621 0 -148.38094197251621 -53.107631804048651 0 0 0 0 84.473314412050513 -106.62424253324343 0 -106.62424253324343 -22.066860267124866 0 0 0 0 -38.661226999463906 -226.63958008816553 0 -226.63958008816553 122.37915882500238 0 0 0 0 -15.221840151769356 -48.618642874305806 0 -48.618642874305806 134.19434045619346 0 0 0 0 9.3539718391907627 -122.07053255224309 0 -122.07053255224309 12.116804775014316 0 0 0 0 -6.2799359293194357 -91.478397787204813 0 -91.478397787204813 55.661556403065333 0 0 0 0 10.52213438898616 -78.704546194099748 0 -78.704546194099748 74.212489368012029 0 0 0 0 -8.9445489425888809 -83.138512800687749 0 -83.138512800687749 93.124790445514463 0 0 0 0 16.381910190392773 -144.85035066704768 0 -144.85035066704768 82.469649784790818 0 0 0 0 -5.5718978151876648 -4.3321556566618611 0 -4.3321556566618611 -2.1018962101044423 0 0 0 0 -9.6227223011705973 -132.28628377429459 0 -132.28628377429459 183.36780646416628 0 0 0 0 0.017950094550542417 -67.658458145782788 0 -67.658458145782788 175.33160374131739 0 0 0 0 45.111551404792408 28.265761255911457 0 28.265761255911457 -90.889391193044503 0 0 0 0 50.826402161714213 -89.382952173567901 0 -89.382952173567901 -44.959740584503379 0 0 0 0 -3.4678605750514606 -4.1091773308471531 0 -4.1091773308471531 -2.6510433610762068 0 0 0 0 19.271653461401911 -92.393665343952307 0 -92.393665343952307 34.458213162466564 0 0 0 0 -5.9308834865005338 52.1256970181621 0 52.1256970181621 11.491900468558924 0 0 0 0 39.493055451695909 17.098518076958499 0 17.098518076958499 18.165193176946559 0 0 0 0 35.254353199909076 -55.590358164122449 0 -55.590358164122449 2.458505326485465 0 0 0 0 -49.765891048908088 -8.8032879891616176 0 -8.8032879891616176 20.906380902561068 0 0 0 0 -21.292997082188322 -58.038271843427992 0 -58.038271843427992 4.7833116363253794 0 0 0 0 85.433042814565169 -204.71944391502257 0 -204.71944391502257 197.2769825181058 0 0 0 0 35.108764083448477 -41.786296722850693 0 -41.786296722850693 -56.978979267974864 0 0 0 0 0.69034090086674738 0.068786790132392639 0 0.068786790132392639 -0.051720229952421537 0 0 0 0 58.353970683807347 -143.66946331032977 0 -143.66946331032977 313.79518638455738 0 0 0 0 218.28392118297688 -142.31530339757956 0 -142.31530339757956 51.515936179948767 0 0 0 0 128.64121319626747 -27.308909751198371 0 -27.308909751198371 -34.290909380273661 0 0 0 0 0.65594191876071761 -0.91047983359977547 0 -0.91047983359977547 0.56105954046714146 0 0 0 0 247.88937841175311 -158.32741064667607 0 -158.32741064667607 61.596979364006074 0 0 0 0 62.121585599355967 -209.05414222568106 0 -209.05414222568106 177.52395824577616 0 0 0 0 -120.54828831449686 -131.23608947065895 0 -131.23608947065895 146.76246842429919 0 0 0 0 187.77688935979495 -144.39176876045531 0 -144.39176876045531 201.89160221211557 0 0 0 0 -26.053081808182469 -49.390063021452079 0 -49.390063021452079 207.03248909158538 0 0 0 0 -42.443952643800912 -30.451709695333193 0 -30.451709695333193 0.9980123339464626 0 0 0 0 -22.859744420455172 -110.83727335361073 0 -110.83727335361073 -97.543088145728234 0 0 0 0 -126.6198193988921 -39.170200609583389 0 -39.170200609583389 40.423551714895439 0 0 0 0 -11.141506689600419 -27.888325737858167 0 -27.888325737858167 41.519889940138455 0 0 0 0 -56.595201825841286 -128.74653619908895 0 -128.74653619908895 145.47720980608392 0 0 0 0 6.0073824274804792 -146.98174280204148 0 -146.98174280204148 109.11101249880085 0 0 0 0 -1.1290451957253218 -1.3900423008278793 0 -1.3900423008278793 -0.68616115255651167 0 0 0 0 -52.255963154396341 -185.45839262539903 0 -185.45839262539903 346.43531016469478 0 0 0 0 -4.7149432676993541 -3.8349593748185526 0 -3.8349593748185526 -1.9357585796758094 0 0 0 0 -60.5971582248294 -130.02639505248771 0 -130.02639505248771 165.89969309364824 0 0 0 0 -31.428187537811027 77.204338744153574 0 77.204338744153574 55.758400769953369 0 0 0 0 44.095470341624605 44.277074119766894 0 44.277074119766894 -165.30542728580804 0 0 0 0 -113.10665182330104 -40.217528570223749 0 -40.217528570223749 208.52526059858064 0 0 0 0 10.501936287364515 -165.26920453194271 0 -165.26920453194271 -73.903474322722104 0 0 0 0 -66.375856000744534 28.828892210542108 0 28.828892210542108 310.45369157984715 0 0 0 0 59.68917471516761 -145.16010723643831 0 -145.16010723643831 464.583997162983 0 0 0 0 0.97356163248327121 -1.9102716029198525 0 -1.9102716029198525 0.18615272818692397 0 0 0 0 163.59049659327434 -165.86114100352694 0 -165.86114100352694 64.421855727079674 0 0 0 0 -3.7188191050493895 -7.069177413506786 0 -7.069177413506786 -5.9016945380425483 0 0 0 0 139.76184492310324 -0.11342099368118852 0 -0.11342099368118852 -1.8847190613741986 0 0 0 0 54.733841016764927 -210.35616160287191 0 -210.35616160287191 164.96201907272371 0 0 0 0 23.548557559623077 -106.44772441699479 0 -106.44772441699479 142.63651638466399 0 0 0 0 -1.9218705608223594 -2.7813125088774378 0 -2.7813125088774378 -4.3609384710506163 0 0 0 0 12.689830770832486 -58.562390562433393 0 -58.562390562433393 28.206467410701407 0 0 0 0 -0.84059895301215803 -0.95616845326874511 0 -0.95616845326874511 -1.128803641524911 0 0 0 0 17.96793344758953 10.342603131482065 0 10.342603131482065 -109.66774379257618 0 0 0 0 116.15064863086536 -96.938399750993085 0 -96.938399750993085 -5.4650768746632821 0 0 0 0 147.01581572686155 -30.917957745234162 0 -30.917957745234162 42.398131330850447 0 0 0 0 165.76276219825832 -197.99725389084006 0 -197.99725389084006 50.281325962272604 0 0 0 0 -7.0934271216856359 50.799728738874364 0 50.799728738874364 17.060061024243623 0 0 0 0 513.16196872282308 -55.226315934281047 0 -55.226315934281047 -66.167952608033374 0 0 0 0 0.048218450260415491 -0.78994333949079021 0 -0.78994333949079021 1.1884302204374535 0 0 0 0 -202.00991967983282 75.298605604417389 0 75.298605604417389 39.427621630758949 0 0 0 0 -83.452753918267263 -141.08385094353707 0 -141.08385094353707 -4.6191832269869337 0 0 0 0 -514.27686641286527 -58.661480557276263 0 -58.661480557276263 114.10872322109208 0 0 0 0 -87.226300483966156 -111.80179080325496 0 -111.80179080325496 22.029747367096206 0 0 0 0 62.624371352200797 -84.035168281464394 0 -84.035168281464394 12.323402408283982 0 0 0 0 -6.6209210704052062 -10.074670256652123 0 -10.074670256652123 8.6541618510476663 0 0 0 0 -29.359237381921048 25.276386161528535 0 25.276386161528535 51.334813020127157 0 0 0 0 43.31239178924443 43.739527450951755 0 43.739527450951755 28.421520774499641 0 0 0 0 0.60043090213180506 0.62097537584907059 0 0.62097537584907059 3.6645785871462131 0 0 0 0 79.350277808840474 -245.33976943151265 0 -245.33976943151265 370.6352898737714 0 0 0 0 42.271292117382743 104.51520863786806 0 104.51520863786806 141.56252675267751 0 0 0 0 -17.757004804983808 11.007083471461556 0 11.007083471461556 86.313635230128057 0 0 0 0 38.447647702090762 -16.594261562177053 0 -16.594261562177053 -3.9660348967845493 0 0 0 0 -31.137082632123565 -42.406485244139731 0 -42.406485244139731 367.45773343043402 0 0 0 0 123.8790403380417 -5.9573205552046602 0 -5.9573205552046602 -24.896760642277513 0 0 0 0 10.573880228238522 -2.1550877431582194 0 -2.1550877431582194 440.9088309910735 0 0 0 0 1.7468564002808051 -0.71207215199186891 0 -0.71207215199186891 -0.86606023102337915 0 0 0 0 146.13714205959559 -206.63541750822628 0 -206.63541750822628 125.42935646354636 0 0 0 0 100.65451822662908 -140.25943095636558 0 -140.25943095636558 77.678300520721677 0 0 0 0 42.560445698622061 27.871535027762548 0 27.871535027762548 -207.61114805202487 0 0 0 0 70.642890641604026 -49.238164852939008 0 -49.238164852939008 -158.22718604108741 0 0 0 0 21.796654631808451 -36.111191972741153 0 -36.111191972741153 -105.07257936440874 0 0 0 0 13.561765091494181 -21.947590262618633 0 -21.947590262618633 -81.290182354936405 0 0 0 0 3.6306062696767185 -24.371184669180366 0 -24.371184669180366 -28.581810767238494 0 0 0 0 20.128930425500585 -51.059426930987684 0 -51.059426930987684 -60.558765153142303 0 0 0 0 21.812358441842662 -18.37616509457439 0 -18.37616509457439 -66.159718859250233 0 0 0 0 16.196602817848543 -27.031360124907224 0 -27.031360124907224 -67.940318070037392 0 0 0 0 -3.2502161344573324 10.769398340764383 0 10.769398340764383 -99.813259191134421 0 0 0 0 30.623277210915148 -31.735548299508537 0 -31.735548299508537 -88.284702919383562 0 0 0 0 7.2543103605776196 -12.150665359593177 0 -12.150665359593177 -70.586588855208902 0 0 0 0 -15.112186455244228 -39.162596670963467 0 -39.162596670963467 -55.051107520086589 0 0 0 0 56.602376336424641 -15.047546123951179 0 -15.047546123951179 -92.131340085569207 0 0 0 0 20.327414418821718 -47.831820195919136 0 -47.831820195919136 -93.292335797457781 0 0 0 0 19.634671476705535 -9.9377926172633124 0 -9.9377926172633124 -100.9738231244628 0 0 0 0 0.39959846210877004 -12.824160341403967 0 -12.824160341403967 1.0841511011767579 0 0 0 0 17.868859285124927 -13.680473147161138 0 -13.680473147161138 -54.901227887834381 0 0 0 0 7.9499656054995285 -26.054683413464772 0 -26.054683413464772 -53.860126696196858 0 0 0 0 1.9238358086988896 -0.98930295382785971 0 -0.98930295382785971 -1.1155405055586414 0 0 0 0 95.393970754865222 -218.42904528519193 0 -218.42904528519193 321.42647150120411 0 0 0 0 13.118361186611764 51.043590922244221 0 51.043590922244221 135.16497469272326 0 0 0 0 -1.3419690070711354 -2.0847872998459245 0 -2.0847872998459245 -1.3010728888481875 0 0 0 0 47.912522266185306 97.715938277625924 0 97.715938277625924 197.66942633158033 0 0 0 0 12.556759059941214 -36.281068055719516 0 -36.281068055719516 18.326793115394139 0 0 0 0 23.936119661161683 -33.476471813748503 0 -33.476471813748503 42.398464509182304 0 0 0 0 37.339247927599899 -68.754300033495383 0 -68.754300033495383 70.641512954631253 0 0 0 0 52.918394127619649 -39.574422120716918 0 -39.574422120716918 -27.21484377867273 0 0 0 0 48.179979415214802 -38.273797959930562 0 -38.273797959930562 -27.408677507237371 0 0 0 0 30.148065232051522 -35.187195225620599 0 -35.187195225620599 -9.5573744483328653 0 0 0 0 24.241262092497891 -18.987585211390069 0 -18.987585211390069 -10.066385133937729 0 0 0 0 27.641344423151168 -36.666071605767684 0 -36.666071605767684 -56.674227028278892 0 0 0 0 29.039934007280863 -15.175418652288045 0 -15.175418652288045 -57.537081574264448 0 0 0 0 18.621413671398841 -57.840612769174186 0 -57.840612769174186 -108.37678225249942 0 0 0 0 23.675475155284403 -25.902777692558629 0 -25.902777692558629 -67.001091318288672 0 0 0 0 56.303779104091063 -13.022525599807977 0 -13.022525599807977 -68.114057826964199 0 0 0 0 45.064951719210512 -25.973853250146021 0 -25.973853250146021 -82.583795708414982 0 0 0 0 43.244844425531255 -15.71650376118987 0 -15.71650376118987 -81.393690164468353 0 0 0 0 54.122291897615469 -32.344962009525261 0 -32.344962009525261 -60.229265505895455 0 0 0 0 47.949740090794876 -25.681916650501989 0 -25.681916650501989 -58.717635310591504 0 0 0 0 57.222912203533269 -40.257012307401965 0 -40.257012307401965 -65.06360083684649 0 0 0 0 49.234941622940823 -41.480613706542499 0 -41.480613706542499 -78.654048908180812 0 0 0 0 55.009885606027638 -22.562320442477812 0 -22.562320442477812 -100.72103170281844 0 0 0 0 40.542003796843346 -40.243693625625383 0 -40.243693625625383 -76.837663338827042 0 0 0 0 53.855457167824596 -23.991352577521951 0 -23.991352577521951 -73.299937230298383 0 0 0 0 56.35426561883105 -29.317155554047531 0 -29.317155554047531 -86.78801264937465 0 0 0 0 57.21914986187403 -18.914711301676107 0 -18.914711301676107 -100.0229466194578 0 0 0 0 59.380623822452435 -11.217486297752657 0 -11.217486297752657 -87.748412065894001 0 0 0 0 40.577682461306722 -15.953129972966053 0 -15.953129972966053 -88.415530574508011 0 0 0 0 -12.078631094734192 16.978972136095763 0 16.978972136095763 -114.62643360719812 0 0 0 0 24.899046651387835 4.8532178327313886 0 4.8532178327313886 -104.30749038647582 0 0 0 0 16.478951403183601 -10.745234400999834 0 -10.745234400999834 -102.03422299704926 0 0 0 0 42.555891140847962 -14.018937792145152 0 -14.018937792145152 -118.81824722311831 0 0 0 0 24.93422295015489 -0.3033190052124155 0 -0.3033190052124155 -135.79250711143322 0 0 0 0 31.804120403265188 -44.993684978006058 0 -44.993684978006058 -112.44046096250804 0 0 0 0 25.241928999824665 -12.580838241850017 0 -12.580838241850017 -140.91400815016459 0 0 0 0 24.924890511749538 -15.990800408736106 0 -15.990800408736106 -105.34532912540453 0 0 0 0 31.115077542617655 -39.678410283477774 0 -39.678410283477774 -144.68453491596301 0 0 0 0 38.623339590468049 -31.532123163178539 0 -31.532123163178539 -90.856595450033637 0 0 0 0 30.126261671264729 -54.772616226522587 0 -54.772616226522587 -83.834029578169975 0 0 0 0 16.870531025883793 -41.714153806431568 0 -41.714153806431568 -79.581806183759909 0 0 0 0 10.69324641309322 -64.677832866156677 0 -64.677832866156677 -62.939002779074144 0 0 0 0 22.023649431312151 -45.197573414161525 0 -45.197573414161525 -46.291157694358844 0 0 0 0 4.3141675720889907 -66.316996417284827 0 -66.316996417284827 -21.073745361018155 0 0 0 0 28.800962968161002 -58.823400281780778 0 -58.823400281780778 -44.977752067381516 0 0 0 0 36.369351520347664 -38.2975160213864 0 -38.2975160213864 -53.0877486997706 0 0 0 0 46.853155834772224 -35.516409289508374 0 -35.516409289508374 -41.456404408327217 0 0 0 0 41.447179229927769 -40.293094234153159 0 -40.293094234153159 20.623417177241208 0 0 0 0 52.217789031943539 -54.069220786615915 0 -54.069220786615915 -37.528050754562628 0 0 0 0 39.475654328723067 -38.457708265794281 0 -38.457708265794281 -18.541198525930668 0 0 0 0 40.616079301525133 -43.566509288091765 0 -43.566509288091765 18.472882800051593 0 0 0 0 62.277820942108065 -45.4316156970458 0 -45.4316156970458 21.536946287971659 0 0 0 0 38.949001087899433 -24.230551272421508 0 -24.230551272421508 103.0781734591219 0 0 0 0 0.28181966904594447 -57.228598948368017 0 -57.228598948368017 89.804115812276905 0 0 0 0 1.6038879203797478 -63.249284534849721 0 -63.249284534849721 36.979215069331985 0 0 0 0 -13.358603966932606 -62.375220475016249 0 -62.375220475016249 58.338494599338446 0 0 0 0 -10.19972472481831 -65.726665534037636 0 -65.726665534037636 37.185658360554953 0 0 0 0 -10.503008004705919 -56.698756639376654 0 -56.698756639376654 30.849749373373925 0 0 0 0 20.616801401402881 -61.623707609023768 0 -61.623707609023768 5.5065762174835982 0 0 0 0 20.437997500512211 -44.571478055793705 0 -44.571478055793705 5.8970826602999296 0 0 0 0 122.91979273344623 -205.15278695636425 0 -205.15278695636425 386.98093261927625 0 0 0 0 117.85535707501185 -281.31994684193614 0 -281.31994684193614 253.17979737341375 0 0 0 0 102.4413418157892 -282.51376809715839 0 -282.51376809715839 345.90686548437407 0 0 0 0 146.06188198282325 -287.82380380198992 0 -287.82380380198992 267.46383044079266 0 0 0 0 154.91168495700185 -273.14745082379159 0 -273.14745082379159 291.74706061614535 0 0 0 0 154.87403798742616 -211.20056267358768 0 -211.20056267358768 232.86227765676631 0 0 0 0 3.3259554501171351 -3.8097155463086452 0 -3.8097155463086452 -6.1836957112502873 0 0 0 0 153.77020602714765 -265.99995013560601 0 -265.99995013560601 268.27294341894594 0 0 0 0 174.70063468827539 -272.22659246814146 0 -272.22659246814146 209.69395840354264 0 0 0 0 144.37596601464247 -214.24727246453403 0 -214.24727246453403 290.15758612820963 0 0 0 0 595.52430890550386 -273.44945674382689 0 -273.44945674382689 22.739316593808326 0 0 0 0 -272.63184635975995 -97.268410610534374 0 -97.268410610534374 495.49935869470391 0 0 0 0 277.68747012271706 -262.72349020759339 0 -262.72349020759339 152.95087198558213 0 0 0 0 -128.55909974247061 107.13217965622812 0 107.13217965622812 78.110146810535298 0 0 0 0 77.139138847012873 -260.7203738464741 0 -260.7203738464741 458.59116617815744 0 0 0 0 4.7225243399916508 -6.7441237482798897 0 -6.7441237482798897 -0.68926054277108051 0 0 0 0 3.1551387189553779 -2.0140498904558264 0 -2.0140498904558264 -1.9849773711731604 0 0 0 0 0.17982732730694551 -0.57317544592941161 0 -0.57317544592941161 0.6246392813407482 0 0 0 0 107.41302144675865 -288.26197511130249 0 -288.26197511130249 760.07576293837519 0 0 0 0 140.99145413480619 -339.53758396495732 0 -339.53758396495732 799.64393876874374 0 0 0 0 1.1673165443019258 -1.0870096692808815 0 -1.0870096692808815 0.29615692494653345 0 0 0 0 4.7941055175469955 -379.31861553862655 0 -379.31861553862655 862.60614594152503 0 0 0 0 325.71837901385334 -498.40801025667497 0 -498.40801025667497 692.2184779943691 0 0 0 0 0.38736026049991779 -86.570003620088755 0 -86.570003620088755 197.68559200600248 0 0 0 0 -0.64156324181116986 -0.92872191730200626 0 -0.92872191730200626 2.3213630576121282 0 0 0 0 102.88803560602901 -246.84467202160613 0 -246.84467202160613 427.86629485294907 0 0 0 0 353.00960914437337 -400.63204220369244 0 -400.63204220369244 355.58509623136342 0 0 0 0 249.09311120775237 -224.78610951891278 0 -224.78610951891278 78.624283625176759 0 0 0 0 97.206312295387761 -309.95589078071316 0 -309.95589078071316 411.76942733225042 0 0 0 0 257.92851299244899 -478.16568548546991 0 -478.16568548546991 463.98712841328233 0 0 0 0 0.01929152648561994 -259.50533939188546 0 -259.50533939188546 503.94093440812867 0 0 0 0 -0.60700907451359143 -0.61530008915765677 0 -0.61530008915765677 1.9215315549242789 0 0 0 0 -55.9888973848756 4.0962864118600919 0 4.0962864118600919 163.20932284620199 0 0 0 0 196.23797616780394 -197.30002069213742 0 -197.30002069213742 240.73422672321294 0 0 0 0 116.17539519587081 -312.29397239128139 0 -312.29397239128139 371.75222519576982 0 0 0 0 7.8820166659497772 -274.35409526857848 0 -274.35409526857848 363.50711187620618 0 0 0 0 -82.571530412501716 -166.56325810468468 0 -166.56325810468468 310.23794457505937 0 0 0 0 174.08831432875013 -296.86691113215056 0 -296.86691113215056 265.29680145742191 0 0 0 0 144.83621238227352 -264.46064659049625 0 -264.46064659049625 259.77051886377239 0 0 0 0 146.88725040670852 -277.29496860904123 0 -277.29496860904123 340.06140625631815 0 0 0 0 158.2906656582818 -247.29762714055323 0 -247.29762714055323 369.39920145051656 0 0 0 0 144.8374385883908 -226.02619355224397 0 -226.02619355224397 336.15268070312118 0 0 0 0 218.34084309470109 -213.51127417806674 0 -213.51127417806674 375.82617438759189 0 0 0 0 364.61402434922638 -223.99862941301762 0 -223.99862941301762 350.19033846797629 0 0 0 0 197.77683487749619 -167.48469239317319 0 -167.48469239317319 485.38370798739015 0 0 0 0 101.14912462130542 -194.13168692016325 0 -194.13168692016325 405.82300286739701 0 0 0 0 159.81087865908103 -328.06158428699882 0 -328.06158428699882 639.90467443399757 0 0 0 0 163.36330244044257 -257.87588466938246 0 -257.87588466938246 421.21959725556553 0 0 0 0 19.292759041360114 0.043149161122528312 0 0.043149161122528312 -0.25924571192445001 0 0 0 0 0.91791918409480644 -1.4811694057302756 0 -1.4811694057302756 -1.018962711507303 0 0 0 0 -11.159228783173603 -31.359773148958084 0 -31.359773148958084 43.828971128086778 0 0 0 0 -0.17370527736787977 -7.6453793930380698 0 -7.6453793930380698 -7.0249837155674228 0 0 0 0 469.21491702883577 -230.98589702788558 0 -230.98589702788558 14.114956258747043 0 0 0 0 204.11530760051028 -78.185845059579151 0 -78.185845059579151 96.284772149509081 0 0 0 0 137.34720537516841 -288.6428287242943 0 -288.6428287242943 260.46903343346276 0 0 0 0 172.24097162118289 -258.82488888058867 0 -258.82488888058867 281.93812885784428 0 0 0 0 182.17952816812249 -363.61286620849023 0 -363.61286620849023 405.84423011064973 0 0 0 0 18.401308166821764 72.95788041072683 0 72.95788041072683 174.13042143606776 0 0 0 0 -95.791859770620704 -181.27037364831915 0 -181.27037364831915 227.64895116694242 0 0 0 0 0.7607154786879704 -0.19225990001324789 0 -0.19225990001324789 3.3456675955020714 0 0 0 0 -3.4344405199922647 -11.10754151490614 0 -11.10754151490614 8.1456070891235832 0 0 0 0 -9.0960958065697923 -29.508976745114524 0 -29.508976745114524 26.341223855351018 0 0 0 0 52.947833277155041 13.829296065027847 0 13.829296065027847 20.76826558537141 0 0 0 0 -44.733108642845764 -26.903149753476555 0 -26.903149753476555 18.595326986307555 0 0 0 0 -99.306482821155328 65.137716919168838 0 65.137716919168838 93.012647122648559 0 0 0 0 -5.1715862558002854 -10.249823400045221 0 -10.249823400045221 10.191118727535798 0 0 0 0 -8.3341821631984203 3.6760603326220007 0 3.6760603326220007 45.78496882392983 0 0 0 0 -41.114660864986945 -12.323665454154252 0 -12.323665454154252 100.49924103976628 0 0 0 0 -8.3875226296499363 6.6639166197412791 0 6.6639166197412791 51.391546867977013 0 0 0 0 -59.817842610971638 -5.9980268862700541 0 -5.9980268862700541 106.48443569071014 0 0 0 0 -53.871805665754437 15.423553134084159 0 15.423553134084159 154.80341615677753 0 0 0 0 12.972638357114192 42.832764956376195 0 42.832764956376195 70.742370344839401 0 0 0 0 0.49953473415087757 -0.56952905605182025 0 -0.56952905605182025 -1.4275988225064786 0 0 0 0 -4.4344377829183941 -2.2259100376841161 0 -2.2259100376841161 -20.359966359375903 0 0 0 0 58.632987977016455 -29.782131576679603 0 -29.782131576679603 -9.8234612651672251 0 0 0 0 20.305335254834063 -62.344802559642631 0 -62.344802559642631 56.142826244374646 0 0 0 0 -44.983243894104817 -38.539713591701911 0 -38.539713591701911 80.558678139311723 0 0 0 0 -62.898865334582297 -51.735768332609041 0 -51.735768332609041 119.26458977984294 0 0 0 0 -90.664118677419538 -20.059624972537677 0 -20.059624972537677 140.86990200170203 0 0 0 0 188.17060625095473 -70.875710656371666 0 -70.875710656371666 -41.461345315217841 0 0 0 0 -46.430134921458375 -60.213259849442693 0 -60.213259849442693 137.87142245176074 0 0 0 0 -66.53233200783643 -83.539479232016674 0 -83.539479232016674 163.83057657798963 0 0 0 0 -21.404055043076369 -140.27992556788377 0 -140.27992556788377 297.60460214592786 0 0 0 0 -88.917241617004038 -37.884957248647879 0 -37.884957248647879 223.09137988481234 0 0 0 0 -99.240450370449253 6.4187014962335525 0 6.4187014962335525 185.26645577344016 0 0 0 0 1.12754725062765 -2.0307348864064814 0 -2.0307348864064814 3.8047465439670454 0 0 0 0 -74.78416669563012 3.1066626818856093 0 3.1066626818856093 28.496160793807576 0 0 0 0 -94.349184503826109 -91.929170720982256 0 -91.929170720982256 -9.2839276053928188 0 0 0 0 -106.8386040579403 -112.35488370360031 0 -112.35488370360031 -40.734411711067878 0 0 0 0 -79.985384468849588 -56.365619390509892 0 -56.365619390509892 32.252388015636825 0 0 0 0 3.7379536612996169 -6.0430236462396856 0 -6.0430236462396856 9.6171547836523281 0 0 0 0 4.7147135558479931 -40.790167708029003 0 -40.790167708029003 13.086091956358359 0 0 0 0 -24.061595916477017 -19.686579126719153 0 -19.686579126719153 105.68912909486698 0 0 0 0 -76.227291821153813 3.589244111021344 0 3.589244111021344 106.4326446418072 0 0 0 0 -95.159631557007742 -64.334117090402287 0 -64.334117090402287 78.638076354565783 0 0 0 0 -144.43079969491191 -47.485333400078162 0 -47.485333400078162 71.125419959087594 0 0 0 0 -55.877848292832823 -44.243213422596455 0 -44.243213422596455 38.540203550770457 0 0 0 0 -55.097068543631394 -54.63574972053118 0 -54.63574972053118 166.54381628749434 0 0 0 0 118.9601063389382 -84.894641327472527 0 -84.894641327472527 -18.824629476453993 0 0 0 0 95.334926628283029 -83.524386480225985 0 -83.524386480225985 -117.52798043278381 0 0 0 0 -14.747537836947231 -36.169897079988004 0 -36.169897079988004 -8.1396866431368835 0 0 0 0 56.564550641705864 -145.50537078239358 0 -145.50537078239358 -131.67810734939667 0 0 0 0 -98.331452078262373 -176.25143542093429 0 -176.25143542093429 -116.88346102517471 0 0 0 0 -14.233449573930102 -31.254035364991296 0 -31.254035364991296 -181.80926465672383 0 0 0 0 2.1250980695725836 -3.5059461002450618 0 -3.5059461002450618 1.5305064191956674 0 0 0 0 90.469352056046773 -274.22430295759114 0 -274.22430295759114 481.45847221266013 0 0 0 0 2.7404927004591322 -6.0421700510599523 0 -6.0421700510599523 10.852805782884488 0 0 0 0 -239.4279246009155 32.153598398100712 0 32.153598398100712 -61.869322215763532 0 0 0 0 28.917274318651835 -27.930958891507544 0 -27.930958891507544 -71.157463362893395 0 0 0 0 8.4892545158854773 -140.79929940836519 0 -140.79929940836519 23.867758155687625 0 0 0 0 34.350962492673716 -110.84926681978322 0 -110.84926681978322 -102.41337118696538 0 0 0 0 -28.608563624315138 -85.51631054301015 0 -85.51631054301015 -86.614238157028012 0 0 0 0 25.776162871359702 -108.48424245664501 0 -108.48424245664501 -30.273896274884464 0 0 0 0 2.7337395128088247 -71.533050012953026 0 -71.533050012953026 -11.022215344833967 0 0 0 0 -17.74563706110257 -102.72117080401404 0 -102.72117080401404 48.594438242849719 0 0 0 0 -0.61913966820429778 -74.418598891483271 0 -74.418598891483271 -4.3499673851620173 0 0 0 0 20.829817698051556 -57.055716582804962 0 -57.055716582804962 -40.697825149252822 0 0 0 0 35.541883723089995 -84.901391325171062 0 -84.901391325171062 -116.76456838750164 0 0 0 0 -11.742595079878811 -7.1649246757763194 0 -7.1649246757763194 14.39631006890977 0 0 0 0 7.2132121205559088 -22.2301181667126 0 -22.2301181667126 24.382406402627566 0 0 0 0 -9.2834024810363189 -58.721656217809141 0 -58.721656217809141 -88.459572619675782 0 0 0 0 4.3969831879057892 -9.5245743866642751 0 -9.5245743866642751 14.723906107432811 0 0 0 0 -20.826968325753114 -19.46081242857008 0 -19.46081242857008 21.643178248450567 0 0 0 0 -15.048586419614367 -5.6881487717473647 0 -5.6881487717473647 16.929644511692004 0 0 0 0 -3.2297972040196328 2.4064122213185328 0 2.4064122213185328 19.304257352591776 0 0 0 0 -13.271070095943287 -1.7194478340516071 0 -1.7194478340516071 34.18562443997871 0 0 0 0 -14.874385040333436 -6.6162525572126469 0 -6.6162525572126469 21.439752478031551 0 0 0 0 -2.5917597184925398 -6.7954325408850309 0 -6.7954325408850309 45.340488652000204 0 0 0 0 -0.51232262338999135 -12.578783204961837 0 -12.578783204961837 39.381079700311147 0 0 0 0 -0.090581228142696091 -43.358680483303246 0 -43.358680483303246 142.40530479717927 0 0 0 0 -2.7614892182282347 36.854224129152499 0 36.854224129152499 57.823023139128054 0 0 0 0 39.446882550853843 -79.801905706261095 0 -79.801905706261095 73.443570010077565 0 0 0 0 67.660253813912277 -69.903922661852903 0 -69.903922661852903 48.473763742282244 0 0 0 0 64.823252502654213 -87.576273840067188 0 -87.576273840067188 75.773477840148189 0 0 0 0 34.986817420223815 -58.379552936189612 0 -58.379552936189612 23.778908927681186 0 0 0 0 3.0363081787418196 -35.444029727571888 0 -35.444029727571888 64.068645480783289 0 0 0 0 14.932896980228179 -28.142731438951159 0 -28.142731438951159 15.640965685310221 0 0 0 0 59.391942379883403 -63.537825479474577 0 -63.537825479474577 24.765786252959515 0 0 0 0 70.99256803591561 -37.854903527187162 0 -37.854903527187162 -14.715742344469618 0 0 0 0 109.88894503899428 -80.822332885472861 0 -80.822332885472861 2.9345010883789655 0 0 0 0 28.583443836563674 -80.71024458750162 0 -80.71024458750162 37.443235875753089 0 0 0 0 60.31251020972104 -120.90968153622089 0 -120.90968153622089 44.7499810358986 0 0 0 0 2.719148669650167 -98.500695019376508 0 -98.500695019376508 52.566362263485644 0 0 0 0 1.5585887513589114 -98.846353015508612 0 -98.846353015508612 53.699936547796824 0 0 0 0 3.5786478995141806 -99.073016441067921 0 -99.073016441067921 52.943460213798971 0 0 0 0 2.3014847820741124 -99.351620759800426 0 -99.351620759800426 54.036132304219791 0 0 0 0 14.584047335119976 -144.06499952666491 0 -144.06499952666491 103.19266791855716 0 0 0 0 346.97336165364322 -98.613917805673736 0 -98.613917805673736 -7.4111166989932826 0 0 0 0 265.2697937406374 -69.803212589300529 0 -69.803212589300529 -11.802515333157316 0 0 0 0 22.440237339000305 -63.002593123988845 0 -63.002593123988845 -30.067488585068077 0 0 0 0 -0.015536609560160133 -75.132325770788654 0 -75.132325770788654 20.973246940477111 0 0 0 0 12.465424231508223 -11.880073953756437 0 -11.880073953756437 -57.658866784700422 0 0 0 0 0.63535234783557826 -31.882947861017783 0 -31.882947861017783 38.710766344579497 0 0 0 0 -13.589727619470978 -49.705206497888867 0 -49.705206497888867 20.458394151990433 0 0 0 0 17.828035810642177 -81.615364255828354 0 -81.615364255828354 41.930054476853911 0 0 0 0 -1.5753671069742268 -52.584176790487618 0 -52.584176790487618 26.273156868093793 0 0 0 0 39.513165917927836 -70.764810714137639 0 -70.764810714137639 32.326806767497146 0 0 0 0 26.629757553015224 -85.869689476088752 0 -85.869689476088752 43.022904653796104 0 0 0 0 4.4302073734561418 -45.304430063075415 0 -45.304430063075415 54.945011060289289 0 0 0 0 33.140598183632392 -57.067862733305446 0 -57.067862733305446 59.087142980031331 0 0 0 0 0.012299448975682026 -58.074474209931395 0 -58.074474209931395 107.77985506501682 0 0 0 0 18.160636973250803 -64.432116620740089 0 -64.432116620740089 88.511553551965335 0 0 0 0 94.944852170847298 -25.459713186245608 0 -25.459713186245608 104.39672829688789 0 0 0 0 10.78905109488187 -56.664074355518096 0 -56.664074355518096 164.23198658110414 0 0 0 0 0.0047629120807162195 -0.28409523217642629 0 -0.28409523217642629 0.81085579271883645 0 0 0 0 83.500580047821131 -111.8286295327589 0 -111.8286295327589 104.65574534480493 0 0 0 0 11.329215816618671 -57.816081750088415 0 -57.816081750088415 106.70879732721323 0 0 0 0 -0.035833916401315946 -53.225209240575623 0 -53.225209240575623 104.9874995321411 0 0 0 0 41.955891512125163 -54.443769638860886 0 -54.443769638860886 45.693438021014117 0 0 0 0 3.161877309299598 -17.591699577037616 0 -17.591699577037616 68.449113708611549 0 0 0 0 -0.3922136572521131 -0.85808775913966429 0 -0.85808775913966429 2.0337994562004482 0 0 0 0 -1.7151311743728002 -3.4015430097051649 0 -3.4015430097051649 2.3566879320305816 0 0 0 0 -0.90742261946979852 -2.0771155028219255 0 -2.0771155028219255 0.098932557390980946 0 0 0 0 -0.15086544955646541 -1.6156162675933032 0 -1.6156162675933032 0.41973443191224291 0 0 0 0 -0.001485617403886863 -3.7726545579275808 0 -3.7726545579275808 -0.13249988110419508 0 0 0 0 0.58159352332222625 -3.2937910089290199 0 -3.2937910089290199 -2.358747071712969 0 0 0 0 0.31204983951568721 0.14114581590577746 0 0.14114581590577746 -0.018879456052859567 0 0 0 0 12.916657560010208 9.4900916320857505 0 9.4900916320857505 12.016193370586734 0 0 0 0 6.8563482702629699 -11.758034704335842 0 -11.758034704335842 10.580529369567557 0 0 0 0 -12.357560923570077 -2.8554024629069943 0 -2.8554024629069943 6.6544183833320858 0 0 0 0 -2.0338666321342274 -1.1514503544819981 0 -1.1514503544819981 0.89886348775839942 0 0 0 0 5.0406118597147724 -7.1016430042809588 0 -7.1016430042809588 -3.4332998662848695 0 0 0 0 -2.125480092192447 -3.3599216635157063 0 -3.3599216635157063 2.900443087536587 0 0 0 0 -3.2273927670491034 -1.3202757489652557 0 -1.3202757489652557 2.4704261702189214 0 0 0 0 -0.11061214536039188 -0.08130629672541545 0 -0.08130629672541545 -3.006148548789497 0 0 0 0 -6.4245435836674005 -1.4325900466692474 0 -1.4325900466692474 9.299002898270146 0 0 0 0 -5.6195696533632145 -1.6918924060139489 0 -1.6918924060139489 11.2071959040004 0 0 0 0 -2.4450294874513929 -3.307420783555699 0 -3.307420783555699 6.7888416726800642 0 0 0 0 -4.582477324647698 -2.6633452527712507 0 -2.6633452527712507 5.745073094514737 0 0 0 0 -7.5037775808532388 -7.6026662567740004 0 -7.6026662567740004 4.9446214312574739 0 0 0 0 -2.3262934786544065 -7.4497003949491045 0 -7.4497003949491045 3.5842932388977715 0 0 0 0 -1.8463164149161457 -3.7072442218222932 0 -3.7072442218222932 1.9360369402365905 0 0 0 0 1.8203686621873203 -4.1393686501169213 0 -4.1393686501169213 1.9756917154700204 0 0 0 0 -2.2727667780491174 -3.6905121036970741 0 -3.6905121036970741 2.6108751198244136 0 0 0 0 3.9005790665596578 -4.7153784025822461 0 -4.7153784025822461 0.88957349206884828 0 0 0 0 2.0816908926844917 0.43253095956106336 0 0.43253095956106336 6.2733742676955444 0 0 0 0 -0.63905846722627757 -8.3095993072884085 0 -8.3095993072884085 -1.0395766696783539 0 0 0 0 -1.146710165143304 -7.1880602831579381 0 -7.1880602831579381 -0.041105365489784162 0 0 0 0 0.33748253263547667 -8.9582414776468795 0 -8.9582414776468795 -6.4540081002269289 0 0 0 0 -10.125423000405135 -14.608993055939209 0 -14.608993055939209 -2.959542312868507 0 0 0 0 6.2796470151479298 0.80608205212865869 0 0.80608205212865869 -5.0037776149556521 0 0 0 0 5.1971334829468105 -6.2739395402304581 0 -6.2739395402304581 -11.040215776873765 0 0 0 0 -20.745927028547158 -21.820435192650621 0 -21.820435192650621 -14.287157378562824 0 0 0 0 -23.898958988793311 -22.884102673346206 0 -22.884102673346206 -2.126965725376067 0 0 0 0 0.36898498608678665 -1.1966880313889732 0 -1.1966880313889732 0.96431223409312405 0 0 0 0 0.22366068219614021 -1.2602158360589542 0 -1.2602158360589542 1.1804938400032015 0 0 0 0 -26.269855865364661 0.085454595611736295 0 0.085454595611736295 18.402217824419495 0 0 0 0 0.0016958997166511836 -3.8814922399074021 0 -3.8814922399074021 2.8423346666008911 0 0 0 0 -0.23442702221176148 -2.2781110110134968 0 -2.2781110110134968 0.39023740469474433 0 0 0 0 -0.24765918216111515 -3.4146649352431453 0 -3.4146649352431453 1.782386943077654 0 0 0 0 0.046695201858244939 -1.6514929962542695 0 -1.6514929962542695 2.3187986196653085 0 0 0 0 -1.5046012109651201 -0.34659708326398686 0 -0.34659708326398686 3.0272938426959399 0 0 0 0 -2.1600869057383534 -1.3953327936371807 0 -1.3953327936371807 7.1120138264732304 0 0 0 0 -52.682000279528438 -40.786822125684921 0 -40.786822125684921 -32.553130436999709 0 0 0 0 0.13766315746877211 0.19880738665542297 0 0.19880738665542297 -0.053217823700028255 0 0 0 0 -0.017843318009909126 -44.029184760937369 0 -44.029184760937369 -125.19619670018938 0 0 0 0 -14.042535189681075 -71.572318883395837 0 -71.572318883395837 -154.91054211458686 0 0 0 0 -13.935640655019597 -71.644066990368174 0 -71.644066990368174 -194.24199618327384 0 0 0 0 -28.906913974960844 -104.57258776637309 0 -104.57258776637309 -256.35250956888831 0 0 0 0 0.21264900475499715 -1.0575920089710991 0 -1.0575920089710991 -0.43200805358153715 0 0 0 0 30.612084672885089 -6.3481287383682599 0 -6.3481287383682599 -116.79285443338904 0 0 0 0 -82.883956886727901 -95.242642256117051 0 -95.242642256117051 -99.56706392016622 0 0 0 0 2.6874013306455637 -2.5884649293675333 0 -2.5884649293675333 1.6575003864643945 0 0 0 0 -35.162209118851024 -8.4832034079372534 0 -8.4832034079372534 15.443596826541125 0 0 0 0 -5.020080803978999 -7.5279170804597015 0 -7.5279170804597015 3.8875620027188234 0 0 0 0 4.8299092540733 -3.7612983766431003 0 -3.7612983766431003 1.055025772264595 0 0 0 0 22.490810540002713 -6.1019352683853185 0 -6.1019352683853185 1.1312873071783542 0 0 0 0 19.023117476890548 7.7552256915619182 0 7.7552256915619182 -41.080600968258295 0 0 0 0 -93.344298886360775 -79.354045699525159 0 -79.354045699525159 22.167263422974429 0 0 0 0 -1.0840266671665262 -0.6660006166574739 0 -0.6660006166574739 -0.64485788913721365 0 0 0 0 -57.707756510084437 -168.07356426541719 0 -168.07356426541719 -139.3070896481774 0 0 0 0 -113.01627022683851 -41.839942964048817 0 -41.839942964048817 -181.42169346974833 0 0 0 0 -69.239436187741376 -136.58673773876262 0 -136.58673773876262 -326.08654766712084 0 0 0 0 -43.075808464820511 -65.153318525493205 0 -65.153318525493205 -178.98877280019815 0 0 0 0 9.6397457079037849 36.005494653787537 0 36.005494653787537 -448.62792019629205 0 0 0 0 -9.336637327211065 -85.486869135976349 0 -85.486869135976349 -185.13081681838202 0 0 0 0 -20.324338029773571 -46.331324144655355 0 -46.331324144655355 -181.21516036444086 0 0 0 0 -36.927275580101195 -49.181902065645886 0 -49.181902065645886 -123.94057925855077 0 0 0 0 -1.9762126969617384 -39.181107633178499 0 -39.181107633178499 -198.49825587298744 0 0 0 0 -0.015220012064673938 -63.028873651550384 0 -63.028873651550384 -144.66450149124103 0 0 0 0 -12.259135114652963 -51.609654007296626 0 -51.609654007296626 -193.28233042418196 0 0 0 0 0.022092305005571689 -56.455164247283619 0 -56.455164247283619 -206.92045284493861 0 0 0 0 -14.087579648892643 -32.7179486219095 0 -32.7179486219095 -249.34160916651172 0 0 0 0 0.39753506257329718 -50.527627693970544 0 -50.527627693970544 -120.43437010035632 0 0 0 0 0.64551059791119769 -44.266371584089711 0 -44.266371584089711 -136.87334385687063 0 0 0 0 -12.770812873851355 -70.689861099018543 0 -70.689861099018543 -111.95172797035229 0 0 0 0 3.6637609302943019 -94.867007420890559 0 -94.867007420890559 -71.368690038400246 0 0 0 0 2.1540389595502347 -73.849830084456244 0 -73.849830084456244 -98.207602916266069 0 0 0 0 19.874455141260114 -78.729570028229773 0 -78.729570028229773 -118.05751565275602 0 0 0 0 16.600023686942222 -67.164217085211703 0 -67.164217085211703 -147.75722530121584 0 0 0 0 -18.859251293928537 -104.28176982679588 0 -104.28176982679588 -149.36764383740547 0 0 0 0 23.416363713291503 -53.200449156557625 0 -53.200449156557625 -186.31624544878025 0 0 0 0 -1.3648279936387553 -89.184297306917983 0 -89.184297306917983 -231.18023478180658 0 0 0 0 8.450423439669521 39.789993444532769 0 39.789993444532769 -207.72361265981408 0 0 0 0 23.86347508347535 -60.127467360374112 0 -60.127467360374112 -143.56140234309055 0 0 0 0 4.2835673632762337 -38.499238727391457 0 -38.499238727391457 -152.32516429917473 0 0 0 0 21.769625381270089 -55.086515110191385 0 -55.086515110191385 -150.43044083944142 0 0 0 0 2.3407647914059453 -11.897833831928551 0 -11.897833831928551 -110.22181248950892 0 0 0 0 4.5852254845571352 -5.128414938444724 0 -5.128414938444724 1.7547516715010696 0 0 0 0 4.1769100222500128 -12.057140959850585 0 -12.057140959850585 -142.91000401768474 0 0 0 0 -1.4880710688652954 -3.4259647676378648 0 -3.4259647676378648 0.067835596730055236 0 0 0 0 5.3852613216586178 -10.689532290683019 0 -10.689532290683019 -9.8662874545898376 0 0 0 0 -0.89784242912347167 -2.009862086246553 0 -2.009862086246553 0.60034840282878221 0 0 0 0 4.3516391187040426 -12.789383504371926 0 -12.789383504371926 4.4965115362751931 0 0 0 0 5.9969147853971663 -5.4495935651352738 0 -5.4495935651352738 -13.945333594094336 0 0 0 0 2.7161804004003898 -3.6797431367777449 0 -3.6797431367777449 4.5171620657620224 0 0 0 0 13.346872361913483 -48.365828877630065 0 -48.365828877630065 -145.16581401523536 0 0 0 0 3.6086226177239524 -4.5507566244311191 0 -4.5507566244311191 2.5792342121866643 0 0 0 0 1.8436245585562574 -12.675550963835121 0 -12.675550963835121 -7.2298517572703531 0 0 0 0 -1.3425563251257699 -7.2991000183817505 0 -7.2991000183817505 -2.0651204722908005 0 0 0 0 6.145128363992626 -13.344720484754816 0 -13.344720484754816 1.8077881308618089 0 0 0 0 35.32765387892141 -29.823778983320608 0 -29.823778983320608 -33.048122079020686 0 0 0 0 -8.6682853531603996 -18.716025714871989 0 -18.716025714871989 8.5571527142601553 0 0 0 0 -7.8582795893871662 -11.789083694767214 0 -11.789083694767214 14.544115836747551 0 0 0 0 -0.71418860064657252 -0.16034746986421311 0 -0.16034746986421311 -0.25680844899262212 0 0 0 0 40.882865316605603 29.09802806697644 0 29.09802806697644 -39.334943527915129 0 0 0 0 1.6163541631922271 -7.3518077181670378 0 -7.3518077181670378 11.722343410364374 0 0 0 0 1.7260333636595533 -7.1539065547462997 0 -7.1539065547462997 9.461911441765551 0 0 0 0 3.2610882390584095 -5.3439133804429169 0 -5.3439133804429169 0.5462047447902183 0 0 0 0 -0.29237188059778418 -9.9153197837486005 0 -9.9153197837486005 6.3922226661075001 0 0 0 0 -80.0462334954791 -39.406607644238647 0 -39.406607644238647 38.962494330879508 0 0 0 0 5.1675370961431923 -8.4643335742984238 0 -8.4643335742984238 8.6179746854497381 0 0 0 0 4.7356459187339865 -3.8790028119282418 0 -3.8790028119282418 -1.0460420222294289 0 0 0 0 4.3279824403853127 -10.815208904236897 0 -10.815208904236897 -1.7996843001824345 0 0 0 0 11.13647204971403 -1.7528768731992841 0 -1.7528768731992841 -14.016609761753898 0 0 0 0 10.086676981249184 -11.077224673613273 0 -11.077224673613273 -11.961696151236765 0 0 0 0 -10.737391062933966 -7.2095179852747151 0 -7.2095179852747151 11.254505169446929 0 0 0 0 3.4888948749686932 -3.6738918908380054 0 -3.6738918908380054 -1.5590097243963803 0 0 0 0 4.8432731680804864 -5.221627537132008 0 -5.221627537132008 8.6502505378657588 0 0 0 0 4.7881206779529748 -9.4728060204579378 0 -9.4728060204579378 17.264894073226969 0 0 0 0 4.8095012936992134 -3.5145908573304041 0 -3.5145908573304041 12.562961460314909 0 0 0 0 -3.0844864571674933 -0.53219378842914722 0 -0.53219378842914722 8.3345436110752154 0 0 0 0 3.8384851503287791 -6.8290568073762188 0 -6.8290568073762188 11.573523680228163 0 0 0 0 -3.9634696034427179 -4.1029448993792812 0 -4.1029448993792812 8.7137198523214465 0 0 0 0 7.7072143548048189 -11.30933336408134 0 -11.30933336408134 16.084085216036328 0 0 0 0 -1.3478786866035151 -2.1005675909212655 0 -2.1005675909212655 3.025116975630441 0 0 0 0 10.499609106942444 -7.2805919211646142 0 -7.2805919211646142 9.3892169693394862 0 0 0 0 -4.2811899202038148 -2.4798496358656195 0 -2.4798496358656195 6.2148354447785223 0 0 0 0 -10.607701338039988 6.6227538431837729 0 6.6227538431837729 8.2193481321701256 0 0 0 0 9.3206377219703427 -11.751012312213788 0 -11.751012312213788 10.445615260821796 0 0 0 0 8.6997920789572163 -10.569041694888256 0 -10.569041694888256 9.3553292402866646 0 0 0 0 3.2057484076240144 -5.9378153142329211 0 -5.9378153142329211 10.733275947504808 0 0 0 0 -1.9970401625079433 -4.3903777763599976 0 -4.3903777763599976 7.697538553936262 0 0 0 0 3.1837756822424126 -10.994981770234517 0 -10.994981770234517 8.0876544264228869 0 0 0 0 -5.4320952651178231 -3.5172595399803868 0 -3.5172595399803868 9.086042805973193 0 0 0 0 41.778760352643076 -79.937127730736393 0 -79.937127730736393 -41.490618953328521 0 0 0 0 -88.149388831388933 -3.0706217141841989 0 -3.0706217141841989 73.907893762374442 0 0 0 0 4.4509161468122329 3.7813056717855034 0 3.7813056717855034 -2.0794197836257808 0 0 0 0 -1.5115398140333127 -13.265570476098219 0 -13.265570476098219 8.0503590940170398 0 0 0 0 -59.941431016690331 198.3125254108636 0 198.3125254108636 -275.82834737630037 0 0 0 0 2.3188115967350313 -7.3140754506816847 0 -7.3140754506816847 9.4879187821179585 0 0 0 0 4.4008742435175066 -6.9604117483150345 0 -6.9604117483150345 11.074224968329268 0 0 0 0 -30.329597337629821 -53.863287575575669 0 -53.863287575575669 134.31030050409663 0 0 0 0 -20.815594429561315 -97.974646705850319 0 -97.974646705850319 124.67817493946495 0 0 0 0 -16.49007966487261 -37.821342491053656 0 -37.821342491053656 61.104292972267103 0 0 0 0 -19.464178378715587 -12.608429496976896 0 -12.608429496976896 110.85042754015922 0 0 0 0 -3.406259298310033 12.102748738245282 0 12.102748738245282 70.07504007055104 0 0 0 0 0.60467072976991787 -1.0161765164632781 0 -1.0161765164632781 2.1496665300588091 0 0 0 0 -8.6128890916261298 -10.191999824490267 0 -10.191999824490267 41.950009436244727 0 0 0 0 -20.067639139400853 -40.469997410520591 0 -40.469997410520591 60.748169062917441 0 0 0 0 7.4556814776642568 13.501134982168878 0 13.501134982168878 25.260254452958179 0 0 0 0 -10.736721487381146 -12.593913806391356 0 -12.593913806391356 39.297907799804307 0 0 0 0 -4.4120722995266988 -11.873115565911576 0 -11.873115565911576 12.962672285844747 0 0 0 0 -7.8016814246220747 -36.27623467473677 0 -36.27623467473677 11.870400914961465 0 0 0 0 -5.3857187983376207 -31.49645674416206 0 -31.49645674416206 20.324851166828012 0 0 0 0 -4.3682976690797659 -34.457373549597833 0 -34.457373549597833 -9.5102375411042885 0 0 0 0 -2.5734289236088443 -14.792736806160065 0 -14.792736806160065 -4.6984912133266334 0 0 0 0 -2.1742257186124334 -12.641247056872089 0 -12.641247056872089 1.8950348177495471 0 0 0 0 -5.3036985273138271 -11.502734292203968 0 -11.502734292203968 14.622184804054996 0 0 0 0 4.263241151405964 -6.3378371259550477 0 -6.3378371259550477 -11.863055383977553 0 0 0 0 4.2094098324484861 -5.2592412897557796 0 -5.2592412897557796 1.4973053681581376 0 0 0 0 7.5140005012326583 -13.324878463890855 0 -13.324878463890855 -8.6802668646460006 0 0 0 0 6.9449512728624541 -10.813320163465505 0 -10.813320163465505 -4.6991749751978205 0 0 0 0 17.21816924804989 -11.708916752555524 0 -11.708916752555524 -3.4165405527201074 0 0 0 0 8.4691384102407028 -16.765664647760786 0 -16.765664647760786 -2.5312573626410995 0 0 0 0 4.9070660584366124 -11.846246536784747 0 -11.846246536784747 -4.2868327300893725 0 0 0 0 10.055739746681866 -16.943856979218708 0 -16.943856979218708 -7.2418930916901445 0 0 0 0 8.5726548410430041 -13.167931157527619 0 -13.167931157527619 -8.4875406330138503 0 0 0 0 8.2735283208157853 -16.25230058728539 0 -16.25230058728539 -19.649180050631912 0 0 0 0 1.5344556677500805 -28.737936105555264 0 -28.737936105555264 -23.820913654497417 0 0 0 0 22.891685954414243 -7.6502488334513146 0 -7.6502488334513146 -26.02998548351934 0 0 0 0 20.374594238439386 -18.966898260601738 0 -18.966898260601738 -22.34078540434075 0 0 0 0 29.494526270904316 -6.7312831308818204 0 -6.7312831308818204 -8.4232224552615662 0 0 0 0 85.411432298696127 29.573710956014565 0 29.573710956014565 -25.413488191052238 0 0 0 0 -75.691257168360153 -74.742147637851303 0 -74.742147637851303 -54.313492115037661 0 0 0 0 -0.84393427009669075 0.8435896046796536 0 0.8435896046796536 -0.0075355921723385677 0 0 0 0 31.46859682181821 -11.127685131450562 0 -11.127685131450562 1.3216379246032375 0 0 0 0 32.949061042530047 -4.6516211904518059 0 -4.6516211904518059 -9.0802736592049769 0 0 0 0 4.5643081718005831 0.025843147438474823 0 0.025843147438474823 -2.1362199670506072 0 0 0 0 47.773545956222733 -6.7408595224883356 0 -6.7408595224883356 -11.950982093421771 0 0 0 0 18.835354985150843 -14.424085121321696 0 -14.424085121321696 -5.2274318516788298 0 0 0 0 21.172246300432562 6.2425896445502076 0 6.2425896445502076 -6.8758682496227266 0 0 0 0 36.195846684353455 -32.724868701249761 0 -32.724868701249761 -2.6379903303495666 0 0 0 0 36.399140769717633 -23.751214754829562 0 -23.751214754829562 -12.469159662834954 0 0 0 0 24.163351685131698 -8.0320005186732857 0 -8.0320005186732857 -1.8864790154391535 0 0 0 0 26.632517301854023 -20.351355143701767 0 -20.351355143701767 11.713015610404909 0 0 0 0 29.446909732116183 -30.322975067708285 0 -30.322975067708285 25.997260137071862 0 0 0 0 4.4189778094016958 -4.2780447732411773 0 -4.2780447732411773 2.5158617058967252 0 0 0 0 20.914437369963707 -14.799984688344921 0 -14.799984688344921 -30.086930963552732 0 0 0 0 33.023355052308034 -43.166330617111953 0 -43.166330617111953 19.8423451423605 0 0 0 0 30.884735908121911 -35.458360769052888 0 -35.458360769052888 -4.0294329928892694 0 0 0 0 29.6651277496494 -38.002598087871775 0 -38.002598087871775 -6.5053910645447104 0 0 0 0 66.680793176476072 -41.51783751873063 0 -41.51783751873063 -3.5889808313131653 0 0 0 0 84.861416413725237 8.1982995730240873 0 8.1982995730240873 -7.6884490477982581 0 0 0 0 0.94320519624784538 -0.23837632184700297 0 -0.23837632184700297 -0.46883622544261172 0 0 0 0 3.1951078264185071 -22.121003275687031 0 -22.121003275687031 15.225176585719964 0 0 0 0 -0.59566136410285253 -4.6666227592750147 0 -4.6666227592750147 -9.8469761864147927 0 0 0 0 -3.7249163473161389 0.7791518918810425 0 0.7791518918810425 -2.2314534205888776 0 0 0 0 2.4943896326622053 -0.3930453040534303 0 -0.3930453040534303 -9.5276323977209927 0 0 0 0 -7.8906144138363743 -9.3025690182385006 0 -9.3025690182385006 -4.6956742669462983 0 0 0 0 38.054547603460719 5.3844122285062213 0 5.3844122285062213 -3.0101774307595406 0 0 0 0 6.4815547963120572 -7.2628942524610256 0 -7.2628942524610256 1.6368436680991465 0 0 0 0 2.0888279065875395 -14.271436875057589 0 -14.271436875057589 -2.4900719206234498 0 0 0 0 12.262515717558927 -4.0089016999534124 0 -4.0089016999534124 -10.456901467070566 0 0 0 0 0.64163866247832857 -9.9129732172115297 0 -9.9129732172115297 3.2496612577835453 0 0 0 0 8.0672801555192564 -15.010388833550678 0 -15.010388833550678 2.8940947660803431 0 0 0 0 19.01097731038044 -1.0503346218210936 0 -1.0503346218210936 -23.036059166619452 0 0 0 0 12.884798685541792 -8.6457964494706729 0 -8.6457964494706729 -2.5515658548216349 0 0 0 0 4.0447835167023953 -1.867242747511213 0 -1.867242747511213 -5.0072930392748063 0 0 0 0 -8.1636301567987175 -4.3865315648879459 0 -4.3865315648879459 2.9995472056325525 0 0 0 0 32.659168712802966 -14.4989090578797 0 -14.4989090578797 -0.30728267280028376 0 0 0 0 -2.319231767306678 -9.9427426781447643 0 -9.9427426781447643 3.7435626557259312 0 0 0 0 31.153111998538407 -20.400138296871319 0 -20.400138296871319 7.7004707620906174 0 0 0 0 12.093794993016218 0.10301051695932983 0 0.10301051695932983 -58.232298231861932 0 0 0 0 13.067432290071409 -9.6648306593389179 0 -9.6648306593389179 -8.1452215262534189 0 0 0 0 2.5026067170620081 -5.5470055247242271 0 -5.5470055247242271 -0.35604872100520879 0 0 0 0 4.7868223375377745 -4.1331534307184441 0 -4.1331534307184441 -2.5862968184256125 0 0 0 0 1.6121494976308659 -6.3992630257584189 0 -6.3992630257584189 1.9425554350917764 0 0 0 0 0.43416912207097713 -1.4171983018359295 0 -1.4171983018359295 0.58159573325685443 0 0 0 0 -26.362574841614332 40.634458333975999 0 40.634458333975999 -79.732277683360735 0 0 0 0 -7.9902265861874184 1.4036697358424135 0 1.4036697358424135 0.93633909716663766 0 0 0 0 9.789819048028221 17.122708738007077 0 17.122708738007077 -129.66330311736965 0 0 0 0 -1.7614380284690014 18.202593040912689 0 18.202593040912689 -79.541105012052867 0 0 0 0 10.863269791330822 7.9358597966406705 0 7.9358597966406705 -76.056844344821002 0 0 0 0 0.50613420947347976 0.47325291012439408 0 0.47325291012439408 -2.0160921250289334 0 0 0 0 15.268373421371507 10.646509780614906 0 10.646509780614906 -11.685477251913198 0 0 0 0 11.030115032565845 -48.828655598100681 0 -48.828655598100681 -34.804832325422467 0 0 0 0 37.935113205050129 -17.039682329087555 0 -17.039682329087555 -72.419494738320282 0 0 0 0 12.298432119618411 -2.7122133104374129 0 -2.7122133104374129 -6.4060719794730581 0 0 0 0 118.05975836690595 -124.14067333136882 0 -124.14067333136882 0.35131729888962582 0 0 0 0 7.5867659978319075 -4.6747673663955176 0 -4.6747673663955176 -8.4722879358341032 0 0 0 0 155.51209711408046 -32.742907396881492 0 -32.742907396881492 40.411309316499683 0 0 0 0 -40.388386350663495 -60.864530655650015 0 -60.864530655650015 150.64479428145569 0 0 0 0 0.70847654402519922 -0.23085143432651023 0 -0.23085143432651023 0.052928674190976466 0 0 0 0 41.137599439878613 7.8140568602466374 0 7.8140568602466374 -54.288729824469556 0 0 0 0 -52.114253570620349 -61.481461633578874 0 -61.481461633578874 151.38905820989567 0 0 0 0 39.883077600392426 -44.81373182324387 0 -44.81373182324387 144.49705297391756 0 0 0 0 103.95942278685106 -9.6799601384300331 0 -9.6799601384300331 -59.640603443385771 0 0 0 0 62.739114398553284 -28.296487263808558 0 -28.296487263808558 -56.107802198603167 0 0 0 0 40.203703632407269 -23.476792699753787 0 -23.476792699753787 -53.628114622733847 0 0 0 0 32.780153766709191 -18.346409123452759 0 -18.346409123452759 -56.118871437553025 0 0 0 0 40.040289905824011 -22.028360433194621 0 -22.028360433194621 -66.465416433373321 0 0 0 0 32.439816850188151 -14.328425650385952 0 -14.328425650385952 -36.311684512216743 0 0 0 0 8.2861690493882634 -31.701893771976756 0 -31.701893771976756 -48.631985099371377 0 0 0 0 5.480648745765393 -26.62627320622687 0 -26.62627320622687 -26.455128355816669 0 0 0 0 0.82178823148296942 -24.853421358675405 0 -24.853421358675405 -27.129735603468362 0 0 0 0 -0.29462395656446461 -12.88289049343075 0 -12.88289049343075 -35.865144126371888 0 0 0 0 1.4208565347680633 -19.501125857622355 0 -19.501125857622355 -14.710066080522665 0 0 0 0 25.123776281317987 -41.131038833929779 0 -41.131038833929779 40.51640974030397 0 0 0 0 3.3669259845520365 -4.1112544450428565 0 -4.1112544450428565 1.6181117017252973 0 0 0 0 18.082347237093927 -32.684664173299097 0 -32.684664173299097 33.859384680334188 0 0 0 0 13.778324945096612 -19.170449230687581 0 -19.170449230687581 15.543669866561402 0 0 0 0 27.85272175564296 -23.078838304452802 0 -23.078838304452802 17.375204587144253 0 0 0 0 49.997668126665303 -37.494409845654445 0 -37.494409845654445 20.837750481936382 0 0 0 0 13.764938116309054 -8.4557295847919605 0 -8.4557295847919605 -5.4503981770840113 0 0 0 0 16.380496493286046 -12.319131817366724 0 -12.319131817366724 0.96951340850228007 0 0 0 0 8.3742020125901035 -10.809887274051562 0 -10.809887274051562 2.0477224210972054 0 0 0 0 5.3253446492216945 -13.364230406566758 0 -13.364230406566758 3.9668625769308221 0 0 0 0 8.1236840146875693 -35.851150012153312 0 -35.851150012153312 -0.3407940029319434 0 0 0 0 2.34154314534298 -5.5619886420123024 0 -5.5619886420123024 0.36072976449614913 0 0 0 0 15.180845089812465 -14.524539517678477 0 -14.524539517678477 7.0565424209344201 0 0 0 0 21.446894250955665 -15.713147825235865 0 -15.713147825235865 1.715253236818171 0 0 0 0 18.170266844710568 -19.870088471390773 0 -19.870088471390773 11.642219526213012 0 0 0 0 19.604827275000389 -8.360215879280986 0 -8.360215879280986 -5.358023952118856 0 0 0 0 7.451265342290526 -13.137179093391751 0 -13.137179093391751 4.9068756406813918 0 0 0 0 1.0801519212662498 -7.4268118947223343 0 -7.4268118947223343 -1.1275110242109783 0 0 0 0 1.6806719025856545 -4.6776744985801244 0 -4.6776744985801244 1.9090891513622452 0 0 0 0 16.755626884291132 -15.181535603368729 0 -15.181535603368729 10.399194235014875 0 0 0 0 35.532329552955161 -19.834474920205139 0 -19.834474920205139 1.8682408410322751 0 0 0 0 20.776564446493467 -16.422327626233709 0 -16.422327626233709 11.962886707843609 0 0 0 0 -12.045340504592332 -6.9136726681826985 0 -6.9136726681826985 7.3051878274754927 0 0 0 0 -4.6799630783268231 -8.3820367673684206 0 -8.3820367673684206 5.5027278605641641 0 0 0 0 -37.383556718759792 -6.5959705568548088 0 -6.5959705568548088 20.061011274123302 0 0 0 0 -13.81850903658642 -4.2964772733662357 0 -4.2964772733662357 3.6377539918794355 0 0 0 0 -22.563390887712103 5.1428419203330122 0 5.1428419203330122 -14.975755416076026 0 0 0 0 12.609130093620024 -38.972256054344143 0 -38.972256054344143 16.909538971460279 0 0 0 0 47.317479811623343 -8.5351838464675893 0 -8.5351838464675893 -19.33017507968907 0 0 0 0 -12.438797716313047 -4.9113756572269267 0 -4.9113756572269267 -5.0891762663632107 0 0 0 0 -20.396774559540063 -6.023532649529443 0 -6.023532649529443 1.5754901024010906 0 0 0 0 -32.841938326060699 2.5752203304200521 0 2.5752203304200521 -2.9229762396826118 0 0 0 0 -32.38970444197912 17.14567473527859 0 17.14567473527859 -13.773344863810053 0 0 0 0 -4.3295060033719368 -8.1785382959948727 0 -8.1785382959948727 8.0591405167220138 0 0 0 0 -24.601814329920899 7.041249650069858 0 7.041249650069858 -8.5238146932661039 0 0 0 0 28.578815334118644 -19.864812084843152 0 -19.864812084843152 9.972433160926812 0 0 0 0 16.410593473894551 -19.085544053487865 0 -19.085544053487865 14.649501824478193 0 0 0 0 5.1102085159091075 -22.174400328680804 0 -22.174400328680804 13.059307532690866 0 0 0 0 17.20880894403308 -18.617510767294789 0 -18.617510767294789 12.311452390678824 0 0 0 0 20.782743752650276 -13.855780706091991 0 -13.855780706091991 12.801640056534552 0 0 0 0 18.037963390343521 -21.344800121717071 0 -21.344800121717071 19.326313085781294 0 0 0 0 0.46317212568694188 -16.426575824274661 0 -16.426575824274661 8.2367098317353253 0 0 0 0 -10.836074961744998 -27.393028362092082 0 -27.393028362092082 27.712911506307137 0 0 0 0 34.889615677282563 -22.559773877841508 0 -22.559773877841508 7.3861717451072764 0 0 0 0 -5.7169835028313649 1.4263327639188326 0 1.4263327639188326 1.5717328363973451 0 0 0 0 33.208855762517487 -52.457189873438438 0 -52.457189873438438 10.131417601964131 0 0 0 0 -37.154044656759652 4.8891050017241469 0 4.8891050017241469 20.296959923668055 0 0 0 0 19.81192683295194 -46.81300992408228 0 -46.81300992408228 -1.9550982537821255 0 0 0 0 -4.5732225086929112 -1.021592936116182 0 -1.021592936116182 0.19669222736893843 0 0 0 0 1.5207776295146118 -5.1484533616789498 0 -5.1484533616789498 -3.1370854614576711 0 0 0 0 -109.8922096202914 -39.286348435084506 0 -39.286348435084506 21.660571745032939 0 0 0 0 9.770765232235135 -13.275031688056515 0 -13.275031688056515 11.460723164640513 0 0 0 0 6.0328326949769462 -14.838146991706553 0 -14.838146991706553 13.380440607806346 0 0 0 0 0.53259254827526092 -42.471443170125042 0 -42.471443170125042 7.5480745186901004 0 0 0 0 -22.049064928902226 -30.017585539409311 0 -30.017585539409311 42.227223128010337 0 0 0 0 75.003361504006534 -29.271626997193152 0 -29.271626997193152 -13.869203101461267 0 0 0 0 -1.1851844812328238 -1.8144911084917688 0 -1.8144911084917688 -0.82250745573208839 0 0 0 0 15.233533762228035 -18.801779775570594 0 -18.801779775570594 11.916019299480695 0 0 0 0 7.3997014905552252 -13.230680228508501 0 -13.230680228508501 12.593063026241129 0 0 0 0 -26.897162562792801 -43.256673835551965 0 -43.256673835551965 26.375276798145478 0 0 0 0 20.600792426165754 -7.8919791860912483 0 -7.8919791860912483 8.9647394916319172 0 0 0 0 8.576564791079818 -11.118705382726603 0 -11.118705382726603 15.672290961289036 0 0 0 0 -5.1376199474967672 -7.2957013652515101 0 -7.2957013652515101 10.341659152373474 0 0 0 0 -81.882914070755987 41.370588304337844 0 41.370588304337844 29.195714504461648 0 0 0 0 28.238305988801585 -16.839429812448088 0 -16.839429812448088 8.4681378785935522 0 0 0 0 2.1787619800522764 -11.015840002599893 0 -11.015840002599893 12.937954324797197 0 0 0 0 -130.19908508693243 -23.111267031996249 0 -23.111267031996249 111.82244485498086 0 0 0 0 72.686506640381594 -138.65330631322922 0 -138.65330631322922 78.338262766262233 0 0 0 0 -68.403648864299612 -103.29483176666145 0 -103.29483176666145 152.80872662936235 0 0 0 0 127.9953948881664 -118.6757809212445 0 -118.6757809212445 59.348504980634971 0 0 0 0 123.00832977982009 72.223648121514088 0 72.223648121514088 0.87224572819604873 0 0 0 0 -2.0167399033252877 -6.5667647479767766 0 -6.5667647479767766 -2.7047117202378104 0 0 0 0 6.1424615643863945 -11.588480966636098 0 -11.588480966636098 -15.26483117079988 0 0 0 0 11.671299076097057 -4.0534379016412458 0 -4.0534379016412458 -4.8664046496451192 0 0 0 0 4.9085353992013552 -12.344336554670463 0 -12.344336554670463 4.1875571961290916 0 0 0 0 4.9993432828820943 -3.764597755493341 0 -3.764597755493341 -0.81692386023964403 0 0 0 0 20.771686599620807 -23.179845242824285 0 -23.179845242824285 3.9007072009535477 0 0 0 0 20.605970919768083 -18.662749803680967 0 -18.662749803680967 3.3316200243152707 0 0 0 0 75.027648904877424 -46.022914407059034 0 -46.022914407059034 8.849160051646777 0 0 0 0 57.710518870924716 -11.293877917751161 0 -11.293877917751161 22.265176558639723 0 0 0 0 79.362094784171859 -4.1304971113665943 0 -4.1304971113665943 -11.147649660426396 0 0 0 0 79.079099530241365 -17.464790163019188 0 -17.464790163019188 -15.705698137470563 0 0 0 0 19.954728513697773 -36.290107716446983 0 -36.290107716446983 24.787764430494462 0 0 0 0 19.550093514616492 -25.336594284862485 0 -25.336594284862485 20.70041248556663 0 0 0 0 25.753743731220311 -40.809484342443284 0 -40.809484342443284 -2.015380071110485 0 0 0 0 18.587542867819138 -69.365080858599413 0 -69.365080858599413 -25.067367154563726 0 0 0 0 17.167232315761794 -26.138376363331645 0 -26.138376363331645 -14.98877279384169 0 0 0 0 79.558789434791834 -35.094367551043433 0 -35.094367551043433 -10.692741885738542 0 0 0 0 128.84520915095345 -59.696067347464123 0 -59.696067347464123 -43.35166909830059 0 0 0 0 69.07378955837703 -9.4838725155027532 0 -9.4838725155027532 -21.938776589218378 0 0 0 0 119.8872000222982 6.0464097989261063 0 6.0464097989261063 -21.438519332446418 0 0 0 0 142.80957993765514 1.9712542257743735 0 1.9712542257743735 -24.607057577076375 0 0 0 0 4.0163452274930478 -1.4909219626402006 0 -1.4909219626402006 -5.1836886713042105 0 0 0 0 439.85832718463644 140.14345187017943 0 140.14345187017943 -24.131564807141331 0 0 0 0 1.2318844503270441 -0.82592764996819179 0 -0.82592764996819179 -1.619495521825296 0 0 0 0 -0.71129665187982027 -119.50359900448916 0 -119.50359900448916 -17.162080859956404 0 0 0 0 5.4603141581392265 0.38715878557832184 0 0.38715878557832184 -52.73474134403159 0 0 0 0 162.04011225061367 -218.78863314937939 0 -218.78863314937939 238.42917722610764 0 0 0 0 -295.47475360672433 64.769439657403836 0 64.769439657403836 192.12034309749947 0 0 0 0 -117.12864643928515 -77.928960063207342 0 -77.928960063207342 45.790224275636319 0 0 0 0 58.608976693029035 135.32791598474819 0 135.32791598474819 260.82970273872525 0 0 0 0 62.535935213043558 68.048637736981846 0 68.048637736981846 -121.80939289186699 0 0 0 0 -1.1733230113131867 -54.354881696501934 0 -54.354881696501934 46.768130489396754 0 0 0 0 -44.152453630518721 -61.182160078969446 0 -61.182160078969446 148.75063171638976 0 0 0 0 21.937856873089913 -244.91986685444726 0 -244.91986685444726 522.17386474015575 0 0 0 0 553.76022390939033 -163.10369162512234 0 -163.10369162512234 23.85749079476318 0 0 0 0 181.05707814467314 -252.6867335516672 0 -252.6867335516672 109.41049918025919 0 0 0 0 166.41147263915627 -37.261016063545867 0 -37.261016063545867 -17.020743903901803 0 0 0 0 29.367478027565085 -79.534842871584033 0 -79.534842871584033 -28.099137293754893 0 0 0 0 67.490032137986418 -153.14653850260538 0 -153.14653850260538 -26.494203117337975 0 0 0 0 58.725519450865249 -129.30070011679436 0 -129.30070011679436 -14.968017667429194 0 0 0 0 45.494083479804431 -160.56457802026659 0 -160.56457802026659 22.95170993627562 0 0 0 0 15.504944045183947 -122.96278321521822 0 -122.96278321521822 -53.248486827941178 0 0 0 0 14.840321927527839 -127.2311001629912 0 -127.2311001629912 -13.1616196257105 0 0 0 0 -22.898485168918342 -89.00318496820671 0 -89.00318496820671 13.57433022231794 0 0 0 0 -4.4337392660672776 -95.196815261950178 0 -95.196815261950178 -6.9254240799625677 0 0 0 0 3.620817150484072 -5.6717725180003526 0 -5.6717725180003526 -12.750979133767032 0 0 0 0 0.048681808346408673 -4.1359456532568002 0 -4.1359456532568002 2.6508065650298218 0 0 0 0 2.10936122270423 -4.4329317345394017 0 -4.4329317345394017 2.5713288397722689 0 0 0 0 -1.0546825031196931 -61.962393263360354 0 -61.962393263360354 -106.55971411259839 0 0 0 0 -24.358074760874956 -66.949690131089923 0 -66.949690131089923 -56.703679728613224 0 0 0 0 -3.6154801982202116 -95.722519093775986 0 -95.722519093775986 -67.040711402174566 0 0 0 0 10.227162635294007 -118.52885694446354 0 -118.52885694446354 -57.01851094476342 0 0 0 0 2.748223221522494 -115.91417517357149 0 -115.91417517357149 -39.221425149447668 0 0 0 0 9.9200953179852149 -115.3348700540522 0 -115.3348700540522 -50.459350166573586 0 0 0 0 15.000930945761866 -120.63728815930438 0 -120.63728815930438 -56.223324660952585 0 0 0 0 18.257673787975364 -118.24669753958301 0 -118.24669753958301 -52.515200264658006 0 0 0 0 19.320424788648552 -112.11700957418728 0 -112.11700957418728 -49.916731441448064 0 0 0 0 6.2560945723325858 -112.82183637458547 0 -112.82183637458547 -50.79217034767953 0 0 0 0 17.095367656645976 -117.85538505069439 0 -117.85538505069439 -52.619210985752488 0 0 0 0 15.55009599278128 -112.70623022678529 0 -112.70623022678529 -67.462060694351749 0 0 0 0 13.273595332646437 -128.18336453125397 0 -128.18336453125397 -45.320517897939681 0 0 0 0 27.721897090113998 -122.87272113178528 0 -122.87272113178528 -62.976719921529366 0 0 0 0 63.188573406452633 -136.36281737139939 0 -136.36281737139939 -67.440259145472737 0 0 0 0 110.30659594346253 -86.157952967325286 0 -86.157952967325286 -102.48782218306314 0 0 0 0 -21.981500938480167 -44.73667447156754 0 -44.73667447156754 -90.203750596318685 0 0 0 0 28.582657316486802 -108.2040827994191 0 -108.2040827994191 -67.424300456608762 0 0 0 0 22.545269861184352 -114.68842591879843 0 -114.68842591879843 -71.753881102827961 0 0 0 0 -0.38536366218014706 -0.65383210562245964 0 -0.65383210562245964 0.12738696971682018 0 0 0 0 -262.36106506349643 64.795414255980177 0 64.795414255980177 -25.985451334992376 0 0 0 0 -62.67941014095959 -103.3282438255859 0 -103.3282438255859 -57.603641761267227 0 0 0 0 -38.795635485074854 -89.561766109591929 0 -89.561766109591929 -40.358341043304335 0 0 0 0 -36.204396739944059 -88.18218693360518 0 -88.18218693360518 -56.595659036216801 0 0 0 0 -20.634040456394359 -104.58283676458359 0 -104.58283676458359 -43.343258751203848 0 0 0 0 -4.3155442400475295 -91.674782782327384 0 -91.674782782327384 -70.815506934321604 0 0 0 0 -52.306046166339456 -83.247801360746791 0 -83.247801360746791 -42.43443418167135 0 0 0 0 -48.21999785121443 -96.617091019139252 0 -96.617091019139252 -37.721018698341823 0 0 0 0 -16.397088820554927 -107.84597194102582 0 -107.84597194102582 -45.578768021933911 0 0 0 0 -4.1469416749532684 -109.0028775931678 0 -109.0028775931678 -4.8644395321750835 0 0 0 0 13.894023019318411 -110.81095055642186 0 -110.81095055642186 4.1504391509383822 0 0 0 0 13.658992065969869 -102.41779593465321 0 -102.41779593465321 -10.964070634561494 0 0 0 0 26.495861305811559 -104.75030131002757 0 -104.75030131002757 -32.435083164563821 0 0 0 0 14.630205869261772 -116.25701793965197 0 -116.25701793965197 -34.173250931978373 0 0 0 0 8.9766206218737352 -108.7397828220769 0 -108.7397828220769 -33.436865036430618 0 0 0 0 14.962052204969041 -108.09824814987624 0 -108.09824814987624 -35.4840942256983 0 0 0 0 -12.608642721102115 -94.82206032536007 0 -94.82206032536007 -28.613020318325653 0 0 0 0 8.9760156194133742 -108.42273947574517 0 -108.42273947574517 -55.547169027587415 0 0 0 0 60.504485315806292 21.987862998022393 0 21.987862998022393 -15.778479544707807 0 0 0 0 37.346520838489596 -36.819713828571366 0 -36.819713828571366 -5.9276982301954604 0 0 0 0 3.0931721158790637 -46.246668700443266 0 -46.246668700443266 58.72377441017602 0 0 0 0 58.161581253550139 -42.16626063962849 0 -42.16626063962849 -14.759284583276894 0 0 0 0 45.823879300271983 -39.760603082068883 0 -39.760603082068883 -5.4781757571599883 0 0 0 0 146.62168406113585 20.33329679876806 0 20.33329679876806 -15.956335964321624 0 0 0 0 170.78239931074393 -66.772799569553172 0 -66.772799569553172 -13.879899890214801 0 0 0 0 49.407304166403264 -44.183979402154364 0 -44.183979402154364 -13.65441498835753 0 0 0 0 51.015426252118232 -46.584829887300657 0 -46.584829887300657 -13.91518821774298 0 0 0 0 -14.591664026085937 -31.276027130356397 0 -31.276027130356397 -0.45321508784945763 0 0 0 0 18.240453121992687 -71.428325926606249 0 -71.428325926606249 -7.4868848785408773 0 0 0 0 -27.949282447717906 -68.937788167980216 0 -68.937788167980216 7.23393660938018 0 0 0 0 10.073811838042584 -22.343961762768874 0 -22.343961762768874 24.512413327450556 0 0 0 0 17.448911896874961 -39.879356164747605 0 -39.879356164747605 4.3100801191067148 0 0 0 0 32.812440705854897 -52.653601238946067 0 -52.653601238946067 -12.179686211748958 0 0 0 0 39.739458802420813 -31.337288332370917 0 -31.337288332370917 2.549883024269775 0 0 0 0 14.732881020179462 -23.380736599969829 0 -23.380736599969829 20.408546286619597 0 0 0 0 5.6182861333233696 -4.6935838248907409 0 -4.6935838248907409 -0.71185487670776926 0 0 0 0 80.930158002471217 -58.698283192194253 0 -58.698283192194253 -4.9427362745780101 0 0 0 0 -66.902829829143229 -16.945815958013782 0 -16.945815958013782 19.11409895992233 0 0 0 0 -33.175469427151256 -60.24539431149492 0 -60.24539431149492 56.831292279664012 0 0 0 0 -1.6590257221923821 -26.040017529011948 0 -26.040017529011948 0.39270676602063759 0 0 0 0 125.0690115411544 -85.115403089712515 0 -85.115403089712515 -3.453043729368801 0 0 0 0 3.9723959325092437 -8.113830331681811 0 -8.113830331681811 29.860811777099912 0 0 0 0 -34.437407605011686 -30.762492744989515 0 -30.762492744989515 -4.9471341458274765 0 0 0 0 -70.295209778134449 -78.598253622746142 0 -78.598253622746142 0.91298172610231632 0 0 0 0 -216.79609441024877 -40.540499376104208 0 -40.540499376104208 -4.2735795124895049 0 0 0 0 -107.20282580789353 -45.756169958007376 0 -45.756169958007376 -62.981952141238793 0 0 0 0 -97.870855866692182 -123.07975995791526 0 -123.07975995791526 -50.745192319975331 0 0 0 0 14.765799972657987 -74.311569500750011 0 -74.311569500750011 -56.844636721294592 0 0 0 0 103.9254493258486 -52.216757115762675 0 -52.216757115762675 -53.685913490554412 0 0 0 0 -0.76891581221098448 -0.045924459551709873 0 -0.045924459551709873 -1.1155323895144225 0 0 0 0 156.26436218973322 -29.738555072341796 0 -29.738555072341796 -75.740295439533384 0 0 0 0 77.484989571337792 21.667533617908134 0 21.667533617908134 25.251296638085478 0 0 0 0 6.9334296645101858 -60.545671783687339 0 -60.545671783687339 -68.21975141247367 0 0 0 0 -33.72586302746538 -78.304663486080074 0 -78.304663486080074 22.266078926831142 0 0 0 0 2.0803419817384565 -34.345285794973279 0 -34.345285794973279 -57.162896977052242 0 0 0 0 -109.59771864821232 -147.20100351550172 0 -147.20100351550172 -134.20148464452905 0 0 0 0 56.17463564829086 10.646378222054636 0 10.646378222054636 -34.464175899468501 0 0 0 0 11.362370464956307 -2.1686141735610249 0 -2.1686141735610249 -4.4421380161164503 0 0 0 0 16.198103131649987 -52.950206703626691 0 -52.950206703626691 -140.18345593629101 0 0 0 0 51.685756214741559 11.042819494018659 0 11.042819494018659 -37.348906156740327 0 0 0 0 -37.66189087044404 -23.222883676353604 0 -23.222883676353604 -38.17228498519944 0 0 0 0 50.110123083326471 45.418796730814393 0 45.418796730814393 -41.76154354149503 0 0 0 0 -13.411812778973399 28.317190016989798 0 28.317190016989798 185.76880055176025 0 0 0 0 19.37997902115967 -11.78894069012631 0 -11.78894069012631 37.757159834960476 0 0 0 0 97.626569107691466 74.067486182939774 0 74.067486182939774 -17.406821478965412 0 0 0 0 62.88105413219273 -33.264244212701129 0 -33.264244212701129 -204.440498845599 0 0 0 0 104.10454497632864 -205.39088924710228 0 -205.39088924710228 -8.0005661838722517 0 0 0 0 84.530624988910859 -32.759115095600009 0 -32.759115095600009 -98.664147766404312 0 0 0 0 2.9653574104795553 -69.80503887445775 0 -69.80503887445775 216.00573113205678 0 0 0 0 93.11367346303814 -55.667589348514639 0 -55.667589348514639 -49.433200312635563 0 0 0 0 27.082289542897371 -0.6171245886759138 0 -0.6171245886759138 -15.204090380037844 0 0 0 0 3.2229421318006644 2.5077967712356894 0 2.5077967712356894 7.5788558748131436 0 0 0 0 44.402047653660702 -19.465060863764847 0 -19.465060863764847 -11.394286949369999 0 0 0 0 54.865625939710299 -34.390537333179736 0 -34.390537333179736 -18.231001468503109 0 0 0 0 44.982703301990114 -4.1526950191150718 0 -4.1526950191150718 -12.535447660848149 0 0 0 0 63.939141146045586 6.4663462672119749 0 6.4663462672119749 -65.377381551666531 0 0 0 0 56.237331458105473 -21.476784320390607 0 -21.476784320390607 -43.034743713265016 0 0 0 0 76.008961671748693 -72.401365096296388 0 -72.401365096296388 17.294574463086974 0 0 0 0 34.974532540582004 -29.653416914332638 0 -29.653416914332638 -19.275116633002483 0 0 0 0 -4.7492059114695166 -9.5821443993806259 0 -9.5821443993806259 2.5762270492518837 0 0 0 0 -5.4865425211315255 -36.807367991819142 0 -36.807367991819142 0.41890432304626302 0 0 0 0 51.206747477510362 -3.867189328180757 0 -3.867189328180757 -45.476389398329957 0 0 0 0 2.1317524345313217 -0.59207544365894904 0 -0.59207544365894904 0.41417292270272377 0 0 0 0 3.4699739352781762 -10.288761491157629 0 -10.288761491157629 -0.86476796659212596 0 0 0 0 -37.87226368456686 -96.696623967438882 0 -96.696623967438882 38.362109342552685 0 0 0 0 109.26985552658334 -83.604899574670753 0 -83.604899574670753 -5.4071330103661239 0 0 0 0 38.121620162289219 -162.1550478375998 0 -162.1550478375998 90.178044745934585 0 0 0 0 -44.478045452367951 -89.322040553616262 0 -89.322040553616262 3.6154283581354321 0 0 0 0 16.271024852153005 -104.57956454344927 0 -104.57956454344927 -0.34782003110922233 0 0 0 0 2.8275800186165725 -43.91478819461372 0 -43.91478819461372 -19.318991583968227 0 0 0 0 -43.917560882930047 -96.162098403634673 0 -96.162098403634673 8.6210010665492973 0 0 0 0 -120.65474853511114 -99.386776644098859 0 -99.386776644098859 32.611703412778752 0 0 0 0 -42.352127174281122 -116.33604403878357 0 -116.33604403878357 19.777557138081647 0 0 0 0 -148.69821274664173 -110.54528628113326 0 -110.54528628113326 42.969801125058211 0 0 0 0 -71.215539815206284 -92.311623570636129 0 -92.311623570636129 -10.392964107751595 0 0 0 0 -120.62177660761085 -99.544426620249652 0 -99.544426620249652 -1.4170316229465243 0 0 0 0 -77.751786792553958 -163.35645314010628 0 -163.35645314010628 -143.15939085073296 0 0 0 0 -1.0058681204676319 -0.89256112083022199 0 -0.89256112083022199 0.15066294845623274 0 0 0 0 -107.60158920650429 -0.77004281540831698 0 -0.77004281540831698 395.78136110519029 0 0 0 0 -63.117648173651105 -64.811277627765207 0 -64.811277627765207 149.31375097090188 0 0 0 0 12.78018527293716 -111.73998774403691 0 -111.73998774403691 -18.019248290171618 0 0 0 0 -120.53757758092434 -111.74523721147597 0 -111.74523721147597 36.938013174460139 0 0 0 0 -8.854203760341079 -173.31513160916055 0 -173.31513160916055 82.110704527820872 0 0 0 0 -61.710447652207222 -83.781987040898912 0 -83.781987040898912 22.319364850330203 0 0 0 0 -85.699277580584749 -15.61934932088343 0 -15.61934932088343 1.7275232797933313 0 0 0 0 -293.29417831953378 11.180956038217914 0 11.180956038217914 63.259513835455436 0 0 0 0 -200.39262709273316 2.8257266546870596 0 2.8257266546870596 31.321938143287298 0 0 0 0 -164.32656370832046 86.302563098505175 0 86.302563098505175 -10.406012138990491 0 0 0 0 -1.5035957999769209 -0.76586137673546872 0 -0.76586137673546872 0.11725115775677519 0 0 0 0 -7.6193648370120179 -7.8918773722229112 0 -7.8918773722229112 -7.7191926253304377 0 0 0 0 -255.56608928701826 96.088706590551737 0 96.088706590551737 19.324793693044285 0 0 0 0 14.374888758218731 -25.337168336343325 0 -25.337168336343325 10.873274670668707 0 0 0 0 14.691207793099238 -25.983800342048767 0 -25.983800342048767 3.5880877872966721 0 0 0 0 14.188363639195813 -24.881239678144652 0 -24.881239678144652 1.8546330484954581 0 0 0 0 35.064691065790839 -58.608778948153343 0 -58.608778948153343 -19.87345926413991 0 0 0 0 24.692379873877144 -1.2595126696019179 0 -1.2595126696019179 -106.05953917718898 0 0 0 0 -9.813677291646826 -10.791250076596461 0 -10.791250076596461 -12.16855506934364 0 0 0 0 22.265409536899824 -70.972852188051093 0 -70.972852188051093 35.437542049755393 0 0 0 0 24.809751529534879 -86.89176213948565 0 -86.89176213948565 3.7654457127873684 0 0 0 0 2.9649714121469515 -90.297719241095422 0 -90.297719241095422 48.020969701667127 0 0 0 0 4.9625388968834159 -80.596133065018648 0 -80.596133065018648 -11.856915684460773 0 0 0 0 -29.583651372797249 -74.875973136685161 0 -74.875973136685161 -23.034360010761475 0 0 0 0 -14.155731664543964 -97.503679186447812 0 -97.503679186447812 6.3989103095841529 0 0 0 0 -66.346710708718092 -105.00000388073065 0 -105.00000388073065 -8.6802884214366713 0 0 0 0 -46.873485310647084 -88.509806885966896 0 -88.509806885966896 -57.084068915422904 0 0 0 0 -25.030714132077264 -51.08710568412323 0 -51.08710568412323 -11.310022816138186 0 0 0 0 -28.307582222742894 -54.03670412283526 0 -54.03670412283526 42.480283646347289 0 0 0 0 -16.998770096361113 -42.58530049707133 0 -42.58530049707133 31.37343501217083 0 0 0 0 -16.447919322514281 -56.557567652197349 0 -56.557567652197349 40.17070815853458 0 0 0 0 -1.2443516969084811 -2.3562022377512806 0 -2.3562022377512806 0.16875512760321873 0 0 0 0 14.372192753413401 59.37155385299252 0 59.37155385299252 181.108107697798 0 0 0 0 -80.194150145489402 -61.523882655147617 0 -61.523882655147617 370.57649218867306 0 0 0 0 7.0111540419238736 -109.90492784824937 0 -109.90492784824937 203.81926419827687 0 0 0 0 -23.69437577835015 -7.0914564096195818 0 -7.0914564096195818 202.32491937841905 0 0 0 0 -37.448289314041176 -87.049406633451554 0 -87.049406633451554 215.94228636056096 0 0 0 0 4.4192792710164213 -25.918776162542486 0 -25.918776162542486 96.102891861300122 0 0 0 0 2.2014323306866572 -52.529766355420179 0 -52.529766355420179 32.267043120934204 0 0 0 0 0.8689081977027584 -2.7071659397685801 0 -2.7071659397685801 0.0098225670547735233 0 0 0 0 -3.8436813099015126 -51.839560750831652 0 -51.839560750831652 147.86101656199776 0 0 0 0 68.45850148412319 -100.41809982738485 0 -100.41809982738485 114.8280741482817 0 0 0 0 172.43990149624005 -221.90775277332955 0 -221.90775277332955 190.54507296821163 0 0 0 0 -72.404646058760136 -89.118632502372947 0 -89.118632502372947 291.53336595030351 0 0 0 0 -68.511358858690187 -33.210911923107879 0 -33.210911923107879 133.53576055880012 0 0 0 0 -131.67939190202742 34.405722121223789 0 34.405722121223789 74.465171422519234 0 0 0 0 -103.48853867167782 -12.922072764999484 0 -12.922072764999484 110.02164927214153 0 0 0 0 95.075316603950341 -80.997860358234902 0 -80.997860358234902 201.62968486304908 0 0 0 0 220.17213248528424 -296.04587035399322 0 -296.04587035399322 519.123685712726 0 0 0 0 406.20102502701047 -235.23268314576217 0 -235.23268314576217 274.61461030594319 0 0 0 0 -177.20620381245681 -71.594519601415868 0 -71.594519601415868 470.89333495393294 0 0 0 0 -469.97071633837186 320.27000328379881 0 320.27000328379881 11.162555723635705 0 0 0 0 -0.19668857240274562 -0.17887556158343898 0 -0.17887556158343898 0.63942568538802513 0 0 0 0 -110.46844589344983 24.46291305666864 0 24.46291305666864 -85.597294783632947 0 0 0 0 261.56968290452642 -152.37941291119796 0 -152.37941291119796 170.25672890171703 0 0 0 0 1025.1948487918708 -621.17272232970174 0 -621.17272232970174 400.11927000921605 0 0 0 0 387.58717441311455 -215.57784148561404 0 -215.57784148561404 158.2713923567203 0 0 0 0 179.06361594810733 -224.04252424585707 0 -224.04252424585707 258.65304954416092 0 0 0 0 -79.553483296341938 -7.4076241958049067 0 -7.4076241958049067 240.95406308877307 0 0 0 0 179.99124646686687 -241.78945505531237 0 -241.78945505531237 242.04465220337732 0 0 0 0 284.38471288014262 -323.09136654219208 0 -323.09136654219208 351.15012084406044 0 0 0 0 141.47434527893347 -120.09306715150706 0 -120.09306715150706 411.19154579082488 0 0 0 0 171.06481661647558 -115.46196660190327 0 -115.46196660190327 245.26159495446927 0 0 0 0 -79.939128071913728 -151.06634487251699 0 -151.06634487251699 316.88959153140553 0 0 0 0 22.394487386412948 -7.9542283159804867 0 -7.9542283159804867 -53.929430910495839 0 0 0 0 -30.758223448996432 -61.03715932438152 0 -61.03715932438152 81.613294177684622 0 0 0 0 1.8371790002188391 -1.7905223485466606 0 -1.7905223485466606 0.03061914767758156 0 0 0 0 1.8580372827473184 -72.428623468025478 0 -72.428623468025478 251.4543614629157 0 0 0 0 24.622995199502839 -53.588889889533334 0 -53.588889889533334 100.47430136772891 0 0 0 0 23.149354032647238 -36.613420953466381 0 -36.613420953466381 132.09339622347215 0 0 0 0 12.358655386598912 -63.012834390623368 0 -63.012834390623368 109.37913031457674 0 0 0 0 18.325811980907019 -86.005483770236424 0 -86.005483770236424 128.18071940918071 0 0 0 0 24.882899838314188 -76.673865876896571 0 -76.673865876896571 54.547311480547933 0 0 0 0 34.615849556616467 -95.387830527169115 0 -95.387830527169115 63.730898589265507 0 0 0 0 31.101281762399594 -78.062304333715701 0 -78.062304333715701 39.760178862495195 0 0 0 0 18.107855004385783 -95.13088252659486 0 -95.13088252659486 59.85600081560051 0 0 0 0 51.453695811506805 -74.15196915823509 0 -74.15196915823509 35.730906535961367 0 0 0 0 13.011958397604758 -75.631535017503438 0 -75.631535017503438 122.21602830572498 0 0 0 0 38.611573423235313 -109.80319618994247 0 -109.80319618994247 50.631507080992833 0 0 0 0 28.198961389591204 -84.75929386537689 0 -84.75929386537689 128.40490566055172 0 0 0 0 26.358597646156795 -76.186504539133793 0 -76.186504539133793 122.58190667277722 0 0 0 0 63.874262477212142 -121.98388379769534 0 -121.98388379769534 116.08292745848848 0 0 0 0 9.2879934383354339 -93.765691188784771 0 -93.765691188784771 351.65121951550037 0 0 0 0 -39.580207827093545 -15.948155334220804 0 -15.948155334220804 41.085735521280697 0 0 0 0 0.72483393767064541 -0.49985006425310896 0 -0.49985006425310896 0.11807749024558692 0 0 0 0 41.612533136700222 -37.670911142755898 0 -37.670911142755898 -156.21546695543577 0 0 0 0 4.9536961703161069 -96.411930934029144 0 -96.411930934029144 123.9254758529447 0 0 0 0 6.114295099233459 -89.227156117750866 0 -89.227156117750866 162.27170907344853 0 0 0 0 0.053505022440731409 -66.771523947885385 0 -66.771523947885385 127.84987250188321 0 0 0 0 44.401814094828296 -66.698183751418355 0 -66.698183751418355 117.70643304490875 0 0 0 0 -1.5499456972547705 -86.928533183525104 0 -86.928533183525104 115.91051705545264 0 0 0 0 -0.013662822557307663 -85.978549526932454 0 -85.978549526932454 116.30679954565971 0 0 0 0 -8.4466694391212513 -70.521432092564282 0 -70.521432092564282 106.92192965772745 0 0 0 0 0.006902842384079122 -80.924133993919611 0 -80.924133993919611 82.819470664779601 0 0 0 0 -1.960177581726839 -80.093802109011023 0 -80.093802109011023 91.814699033800707 0 0 0 0 -9.7922122044428761 -68.735495258961464 0 -68.735495258961464 92.406587446255571 0 0 0 0 0.022979841262440459 -60.794562762581307 0 -60.794562762581307 45.639769448800735 0 0 0 0 20.438982895773734 -89.750141215662723 0 -89.750141215662723 102.2155886610451 0 0 0 0 9.8116763901780359 -66.459178254852873 0 -66.459178254852873 48.639673655853358 0 0 0 0 -1.2997875322489563 -66.20572975030359 0 -66.20572975030359 98.737191519163218 0 0 0 0 26.101208975723239 -77.781065057068929 0 -77.781065057068929 47.365768744042043 0 0 0 0 -3.5698952053680841 -76.911734174856349 0 -76.911734174856349 47.96914090838618 0 0 0 0 -17.807124756005578 -63.540396303299076 0 -63.540396303299076 48.595018988158884 0 0 0 0 9.0212614288284385 -77.483609431743616 0 -77.483609431743616 -1.9933099181134821 0 0 0 0 4.5037047442237963 -61.423218351584069 0 -61.423218351584069 -58.607703251341718 0 0 0 0 -14.369145339693205 -75.941121400758448 0 -75.941121400758448 -2.0941696230628395 0 0 0 0 -2.9688165851966914 -88.161666360741094 0 -88.161666360741094 -10.680744365702594 0 0 0 0 10.42462227211854 -78.089708585911978 0 -78.089708585911978 -54.298842805561435 0 0 0 0 -29.567586864304758 -49.419705426457767 0 -49.419705426457767 -17.678494786921021 0 0 0 0 12.949410143340174 -63.816389410475324 0 -63.816389410475324 -14.42855905903366 0 0 0 0 -0.038478633794511552 -80.914383424288872 0 -80.914383424288872 37.088886109689781 0 0 0 0 0.015540442445853841 -74.008068171749642 0 -74.008068171749642 -69.503577972036737 0 0 0 0 -7.4318797300775259 -61.396194882047155 0 -61.396194882047155 -119.58543983103209 0 0 0 0 -20.007531281311458 -33.796889876512864 0 -33.796889876512864 -110.11996373440979 0 0 0 0 -18.087964658809142 -63.581408315535782 0 -63.581408315535782 -56.536639497495941 0 0 0 0 -28.972920146406977 -44.23424583444762 0 -44.23424583444762 -63.621573686831653 0 0 0 0 -10.173323596738555 -80.726757701168083 0 -80.726757701168083 -106.79110176912491 0 0 0 0 -68.06729701857239 -69.805430311678265 0 -69.805430311678265 -104.81114086447133 0 0 0 0 15.251884521827378 -94.631558543853544 0 -94.631558543853544 -114.91219927759994 0 0 0 0 3.6627301278513187 -74.72356116502624 0 -74.72356116502624 -117.50570986371213 0 0 0 0 -18.036946976793899 -100.89256072792107 0 -100.89256072792107 -63.545094682845502 0 0 0 0 19.07239899510023 -79.945672202224841 0 -79.945672202224841 -53.732304003309082 0 0 0 0 4.9331147573229828 -101.59994359647692 0 -101.59994359647692 -72.105557133039383 0 0 0 0 27.178821168625291 -90.25914782472023 0 -90.25914782472023 -67.244407057788521 0 0 0 0 16.974650919306441 -81.482728639911102 0 -81.482728639911102 -103.53974408832732 0 0 0 0 8.6131482559601409 -95.498668697233995 0 -95.498668697233995 -113.2781258225682 0 0 0 0 13.335971289903682 -102.47590275579341 0 -102.47590275579341 -78.470806677739574 0 0 0 0 17.020744291603478 -112.98503347910423 0 -112.98503347910423 -63.294826934180037 0 0 0 0 27.216245506777341 -110.06288476278087 0 -110.06288476278087 -52.405654286769391 0 0 0 0 8.9328676969325898 -109.18218172525815 0 -109.18218172525815 -51.808745704281591 0 0 0 0 10.821708918305376 -109.23825840759707 0 -109.23825840759707 -47.414742558531088 0 0 0 0 23.269352527880983 -95.655127336675605 0 -95.655127336675605 -74.391223173143771 0 0 0 0 32.25908662335496 -96.065418145942715 0 -96.065418145942715 -40.261241236853493 0 0 0 0 19.722921185722953 -112.88823570394788 0 -112.88823570394788 -23.089257070289932 0 0 0 0 28.226657960160082 -115.49448456701907 0 -115.49448456701907 -16.919761081263914 0 0 0 0 27.039392275686623 -96.353903632746778 0 -96.353903632746778 -9.7288123454676452 0 0 0 0 26.937240886299151 -112.34826175720275 0 -112.34826175720275 17.018717511763043 0 0 0 0 40.603963778486104 -84.383300984326468 0 -84.383300984326468 12.560075162363319 0 0 0 0 29.023065920626323 -75.387603856823375 0 -75.387603856823375 -6.4022082998387759 0 0 0 0 12.69501081382441 -96.957051663976927 0 -96.957051663976927 25.545970073148169 0 0 0 0 33.435182143624843 -84.915679934817376 0 -84.915679934817376 -21.794092195337498 0 0 0 0 6.0264526105165714 -104.09019244780967 0 -104.09019244780967 -32.338117829233852 0 0 0 0 19.932253788727394 -109.09510114588738 0 -109.09510114588738 -6.616169149899406 0 0 0 0 6.8944683052882283 15.186987217594833 0 15.186987217594833 20.72632823049662 0 0 0 0 26.367657434199032 21.091450943644361 0 21.091450943644361 -6.374611193905821 0 0 0 0 2.0001902585748828 -6.3092932485553499 0 -6.3092932485553499 8.3852801605001126 0 0 0 0 10.224788506647542 -8.9332200972743294 0 -8.9332200972743294 9.2848354107140949 0 0 0 0 -65.610391420190808 26.292524820061317 0 26.292524820061317 -5.6538021587207368 0 0 0 0 -30.586223371742108 -45.901673610741227 0 -45.901673610741227 -24.060421082969697 0 0 0 0 -10.388446247298361 -21.374390802416883 0 -21.374390802416883 3.1851818331292634 0 0 0 0 -2.1804125199942064 -21.850264917008872 0 -21.850264917008872 3.2126876603506389 0 0 0 0 -19.520572122665499 -19.809687344375675 0 -19.809687344375675 16.185493520745467 0 0 0 0 -3.6059229630496645 -7.3248793515597583 0 -7.3248793515597583 22.929622893479518 0 0 0 0 -6.5922521130055429 -19.557887917724543 0 -19.557887917724543 10.904703022765716 0 0 0 0 0.90000122907622426 -9.7792679249105277 0 -9.7792679249105277 17.162413917334106 0 0 0 0 1.3829664106024779 -9.9287733027088052 0 -9.9287733027088052 1.2634532983884128 0 0 0 0 5.4005713781875784 -3.8431099558815731 0 -3.8431099558815731 20.018955290412123 0 0 0 0 3.6953539124760564 -8.5582848417338102 0 -8.5582848417338102 11.04141312429234 0 0 0 0 1.4382643379434512 -10.307243394867328 0 -10.307243394867328 3.5253678280005261 0 0 0 0 -5.157308891161037 -9.9702695194422404 0 -9.9702695194422404 8.8567324922614716 0 0 0 0 -5.1681197610836307 -9.9706948706079856 0 -9.9706948706079856 10.018120934417311 0 0 0 0 3.8550607685471912 -6.1531883361418789 0 -6.1531883361418789 10.806218094942281 0 0 0 0 -7.3175941891349794 -7.7714900601863519 0 -7.7714900601863519 8.0538962614305092 0 0 0 0 5.9011775739172663 -25.801359303665777 0 -25.801359303665777 22.327174066792168 0 0 0 0 -5.0535229566390854 -9.5502935893130143 0 -9.5502935893130143 9.8378320119654745 0 0 0 0 2.8769073780504186 -7.0745864113146126 0 -7.0745864113146126 8.1847789428829856 0 0 0 0 -2.3848424810239774 -3.3632822085239678 0 -3.3632822085239678 -3.9164000219297428 0 0 0 0 137.29089988667238 -133.06035846942814 0 -133.06035846942814 36.765929611742649 0 0 0 0 17.177660590836695 -50.594819474081305 0 -50.594819474081305 32.795714571740064 0 0 0 0 97.361385674424128 -67.958563247718303 0 -67.958563247718303 58.620637469574262 0 0 0 0 101.65519176421037 -77.741626980554202 0 -77.741626980554202 3.9131162549720102 0 0 0 0 115.40237423138728 -70.152836511121677 0 -70.152836511121677 11.566627540399622 0 0 0 0 106.61044296123049 -68.957076711778143 0 -68.957076711778143 12.051775429467398 0 0 0 0 -2.7641092135790313 -3.9666458912588158 0 -3.9666458912588158 -5.4998723072464273 0 0 0 0 101.39831371681259 -71.204998663587503 0 -71.204998663587503 17.798128448607258 0 0 0 0 106.663191031032 -69.112062118683184 0 -69.112062118683184 9.234881891965415 0 0 0 0 78.426838698143001 -55.773990337555688 0 -55.773990337555688 21.029781986846046 0 0 0 0 -2.1700353961498422 -17.570142286300324 0 -17.570142286300324 10.706722070643082 0 0 0 0 73.115729452891742 -2.7097325192894459 0 -2.7097325192894459 -1.8448915491144362 0 0 0 0 -2.8252446792053516 -5.410600539358871 0 -5.410600539358871 -5.4012684487840055 0 0 0 0 -5.24378849063514 -1.462321597533105 0 -1.462321597533105 43.602623333636984 0 0 0 0 -5.3232430109208178 -4.4084000258049052 0 -4.4084000258049052 0.39254432182235632 0 0 0 0 89.797172598940506 -93.569101379116887 0 -93.569101379116887 56.864276287994926 0 0 0 0 167.51464906780575 -37.792772678797292 0 -37.792772678797292 4.4347345326553409 0 0 0 0 -0.24536623534623325 -1.3760093525079715 0 -1.3760093525079715 -0.48369441548793191 0 0 0 0 108.49798576292221 -84.879061493504764 0 -84.879061493504764 98.504046452197144 0 0 0 0 121.8266186660652 -54.942713807110067 0 -54.942713807110067 96.594344291259631 0 0 0 0 103.20622517269305 -81.658530936373609 0 -81.658530936373609 47.908466729943029 0 0 0 0 129.99321238822137 -97.388330635664829 0 -97.388330635664829 65.757871498222812 0 0 0 0 111.00060080526373 -64.090640575969701 0 -64.090640575969701 21.805912512947543 0 0 0 0 77.574191943641836 -54.141938383438401 0 -54.141938383438401 67.974958921352481 0 0 0 0 53.613283766435188 -69.738070577542658 0 -69.738070577542658 157.14271867575462 0 0 0 0 24.072009577013887 -54.192488236115196 0 -54.192488236115196 152.28427181954578 0 0 0 0 130.71469540387392 -60.114473440231109 0 -60.114473440231109 80.267031859513281 0 0 0 0 117.87624177679322 -98.768613210981584 0 -98.768613210981584 99.50998068730155 0 0 0 0 218.13146664680062 -59.405835364813584 0 -59.405835364813584 112.15180083290852 0 0 0 0 19.024824669251302 -81.347895522200361 0 -81.347895522200361 184.34665319875683 0 0 0 0 95.219623823466918 -43.967914024171137 0 -43.967914024171137 150.01415250776108 0 0 0 0 18.496839656506175 -48.174306776418007 0 -48.174306776418007 220.64485607067377 0 0 0 0 -9.0635434736415057 -7.2237428229340086 0 -7.2237428229340086 -1.3314011073877996 0 0 0 0 22.799692278675508 -109.57124897129165 0 -109.57124897129165 156.67800567406402 0 0 0 0 56.099175956191601 -21.626997601377923 0 -21.626997601377923 5.9414353997399303 0 0 0 0 30.449657728289253 -103.64046624064031 0 -103.64046624064031 98.099233056653247 0 0 0 0 -7.0947156614340372 7.9807851888522237 0 7.9807851888522237 23.198676794836473 0 0 0 0 -8.8345174263832291 -37.622324355292449 0 -37.622324355292449 78.962567415389231 0 0 0 0 44.759661628450431 -59.122770545764752 0 -59.122770545764752 17.000346113209616 0 0 0 0 -6.8661840486704371 -4.7883642466296479 0 -4.7883642466296479 -2.0090530545803489 0 0 0 0 -13.673300949526265 -67.563707235436141 0 -67.563707235436141 19.253143310804262 0 0 0 0 37.0867157579479 -8.9904924960251265 0 -8.9904924960251265 -57.527295922360736 0 0 0 0 45.895370591255869 -32.56868028795202 0 -32.56868028795202 2.2513555038008803 0 0 0 0 -50.65912161782262 1.994732571934037 0 1.994732571934037 25.957892124982209 0 0 0 0 1.7176855119118954 -7.7556691166437304 0 -7.7556691166437304 -34.182897840557985 0 0 0 0 -0.62094448054890883 -0.52142550177340574 0 -0.52142550177340574 -1.0185547981358809 0 0 0 0 -32.124548766963926 22.048282015796076 0 22.048282015796076 -11.596463076405144 0 0 0 0 -10.956204615428987 -4.8356119429024602 0 -4.8356119429024602 17.872482394595409 0 0 0 0 -13.186141015608428 -27.27286840566353 0 -27.27286840566353 34.744186535455356 0 0 0 0 -17.558065621568062 -7.7406656050906975 0 -7.7406656050906975 17.625853467920479 0 0 0 0 -0.78954172658182209 -1.7621378662739486 0 -1.7621378662739486 1.8078380009783626 0 0 0 0 -32.551784143215286 -0.071307469638782095 0 -0.071307469638782095 18.228796280364747 0 0 0 0 -10.809376869325005 -7.8580188352537785 0 -7.8580188352537785 7.8225463841584553 0 0 0 0 -23.830403385223832 -26.0427834425046 0 -26.0427834425046 18.481708307968574 0 0 0 0 4.0636482567588246 -32.580417138047437 0 -32.580417138047437 -9.517839736392034 0 0 0 0 -28.960932033581457 -25.359932840038482 0 -25.359932840038482 18.682547948366761 0 0 0 0 41.555596195599264 -41.0754342243157 0 -41.0754342243157 -0.65182751981433285 0 0 0 0 -5.7072005502996035 -26.924583068498123 0 -26.924583068498123 -4.5784690076616243 0 0 0 0 -9.4669854770660891 -0.060276083033613759 0 -0.060276083033613759 13.324683242043648 0 0 0 0 -2.805168672786813 -2.4296179567572 0 -2.4296179567572 1.1256524060091309 0 0 0 0 -6.2546418220862527 -10.296665390552011 0 -10.296665390552011 5.5582345942099476 0 0 0 0 -3.5694064760441506 -5.421882628449282 0 -5.421882628449282 6.6779899876711397 0 0 0 0 -7.3877609893734189 1.2151157979269556 0 1.2151157979269556 -21.142678014852663 0 0 0 0 -2.5431608748960119 -7.0085347131599764 0 -7.0085347131599764 3.997257088106446 0 0 0 0 -3.2017949194480027 -7.6531155082031992 0 -7.6531155082031992 -2.0522612932048405 0 0 0 0 -0.79979420772132492 -1.0787392385640224 0 -1.0787392385640224 0.10913058885884763 0 0 0 0 19.044065060410958 -7.4549099474166383 0 -7.4549099474166383 -7.5836300846529099 0 0 0 0 -5.2616893448343376 1.8000184347642145 0 1.8000184347642145 -9.4849258891081263 0 0 0 0 -2.1923955906722767 -1.9865190040480911 0 -1.9865190040480911 0.54941899329162425 0 0 0 0 1.1082821896017867 -2.8637554923427175 0 -2.8637554923427175 -1.8458048807977354 0 0 0 0 3.5220444518690783 -10.324295402785765 0 -10.324295402785765 3.0515151425822751 0 0 0 0 -23.020497542183875 -2.2452668762172152 0 -2.2452668762172152 -1.3994437337468071 0 0 0 0 -0.07100571163141467 -2.0210547668271239 0 -2.0210547668271239 2.5940326712099959 0 0 0 0 -2.1486238246516223 9.0849605746150246 0 9.0849605746150246 5.2514729605729826 0 0 0 0 0.040710356108736079 -5.4035696610582811 0 -5.4035696610582811 7.8242792456803265 0 0 0 0 1.7223713725361449 -14.432738315263123 0 -14.432738315263123 -1.7358622834140078 0 0 0 0 -0.11169997536035225 -11.694039327802784 0 -11.694039327802784 -0.81097719675017288 0 0 0 0 -9.3447743284432363 -6.1163564808919091 0 -6.1163564808919091 6.6197777126887445 0 0 0 0 -1.960497382347766 -4.655559693688005 0 -4.655559693688005 4.6125144258891151 0 0 0 0 112.46191182828989 -74.751427356526619 0 -74.751427356526619 9.2295329174230574 0 0 0 0 -13.763975081317767 -3.8781733444957354 0 -3.8781733444957354 3.2815783621981609 0 0 0 0 -33.135110850805972 8.4064293924118374 0 8.4064293924118374 -2.2398113259532693 0 0 0 0 -0.72705493109024388 -6.7742371834016248 0 -6.7742371834016248 5.1294909804974615 0 0 0 0 -28.391837486547615 -14.184991437095562 0 -14.184991437095562 6.529273938962433 0 0 0 0 -8.5313652036493295 -15.146321965974948 0 -15.146321965974948 6.4422188942971843 0 0 0 0 -24.957342308116495 -3.4647715158621395 0 -3.4647715158621395 13.560483776791443 0 0 0 0 -122.83321945776697 51.699201513462867 0 51.699201513462867 77.017358727787268 0 0 0 0 -0.025697716872215892 -0.49478932181576685 0 -0.49478932181576685 0.14545391643572536 0 0 0 0 106.47912295731294 -40.654696441565875 0 -40.654696441565875 -182.288279011962 0 0 0 0 -3.8828456395863213 -7.4556626379476256 0 -7.4556626379476256 19.112495571976069 0 0 0 0 242.60808210865434 178.45242162853356 0 178.45242162853356 -41.653976485967632 0 0 0 0 28.182614218343588 -69.838216584980728 0 -69.838216584980728 76.740149840175945 0 0 0 0 -7.9925258109578863 -37.163422249921496 0 -37.163422249921496 116.46478282319185 0 0 0 0 -5.7093888151466672 -16.553614216698406 0 -16.553614216698406 21.170485346554187 0 0 0 0 -18.349282808150292 -8.7855051523579277 0 -8.7855051523579277 60.250284012730845 0 0 0 0 19.77936275342654 -48.517749085845935 0 -48.517749085845935 41.7656852160585 0 0 0 0 -0.14894924443251512 -32.108681706578409 0 -32.108681706578409 28.807471207866911 0 0 0 0 -11.060046345527553 -14.9416737872657 0 -14.9416737872657 17.983212779639871 0 0 0 0 -14.365979990424876 -11.848975444353755 0 -11.848975444353755 27.930231255654689 0 0 0 0 2.0698412753217781 -27.690474762483518 0 -27.690474762483518 25.245252817714686 0 0 0 0 -13.632430578876892 -4.2721274654837202 0 -4.2721274654837202 7.6202456126411562 0 0 0 0 -7.2818504582992318 -11.451472229347019 0 -11.451472229347019 14.079198591700333 0 0 0 0 -7.3883979451788946 -9.0742586618312089 0 -9.0742586618312089 -7.3995658582907708 0 0 0 0 -0.43082904618563589 -2.0256943699088197 0 -2.0256943699088197 -0.82597554773747106 0 0 0 0 -5.6673714882372224 -6.7409180797480985 0 -6.7409180797480985 2.121263894484855 0 0 0 0 -5.5738748463786578 -4.0206759643835994 0 -4.0206759643835994 -9.627769636089397 0 0 0 0 -17.414207983229971 -2.2360652871195725 0 -2.2360652871195725 8.1335628839751735 0 0 0 0 10.39047084773847 -31.814051634359657 0 -31.814051634359657 -2.5014163082662293 0 0 0 0 10.662730893918706 -29.154594054605695 0 -29.154594054605695 1.2959788964122367 0 0 0 0 11.816368983868415 -27.662033262229215 0 -27.662033262229215 3.2648313316510666 0 0 0 0 14.564042510475701 -22.979627112657965 0 -22.979627112657965 2.720320987502955 0 0 0 0 11.477082308218996 -26.07234059411411 0 -26.07234059411411 -2.2478057861362686 0 0 0 0 9.3267825609382271 -32.330559534903102 0 -32.330559534903102 -10.378786204831727 0 0 0 0 8.1078619603795232 -26.468024271936713 0 -26.468024271936713 2.4571197545706127 0 0 0 0 -2.6120206843424967 -33.501306689049215 0 -33.501306689049215 -0.24584034131612498 0 0 0 0 -2.2148129481302021 -36.309542169122096 0 -36.309542169122096 -1.4702663965415468 0 0 0 0 3.9702746499719979 -27.971605236771381 0 -27.971605236771381 -0.62102018493123978 0 0 0 0 -5.2895682039525127 -37.614363445648223 0 -37.614363445648223 -2.3789735730160828 0 0 0 0 -4.9941011750634061 -35.908132998568249 0 -35.908132998568249 3.99480184308959 0 0 0 0 -10.774226279414506 -35.150475567179114 0 -35.150475567179114 1.1133731334898584 0 0 0 0 -16.117277894662038 -33.935142779312741 0 -33.935142779312741 -1.131969670493163 0 0 0 0 -25.327004431061141 -38.079788464937934 0 -38.079788464937934 -1.553697405569352 0 0 0 0 -3.643004635335501 -38.397301565524515 0 -38.397301565524515 -3.634737263176703 0 0 0 0 -33.812221327509178 -28.504162419930367 0 -28.504162419930367 0.98421231779957452 0 0 0 0 -22.703371030397619 -11.984616102491369 0 -11.984616102491369 -2.9160343100347745 0 0 0 0 -26.727046455337586 -29.904774370893477 0 -29.904774370893477 0.23109593430848463 0 0 0 0 -15.203907330331617 -28.616839331153187 0 -28.616839331153187 -2.7176962578000712 0 0 0 0 -34.058386020042235 -13.002408210344015 0 -13.002408210344015 8.9841944579704887 0 0 0 0 -69.356165016979503 -11.798266130898924 0 -11.798266130898924 9.5148831451195335 0 0 0 0 -20.416033117126062 -18.928659838543126 0 -18.928659838543126 -14.198422379625299 0 0 0 0 -0.62645861253400348 -0.5491093625325334 0 -0.5491093625325334 1.842579561106624 0 0 0 0 -14.817514267240767 -27.044034794322215 0 -27.044034794322215 -13.504622700678794 0 0 0 0 -10.29162813545372 -34.929316374245445 0 -34.929316374245445 -6.0377977700554766 0 0 0 0 -18.47824484607554 -25.274033868516653 0 -25.274033868516653 -5.9670815568324542 0 0 0 0 -8.9939088625960721 -34.240554491428156 0 -34.240554491428156 -6.6774582869014125 0 0 0 0 -14.681922742514871 14.616102191703249 0 14.616102191703249 55.63744803793557 0 0 0 0 -5.2791094192725723 -9.185547239539801 0 -9.185547239539801 -1.0663932156345339 0 0 0 0 54.442570199596958 -1.0524465474700264 0 -1.0524465474700264 55.237655613703282 0 0 0 0 -1.5732029276832691 4.5021454740618765 0 4.5021454740618765 27.525043903737242 0 0 0 0 -0.40607294865268173 -7.2616807772939529 0 -7.2616807772939529 8.0748564557931619 0 0 0 0 -1.8275830582942838 -1.0096039635649685 0 -1.0096039635649685 4.6601041034115838 0 0 0 0 2.8252467633872964 -7.7191170790246542 0 -7.7191170790246542 3.703318953373961 0 0 0 0 -53.373043471528945 -9.9834032251264944 0 -9.9834032251264944 46.519186628434909 0 0 0 0 78.059062066174192 -31.538943032444308 0 -31.538943032444308 5.5008904205096769 0 0 0 0 -185.75341485279932 -102.13127256075427 0 -102.13127256075427 206.33404526061167 0 0 0 0 -15.067976756783537 -100.79397681988712 0 -100.79397681988712 -75.044028572857314 0 0 0 0 0.69419440137451538 -1.0076618799497461 0 -1.0076618799497461 1.7500471164045628 0 0 0 0 -10.073958562294138 85.668589432315457 0 85.668589432315457 106.88390073575147 0 0 0 0 9.1907443748787045 -18.514315301963506 0 -18.514315301963506 22.807914472306948 0 0 0 0 0.71789200464575842 -17.101606581119295 0 -17.101606581119295 9.8456068848181602 0 0 0 0 9.7406381250166305 -26.117942989170388 0 -26.117942989170388 10.483079362574244 0 0 0 0 -28.441721051578497 1.6676131605975115 0 1.6676131605975115 17.100164308309559 0 0 0 0 -1.2584296495888339 -25.401349108088425 0 -25.401349108088425 -17.809514334034702 0 0 0 0 -18.195459499234858 -35.862013241832301 0 -35.862013241832301 21.233683808698515 0 0 0 0 0.21405690288520418 -20.206552138961115 0 -20.206552138961115 18.36943949286524 0 0 0 0 0.15905595845302756 -1.3895831494105848 0 -1.3895831494105848 -3.8589765790747439 0 0 0 0 -13.466150191909037 2.1288221502609304 0 2.1288221502609304 19.395527369088541 0 0 0 0 58.115683498039289 -133.07808205840411 0 -133.07808205840411 -36.680075941103496 0 0 0 0 3.2341954300438545 -15.440299893365689 0 -15.440299893365689 11.536870112311011 0 0 0 0 -5.3350142500048605 -43.181077072479297 0 -43.181077072479297 2.491846575634554 0 0 0 0 -10.52426243910304 -39.751010604056773 0 -39.751010604056773 23.168722112517457 0 0 0 0 -11.670507682450989 -33.114342218855427 0 -33.114342218855427 3.3951053857663283 0 0 0 0 -4.0244800445871078 -31.276694658752376 0 -31.276694658752376 -1.8055348391681036 0 0 0 0 -4.747229593339398 -29.618890205166537 0 -29.618890205166537 -0.21927464196869551 0 0 0 0 -8.0434905194789152 -7.0345912694756318 0 -7.0345912694756318 5.7254992232909441 0 0 0 0 -0.59992377686103282 -17.42241904275852 0 -17.42241904275852 9.6181493026069234 0 0 0 0 3.8775011335578213 -5.7825457849486561 0 -5.7825457849486561 -0.7201816593984236 0 0 0 0 11.467496792074598 -31.469079939264361 0 -31.469079939264361 -15.108561202678686 0 0 0 0 -0.97586063913695398 -21.293814621919637 0 -21.293814621919637 24.291099983469962 0 0 0 0 -10.391822436245974 -15.397799448072279 0 -15.397799448072279 -12.828765951123225 0 0 0 0 43.516660209645124 -15.630632885057878 0 -15.630632885057878 -29.627977235589128 0 0 0 0 88.93019397788521 -41.797345088066891 0 -41.797345088066891 -19.279473217340779 0 0 0 0 31.338030285608511 -31.460711419109145 0 -31.460711419109145 11.470449214204109 0 0 0 0 74.407286776161527 -69.406042696815689 0 -69.406042696815689 14.108691534344416 0 0 0 0 32.644820791025268 -33.911042260122258 0 -33.911042260122258 -16.038727707836927 0 0 0 0 18.232343274298728 -26.302334151285777 0 -26.302334151285777 14.386511368486026 0 0 0 0 7.748580242204298 -35.750252578755465 0 -35.750252578755465 39.177431871196859 0 0 0 0 3.1157195922569372 -17.16937997581249 0 -17.16937997581249 14.874464627140696 0 0 0 0 -1.8719233207784782 -16.223888398933354 0 -16.223888398933354 8.0487243844715977 0 0 0 0 0.71525700165511807 -20.022942387238118 0 -20.022942387238118 13.588192537659012 0 0 0 0 -8.5487796734614676 -7.4146879870675093 0 -7.4146879870675093 11.95561299439305 0 0 0 0 -1.1055167170925415 -10.643107414093492 0 -10.643107414093492 -1.8423485440956142 0 0 0 0 -4.9766928628323512 -22.86017989599253 0 -22.86017989599253 8.413492211519511 0 0 0 0 0.8630502128680746 -6.8366099238722882 0 -6.8366099238722882 8.4904136864106476 0 0 0 0 -0.73266426729407286 -3.1584439853029593 0 -3.1584439853029593 4.5409163521069864 0 0 0 0 5.660551646140803 -7.3950136924826788 0 -7.3950136924826788 6.70912831017736 0 0 0 0 -6.0984816214780402 -6.9766070091591121 0 -6.9766070091591121 2.6257390942799912 0 0 0 0 -7.8258539185435438 -6.9515959697496328 0 -6.9515959697496328 11.296271421226265 0 0 0 0 -8.1977765633305353 -5.5728077897279036 0 -5.5728077897279036 24.626393484639266 0 0 0 0 -0.86052678035632368 -3.9681919465005082 0 -3.9681919465005082 5.7835906390304688 0 0 0 0 1.7671979079370885 -5.0431959345232826 0 -5.0431959345232826 7.4936283609722523 0 0 0 0 -1.5579713044185155 -11.904842329689245 0 -11.904842329689245 8.9450376944942036 0 0 0 0 1.7567928286898677 -6.816508001152215 0 -6.816508001152215 9.8116105637628834 0 0 0 0 1.456033551597784 -6.4048079691367548 0 -6.4048079691367548 14.677952505374378 0 0 0 0 8.8187420642120742 0.78555199978836754 0 0.78555199978836754 -36.059538669730046 0 0 0 0 -0.45587190945340339 -0.61258771080032925 0 -0.61258771080032925 0.71563070418543806 0 0 0 0 -0.14500612886384801 -0.56247572589820827 0 -0.56247572589820827 0.23229896984719289 0 0 0 0 15.612508790432003 -37.160353340696929 0 -37.160353340696929 -30.82212950965868 0 0 0 0 16.971445889319511 -22.561704107644118 0 -22.561704107644118 -4.6051107570115164 0 0 0 0 15.0200244779694 -18.735881170238599 0 -18.735881170238599 -4.7613426542447996 0 0 0 0 15.789127173741235 -14.81476160997795 0 -14.81476160997795 -6.0459917773418965 0 0 0 0 7.2154067612316517 -7.2493528023975671 0 -7.2493528023975671 2.8175523636612603 0 0 0 0 17.606513619107318 -15.917683679499987 0 -15.917683679499987 -10.185619247249633 0 0 0 0 17.193852804176451 -14.833532934688346 0 -14.833532934688346 6.4747388725261423 0 0 0 0 17.968207098441326 -13.67474886735954 0 -13.67474886735954 -9.2309245898104564 0 0 0 0 16.256064176658583 -16.842138540441283 0 -16.842138540441283 -10.448738779777386 0 0 0 0 15.255534538041957 -14.516832298460486 0 -14.516832298460486 -8.9950342893444031 0 0 0 0 7.7774040494165071 -9.4368817817090829 0 -9.4368817817090829 -12.119298203454708 0 0 0 0 4.9893933502798227 -2.3959787075631578 0 -2.3959787075631578 -2.7339540086997616 0 0 0 0 17.250558541833016 -7.327436400226361 0 -7.327436400226361 97.039449999047065 0 0 0 0 16.682919274403503 4.6506841899463325 0 4.6506841899463325 10.408437650687119 0 0 0 0 94.906099750311114 -2.3160126864657968 0 -2.3160126864657968 -27.45685826396425 0 0 0 0 19.007003057902693 -50.535293940790694 0 -50.535293940790694 48.335236923850857 0 0 0 0 0.90903866205442085 -3.4311968450249504 0 -3.4311968450249504 1.4790418316941232 0 0 0 0 24.36069798715932 -5.7826133001086415 0 -5.7826133001086415 -17.046910898623029 0 0 0 0 -2.3940778035666881 -33.567052806640049 0 -33.567052806640049 -9.462850501828143 0 0 0 0 -1.4053098642025361 -29.714761064148661 0 -29.714761064148661 4.9611691670249911 0 0 0 0 -6.2317348986464367 -25.66976323593633 0 -25.66976323593633 2.1357457138133213 0 0 0 0 -6.6871332030252688 -26.012072085997488 0 -26.012072085997488 -0.86846679612699518 0 0 0 0 -8.4945845091269803 -24.730476408036793 0 -24.730476408036793 4.3876339999462743 0 0 0 0 -3.3893369670367974 -23.08732521661841 0 -23.08732521661841 14.85982518551009 0 0 0 0 -5.9119515988140847 -16.792436329418706 0 -16.792436329418706 7.7886738373586013 0 0 0 0 -8.4296100714902877 -25.83391105014266 0 -25.83391105014266 14.616852995850422 0 0 0 0 8.7109111596391813 -29.670536360886672 0 -29.670536360886672 15.410575271436301 0 0 0 0 -7.16340496091982 -21.581399151181529 0 -21.581399151181529 21.509052953216269 0 0 0 0 9.9169548220588695 -25.743044687033489 0 -25.743044687033489 11.045626788474692 0 0 0 0 30.020080231649445 -7.9023476478164412 0 -7.9023476478164412 -3.088339345867098 0 0 0 0 33.919028401937794 -37.319461774112824 0 -37.319461774112824 16.279395174760793 0 0 0 0 15.774002386010238 -19.376928170411475 0 -19.376928170411475 16.394423430486313 0 0 0 0 4.373388366189829 -14.517529508522784 0 -14.517529508522784 14.597094686012724 0 0 0 0 7.1684983572140482 -10.916856415992697 0 -10.916856415992697 18.240429500873688 0 0 0 0 12.907220945451627 -9.540073175764519 0 -9.540073175764519 8.9381490014043266 0 0 0 0 -10.5173352956499 -38.528199594525631 0 -38.528199594525631 14.723157254163723 0 0 0 0 -2.8734274605440078 -21.228320447946771 0 -21.228320447946771 51.806996053677722 0 0 0 0 -0.17491008262152263 -0.35214984165199859 0 -0.35214984165199859 -0.056668207412641336 0 0 0 0 -14.287272915034919 -34.503618396703018 0 -34.503618396703018 -14.298568434905519 0 0 0 0 11.994917943969085 -31.76142842129002 0 -31.76142842129002 -78.36887103329498 0 0 0 0 -29.936022888524349 -16.856819738682134 0 -16.856819738682134 -5.5585744943798687 0 0 0 0 0.53316161596421807 -31.126668486106837 0 -31.126668486106837 -47.599402645501868 0 0 0 0 5.9518097661539286 -6.1325389175658529 0 -6.1325389175658529 -45.652164622248165 0 0 0 0 -47.57363172947862 -25.637559020279696 0 -25.637559020279696 2.3636818434233646 0 0 0 0 11.163468136807296 -3.3144788886374954 0 -3.3144788886374954 -0.48092058642578195 0 0 0 0 -4.0376178940091449 -26.348512269495359 0 -26.348512269495359 15.582300164100616 0 0 0 0 2.049219057702885 -18.342114594423947 0 -18.342114594423947 -11.037769522279632 0 0 0 0 -0.33010866638915104 -16.744287793422927 0 -16.744287793422927 7.6694772704186107 0 0 0 0 1.5464447448848659 -17.718577019080385 0 -17.718577019080385 2.5386092656960955 0 0 0 0 1.1531257977703717 -10.373689726322482 0 -10.373689726322482 17.612845989512607 0 0 0 0 4.2828845921440006 -8.5255247163649983 0 -8.5255247163649983 12.21753983638996 0 0 0 0 -0.62904288317986357 -17.163984195848116 0 -17.163984195848116 8.2487325863758088 0 0 0 0 0.11551054692631624 -6.2189830767089234 0 -6.2189830767089234 26.027195993773603 0 0 0 0 0.21520575925908147 -9.6635856148810362 0 -9.6635856148810362 -0.1927230222888987 0 0 0 0 -0.21425572966290929 -18.504294216083508 0 -18.504294216083508 -34.399258358770112 0 0 0 0 0.0012246904812087678 -0.24727591727832987 0 -0.24727591727832987 2.2704236537521405 0 0 0 0 -3.4421651794909849 -19.436116262771975 0 -19.436116262771975 -1.2138943027525784 0 0 0 0 -1.3117172937086252 -3.0851775163077946 0 -3.0851775163077946 -3.0968697452517517 0 0 0 0 -2.367352380138982 -3.6417373861686428 0 -3.6417373861686428 -19.747410855674389 0 0 0 0 -6.0989176680909623 -10.657588268563813 0 -10.657588268563813 1.5431538895918493 0 0 0 0 3.4098595847967772 -4.7344821287447303 0 -4.7344821287447303 -19.618694433845121 0 0 0 0 -2.5733067290769327 -7.7757573342320825 0 -7.7757573342320825 -6.880802710997159 0 0 0 0 1.4371002395947272 0.90587441608001917 0 0.90587441608001917 -2.4141167719653884 0 0 0 0 -5.545176185864193 -8.067726762676557 0 -8.067726762676557 34.385865843588363 0 0 0 0 0.035372623064866104 -11.180480536686392 0 -11.180480536686392 1.2391720143231848 0 0 0 0 0.0740629126848944 -8.2373874317272566 0 -8.2373874317272566 -63.956968954450076 0 0 0 0 1.8857167623125406 -10.356656164717833 0 -10.356656164717833 -63.025392958567863 0 0 0 0 3.2761105856552604 -2.8891771805574535 0 -2.8891771805574535 -58.935152878421377 0 0 0 0 -32.29366432590723 -8.8701833752515995 0 -8.8701833752515995 52.771821791219281 0 0 0 0 1.3599085662785075 -11.377313286769077 0 -11.377313286769077 -0.68147493803246195 0 0 0 0 3.7483240619355911 -4.3526078171876179 0 -4.3526078171876179 -9.8845547012679162 0 0 0 0 -1.1122620972891895 -2.0452222347344247 0 -2.0452222347344247 -2.1121312313878136 0 0 0 0 1.9049977651201822 0.98956267839721868 0 0.98956267839721868 -0.48449544711245629 0 0 0 0 -3.3152979497353954 -2.1649163650290575 0 -2.1649163650290575 -3.1516455137752928 0 0 0 0 -0.77100921024034186 -1.7511473778329751 0 -1.7511473778329751 -2.0396756908055309 0 0 0 0 3.0726586857747407 -7.5331136715508364 0 -7.5331136715508364 -1.6793739658869526 0 0 0 0 37.585485367133515 -53.16534315139188 0 -53.16534315139188 69.057625127379652 0 0 0 0 41.570494625932952 -60.341752629446091 0 -60.341752629446091 63.990453525576413 0 0 0 0 39.247270619705887 -52.167626269575067 0 -52.167626269575067 58.063452026628511 0 0 0 0 33.094469890956134 -57.423639697715771 0 -57.423639697715771 64.276554380207926 0 0 0 0 43.157848592738446 -58.0302106400095 0 -58.0302106400095 62.602613739526078 0 0 0 0 49.301265846175738 -48.003092176482824 0 -48.003092176482824 71.241692506781874 0 0 0 0 -0.20884550842761307 -1.6470525906472169 0 -1.6470525906472169 -1.6043748500149952 0 0 0 0 42.671483958129031 -44.603713314386042 0 -44.603713314386042 47.71397099573187 0 0 0 0 -1.0639417815255001 -6.3795064898204146 0 -6.3795064898204146 4.3052457456178672 0 0 0 0 72.497690146830791 -72.238743067193354 0 -72.238743067193354 50.319522971414699 0 0 0 0 5.1486005524948268 -24.181691794874496 0 -24.181691794874496 117.40205112928379 0 0 0 0 12.657271148610562 -2.2161587872324162 0 -2.2161587872324162 43.065245233457972 0 0 0 0 -0.076788323026123706 -0.12331181572256611 0 -0.12331181572256611 0.50537545852754562 0 0 0 0 0.27582830764401756 -0.29352685221982533 0 -0.29352685221982533 -0.37740655130194156 0 0 0 0 3.9863384733999965 8.138793650470916 0 8.138793650470916 5.9860382584738545 0 0 0 0 0.31134407413299225 -1.5265844793307828 0 -1.5265844793307828 3.1078608038629483 0 0 0 0 5.9673059491892673 2.6419730140114552 0 2.6419730140114552 7.1229983122473186 0 0 0 0 2.9957839130929642 -7.6637793876270734 0 -7.6637793876270734 34.355064532313918 0 0 0 0 15.119371359560319 10.649685718646651 0 10.649685718646651 5.1455114702803257 0 0 0 0 3.931688367823881 -9.1719751264408842 0 -9.1719751264408842 5.5454548540983524 0 0 0 0 -3.4474998203675113 -6.0842149204229372 0 -6.0842149204229372 2.6749624045587552 0 0 0 0 -2.4852401208013362 -3.0320429261355457 0 -3.0320429261355457 2.8696606692465139 0 0 0 0 -0.26966943808292854 -4.2795975965045727 0 -4.2795975965045727 -8.0231028061434699 0 0 0 0 -0.40934513319734833 -2.5093699291419398 0 -2.5093699291419398 1.4983490456033906 0 0 0 0 25.979016870224768 -60.388492074685928 0 -60.388492074685928 26.240030503872731 0 0 0 0 13.211484366472177 -70.712614922147623 0 -70.712614922147623 78.056127510924853 0 0 0 0 49.115589524478864 -86.317103632673607 0 -86.317103632673607 41.89725822465698 0 0 0 0 48.997802815743853 -55.440675188443493 0 -55.440675188443493 9.851104961252986 0 0 0 0 17.197756445703817 -74.218277045878494 0 -74.218277045878494 134.68873828214146 0 0 0 0 8.3773839037039579 -48.557389373696878 0 -48.557389373696878 60.475445627333102 0 0 0 0 12.697698876991126 -60.517593674518139 0 -60.517593674518139 51.886661693844758 0 0 0 0 6.8507082032092512 -48.233538286480325 0 -48.233538286480325 62.22864689097878 0 0 0 0 1.1014016257067851 -38.321453838070738 0 -38.321453838070738 50.94420406025165 0 0 0 0 25.793866228075785 -29.260798560608237 0 -29.260798560608237 9.9453343711938942 0 0 0 0 7.2454507116453897 -29.239389998823754 0 -29.239389998823754 28.161780849735806 0 0 0 0 4.1015054023535384 -8.4738966518071628 0 -8.4738966518071628 -11.829730172186949 0 0 0 0 21.372378580603254 -44.941879649762996 0 -44.941879649762996 40.188459003417847 0 0 0 0 10.885254912901473 -55.807645422238238 0 -55.807645422238238 40.230837557126506 0 0 0 0 16.863974808937201 -50.367763992211621 0 -50.367763992211621 39.501932445768034 0 0 0 0 16.441936819242983 -63.781268411737983 0 -63.781268411737983 44.729898021807458 0 0 0 0 17.004429713115314 -62.165595258783469 0 -62.165595258783469 33.088462158240873 0 0 0 0 15.631623599859722 -62.422123330899922 0 -62.422123330899922 46.079930022755434 0 0 0 0 13.055352097393552 -62.298311722911421 0 -62.298311722911421 47.091026464779134 0 0 0 0 14.442262994274643 -64.675779467426764 0 -64.675779467426764 50.355426479782182 0 0 0 0 21.515868121629865 -65.374521592882957 0 -65.374521592882957 49.664321724780166 0 0 0 0 11.932178060529623 -62.385604652847178 0 -62.385604652847178 54.71484588509702 0 0 0 0 16.704153156180837 -58.020565725653796 0 -58.020565725653796 54.57309900951509 0 0 0 0 13.720971983164418 -55.83983230645299 0 -55.83983230645299 58.413726645227143 0 0 0 0 23.948315591187566 -46.674170190204677 0 -46.674170190204677 65.304318267709732 0 0 0 0 4.6323755653957051 -63.36941876426863 0 -63.36941876426863 68.12996774784051 0 0 0 0 23.244977057538563 -45.985995671357159 0 -45.985995671357159 71.108189456413129 0 0 0 0 18.986395033754889 -65.576649591286696 0 -65.576649591286696 52.474624201164261 0 0 0 0 35.557988079639472 -102.91045782446963 0 -102.91045782446963 -7.9871480556012102 0 0 0 0 2.0170701515107794 -59.76623910264243 0 -59.76623910264243 50.641066724345364 0 0 0 0 3.5552511142467438 -76.790998158615025 0 -76.790998158615025 41.398960506943695 0 0 0 0 15.987556013955327 -66.644804470133749 0 -66.644804470133749 21.495100303145591 0 0 0 0 12.39710551963617 -62.453614237794682 0 -62.453614237794682 52.0606967909589 0 0 0 0 11.181001683646173 -68.275955783065001 0 -68.275955783065001 45.247098050625937 0 0 0 0 15.971424570436284 -63.466371373482616 0 -63.466371373482616 41.691183424616611 0 0 0 0 23.784353865878074 -52.263327550197573 0 -52.263327550197573 28.123789477607716 0 0 0 0 1.2255115137945722 -16.626035998849147 0 -16.626035998849147 -55.070155735535081 0 0 0 0 6.5804529420893232 -60.370348541087878 0 -60.370348541087878 26.240811950823627 0 0 0 0 25.256062387592465 -51.773671355957049 0 -51.773671355957049 -0.01300590318714967 0 0 0 0 -1.0322018843451737 -0.74077134855906479 0 -0.74077134855906479 3.4956555360712045 0 0 0 0 28.730303797980014 -54.14389990350719 0 -54.14389990350719 39.295039079646813 0 0 0 0 22.28060741219906 -49.819541788672723 0 -49.819541788672723 36.648352115666057 0 0 0 0 -0.013129087092442759 0.45778392575175886 0 0.45778392575175886 -1.8300068580778897 0 0 0 0 21.353575277542632 -34.162679887425838 0 -34.162679887425838 -55.785888531932869 0 0 0 0 4.3156220311284414 -32.931139351749152 0 -32.931139351749152 -52.33779743229934 0 0 0 0 -9.7434653966865881 -31.717652005220771 0 -31.717652005220771 22.05464355025515 0 0 0 0 3.2009751897432164 -11.366798882702927 0 -11.366798882702927 -2.4798668947471381 0 0 0 0 28.470191716985937 -13.974243276190919 0 -13.974243276190919 3.7734413447130919 0 0 0 0 1.1413078414252595 4.2200355884597229 0 4.2200355884597229 -79.347959543160869 0 0 0 0 39.97770555929128 -57.156466318154344 0 -57.156466318154344 82.326496456182213 0 0 0 0 40.038850178019857 -61.424186659556653 0 -61.424186659556653 72.616509143996154 0 0 0 0 92.103954070922555 -39.995033231924026 0 -39.995033231924026 13.093382381721312 0 0 0 0 0.40077420158832311 -0.18118012586996457 0 -0.18118012586996457 -0.86912604793144865 0 0 0 0 26.805825998648288 -108.56466745428861 0 -108.56466745428861 64.20759539539722 0 0 0 0 15.09039088475788 -47.206751922040667 0 -47.206751922040667 109.88293588143279 0 0 0 0 0.078607653782531983 -0.37669724692443296 0 -0.37669724692443296 -0.5574728362202368 0 0 0 0 79.115348173198072 -98.82607572386587 0 -98.82607572386587 126.28999590179683 0 0 0 0 67.829055902580876 -40.360387593185806 0 -40.360387593185806 70.13301131371918 0 0 0 0 41.195973403192056 -55.601393705243936 0 -55.601393705243936 57.981165132461683 0 0 0 0 29.385737676229837 -49.498577444588591 0 -49.498577444588591 61.384266243352613 0 0 0 0 55.849305656800425 -54.178681301180404 0 -54.178681301180404 59.702333595336313 0 0 0 0 32.355575864044567 -44.55789939282613 0 -44.55789939282613 54.744676864840585 0 0 0 0 29.67910709069065 -46.339895482641623 0 -46.339895482641623 54.201145658582391 0 0 0 0 26.538332133829499 -45.964718220511713 0 -45.964718220511713 57.081509412299056 0 0 0 0 29.40790072497839 -47.381215483987035 0 -47.381215483987035 52.190800607967958 0 0 0 0 21.013606287125185 -38.671992417163892 0 -38.671992417163892 51.976019831955711 0 0 0 0 17.217455220579595 -32.895665885883901 0 -32.895665885883901 44.035073273027592 0 0 0 0 23.734761075478673 -34.477992507218914 0 -34.477992507218914 40.123228237008334 0 0 0 0 22.608202431415521 -42.667197637269965 0 -42.667197637269965 47.40206127917736 0 0 0 0 23.289577939099217 -40.764888569430695 0 -40.764888569430695 51.049011406812497 0 0 0 0 29.998740501855536 -46.038106096901174 0 -46.038106096901174 50.594854515212432 0 0 0 0 19.445279324392686 -46.216992104258679 0 -46.216992104258679 59.443250470227213 0 0 0 0 16.9906304987162 -59.707488255093267 0 -59.707488255093267 49.578312268149602 0 0 0 0 19.466253694028229 -49.47619022455757 0 -49.47619022455757 46.001654192292335 0 0 0 0 27.725818168910337 -64.386377673475181 0 -64.386377673475181 35.171491219243762 0 0 0 0 26.275815360375418 -49.064705338671047 0 -49.064705338671047 33.921535226341803 0 0 0 0 24.006696411680423 -49.263252231755359 0 -49.263252231755359 42.832357861376295 0 0 0 0 20.119281310719998 -36.598309031485769 0 -36.598309031485769 36.299667172410409 0 0 0 0 17.001512234555776 -25.424712239822838 0 -25.424712239822838 29.366272227770423 0 0 0 0 20.270283213528273 -35.887020433694488 0 -35.887020433694488 37.271081201737616 0 0 0 0 34.566327533123513 -32.108873366242733 0 -32.108873366242733 16.638178470549974 0 0 0 0 22.8827680730152 -28.104277570990007 0 -28.104277570990007 19.707342851117573 0 0 0 0 10.319663309644966 -16.510974365814945 0 -16.510974365814945 25.113070654205785 0 0 0 0 -10.975016258746109 -11.047144023769533 0 -11.047144023769533 -3.1463079669520084 0 0 0 0 -0.019610671544422864 -0.071668816679448355 0 -0.071668816679448355 -0.057541946586372461 0 0 0 0 30.835396535198015 -48.099715792830466 0 -48.099715792830466 9.6912945563694848 0 0 0 0 32.813593559263609 -60.386933322724417 0 -60.386933322724417 20.935765106123654 0 0 0 0 -5.0877531534079026 -3.1867812019700068 0 -3.1867812019700068 3.1816609888937819 0 0 0 0 -0.18855329880068261 -0.13996164866754768 0 -0.13996164866754768 0.011351143527399188 0 0 0 0 -1.0883819338100693 0.45199212837178493 0 0.45199212837178493 1.3788070282989793 0 0 0 0 -0.0082776031740650069 -0.78945523603397305 0 -0.78945523603397305 -1.9224177802702798 0 0 0 0 -14.855073316426569 4.7191976798071664 0 4.7191976798071664 0.28743762175326992 0 0 0 0 -0.20568246663516465 -0.22635186713586464 0 -0.22635186713586464 -0.034644650151442136 0 0 0 0 0.15785933435770438 -0.37101716744506419 0 -0.37101716744506419 -0.20738821955363029 0 0 0 0 17.436709045599855 -18.315696602277058 0 -18.315696602277058 24.688724926839313 0 0 0 0 14.657669195149538 -25.154040089389127 0 -25.154040089389127 30.780854701744829 0 0 0 0 -0.28748588483904314 -2.0512117707767175 0 -2.0512117707767175 2.1478425635491476 0 0 0 0 -0.6067889011355625 -0.44313847790117222 0 -0.44313847790117222 -0.0923513774694662 0 0 0 0 2.9723147000802328 -5.2331166944200049 0 -5.2331166944200049 1.4291860278062813 0 0 0 0 0.87402473055726659 -0.84027224634746744 0 -0.84027224634746744 0.065446203709143447 0 0 0 0 0.40444645657498768 -0.7217941227609117 0 -0.7217941227609117 0.10633752733610891 0 0 0 0 0.28267487642744982 -0.15363973767307471 0 -0.15363973767307471 -1.9566381871409249 0 0 0 0 14.350053047864094 -33.07151491585887 0 -33.07151491585887 54.716940936692481 0 0 0 0 9.9161827265429565 -18.676242496158011 0 -18.676242496158011 37.96729973476431 0 0 0 0 22.341244392692715 -35.574500423414065 0 -35.574500423414065 48.869885192704714 0 0 0 0 0.24762023912853692 -0.24643825429029675 0 -0.24643825429029675 -2.1680459781873651 0 0 0 0 12.84742232991357 -36.851084044071285 0 -36.851084044071285 62.440763424669967 0 0 0 0 18.095749960189096 -30.880162827742424 0 -30.880162827742424 51.639841087239802 0 0 0 0 0.10265057767043828 -0.15363646467989867 0 -0.15363646467989867 -0.083249164406723253 0 0 0 0 1.5799880920512805 -1.2201573282363825 0 -1.2201573282363825 -5.2977268812919647 0 0 0 0 2.4503252781913272 -1.9675191682028075 0 -1.9675191682028075 0.090580423003542521 0 0 0 0 -62.985375056488124 4.5860929693508297 0 4.5860929693508297 17.333561039473352 0 0 0 0 1.2042834409885472 0.73810540834710991 0 0.73810540834710991 -2.7700283455742465 0 0 0 0 -7.8669987993891937 -73.878581128902169 0 -73.878581128902169 -86.452843198168921 0 0 0 0 -76.869001561984533 -131.46036815265143 0 -131.46036815265143 -113.53043212995908 0 0 0 0 -108.13096683403819 -46.129041663062708 0 -46.129041663062708 -19.488379930735391 0 0 0 0 5.3569896242694313 11.149573824116032 0 11.149573824116032 -118.04882538590937 0 0 0 0 0.066704113568642143 -1.4054626763644187 0 -1.4054626763644187 -0.96295989707184759 0 0 0 0 1.3834071840465185 -2.5513674424237252 0 -2.5513674424237252 -1.1498173384497932 0 0 0 0 -0.15774361137864013 -1.4411478947160745 0 -1.4411478947160745 -0.046907238007328544 0 0 0 0 1.3683477436243265 -2.1871820288461095 0 -2.1871820288461095 -2.6227270063182004 0 0 0 0 2.0718400739407006 -2.8297933436047558 0 -2.8297933436047558 0.49602799168396494 0 0 0 0 5.2000923409073039 -3.9553284155931578 0 -3.9553284155931578 0.70183610747517378 0 0 0 0 1.1228756676400735 -3.5586018598742157 0 -3.5586018598742157 1.7340864863426759 0 0 0 0 -28.251358816070024 13.065788764406534 0 13.065788764406534 24.400130797649126 0 0 0 0 17.725513275028334 7.3807803966465144 0 7.3807803966465144 -29.657133495995367 0 0 0 0 -0.47497349688683244 10.267479646184711 0 10.267479646184711 -105.42087065281885 0 0 0 0 0.36335440771209271 -3.6139017649629785 0 -3.6139017649629785 1.1629150963345793 0 0 0 0 -0.39825097300449208 -2.8220984593647707 0 -2.8220984593647707 -1.716983026176667 0 0 0 0 23.582956248256778 -8.6004815537889954 0 -8.6004815537889954 0.76935158409742144 0 0 0 0 6.0107941309773878 -4.8762003672347873 0 -4.8762003672347873 0.44955295882209612 0 0 0 0 -3.8745518796413307 -6.2587020089140424 0 -6.2587020089140424 -1.2671311278440953 0 0 0 0 1.0321673954181279 -3.0035822553123808 0 -3.0035822553123808 0.75072901757266663 0 0 0 0 -3.5778624499657781 -4.6495381699623977 0 -4.6495381699623977 1.7398542029841337 0 0 0 0 75.161491077781648 -53.075282778325345 0 -53.075282778325345 1.9429022985732445 0 0 0 0 79.040428879617366 -94.308369292899442 0 -94.308369292899442 85.813517687147396 0 0 0 0 23.668196060578339 -31.063523720476951 0 -31.063523720476951 8.615361189534724 0 0 0 0 -1.5061486071081163 -49.456676032676114 0 -49.456676032676114 -25.878954942640121 0 0 0 0 14.172601269710754 -72.241941776930162 0 -72.241941776930162 6.4130883336947591 0 0 0 0 8.2643833776814972 -36.604763103984396 0 -36.604763103984396 44.650150890749501 0 0 0 0 7.0962169742131209 -29.811968532225592 0 -29.811968532225592 6.6707140726757643 0 0 0 0 40.089581786181952 -40.229273598766667 0 -40.229273598766667 37.210308281818016 0 0 0 0 6.0023676481459916 2.5212342577051459 0 2.5212342577051459 47.619543488435738 0 0 0 0 88.191646514830609 -80.572673961216879 0 -80.572673961216879 34.100870419846615 0 0 0 0 83.525328482317491 -57.086335411269829 0 -57.086335411269829 55.034656368294236 0 0 0 0 41.847334254470525 -35.55453852664823 0 -35.55453852664823 46.900584484621504 0 0 0 0 75.224102993980296 -44.065306571024848 0 -44.065306571024848 61.415577726249467 0 0 0 0 44.061095712272618 -62.474460204875641 0 -62.474460204875641 65.922385003403178 0 0 0 0 18.937473155635416 -62.102639577659829 0 -62.102639577659829 97.331742173062594 0 0 0 0 55.18415360683241 -63.862014490969727 0 -63.862014490969727 65.831033164593464 0 0 0 0 54.498715062080009 -60.463622440295694 0 -60.463622440295694 49.882099161215592 0 0 0 0 16.839843859483153 -37.790030978345385 0 -37.790030978345385 60.413896136633412 0 0 0 0 25.641296982077392 -47.99038027181723 0 -47.99038027181723 65.128565115641322 0 0 0 0 19.425413618128005 -39.660223254531047 0 -39.660223254531047 60.818506721978338 0 0 0 0 15.379824753763842 -14.231759536537538 0 -14.231759536537538 35.75847562787385 0 0 0 0 14.612411584556867 -39.002109568570631 0 -39.002109568570631 63.026298385294467 0 0 0 0 18.869213239936471 -68.084460835480968 0 -68.084460835480968 184.00917137737179 0 0 0 0 1.3118759971735017 -24.907921955982602 0 -24.907921955982602 78.046128883617712 0 0 0 0 0.65685225887589205 -0.61816199498440483 0 -0.61816199498440483 0.17064750953390817 0 0 0 0 48.28037579203783 -60.529053599023428 0 -60.529053599023428 -200.12080674558092 0 0 0 0 -20.873020297150788 -73.76741105722931 0 -73.76741105722931 -117.23433931432373 0 0 0 0 10.323446091683877 -20.21012618317809 0 -20.21012618317809 32.018422640612698 0 0 0 0 1.6462283463349401 -1.3405695038258472 0 -1.3405695038258472 0.45203143127054002 0 0 0 0 -17.251525710303667 -82.949120446285633 0 -82.949120446285633 -93.966020684739533 0 0 0 0 30.022776549034916 -66.070347274020605 0 -66.070347274020605 -127.52241651587337 0 0 0 0 28.30416791373591 -44.595645491136565 0 -44.595645491136565 -95.389972459419369 0 0 0 0 60.811471981908198 -62.032251190418719 0 -62.032251190418719 -136.68501448285861 0 0 0 0 68.608043351250672 -102.83577090203789 0 -102.83577090203789 -112.09333799206252 0 0 0 0 40.145355338586796 -121.99571061841471 0 -121.99571061841471 18.843391757392965 0 0 0 0 26.659765504594361 -81.355498870027077 0 -81.355498870027077 -77.883002722435776 0 0 0 0 23.449953336506496 -95.257098975848976 0 -95.257098975848976 -78.859950295674935 0 0 0 0 8.9049612319931839 -82.502059516855297 0 -82.502059516855297 -75.009939102342287 0 0 0 0 8.5983658259131488 -97.418901184636084 0 -97.418901184636084 -76.651055844406073 0 0 0 0 61.42786582415745 -75.314099904085737 0 -75.314099904085737 -85.88398921992848 0 0 0 0 33.292564048640088 -61.810784206352764 0 -61.810784206352764 -91.206869677513168 0 0 0 0 23.966302681803427 -28.132075603983139 0 -28.132075603983139 -43.391618658088191 0 0 0 0 -61.973608017254264 -59.289170515773549 0 -59.289170515773549 -46.97332818277755 0 0 0 0 0.27436790767445096 -0.19958766580577914 0 -0.19958766580577914 -0.63603833632558349 0 0 0 0 119.11267131976911 48.619141943769137 0 48.619141943769137 -6.1869033545312959 0 0 0 0 79.381732717990417 -40.35679423702004 0 -40.35679423702004 -50.017329765547402 0 0 0 0 26.3946764412226 -44.726104799042332 0 -44.726104799042332 -44.969181270861554 0 0 0 0 0.39046889324267697 -0.43736197807082799 0 -0.43736197807082799 -1.0828433521678207 0 0 0 0 -32.742322338258418 -59.800618637054868 0 -59.800618637054868 -93.72085252138595 0 0 0 0 -81.343544439480866 -139.03591140438084 0 -139.03591140438084 -61.500818665830593 0 0 0 0 -62.200566067911637 -102.93270714281726 0 -102.93270714281726 -50.927169504597259 0 0 0 0 -24.944567017843383 -38.854077929387131 0 -38.854077929387131 -30.247124009771596 0 0 0 0 -82.391641895947487 -67.612290333527199 0 -67.612290333527199 -38.735432274159393 0 0 0 0 -44.538691975170877 -94.109433081925999 0 -94.109433081925999 -49.540059595694402 0 0 0 0 -60.438968541612326 -86.888385769339891 0 -86.888385769339891 -51.383373024023967 0 0 0 0 -8.1540109093443789 -80.638285777179135 0 -80.638285777179135 -16.525785227866436 0 0 0 0 -22.024332189600045 -64.629570652909024 0 -64.629570652909024 -34.955620939918845 0 0 0 0 -45.659470337033667 -110.68594678564159 0 -110.68594678564159 -57.183952521840183 0 0 0 0 -97.093813890336378 -97.034378533371637 0 -97.034378533371637 -40.723364260257767 0 0 0 0 -41.330351497034144 -70.751553494620566 0 -70.751553494620566 -46.096680089814981 0 0 0 0 6.3863079584480147 -79.151007336775365 0 -79.151007336775365 -100.64537454285528 0 0 0 0 33.160211810032706 -8.6982244432338121 0 -8.6982244432338121 -71.931699578612097 0 0 0 0 151.80001423803924 40.203147195073143 0 40.203147195073143 -89.470895425511117 0 0 0 0 0.11964614331579071 -0.12304719025324795 0 -0.12304719025324795 -0.5849536380919389 0 0 0 0 25.417294888477159 -1.7463797245459318 0 -1.7463797245459318 23.308590151329554 0 0 0 0 98.751903111942966 -31.437045885061707 0 -31.437045885061707 -120.19647189036914 0 0 0 0 3.9504880464088501 -80.07950484646085 0 -80.07950484646085 -203.42328669939889 0 0 0 0 28.412985701916014 16.940222519973588 0 16.940222519973588 -179.35569680029857 0 0 0 0 28.783907860740783 10.016497111514582 0 10.016497111514582 -71.695262184113744 0 0 0 0 -19.798988463199748 -46.619491341739376 0 -46.619491341739376 -43.166223343252341 0 0 0 0 -25.793457666644827 -75.221309809578088 0 -75.221309809578088 -8.7832380222389475 0 0 0 0 -23.447943326529185 -91.285162149773669 0 -91.285162149773669 -34.271472595255545 0 0 0 0 -83.209933612678469 -48.975033798198638 0 -48.975033798198638 -15.990458115612455 0 0 0 0 -30.64918120796392 -40.842164477096958 0 -40.842164477096958 -19.333020176735772 0 0 0 0 -44.457802937708038 -73.249659398774384 0 -73.249659398774384 -52.422628902071665 0 0 0 0 -125.6124489662277 -106.44773625908192 0 -106.44773625908192 -38.089658847371538 0 0 0 0 -32.825254580704041 -75.353897836544093 0 -75.353897836544093 -104.62857001405064 0 0 0 0 -26.072198387292701 -24.561799248897842 0 -24.561799248897842 -25.073633152312595 0 0 0 0 -4.0116770273625662 -45.4029369593718 0 -45.4029369593718 -15.084562815992285 0 0 0 0 -14.150966625396563 -27.500305402227696 0 -27.500305402227696 -29.173223537691229 0 0 0 0 -6.2224875823267212 -3.6168867130836588 0 -3.6168867130836588 7.1890292311854864 0 0 0 0 -18.380867996388588 -56.40526560319131 0 -56.40526560319131 9.576224172309594 0 0 0 0 -16.443812802986486 -19.826973159466434 0 -19.826973159466434 -17.08511162870127 0 0 0 0 -9.5404900385139939 -1.8734763052907226 0 -1.8734763052907226 -29.669978688692936 0 0 0 0 -9.1772827653144304 8.6435898408899448 0 8.6435898408899448 7.593728527363055 0 0 0 0 -2.0680965027290767 3.2934983209552229 0 3.2934983209552229 10.750322453392073 0 0 0 0 -4.1749484053516426 0.34314695165630837 0 0.34314695165630837 8.7499969889126987 0 0 0 0 -8.1825075458759784 -11.532992533185734 0 -11.532992533185734 27.567562050293418 0 0 0 0 1.8916526318919296 -7.9696041597524072 0 -7.9696041597524072 -50.07112773179324 0 0 0 0 -18.570569975499438 9.9626141570979598 0 9.9626141570979598 13.692317979696327 0 0 0 0 -24.038587408263652 -42.697658584340161 0 -42.697658584340161 20.378955082902394 0 0 0 0 -4.0214833320812344 -3.4481405599319537 0 -3.4481405599319537 -3.0502912222823966 0 0 0 0 10.624283775002013 20.385850136494582 0 20.385850136494582 5.9083678637998673 0 0 0 0 13.318506365645817 -33.238686302435781 0 -33.238686302435781 7.0622052165726927 0 0 0 0 5.4599895669582565 -5.8537818347413122 0 -5.8537818347413122 2.4265293605071747 0 0 0 0 -0.34283651711655239 -10.642696378264645 0 -10.642696378264645 -1.0973389287546524 0 0 0 0 -6.3629260866633786 3.3453978499391042 0 3.3453978499391042 -1.8183223944661222 0 0 0 0 -3.5840253909208286 -3.6807962724096797 0 -3.6807962724096797 -1.0992788112180278 0 0 0 0 4.4074139304177606 -6.868318403556259 0 -6.868318403556259 -4.3527665375959259 0 0 0 0 1.0768883453288254 -7.8347294018112734 0 -7.8347294018112734 2.348314956352624 0 0 0 0 3.536213071200109 -9.3885025428808149 0 -9.3885025428808149 -1.807270680747024 0 0 0 0 4.6442971532326567 -10.106832880378533 0 -10.106832880378533 -1.5728819263877085 0 0 0 0 1.9500609012552559 -8.140481802000977 0 -8.140481802000977 -0.80650103320658673 0 0 0 0 3.4561873589267407 -15.166763574262404 0 -15.166763574262404 -0.41280432805615419 0 0 0 0 4.2947421103167471 -10.915607714666749 0 -10.915607714666749 0.45095352424687007 0 0 0 0 3.0753254550294287 -9.5311251184821231 0 -9.5311251184821231 0.69029280285940331 0 0 0 0 5.5280244604002746 -11.366175776226555 0 -11.366175776226555 -0.92915148361316824 0 0 0 0 -1.0350453006972238 -9.9945017513047976 0 -9.9945017513047976 5.1087850617270396 0 0 0 0 2.3557182983213352 -7.9875122561252283 0 -7.9875122561252283 -16.453569756611159 0 0 0 0 5.930113953819947 -4.4610091359074078 0 -4.4610091359074078 -3.8672756766008476 0 0 0 0 -1.2461289324623976 -6.9152701335067377 0 -6.9152701335067377 23.845716269104742 0 0 0 0 2.2217960675779977 -8.7076543096263777 0 -8.7076543096263777 -20.324688388025606 0 0 0 0 1.470645415745139 -11.767624067109409 0 -11.767624067109409 -9.8523810906372091 0 0 0 0 -0.29195836978232492 -2.634878183275446 0 -2.634878183275446 3.4935429883891516 0 0 0 0 1.5770762615489229 -0.98469445080349516 0 -0.98469445080349516 0.015518237583687977 0 0 0 0 -4.9874802980928816 -5.3348346856496072 0 -5.3348346856496072 -3.8439706404926213 0 0 0 0 8.8766395557331634 -16.089882222417145 0 -16.089882222417145 -0.30488292888003343 0 0 0 0 11.993251719909949 -11.160124509597608 0 -11.160124509597608 -2.7132059086161462 0 0 0 0 4.9084355964325823 -10.336441201356138 0 -10.336441201356138 -2.3535442837637675 0 0 0 0 -5.557359745671647 -63.062158894440017 0 -63.062158894440017 -87.484177372683007 0 0 0 0 8.3380055074365487 -110.92157916800261 0 -110.92157916800261 -146.70794802651471 0 0 0 0 1.5038898253706066 -69.895332550643616 0 -69.895332550643616 -80.992937955339585 0 0 0 0 29.923907285865511 24.036782712863044 0 24.036782712863044 -13.109038859152861 0 0 0 0 -15.973149714998726 -24.919979434343986 0 -24.919979434343986 -6.5969954781207889 0 0 0 0 -8.6429424419185352 -4.2385052690383418 0 -4.2385052690383418 0.85899433181111817 0 0 0 0 -38.120732439870835 -18.320707684482386 0 -18.320707684482386 -1.046099076406108 0 0 0 0 -19.584613313176476 -38.945922503492511 0 -38.945922503492511 -37.112290889063843 0 0 0 0 -6.7760326451380024 -20.198956330790679 0 -20.198956330790679 -14.636259867681929 0 0 0 0 -77.99951641982193 -73.218090819185591 0 -73.218090819185591 -26.573787544594779 0 0 0 0 -69.367583746021182 -25.474478987687689 0 -25.474478987687689 -1.4906336501685971 0 0 0 0 -60.554237021701454 -57.441023193438355 0 -57.441023193438355 -16.190103041433758 0 0 0 0 -38.373646751310389 -99.939568288477403 0 -99.939568288477403 -70.670132424496387 0 0 0 0 -40.208608296617172 -103.11234717690968 0 -103.11234717690968 -63.847665566236174 0 0 0 0 -43.096307256144428 -111.22934320871354 0 -111.22934320871354 -74.08458199701704 0 0 0 0 -43.529344014213734 -112.85231876126386 0 -112.85231876126386 -54.364727095615308 0 0 0 0 -47.985224381277931 -100.43341352510561 0 -100.43341352510561 -50.664032557942846 0 0 0 0 -55.11138719857604 -107.64807964347347 0 -107.64807964347347 -56.176991668529809 0 0 0 0 -41.678266087819566 -93.3475079976497 0 -93.3475079976497 -61.204630658092356 0 0 0 0 -27.475481625381235 -85.632513628881497 0 -85.632513628881497 -59.135390090831606 0 0 0 0 -45.357510384614216 -87.477216275259707 0 -87.477216275259707 -63.240914904168221 0 0 0 0 -45.092687144820275 -59.356605075962307 0 -59.356605075962307 -47.941723197547617 0 0 0 0 -5.0045575452618323 -52.824816271128384 0 -52.824816271128384 -29.616633961377374 0 0 0 0 -3.3188726906801094 -38.65984782387568 0 -38.65984782387568 -66.879710637997732 0 0 0 0 -1.4935147314499471 -1.3285552880039297 0 -1.3285552880039297 -1.2788482620588333 0 0 0 0 -140.03481019891933 -34.937651809010276 0 -34.937651809010276 11.522904373639278 0 0 0 0 -170.67041579081297 -119.00537696387164 0 -119.00537696387164 -20.747274092628402 0 0 0 0 -70.769977212739491 -137.41884693617885 0 -137.41884693617885 -155.70354226280233 0 0 0 0 -141.2145438289408 -12.899926886570029 0 -12.899926886570029 -57.763193604970184 0 0 0 0 -56.379055472989762 -27.583806366008275 0 -27.583806366008275 -137.38491844599321 0 0 0 0 -113.84439769082292 -148.52252735848469 0 -148.52252735848469 -117.08498816474912 0 0 0 0 -186.54825710487273 -87.371437610625435 0 -87.371437610625435 -41.376248644519364 0 0 0 0 -93.381431840281493 -81.54525445611489 0 -81.54525445611489 -45.94517675301222 0 0 0 0 0.26079668252909638 -0.44137547983058401 0 -0.44137547983058401 -0.059856400224887807 0 0 0 0 0.78500105478906335 1.5992591523886404 0 1.5992591523886404 -16.477469875967472 0 0 0 0 -124.41081198952639 -73.270332543246923 0 -73.270332543246923 -38.987706872801937 0 0 0 0 9.4919548912839673 4.556466776477464 0 4.556466776477464 6.5307620539115874 0 0 0 0 0.41349570159389337 -0.099385375299181788 0 -0.099385375299181788 0.0089296575178074988 0 0 0 0 -2.1752167967129594 7.7178639260642967 0 7.7178639260642967 3.4088725352485199 0 0 0 0 11.12850732734114 -20.340087596581725 0 -20.340087596581725 -64.99894491327882 0 0 0 0 -54.149881966690373 -57.274322951189333 0 -57.274322951189333 -40.242374181410923 0 0 0 0 1.0096336061116284 -0.79160685048142021 0 -0.79160685048142021 0.17096118118884363 0 0 0 0 3.4530876680737492 0.77616516571833927 0 0.77616516571833927 -0.17515255008038366 0 0 0 0 4.4083413297665857 0.46100646227341713 0 0.46100646227341713 -4.475506216962458 0 0 0 0 6.5242053366723667 4.7116638911420523 0 4.7116638911420523 -15.782514561456992 0 0 0 0 -0.76452746426275553 5.9984082592600316 0 5.9984082592600316 6.4839174019876964 0 0 0 0 4.8795252305628765 1.5103634230908938 0 1.5103634230908938 -2.6520954123079719 0 0 0 0 1.7407354158981434 10.07080476142346 0 10.07080476142346 -3.6737757235987374 0 0 0 0 4.4680606261035791 -9.2871425058783643 0 -9.2871425058783643 -12.318637484787814 0 0 0 0 4.240354439520388 -1.2077215876261107 0 -1.2077215876261107 -2.5719014906790107 0 0 0 0 2.1111953810404991 -1.07731322657421 0 -1.07731322657421 -0.60778119640924189 0 0 0 0 3.3022860927570794 -2.0412094550023703 0 -2.0412094550023703 0.91529776839456645 0 0 0 0 3.6261847532541651 -3.3053004717321528 0 -3.3053004717321528 -3.9064952063918099 0 0 0 0 2.8956056000151875 -2.7919635636899329 0 -2.7919635636899329 -2.5441609256340598 0 0 0 0 3.3748130507512997 -2.4311939032731971 0 -2.4311939032731971 -2.5755471071315696 0 0 0 0 3.1701257066633075 -1.8616775881849286 0 -1.8616775881849286 0.32095943555452422 0 0 0 0 8.3515357452212129 -10.427508847487843 0 -10.427508847487843 -3.3099099386799935 0 0 0 0 6.7387360258969977 -0.25542953645242505 0 -0.25542953645242505 -3.6849626372713828 0 0 0 0 6.4688705848152495 -2.352213000483971 0 -2.352213000483971 -0.56241608697018819 0 0 0 0 1.3716778350520826 -2.3807268687296528 0 -2.3807268687296528 4.1306454036148352 0 0 0 0 -0.031394637924880175 -0.25112238350310179 0 -0.25112238350310179 -0.69603945190075933 0 0 0 0 -1.4322227721145282 -1.5965541463810951 0 -1.5965541463810951 0.88903966434008908 0 0 0 0 -12.053518940793108 -19.426298387016004 0 -19.426298387016004 -11.425416471198332 0 0 0 0 1.9348671743639347 -2.0723296517161063 0 -2.0723296517161063 -0.57584357816308795 0 0 0 0 7.079158133427768 -0.79789823922783398 0 -0.79789823922783398 -2.0809596019471428 0 0 0 0 -53.217222651273815 -24.86628705283033 0 -24.86628705283033 -4.1190694747456291 0 0 0 0 0.60476993884842667 -1.7573655443506988 0 -1.7573655443506988 -0.71156911358354336 0 0 0 0 3.8742732333931826 -0.41841467151357392 0 -0.41841467151357392 -0.76914316051625065 0 0 0 0 0.48457082130483209 -0.15150649585450537 0 -0.15150649585450537 -2.716042060349487 0 0 0 0 5.7497627758427825 -2.9125541683861229 0 -2.9125541683861229 -2.6931663452014618 0 0 0 0 6.1476283509360883 1.1803969530064933 0 1.1803969530064933 -0.17998957902955226 0 0 0 0 -59.382128872054622 -22.47626888085415 0 -22.47626888085415 -8.8556562115827546 0 0 0 0 4.1375805449056315 -5.1984138022307889 0 -5.1984138022307889 2.0120939437997549 0 0 0 0 3.9650497896034267 -4.3959433650788924 0 -4.3959433650788924 -0.46091716765477031 0 0 0 0 2.1970346578385715 -6.2504039204127366 0 -6.2504039204127366 1.6136619613389485 0 0 0 0 9.4210768907373676 -2.216019572224468 0 -2.216019572224468 -0.044532518315918423 0 0 0 0 5.5592344774057096 -6.3899744000532337 0 -6.3899744000532337 2.009655492798629 0 0 0 0 4.6967960060372889 -2.6919964651938244 0 -2.6919964651938244 -3.6830646185007936 0 0 0 0 6.3547217283640975 -4.6445815499246237 0 -4.6445815499246237 -3.1573842258494551 0 0 0 0 5.0698492812489349 -3.9523847318268963 0 -3.9523847318268963 -0.55562967134937935 0 0 0 0 2.5483117085976232 -7.7605163476878261 0 -7.7605163476878261 -3.9705947296315571 0 0 0 0 0.66041399269806789 -5.5938686578920169 0 -5.5938686578920169 -0.639655287257483 0 0 0 0 1.2780484379413792 -4.4834412626209996 0 -4.4834412626209996 -1.036235973759176 0 0 0 0 0.95133792904418968 -2.191139426446771 0 -2.191139426446771 0.94212712538333854 0 0 0 0 0.33814997781246348 -0.62826697455966496 0 -0.62826697455966496 -1.2974886532010714 0 0 0 0 6.3249800834569214 -4.1639123382919934 0 -4.1639123382919934 -5.3142680708488115 0 0 0 0 2.3939316409025411 -2.4525958184987786 0 -2.4525958184987786 1.1002062715492755 0 0 0 0 0.81489695230447978 -3.6355493453756935 0 -3.6355493453756935 -2.2090978551404987 0 0 0 0 1.767541468068758 -2.5732990212201399 0 -2.5732990212201399 -0.65292984377327201 0 0 0 0 0.93841644811738245 -1.4779811675859813 0 -1.4779811675859813 -0.98055913520908433 0 0 0 0 2.6339425696460239 -2.3348189840189661 0 -2.3348189840189661 -1.3900704693614898 0 0 0 0 0.84552852157446523 -3.9478136635267447 0 -3.9478136635267447 -1.276045567865367 0 0 0 0 -71.847946309601411 -59.208727844836631 0 -59.208727844836631 -35.302733861004981 0 0 0 0 0.77733234292700892 -1.5618509432161893 0 -1.5618509432161893 1.2415835729375573 0 0 0 0 -50.798130120452925 -92.002157213571536 0 -92.002157213571536 -103.43878565589785 0 0 0 0 -63.825328570973625 -86.102517633247771 0 -86.102517633247771 -66.858399467327672 0 0 0 0 -66.582403750879166 -108.52234019014668 0 -108.52234019014668 -69.931506670033741 0 0 0 0 -60.499864221324287 -92.435346049468308 0 -92.435346049468308 -139.71900688766254 0 0 0 0 -59.997012078706575 -87.999570613457763 0 -87.999570613457763 -101.85450094368503 0 0 0 0 -0.12763270463268306 -1.7423468571010972 0 -1.7423468571010972 1.5106223128728207 0 0 0 0 0.58647585052925244 -1.1048622283281961 0 -1.1048622283281961 0.56000779748129403 0 0 0 0 -1.763468304624098 -5.285802080209578 0 -5.285802080209578 -1.7328535624965298 0 0 0 0 0.59687380279133029 -0.28209227109325186 0 -0.28209227109325186 -1.5077629060351683 0 0 0 0 75.344725190616145 -10.204499353783831 0 -10.204499353783831 -71.790128235725206 0 0 0 0 93.942741704519449 29.8327183958354 0 29.8327183958354 13.329982990722783 0 0 0 0 0.16676469821892415 -0.27877964388131016 0 -0.27877964388131016 -0.46638437680300626 0 0 0 0 -118.92229957381664 -109.54384339896887 0 -109.54384339896887 -82.692788764424222 0 0 0 0 -89.379775352636898 -85.648549813879072 0 -85.648549813879072 -96.346398035028415 0 0 0 0 -75.017955278422505 -133.23565218728436 0 -133.23565218728436 -184.93143822559705 0 0 0 0 -121.18320746840345 -92.140416741924128 0 -92.140416741924128 -112.60058145057519 0 0 0 0 -49.559768765955141 -91.165276599073877 0 -91.165276599073877 -126.48231604606735 0 0 0 0 -75.539339540107903 -50.081441752983665 0 -50.081441752983665 -28.360947041488544 0 0 0 0 -74.656377079621507 -109.3192147029722 0 -109.3192147029722 -98.457225433196982 0 0 0 0 -64.333166875958796 -122.89323160610911 0 -122.89323160610911 -125.66304377128972 0 0 0 0 -49.386685857085467 -106.73414791174764 0 -106.73414791174764 -123.82128050547544 0 0 0 0 -58.754498609545863 -126.40415866055082 0 -126.40415866055082 -129.69523607985138 0 0 0 0 -51.565570288126764 -100.11628210442996 0 -100.11628210442996 -116.48179305581652 0 0 0 0 -52.312082690030252 -108.29950236860441 0 -108.29950236860441 -168.49470435103285 0 0 0 0 -50.433605859673207 -98.664778234704499 0 -98.664778234704499 -125.10279694413111 0 0 0 0 -0.88849689605429916 -0.21815702624065914 0 -0.21815702624065914 0.43883803419683254 0 0 0 0 0.63823160294064074 -1.5314751723502535 0 -1.5314751723502535 0.99648252390408842 0 0 0 0 -57.775752505599485 -7.5631314919319266 0 -7.5631314919319266 7.6767938667144335 0 0 0 0 -86.20307227934245 -137.38330191558816 0 -137.38330191558816 -130.94291187927683 0 0 0 0 49.025337329832837 -19.355026774850558 0 -19.355026774850558 -32.022761515385355 0 0 0 0 -64.369479065291671 -4.2953848864162865 0 -4.2953848864162865 52.756059309298507 0 0 0 0 -25.107303406747747 3.3385930585992014 0 3.3385930585992014 5.5553672193855164 0 0 0 0 -38.091386806973787 -23.771055745566628 0 -23.771055745566628 46.096836658525717 0 0 0 0 -85.148818065483283 25.450138715412322 0 25.450138715412322 4.2684443235448271 0 0 0 0 20.869160682835172 -65.406832141185077 0 -65.406832141185077 -45.296983495538825 0 0 0 0 -0.77998769890301034 -0.22228746051625592 0 -0.22228746051625592 0.77793051780379052 0 0 0 0 7.2808818774792599 -33.718649419253779 0 -33.718649419253779 76.988610679951307 0 0 0 0 12.372251095277534 -33.176471091261192 0 -33.176471091261192 68.858677099675333 0 0 0 0 -17.995840157673229 12.56579737742868 0 12.56579737742868 -64.064561556291665 0 0 0 0 -27.509218546082593 -69.695191823910136 0 -69.695191823910136 -78.54929786035791 0 0 0 0 -193.79746471852195 -27.883032120560529 0 -27.883032120560529 -66.447191198991277 0 0 0 0 -0.022565112860543302 -0.42382856282874215 0 -0.42382856282874215 0.4338561783447048 0 0 0 0 -9.23733866488692 11.350998533696838 0 11.350998533696838 -73.430680982521153 0 0 0 0 -11.579527912243066 18.904082535543239 0 18.904082535543239 -52.204002763253811 0 0 0 0 57.108636071774526 5.0388249315255962 0 5.0388249315255962 -69.850165134412237 0 0 0 0 52.356420487325522 12.624141135063837 0 12.624141135063837 -80.917117987351958 0 0 0 0 0.068891312408069894 -0.34166266179735416 0 -0.34166266179735416 0.35621493171632324 0 0 0 0 23.597701513110223 27.396163369582609 0 27.396163369582609 47.440857484798471 0 0 0 0 -52.664231798414221 -106.6857989118198 0 -106.6857989118198 77.232428979088581 0 0 0 0 -31.561603740711007 -66.148386766767089 0 -66.148386766767089 22.670446456391801 0 0 0 0 -59.350386050518466 -121.18220320157081 0 -121.18220320157081 -92.077056722118868 0 0 0 0 -45.048580048077838 -55.059845063545254 0 -55.059845063545254 13.645490550774412 0 0 0 0 1.1209795696936453 -5.8681817012507054 0 -5.8681817012507054 -4.3900131328737189 0 0 0 0 -5.8916721472214704 -5.495330985385408 0 -5.495330985385408 7.9266627213164611 0 0 0 0 3.302691120007367 -2.6617193997015285 0 -2.6617193997015285 1.8248115283913329 0 0 0 0 3.6800060727332307 -3.3661644344167456 0 -3.3661644344167456 2.072425989110922 0 0 0 0 -22.274853652690581 23.215799654866714 0 23.215799654866714 41.602035832620459 0 0 0 0 -6.7549848923536047 -21.533013319112797 0 -21.533013319112797 -12.084060090723142 0 0 0 0 20.355907448456492 -4.6436734053631881 0 -4.6436734053631881 -10.060030950244254 0 0 0 0 3.3515208843061828 -7.8160209341704103 0 -7.8160209341704103 2.8496355592988039 0 0 0 0 2.2543257422955776 -7.233935767560979 0 -7.233935767560979 3.5647728095100319 0 0 0 0 2.7475697440572731 -7.4525979812406149 0 -7.4525979812406149 3.0308960718616618 0 0 0 0 3.0649196036204103 -5.163299332745737 0 -5.163299332745737 -2.4568642101894511 0 0 0 0 1.1512172883523704 -5.1035181389943318 0 -5.1035181389943318 1.9744355657348933 0 0 0 0 3.3082850866719298 -6.172966689220317 0 -6.172966689220317 4.5017089616576413 0 0 0 0 -3.2071671299013915 -2.1511407371489497 0 -2.1511407371489497 2.5836306586804767 0 0 0 0 1.3574122209665802 -6.291738143931525 0 -6.291738143931525 40.520095984678846 0 0 0 0 61.220188142952338 -85.64611397032877 0 -85.64611397032877 79.254607279671291 0 0 0 0 42.433219000442477 -37.849318718931499 0 -37.849318718931499 26.508020266474887 0 0 0 0 -4.1623462374623497 -3.0800252411144342 0 -3.0800252411144342 0.70546714342894745 0 0 0 0 4.9275343940879566 -7.2925636226127608 0 -7.2925636226127608 4.9887767441377946 0 0 0 0 33.577242205054063 -54.595105690484615 0 -54.595105690484615 131.12026856383818 0 0 0 0 -19.234686557852001 -60.174129346391055 0 -60.174129346391055 65.060138195309264 0 0 0 0 -13.747781935056082 -54.412187466715295 0 -54.412187466715295 28.047993839791161 0 0 0 0 7.2893984435759194 -42.500400899301894 0 -42.500400899301894 76.596711693802717 0 0 0 0 16.579454149935373 -58.698450262190818 0 -58.698450262190818 61.953893675899053 0 0 0 0 14.488796157103934 -46.179980813530165 0 -46.179980813530165 50.537065461211569 0 0 0 0 12.363396194276447 -36.697108408914573 0 -36.697108408914573 56.098867792814417 0 0 0 0 36.470682804606213 -71.818282942859014 0 -71.818282942859014 77.42792161687612 0 0 0 0 8.1731949319664636 -50.738811614425686 0 -50.738811614425686 110.4454959891691 0 0 0 0 10.53691407905535 -61.645863474457656 0 -61.645863474457656 92.614492963093653 0 0 0 0 -11.92886162308514 -48.75298508708147 0 -48.75298508708147 85.47623694729009 0 0 0 0 2.6044261650832325 -52.382450729628786 0 -52.382450729628786 131.41045641052006 0 0 0 0 -17.89361786478139 -47.7837608576001 0 -47.7837608576001 133.54655692097913 0 0 0 0 26.930767491732468 -27.892983431302127 0 -27.892983431302127 177.06810956563277 0 0 0 0 1.9908023890679942 -28.398022193196084 0 -28.398022193196084 174.2607725177968 0 0 0 0 13.713632157462143 -63.811776305748026 0 -63.811776305748026 123.31088549312972 0 0 0 0 9.4390549494662537 -57.065219463893072 0 -57.065219463893072 195.01836773406831 0 0 0 0 13.740770519146054 -43.572982296955615 0 -43.572982296955615 188.95182439833115 0 0 0 0 -12.372813373429835 -11.145603591732652 0 -11.145603591732652 238.87202126501688 0 0 0 0 -5.4911672388650175 -3.3094675759692507 0 -3.3094675759692507 0.65358364465866714 0 0 0 0 0.88336377766472651 -3.7293345056641556 0 -3.7293345056641556 161.95918279507259 0 0 0 0 130.23614039928407 -88.102663158783798 0 -88.102663158783798 128.71276230550029 0 0 0 0 82.669490079822026 -138.76089049987968 0 -138.76089049987968 207.18094093070431 0 0 0 0 5.3980327876674892 -108.4100965296102 0 -108.4100965296102 445.49213980375862 0 0 0 0 10.36740920614011 -14.897458206940428 0 -14.897458206940428 290.26475650369503 0 0 0 0 -1.4318156388943812 -1.248763524612162 0 -1.248763524612162 0.20264522669520346 0 0 0 0 140.72547198784423 -259.86193449345319 0 -259.86193449345319 28.515673728457841 0 0 0 0 -4.1956046707593657 -4.2101304182821693 0 -4.2101304182821693 -1.746867986755305 0 0 0 0 23.964336987393153 -13.657893601111027 0 -13.657893601111027 -6.1867143585732265 0 0 0 0 9.2093655507678704 -7.5126595469810127 0 -7.5126595469810127 3.5846844063676144 0 0 0 0 -15.130993253281304 -24.140948712897853 0 -24.140948712897853 -23.100216115988587 0 0 0 0 -3.8559438628954013 4.8161122715919191 0 4.8161122715919191 -2.8168109829603054 0 0 0 0 20.934753744271475 -0.64693931163867546 0 -0.64693931163867546 -13.717612487071165 0 0 0 0 -39.818046077266672 -1.1209351361621884 0 -1.1209351361621884 20.41897350616091 0 0 0 0 -44.167635748128077 -20.306210383660982 0 -20.306210383660982 -6.0055533771210321 0 0 0 0 -52.532892670997057 -49.437446395741972 0 -49.437446395741972 -35.113669299689718 0 0 0 0 -84.539920125494305 -65.783922295802313 0 -65.783922295802313 -15.716235684634739 0 0 0 0 -0.6605939907830275 0.15349427066241006 0 0.15349427066241006 0.33891969886096263 0 0 0 0 -88.716475163611648 -45.530218442347177 0 -45.530218442347177 2.531789248185305 0 0 0 0 -97.246167697716828 -9.1772789400756665 0 -9.1772789400756665 -13.3458873714535 0 0 0 0 -78.932115029930344 -48.856809236485788 0 -48.856809236485788 3.6483234035968053 0 0 0 0 -67.855736264897672 -85.57186065573751 0 -85.57186065573751 -28.440041190883221 0 0 0 0 -2.1603490220077219 2.2849400130398863 0 2.2849400130398863 9.1465757601199584 0 0 0 0 25.945396780265014 -47.793470679049278 0 -47.793470679049278 -48.251471065751502 0 0 0 0 19.867563980393186 -18.820399059223746 0 -18.820399059223746 15.18454874638519 0 0 0 0 0.28259782704985126 -0.23789637916852779 0 -0.23789637916852779 -0.76163017804137922 0 0 0 0 10.668547929215947 -16.774062176498774 0 -16.774062176498774 14.700859256658077 0 0 0 0 36.373893878776812 -9.9659955309755333 0 -9.9659955309755333 1.9760119741658855 0 0 0 0 0.11940351655916953 -0.042798403420431175 0 -0.042798403420431175 0.17181642239893335 0 0 0 0 -79.047647804226884 -16.987713042077303 0 -16.987713042077303 -9.0172223035388015 0 0 0 0 -173.07584330634677 -17.613728773575531 0 -17.613728773575531 14.985901828520582 0 0 0 0 -78.784181559696719 -27.599936270743001 0 -27.599936270743001 2.0352356947769294 0 0 0 0 0.49450465745227656 0.60067614585050411 0 0.60067614585050411 -0.90116797271381444 0 0 0 0 12.529179003759737 -5.0328187442273702 0 -5.0328187442273702 1.0102956105929479 0 0 0 0 13.644329295466918 -4.9908563230851541 0 -4.9908563230851541 0.32578286501120601 0 0 0 0 0.61432432500633471 -1.5905151321465567 0 -1.5905151321465567 -1.0464987500015823 0 0 0 0 9.4510690426923816 -9.8034239901921865 0 -9.8034239901921865 7.304969229568087 0 0 0 0 3.4764146462838426 -5.0119166618715099 0 -5.0119166618715099 3.7486436007275188 0 0 0 0 6.3917705601560328 -5.7231215107212847 0 -5.7231215107212847 3.9212302214896226 0 0 0 0 4.7488988483582943 -3.8668491000971699 0 -3.8668491000971699 2.6372745821884109 0 0 0 0 4.5265261457632135 -5.2574265773519073 0 -5.2574265773519073 5.5731402588226047 0 0 0 0 1.8383787582393438 -5.4338852409618994 0 -5.4338852409618994 8.5611476303292875 0 0 0 0 -23.68395619983221 -58.849109500877603 0 -58.849109500877603 23.613094371160969 0 0 0 0 -26.908352253227235 -76.820878933119729 0 -76.820878933119729 -8.0728137808473548 0 0 0 0 -23.222540609552198 -71.541356653055118 0 -71.541356653055118 15.041314109814266 0 0 0 0 -24.148979303658052 -66.300132348706029 0 -66.300132348706029 38.113555032330623 0 0 0 0 -16.880648644379107 -72.604794497681723 0 -72.604794497681723 35.422130048003055 0 0 0 0 -23.957220878415683 -71.212517866395501 0 -71.212517866395501 26.69847139371177 0 0 0 0 -34.464439373245114 -75.307570671428039 0 -75.307570671428039 24.609406439552004 0 0 0 0 -36.746196405980299 -52.451412392170823 0 -52.451412392170823 50.736282749556267 0 0 0 0 -23.410103608533973 -58.579505355702167 0 -58.579505355702167 -20.651520669398451 0 0 0 0 -39.950931933109132 -48.952608341578525 0 -48.952608341578525 -22.49453073980294 0 0 0 0 -43.300452061810574 -87.657798399568492 0 -87.657798399568492 -72.442844702918592 0 0 0 0 -45.011578556077438 -66.567687029134731 0 -66.567687029134731 -10.582316447897028 0 0 0 0 -0.55544078251705287 -53.993607819366844 0 -53.993607819366844 -13.5047151014478 0 0 0 0 1.3848321630230203 -50.154964270361234 0 -50.154964270361234 -82.934662768542694 0 0 0 0 -12.497255411384685 -79.055182361904372 0 -79.055182361904372 -58.681398841539703 0 0 0 0 -5.3844161660636018 -50.984159969995744 0 -50.984159969995744 -82.874466513589141 0 0 0 0 0.63424355670031218 -63.347422496859508 0 -63.347422496859508 -96.992049710022911 0 0 0 0 -8.2621673778598961 -76.957464749635619 0 -76.957464749635619 -169.43249072202161 0 0 0 0 -19.893506215062189 -17.556516842459132 0 -17.556516842459132 -157.07924685702346 0 0 0 0 17.967487651529154 -7.2889118391503871 0 -7.2889118391503871 -127.33614213716646 0 0 0 0 19.836330557543079 -7.5919411354386739 0 -7.5919411354386739 -209.46783742453044 0 0 0 0 -16.752741272305684 50.145359561272926 0 50.145359561272926 -132.58608381506747 0 0 0 0 -9.1692143344903343 23.47132444007093 0 23.47132444007093 -100.5459782354701 0 0 0 0 -0.28876267361860108 -0.74921411454221953 0 -0.74921411454221953 -1.1424614055348208 0 0 0 0 -19.471192015917865 91.631748146597147 0 91.631748146597147 -338.90835658139986 0 0 0 0 -7.0995534600697283 -69.938280699010647 0 -69.938280699010647 -326.0641689728759 0 0 0 0 -24.195812737351844 -59.64409833195441 0 -59.64409833195441 18.185453647823124 0 0 0 0 -93.024528789016586 -118.18376739378527 0 -118.18376739378527 -192.4664302065321 0 0 0 0 -58.830311218311635 -38.346421736043794 0 -38.346421736043794 -106.73353032217892 0 0 0 0 -99.35522084492527 -41.416155797919714 0 -41.416155797919714 -99.651011725176431 0 0 0 0 -13.004833303561838 -118.19552532979611 0 -118.19552532979611 -201.5182247465018 0 0 0 0 -42.168162661783981 -88.840347397739606 0 -88.840347397739606 -217.96371484212341 0 0 0 0 -89.301908131630398 -22.865259673738592 0 -22.865259673738592 -95.840679508572066 0 0 0 0 7.4262311138031691 -21.313620201392041 0 -21.313620201392041 -107.11792402800984 0 0 0 0 -49.789700287481537 2.5834080210088359 0 2.5834080210088359 -13.948993547696773 0 0 0 0 -39.223376096447282 -66.043727040879276 0 -66.043727040879276 -28.319113644820391 0 0 0 0 -51.929357356053174 -15.443521007007405 0 -15.443521007007405 -98.564697667539804 0 0 0 0 -32.360328417432335 -12.959837905006722 0 -12.959837905006722 21.74941163578842 0 0 0 0 -12.946339033005643 -41.136886275920006 0 -41.136886275920006 32.149951783982942 0 0 0 0 0.98887427482077328 11.218632579553741 0 11.218632579553741 64.043568077053351 0 0 0 0 -1.2942113707790668 -3.0346840116590101 0 -3.0346840116590101 43.450529331632083 0 0 0 0 50.665732483053262 -11.060469469659438 0 -11.060469469659438 -37.065300326666147 0 0 0 0 -9.0620823984600065 -29.700365946167949 0 -29.700365946167949 -29.136298617796228 0 0 0 0 15.655837063279705 6.9658408939958463 0 6.9658408939958463 -26.691606215634238 0 0 0 0 12.516298479444686 -57.724918597352371 0 -57.724918597352371 -228.68960267865532 0 0 0 0 9.8723987947972773 -42.808425807580875 0 -42.808425807580875 -90.86607605394056 0 0 0 0 13.013642456518312 19.658900915355275 0 19.658900915355275 -59.75242027614695 0 0 0 0 36.831132925836755 -49.167867660140018 0 -49.167867660140018 -94.295421876865475 0 0 0 0 57.134833765840767 -12.871280316622688 0 -12.871280316622688 -64.684154986531212 0 0 0 0 52.529377843628481 -53.782025359980253 0 -53.782025359980253 -92.551293157127475 0 0 0 0 53.011086075980074 -39.606702623716956 0 -39.606702623716956 -49.053140356148106 0 0 0 0 61.406455965828627 -18.28160568264957 0 -18.28160568264957 -58.046761089712163 0 0 0 0 54.079800688685879 -31.831876026470184 0 -31.831876026470184 -62.422892908052745 0 0 0 0 39.082247484714571 -16.235690595661254 0 -16.235690595661254 -1.263839629404174 0 0 0 0 129.17155444488799 46.824644380342761 0 46.824644380342761 -32.743176693593796 0 0 0 0 0.27605117315056305 -0.14807867938998021 0 -0.14807867938998021 -0.92059619831022843 0 0 0 0 -85.29569507801898 -140.83365233538552 0 -140.83365233538552 -110.49281404280555 0 0 0 0 -32.169909551861565 -148.5966155510032 0 -148.5966155510032 -123.01070180465285 0 0 0 0 57.930221100433528 -19.610201729357414 0 -19.610201729357414 -50.186372768766887 0 0 0 0 -17.520292416689244 -71.525520242135826 0 -71.525520242135826 11.142370920913891 0 0 0 0 -16.360418605269842 -63.182958253729339 0 -63.182958253729339 -99.244297133547661 0 0 0 0 -51.353857355763466 -79.605338028694518 0 -79.605338028694518 26.05600891157701 0 0 0 0 -26.822868455203206 -54.73361031335935 0 -54.73361031335935 59.131033708104042 0 0 0 0 -23.285955061317509 -80.084526332268752 0 -80.084526332268752 24.553267011135176 0 0 0 0 -7.0793468860010762 -56.059486597389878 0 -56.059486597389878 20.604986791329793 0 0 0 0 -33.584965649265996 -73.200865468659686 0 -73.200865468659686 69.121008805323072 0 0 0 0 -35.087365756506188 -50.2662450815169 0 -50.2662450815169 83.210745629058238 0 0 0 0 -15.683216004951191 -44.239267045993074 0 -44.239267045993074 100.73274439377383 0 0 0 0 -18.486357037344078 -71.165965777325255 0 -71.165965777325255 85.147334546061757 0 0 0 0 -27.454053230196564 -63.863746541430146 0 -63.863746541430146 105.57520235220727 0 0 0 0 -21.267312194238002 6.3957523396029501 0 6.3957523396029501 164.75889599405491 0 0 0 0 2.2682132649620144 -25.462269046986876 0 -25.462269046986876 89.171213946066928 0 0 0 0 -12.153327601771025 -24.501548660718527 0 -24.501548660718527 136.71789286464264 0 0 0 0 -11.930003476550155 -16.060383501195247 0 -16.060383501195247 22.792627535380234 0 0 0 0 3.4512339170405539 -42.984165720172314 0 -42.984165720172314 54.247768448769421 0 0 0 0 4.6076594799860686 23.165080162524646 0 23.165080162524646 115.62576302294201 0 0 0 0 -71.125333461939249 -113.77699405541034 0 -113.77699405541034 31.751308805864028 0 0 0 0 -40.056147465565118 -34.597624104032548 0 -34.597624104032548 112.3553378691231 0 0 0 0 -51.273054839870611 -63.773751238361001 0 -63.773751238361001 238.16731310885825 0 0 0 0 19.13306542369628 -72.451824147062325 0 -72.451824147062325 -181.02946400112069 0 0 0 0 -0.51842817191129953 -0.76377722527744396 0 -0.76377722527744396 0.12472746656404743 0 0 0 0 -24.866535132344325 7.7318477890103168 0 7.7318477890103168 -33.694108962648897 0 0 0 0 -26.344270352893545 -30.903138513665908 0 -30.903138513665908 -8.3771040302899564 0 0 0 0 -62.750863563183884 -4.7121159227190219 0 -4.7121159227190219 81.544999639729213 0 0 0 0 -25.029349314632327 -51.739323676341883 0 -51.739323676341883 45.32193817823827 0 0 0 0 22.289086015672183 -36.110175794488896 0 -36.110175794488896 -2.0552671825371363 0 0 0 0 -48.414516427778835 -41.0931398674702 0 -41.0931398674702 -1.6044391556010851 0 0 0 0 -19.179188942860492 -54.981426262836976 0 -54.981426262836976 -44.238837042012165 0 0 0 0 11.578424433051737 -78.553560393419048 0 -78.553560393419048 84.270954006256943 0 0 0 0 36.168582651630686 -29.194385737391713 0 -29.194385737391713 -27.332916753699465 0 0 0 0 -0.32448234232202822 -0.4611985101321423 0 -0.4611985101321423 0.12275259419195472 0 0 0 0 -14.717349883909662 -54.0494405333842 0 -54.0494405333842 202.23318653175738 0 0 0 0 22.241003105637446 1.8560877045492816 0 1.8560877045492816 42.753683661794412 0 0 0 0 -7.7456586949360826 -43.507849913289988 0 -43.507849913289988 175.46982407533505 0 0 0 0 -0.78626787776269502 -1.0330133554993814 0 -1.0330133554993814 0.19123806172182034 0 0 0 0 7.605083609236317 -55.814518437825882 0 -55.814518437825882 58.813500365095933 0 0 0 0 -11.07284025893739 -24.127709383607225 0 -24.127709383607225 146.26907897916317 0 0 0 0 -1.2637712200822797 -1.3701437847821438 0 -1.3701437847821438 -0.7552854712808692 0 0 0 0 -21.024156534928352 -53.963615805511836 0 -53.963615805511836 69.098752963699155 0 0 0 0 21.598505184412716 -22.74976516919196 0 -22.74976516919196 -88.674968692160746 0 0 0 0 -1.3513909137474638 -1.5404990748350826 0 -1.5404990748350826 0.61758959229328525 0 0 0 0 -37.23342971447255 106.13138322513623 0 106.13138322513623 182.94876412112717 0 0 0 0 -21.405891349721969 -3.7230718473128945 0 -3.7230718473128945 32.34261304622305 0 0 0 0 11.240928939595506 29.76133289936115 0 29.76133289936115 -36.188530121614349 0 0 0 0 -10.023737329247949 -6.9809268179393982 0 -6.9809268179393982 -3.3691587992466676 0 0 0 0 -9.7675564227502036 -25.944531672941594 0 -25.944531672941594 48.02366114572942 0 0 0 0 -2.395017491922772 -32.458784623859174 0 -32.458784623859174 49.642920038850207 0 0 0 0 -1.1258050964495965 -34.286022307741689 0 -34.286022307741689 -9.2282173623643757 0 0 0 0 -32.203221010513516 -54.358487237719601 0 -54.358487237719601 90.633114125357679 0 0 0 0 -1.178597197537524 -3.8948100658105353 0 -3.8948100658105353 -1.6399691836889563 0 0 0 0 34.571750777819943 -24.433442102906156 0 -24.433442102906156 -69.528424194915488 0 0 0 0 -17.933087831991173 -181.91051544652504 0 -181.91051544652504 -33.757833994652174 0 0 0 0 8.2042665337394283 -7.49483154184054 0 -7.49483154184054 0.70918669023012626 0 0 0 0 8.6609428547762946 -1.9599650356485654 0 -1.9599650356485654 5.8529530597625126 0 0 0 0 3.0962341396076454 -7.1020165626383687 0 -7.1020165626383687 3.9187497036255081 0 0 0 0 3.9635665476944268 -12.079571862504963 0 -12.079571862504963 -0.62577128774182711 0 0 0 0 2.2037992209789081 -26.334703469902252 0 -26.334703469902252 56.644393763823246 0 0 0 0 17.357835773591432 -40.407526201550354 0 -40.407526201550354 104.96483248497452 0 0 0 0 14.750483652903313 -46.777631184296297 0 -46.777631184296297 89.891353147326299 0 0 0 0 1.4040843495466895 -3.0084105953318918 0 -3.0084105953318918 -2.96594503123108 0 0 0 0 13.134209640722474 -49.293821515913805 0 -49.293821515913805 -25.05281203128493 0 0 0 0 -7.6954503594951795 -6.8879406547936881 0 -6.8879406547936881 -3.5764675449063841 0 0 0 0 17.87090535196694 -6.7568446993118414 0 -6.7568446993118414 -30.392599412800337 0 0 0 0 -9.3650732504174812 -29.396672242977729 0 -29.396672242977729 11.198180149254767 0 0 0 0 0.31074679292942164 -64.483891485076583 0 -64.483891485076583 49.285180542750822 0 0 0 0 -2.0891978865047349 -12.947921107584989 0 -12.947921107584989 37.895745311265273 0 0 0 0 -4.0373025431817453 -3.2712827317385447 0 -3.2712827317385447 -1.5041270847517243 0 0 0 0 -33.420714479458184 -82.447500300393585 0 -82.447500300393585 341.40895324798566 0 0 0 0 36.481078951986092 -33.639787415264436 0 -33.639787415264436 141.13227783611273 0 0 0 0 -36.191959616592612 -28.465375067749846 0 -28.465375067749846 148.9856457840724 0 0 0 0 -0.55786949838220323 -1.2625642956501686 0 -1.2625642956501686 0.22546089756886123 0 0 0 0 8.6539518819640762 -27.694693995745183 0 -27.694693995745183 40.241614858246976 0 0 0 0 -0.083260971070608036 -0.91223250430779856 0 -0.91223250430779856 0.18807122587968994 0 0 0 0 -10.777750924302381 -56.239249005466263 0 -56.239249005466263 4.3914832297596149 0 0 0 0 131.6544427060926 -18.490413302890374 0 -18.490413302890374 324.88053415663853 0 0 0 0 10.836615005993735 -83.449010210777487 0 -83.449010210777487 -23.01925238516128 0 0 0 0 -16.279383833374595 -76.666756776565308 0 -76.666756776565308 35.768483007152099 0 0 0 0 -16.636220517815673 -76.547181003479636 0 -76.547181003479636 38.303168607214502 0 0 0 0 24.644299728918668 -50.638719036733164 0 -50.638719036733164 -68.022251552953094 0 0 0 0 11.717408551549852 -95.127758964400527 0 -95.127758964400527 57.19336301095791 0 0 0 0 38.069472499249059 -131.05348669451632 0 -131.05348669451632 -14.252006138895922 0 0 0 0 64.363268704151778 -76.077743282225128 0 -76.077743282225128 -82.94060336491475 0 0 0 0 68.986305862242716 -65.140116008255063 0 -65.140116008255063 -19.498440529652726 0 0 0 0 96.52280401308613 -80.110881412674615 0 -80.110881412674615 -33.814994705553545 0 0 0 0 61.963201169811327 -75.107156047807166 0 -75.107156047807166 -33.586961512517519 0 0 0 0 52.156255512438292 -62.429555607129259 0 -62.429555607129259 9.9486984291770568 0 0 0 0 117.65293915924759 -129.35265415572923 0 -129.35265415572923 70.567415107994748 0 0 0 0 36.019463149158582 -44.050973701610928 0 -44.050973701610928 -35.324102717991991 0 0 0 0 49.902344447005817 -71.878461346860604 0 -71.878461346860604 13.101791999530178 0 0 0 0 9.4536566185743141 -51.149555555892221 0 -51.149555555892221 58.750646356521202 0 0 0 0 6.3059974677044011 -37.815137026051161 0 -37.815137026051161 13.371106348116882 0 0 0 0 42.113477217904801 -73.536933398302608 0 -73.536933398302608 -35.000136375787406 0 0 0 0 24.208445316868165 -38.787102730998413 0 -38.787102730998413 -102.38761992289074 0 0 0 0 -16.319864871255049 -69.539878216965008 0 -69.539878216965008 -61.01671253250106 0 0 0 0 -0.069657558431572397 -32.433656947760028 0 -32.433656947760028 -43.891539815467695 0 0 0 0 7.9303421318973051 -43.857374657251057 0 -43.857374657251057 15.437479719686962 0 0 0 0 9.9104521120527806 -47.868547008912401 0 -47.868547008912401 -26.683029039726534 0 0 0 0 -1.4241659046256245 -11.944001072673927 0 -11.944001072673927 20.822339470561928 0 0 0 0 -17.841187197287582 -44.911267874030273 0 -44.911267874030273 -8.6365112927269365 0 0 0 0 5.232893312839451 -29.607497384533872 0 -29.607497384533872 -27.590535191080562 0 0 0 0 -18.830846757713516 -47.636368828993 0 -47.636368828993 -66.451661395711199 0 0 0 0 -13.847584837461909 -63.085530562389977 0 -63.085530562389977 -42.651983246477357 0 0 0 0 1.0792030098464238 -73.339698662703995 0 -73.339698662703995 -122.41095206369755 0 0 0 0 -50.126743161157719 -67.329744999494324 0 -67.329744999494324 -118.98542938216815 0 0 0 0 -46.243592066988413 -115.76994957248127 0 -115.76994957248127 -145.275251392879 0 0 0 0 36.3341578669515 -145.45824247719611 0 -145.45824247719611 -121.9311447333879 0 0 0 0 -123.32758948134415 -15.868038041930959 0 -15.868038041930959 375.07769543443828 0 0 0 0 38.531790676165201 -102.20329395191038 0 -102.20329395191038 -295.54842258196732 0 0 0 0 1.7007726526324127 -1.7651590009305806 0 -1.7651590009305806 0.84319744045049916 0 0 0 0 5.1325611675946874 -4.3286312846790373 0 -4.3286312846790373 2.2281984222156552 0 0 0 0 33.703801730549458 -100.75121675752234 0 -100.75121675752234 98.620395242975974 0 0 0 0 7.6516250376671451 -24.322213560091768 0 -24.322213560091768 150.28680418509066 0 0 0 0 143.53199634820794 -149.45638949970999 0 -149.45638949970999 144.30775441133756 0 0 0 0 -35.734829951030179 29.030794335604241 0 29.030794335604241 30.488585327504552 0 0 0 0 -15.551705680831219 -83.47086048759229 0 -83.47086048759229 -159.51528390950625 0 0 0 0 -10.121764396208164 -117.5718657282323 0 -117.5718657282323 -209.25746974402227 0 0 0 0 -14.263669162689098 -73.536991213288729 0 -73.536991213288729 -104.09746376915427 0 0 0 0 -18.759812022710321 -64.135204736066953 0 -64.135204736066953 -114.50989348431358 0 0 0 0 -20.00078837521545 -93.499647723534906 0 -93.499647723534906 -135.64349059360029 0 0 0 0 -9.3696359081950504 -65.420033407594019 0 -65.420033407594019 -125.19334262996927 0 0 0 0 -10.702665253920713 -71.523691599470112 0 -71.523691599470112 -110.44765443209326 0 0 0 0 -14.157142590254807 -47.278499897083748 0 -47.278499897083748 -58.84503133968974 0 0 0 0 -12.402623414814519 -7.5056431591732959 0 -7.5056431591732959 -3.5894861231707722 0 0 0 0 -8.9797724736417877 -17.26936007009499 0 -17.26936007009499 16.930737644208421 0 0 0 0 6.3288669894936902 -7.3794942442691536 0 -7.3794942442691536 -55.881915642979493 0 0 0 0 -13.036685344937723 -52.72844267221808 0 -52.72844267221808 -83.66350520204287 0 0 0 0 -8.9513386717108006 -58.356298860302559 0 -58.356298860302559 -121.65431588765932 0 0 0 0 -2.3249361068628787 -36.563889539444062 0 -36.563889539444062 -65.594025935482932 0 0 0 0 -2.6028300579773713 -28.651254829522713 0 -28.651254829522713 -169.095037436251 0 0 0 0 29.175008533322398 -37.643513135833928 0 -37.643513135833928 -112.67969591861765 0 0 0 0 -0.68400213615975147 -3.1155941447442395 0 -3.1155941447442395 -0.88847869930365242 0 0 0 0 -14.091405972152447 -4.7360196098381557 0 -4.7360196098381557 0.53992944073737714 0 0 0 0 -55.085803455400765 7.890149330717577 0 7.890149330717577 113.78157233426646 0 0 0 0 6.9166290893335827 10.643334781929298 0 10.643334781929298 -119.11278055191769 0 0 0 0 -21.718657494484432 -28.283123975686976 0 -28.283123975686976 -100.80429747989456 0 0 0 0 13.373027988001922 25.440149636060255 0 25.440149636060255 59.641415629746916 0 0 0 0 -2.5406726206088592 2.4323570729623398 0 2.4323570729623398 2.9626875090904683 0 0 0 0 -33.759861146820185 -62.880714242732211 0 -62.880714242732211 -113.52462232965627 0 0 0 0 -16.4773159035758 -50.088502962549683 0 -50.088502962549683 -119.51250807860197 0 0 0 0 -34.790120337672533 -44.192884440851799 0 -44.192884440851799 -120.20999740810657 0 0 0 0 -10.140877324487519 -39.232501726299233 0 -39.232501726299233 -127.29294748020766 0 0 0 0 -17.311473216737795 -39.257453213824192 0 -39.257453213824192 -126.04046132162694 0 0 0 0 -1.2515848103557801 -64.151410235108415 0 -64.151410235108415 -161.82697924327658 0 0 0 0 -21.41189188531871 -97.218218802119509 0 -97.218218802119509 -158.18857003170342 0 0 0 0 13.691960143854885 -47.192954501337226 0 -47.192954501337226 -142.66714790197875 0 0 0 0 -19.705768580741278 -66.487284482060204 0 -66.487284482060204 -130.30925486501019 0 0 0 0 -19.565352416404494 -68.124032406227343 0 -68.124032406227343 -111.32120935821331 0 0 0 0 -223.39426767468285 -234.80331044688774 0 -234.80331044688774 -170.91977773088001 0 0 0 0 -137.90953558813999 -123.90098003485764 0 -123.90098003485764 -119.33684141007234 0 0 0 0 16.672038709618221 -91.810446605019138 0 -91.810446605019138 -281.23644833362778 0 0 0 0 107.89813230603795 20.848216679931284 0 20.848216679931284 -160.27782799316446 0 0 0 0 -45.833541465284725 -33.282875545144634 0 -33.282875545144634 103.82947558545129 0 0 0 0 170.44547679143443 -205.2846437801154 0 -205.2846437801154 -551.48837729672232 0 0 0 0 -11.094444574337517 -4.1443687389432675 0 -4.1443687389432675 1.1556727747669804 0 0 0 0 48.557869091601788 -104.44031885526692 0 -104.44031885526692 -326.84283151960244 0 0 0 0 -306.79344934713299 -165.56144822628448 0 -165.56144822628448 -212.45297964492602 0 0 0 0 -19.530198114220184 -18.299407179414629 0 -18.299407179414629 48.553280807482224 0 0 0 0 20.923637177917044 31.726717682211984 0 31.726717682211984 -162.00621995161237 0 0 0 0 1.7802130063202413 -0.38315280624035353 0 -0.38315280624035353 -3.8314656420629163 0 0 0 0 172.93552624813083 49.803306694034291 0 49.803306694034291 -76.824121437492977 0 0 0 0 -36.674084378461885 63.839022707784352 0 63.839022707784352 103.8574699086812 0 0 0 0 4.9932634011273525 -2.5032470747821929 0 -2.5032470747821929 -1.8180423730518029 0 0 0 0 67.87725609687368 -17.709659069054396 0 -17.709659069054396 -71.663317472072777 0 0 0 0 7.9383673841677265 -5.7912910114140992 0 -5.7912910114140992 0.25524172782593624 0 0 0 0 -65.204890134933521 -65.339242224834834 0 -65.339242224834834 -73.742119968570478 0 0 0 0 66.075452192761077 26.610256213864886 0 26.610256213864886 -16.491571872096756 0 0 0 0 -35.744277598394547 14.956787020149932 0 14.956787020149932 -2.5227376602852019 0 0 0 0 2.3731917138207526 -0.67779784225278394 0 -0.67779784225278394 -12.781216228191489 0 0 0 0 20.810205480907371 152.49461715168854 0 152.49461715168854 -133.93173390825723 0 0 0 0 -0.07025974234627895 -0.65357319188556673 0 -0.65357319188556673 -8.9257654697214477 0 0 0 0 -29.213455505434013 -220.15289891438715 0 -220.15289891438715 -171.39455989456837 0 0 0 0 139.16377521777213 -100.38803024378012 0 -100.38803024378012 -129.12121431432024 0 0 0 0 93.583848441806367 -100.69575036641254 0 -100.69575036641254 -41.96735978161405 0 0 0 0 7.2996133546123758 -67.121899221263035 0 -67.121899221263035 82.181426916007695 0 0 0 0 119.06867630874375 19.917808736153713 0 19.917808736153713 -86.46928912907606 0 0 0 0 -138.30149823858028 -81.375902428202608 0 -81.375902428202608 24.593060236435122 0 0 0 0 -211.76498970083861 -140.78014136516418 0 -140.78014136516418 -7.3098600740286201 0 0 0 0 -0.022301097346649652 -0.67112635466740755 0 -0.67112635466740755 -3.2675839534932649 0 0 0 0 110.82581772059666 -46.479689041240817 0 -46.479689041240817 -259.79578824841337 0 0 0 0 1.3363551191599186 -1.5469306287012614 0 -1.5469306287012614 -0.010076247668621363 0 0 0 0 37.853460949856526 118.44977230819495 0 118.44977230819495 -148.94754523916436 0 0 0 0 1.1184334815134651 -0.12927656344318095 0 -0.12927656344318095 0.18051279290441613 0 0 0 0 1.3360297345563481 -1.5494277426232657 0 -1.5494277426232657 0.00066420607981854118 0 0 0 0 -94.335199267180997 56.967319326084635 0 56.967319326084635 188.0410390069901 0 0 0 0 143.29472741819086 -182.68089175301247 0 -182.68089175301247 -175.43429214342541 0 0 0 0 110.86995799853548 -44.46508918431573 0 -44.46508918431573 -221.10658169590602 0 0 0 0 110.11258168632548 -50.165812182468471 0 -50.165812182468471 -100.29149832183248 0 0 0 0 65.760332561631003 -174.95931167305571 0 -174.95931167305571 0.1864860118857905 0 0 0 0 14.758581977666836 -127.23623844514577 0 -127.23623844514577 -0.077405033736795303 0 0 0 0 39.249942116743568 -131.05397854036937 0 -131.05397854036937 -70.848775764441598 0 0 0 0 24.546934278314893 -72.67112142343376 0 -72.67112142343376 -65.839630689069963 0 0 0 0 37.936586824505866 -79.307028786957744 0 -79.307028786957744 -72.053750717841382 0 0 0 0 -17.029824230607119 -65.499070069304253 0 -65.499070069304253 -62.410202389253755 0 0 0 0 21.297288348690472 -13.976358731769324 0 -13.976358731769324 -113.5369320145528 0 0 0 0 -47.812943909067144 -61.8792813118298 0 -61.8792813118298 312.77724157873308 0 0 0 0 1.28751169765928 -1.3361346597218429 0 -1.3361346597218429 0.44979644823291309 0 0 0 0 92.193237699303353 -58.121262056696196 0 -58.121262056696196 -193.83476193353999 0 0 0 0 3.8132112026835543 -2.7584789558893341 0 -2.7584789558893341 0.70733256147759249 0 0 0 0 -0.16314652692517484 -55.534877245334428 0 -55.534877245334428 70.404762487472908 0 0 0 0 12.458247935725012 -61.792375442254524 0 -61.792375442254524 -139.15674547378603 0 0 0 0 4.5863156271292809 -2.6448490527836057 0 -2.6448490527836057 0.51829152843624193 0 0 0 0 163.67414015798749 -154.36814384052468 0 -154.36814384052468 -212.61305190081112 0 0 0 0 11.955239049120337 -79.407317081098427 0 -79.407317081098427 2.9204695050575538 0 0 0 0 -21.127309183618763 -46.25487550767275 0 -46.25487550767275 -20.115943727698323 0 0 0 0 -8.9993896870910248 -90.087198608780454 0 -90.087198608780454 -3.9999584388060612 0 0 0 0 21.373699127051168 -127.77853035047974 0 -127.77853035047974 -9.0620267527137912 0 0 0 0 25.395070828306871 -121.40881342850571 0 -121.40881342850571 0.035904716525692493 0 0 0 0 17.621261526979652 -97.217090758234008 0 -97.217090758234008 -25.567622746610482 0 0 0 0 3.9928321677962231 -103.65104877103181 0 -103.65104877103181 55.120657091742032 0 0 0 0 82.232267956394935 -166.2359272517524 0 -166.2359272517524 26.774136106610058 0 0 0 0 107.30452060551079 -137.77901520675164 0 -137.77901520675164 0.056055734057736117 0 0 0 0 127.43051709593328 -161.44152342286452 0 -161.44152342286452 26.004780037458659 0 0 0 0 211.56422186865268 -193.91720942789152 0 -193.91720942789152 35.87237007920703 0 0 0 0 2.0896972325348813 -1.1354600433425581 0 -1.1354600433425581 0.25922185502387585 0 0 0 0 44.071566673012967 -164.65825193189539 0 -164.65825193189539 273.54387017531371 0 0 0 0 17.66315980087893 -73.363127860833629 0 -73.363127860833629 8.7434079064241814 0 0 0 0 -43.204018873021596 4.9114841259311106 0 4.9114841259311106 5.0899380059672694 0 0 0 0 174.10779399062585 -85.209277820021782 0 -85.209277820021782 -102.21726258049603 0 0 0 0 97.748263189374484 30.669038626574547 0 30.669038626574547 -269.55281614025898 0 0 0 0 23.382313284017073 -81.71288452024055 0 -81.71288452024055 -67.97901052706311 0 0 0 0 159.76240402152871 -41.921638536659884 0 -41.921638536659884 -61.331944620260401 0 0 0 0 23.455330967253758 -6.7442653316884389 0 -6.7442653316884389 -5.0927276941420132 0 0 0 0 79.043612920584565 5.1702280474282816 0 5.1702280474282816 -107.275215010377 0 0 0 0 36.889958448086809 -65.193124402856867 0 -65.193124402856867 -164.73616253849104 0 0 0 0 36.809267316459326 -22.285540379242565 0 -22.285540379242565 -71.933088760335522 0 0 0 0 126.23245250666866 -127.56073076934354 0 -127.56073076934354 -157.78572215377972 0 0 0 0 89.245504016442283 -178.97398911171058 0 -178.97398911171058 -130.77123690909957 0 0 0 0 -109.61876608059129 -120.69707732568349 0 -120.69707732568349 -19.172310586040112 0 0 0 0 -104.0530057169664 23.736838159156392 0 23.736838159156392 -26.226885544469042 0 0 0 0 -24.750681315583847 -28.769167420089616 0 -28.769167420089616 -172.87171128965565 0 0 0 0 -108.58037790335948 -132.89775644427664 0 -132.89775644427664 -122.0613794697656 0 0 0 0 -244.61108109218924 -65.758531155846072 0 -65.758531155846072 5.0893824105860404 0 0 0 0 -225.15042021784805 39.526057465272288 0 39.526057465272288 21.494009175941756 0 0 0 0 -1.0103689664092905 -1.431248165648265 0 -1.431248165648265 -1.7586231464309137 0 0 0 0 209.32325377491907 -138.17058553963579 0 -138.17058553963579 -117.07809120858201 0 0 0 0 -159.70011950854314 27.93808306892879 0 27.93808306892879 37.806828106391549 0 0 0 0 -17.33182515243152 14.708710671417066 0 14.708710671417066 24.074929350201273 0 0 0 0 -73.228290728677962 -28.038896552565348 0 -28.038896552565348 13.179448443382171 0 0 0 0 -81.672735703745559 -37.624047845496534 0 -37.624047845496534 11.073407814586972 0 0 0 0 -102.59185626832931 -46.711656062329894 0 -46.711656062329894 21.019747171547351 0 0 0 0 -0.36502133447539675 0.064563921196972629 0 0.064563921196972629 0.23847334032345913 0 0 0 0 -86.069665472057068 -74.940430881502834 0 -74.940430881502834 -15.975931327035141 0 0 0 0 -29.880599291583252 29.145382286616723 0 29.145382286616723 18.645162521950624 0 0 0 0 -84.085212810218991 -41.54663129929304 0 -41.54663129929304 1.793152746690339 0 0 0 0 -3.1637684261917656 -3.8403549383463851 0 -3.8403549383463851 -3.1370566134838 0 0 0 0 -12.58860743509058 -14.113861391822866 0 -14.113861391822866 -43.411089771187108 0 0 0 0 267.43278588570547 -191.85394030383759 0 -191.85394030383759 54.457328402730127 0 0 0 0 165.37935540036392 -3.9510319882947442 0 -3.9510319882947442 63.514923574621207 0 0 0 0 84.829112314864233 -74.962645954690743 0 -74.962645954690743 150.6156225860359 0 0 0 0 98.475810543786338 -85.335497283074801 0 -85.335497283074801 104.46658696784652 0 0 0 0 45.63919479385504 -43.540757881137324 0 -43.540757881137324 52.491155411782529 0 0 0 0 118.60584451811195 -16.142452226423075 0 -16.142452226423075 -27.449476920997768 0 0 0 0 24.168067191237697 -65.805283957374741 0 -65.805283957374741 143.426373638717 0 0 0 0 236.2237788740224 -42.634391388075983 0 -42.634391388075983 -26.420089143575751 0 0 0 0 -44.309649860747868 -194.5277403322043 0 -194.5277403322043 -45.184600306300126 0 0 0 0 49.334575157855852 -115.02504603447142 0 -115.02504603447142 -526.82280884585271 0 0 0 0 -55.590605023030093 46.700964809645484 0 46.700964809645484 -119.1102896912962 0 0 0 0 -52.885186188625994 -74.971847455324678 0 -74.971847455324678 15.344741769031316 0 0 0 0 32.594118106214864 13.479213362154951 0 13.479213362154951 -80.909787774560527 0 0 0 0 -82.131083861564548 -16.256139073289432 0 -16.256139073289432 -1.1299361310066161 0 0 0 0 -11.470982789005575 -45.718910194037562 0 -45.718910194037562 -175.48826435086448 0 0 0 0 96.571346704989992 -60.435102890800408 0 -60.435102890800408 -450.16188032365221 0 0 0 0 39.915090628066991 -148.65901004130501 0 -148.65901004130501 -245.3400126820452 0 0 0 0 37.032032655314651 -15.547534530476696 0 -15.547534530476696 -193.1007238089619 0 0 0 0 1.1320452280470619 -0.88355363961199274 0 -0.88355363961199274 0.74038753512020605 0 0 0 0 -39.547782553167963 -6.6806564497774161 0 -6.6806564497774161 68.427842076497654 0 0 0 0 -57.433218897601364 -3.9817833765355317 0 -3.9817833765355317 107.09341598825631 0 0 0 0 23.373015787486565 17.495837267434581 0 17.495837267434581 11.905261630618043 0 0 0 0 46.436336000261008 -81.856301733411328 0 -81.856301733411328 -34.836037221868537 0 0 0 0 4.4275628616223912 -50.111720273662286 0 -50.111720273662286 -54.066189280210892 0 0 0 0 11.851784201401642 -75.609496556758131 0 -75.609496556758131 -72.575167742622853 0 0 0 0 25.229562897222877 -56.501794472834035 0 -56.501794472834035 -139.95246162194599 0 0 0 0 -272.00620874113429 -3.8691479444623837 0 -3.8691479444623837 22.783752776093252 0 0 0 0 -14.212342034791163 -146.8581853257474 0 -146.8581853257474 -251.11785405202681 0 0 0 0 12.918630311335164 -18.332322601742817 0 -18.332322601742817 -6.0891075663771517 0 0 0 0 25.246609325684176 -18.860641741068775 0 -18.860641741068775 -72.916467872633802 0 0 0 0 5.646960087633488 -47.041674661530124 0 -47.041674661530124 -72.235650975642784 0 0 0 0 28.73715391697624 -40.156466742755583 0 -40.156466742755583 -72.595252882512 0 0 0 0 31.266530118853098 -31.146458377217073 0 -31.146458377217073 -94.631303714504611 0 0 0 0 30.293686526985766 -43.100892398581891 0 -43.100892398581891 -100.35794935940339 0 0 0 0 3.5551669667321733 -26.372784459406489 0 -26.372784459406489 -42.070801245650728 0 0 0 0 22.291810116051238 -11.81157544877999 0 -11.81157544877999 -62.978982308983177 0 0 0 0 21.912760748731216 -14.617157310911352 0 -14.617157310911352 -82.377741300814705 0 0 0 0 9.0186422730544109 -26.122589840128967 0 -26.122589840128967 -13.246875553544669 0 0 0 0 8.074130548451194 -15.102722998611171 0 -15.102722998611171 -43.493696905117758 0 0 0 0 3.5738368793686277 -26.343036053559445 0 -26.343036053559445 -51.755643256545227 0 0 0 0 2.0156808912188353 -12.623754756345988 0 -12.623754756345988 -32.224150706308137 0 0 0 0 -6.8546972348412964 -27.649856544865543 0 -27.649856544865543 -37.249576493150471 0 0 0 0 31.771241630838631 29.84767740935149 0 29.84767740935149 -142.75680555995177 0 0 0 0 -0.41370764592762366 -0.62843128524190561 0 -0.62843128524190561 -4.47559153624087 0 0 0 0 -252.13108103835566 -163.65365736013291 0 -163.65365736013291 19.370343490147206 0 0 0 0 29.390209942273941 14.411293435850894 0 14.411293435850894 -133.75225146654293 0 0 0 0 16.532636190035646 17.754239428083793 0 17.754239428083793 -40.052188242125339 0 0 0 0 4.6815863632265149 -11.285474392222902 0 -11.285474392222902 0.73380599604206509 0 0 0 0 5.0165544035062339 2.2814387292928586 0 2.2814387292928586 -54.202327172398782 0 0 0 0 22.021277577539422 -18.613506852608225 0 -18.613506852608225 -11.170236242454848 0 0 0 0 1.1780389512953851 -2.1541925218330578 0 -2.1541925218330578 -12.150276341802993 0 0 0 0 67.957146252225357 -34.156357492326151 0 -34.156357492326151 -118.59794381083157 0 0 0 0 -0.85585378285691149 -13.991731958432865 0 -13.991731958432865 6.6604212362144608 0 0 0 0 5.9318728781008758 -21.719323194353819 0 -21.719323194353819 -0.83583018843410173 0 0 0 0 14.752881632388835 -10.467628774021705 0 -10.467628774021705 -20.124720819972936 0 0 0 0 3.6423735873663201 -8.4208507985007177 0 -8.4208507985007177 1.9183331559651435 0 0 0 0 1.9283973877809615 -8.5663768343867446 0 -8.5663768343867446 0.00063839982431090903 0 0 0 0 3.4659444595831701 -8.6317025227799604 0 -8.6317025227799604 -0.1073625253834507 0 0 0 0 12.004683059738454 83.837384931550332 0 83.837384931550332 156.67708744317497 0 0 0 0 3.6877132744430128 -5.736991246449179 0 -5.736991246449179 -1.6794567527867912 0 0 0 0 3.8870437352589846 -0.95558342373906768 0 -0.95558342373906768 -2.6801647079237334 0 0 0 0 2.5098802204927582 -3.3310508142124284 0 -3.3310508142124284 0.37405002357721884 0 0 0 0 0.2968890245712057 -0.44731098265075886 0 -0.44731098265075886 -0.13617414139711359 0 0 0 0 1.6284650897000574 -15.451398019040425 0 -15.451398019040425 -37.90148270397367 0 0 0 0 -5.7112623974981034 8.2949786872359255 0 8.2949786872359255 52.149210496580054 0 0 0 0 9.1845913993914223 -32.950884434021759 0 -32.950884434021759 16.342330516938091 0 0 0 0 2.5986993265914862 -1.3847340248858018 0 -1.3847340248858018 -1.5445581798749117 0 0 0 0 3.3172937430010165 -9.3139512139423459 0 -9.3139512139423459 -1.2785950527359091 0 0 0 0 2.5839422599310637 -10.426191246941016 0 -10.426191246941016 -1.8554563018406043 0 0 0 0 3.6542494944623076 -8.4758727910635301 0 -8.4758727910635301 3.2433818650419113 0 0 0 0 1.7801055285056009 -10.028149220594969 0 -10.028149220594969 -0.00081661557123879902 0 0 0 0 1.4250633973983895 -10.764451918790655 0 -10.764451918790655 -0.65253768472757656 0 0 0 0 2.086051121672881 -8.5772777087795475 0 -8.5772777087795475 -1.7229607366225537 0 0 0 0 1.1216985852319197 -1.1745439266974955 0 -1.1745439266974955 0.31864809636993385 0 0 0 0 12.932341406818068 -12.675254715722986 0 -12.675254715722986 -3.6680145365426142 0 0 0 0 7.4153424358596567 -11.795063508201565 0 -11.795063508201565 -0.0040216343022621004 0 0 0 0 -1.2383682781305652 -3.3295265382398611 0 -3.3295265382398611 30.357097716373573 0 0 0 0 0.12517653456694688 -4.0245436176653584 0 -4.0245436176653584 -1.7475913330417825 0 0 0 0 2.3271797065799698 -13.357663356410665 0 -13.357663356410665 8.1996263122679096 0 0 0 0 9.222094482866396 -10.354029738631652 0 -10.354029738631652 -4.6054382558631914 0 0 0 0 -7.3439680599594794 -6.9356317300225783 0 -6.9356317300225783 3.322747160554286 0 0 0 0 1.1209529174587836 -1.0726142484792724 0 -1.0726142484792724 0.72265104538982872 0 0 0 0 3.3821545289648665 -8.2278691866094995 0 -8.2278691866094995 3.4038689260496549 0 0 0 0 -1.2449276185707276 -21.261752151138353 0 -21.261752151138353 25.371037869183965 0 0 0 0 -0.88027609672417384 -9.5078264344833769 0 -9.5078264344833769 -19.606964727225204 0 0 0 0 -0.42021668136459311 1.9064257135073603 0 1.9064257135073603 -11.703135400175597 0 0 0 0 -11.018802796442287 -13.768032633975963 0 -13.768032633975963 -16.303182853623184 0 0 0 0 0.42756054227263185 -1.5669664968886998 0 -1.5669664968886998 -2.0700955243632961 0 0 0 0 59.774153929716135 -51.348235319747573 0 -51.348235319747573 23.807892311680916 0 0 0 0 -0.98764191073632901 -12.361208848472415 0 -12.361208848472415 -10.213106265699935 0 0 0 0 0.07501409932303349 0.12151902114118407 0 0.12151902114118407 -1.1874590469571729 0 0 0 0 186.00436747908202 -81.686982209984762 0 -81.686982209984762 -124.32038107937933 0 0 0 0 -108.94363329294788 -94.1941198255995 0 -94.1941198255995 -63.0787955544738 0 0 0 0 -16.267080547265323 -58.229159282192995 0 -58.229159282192995 -71.419127151633802 0 0 0 0 -21.657178079978166 -30.531050652340127 0 -30.531050652340127 -17.037104482475115 0 0 0 0 -36.589529361410541 -37.090566047921584 0 -37.090566047921584 25.71135911721467 0 0 0 0 39.958391645026381 -21.923391034421456 0 -21.923391034421456 28.579218072154617 0 0 0 0 -25.345833706094254 -43.409538035168225 0 -43.409538035168225 51.393799198165652 0 0 0 0 12.296422464901752 -64.326223926295825 0 -64.326223926295825 42.020515133995104 0 0 0 0 10.268308560636342 -44.986085403254037 0 -44.986085403254037 51.252871720021858 0 0 0 0 1.3012752042109241 -22.339232078795249 0 -22.339232078795249 50.81810695741126 0 0 0 0 -26.429745479133196 -19.098391199781645 0 -19.098391199781645 50.528327849853667 0 0 0 0 9.7143680339861476 -26.868843219544942 0 -26.868843219544942 44.980482593246961 0 0 0 0 -10.186211905173536 -15.427199542055405 0 -15.427199542055405 50.895673123422966 0 0 0 0 -1.7514512730751655 -13.809046102464436 0 -13.809046102464436 8.6289413557369699 0 0 0 0 2.7674457513125192 -9.4944140219791358 0 -9.4944140219791358 0.14808520021445482 0 0 0 0 5.7033972150326235 -7.0317721092269494 0 -7.0317721092269494 8.0223062418790505 0 0 0 0 0.12273712537305403 -4.5111956704450051 0 -4.5111956704450051 1.6185157756144533 0 0 0 0 19.735501527673023 -13.416214512873012 0 -13.416214512873012 10.896349434675358 0 0 0 0 0.18199105010631556 -0.050961756309476414 0 -0.050961756309476414 -3.8153635865257813 0 0 0 0 -3.2931107916822384 -35.85286059872692 0 -35.85286059872692 59.05221502247332 0 0 0 0 2.4338909005338918 -7.0147359582610349 0 -7.0147359582610349 -2.6791470767107306 0 0 0 0 1.464331539850221 -14.339213017230577 0 -14.339213017230577 0.0075735059617727529 0 0 0 0 -8.6213148651498841 -12.946524672334817 0 -12.946524672334817 6.4346637573071348 0 0 0 0 3.8665465591083219 -10.955571473571581 0 -10.955571473571581 4.1880340653988242 0 0 0 0 4.6765595789932064 -11.327922601193677 0 -11.327922601193677 0.0012542656995885634 0 0 0 0 3.2906984050070491 -9.75987558181032 0 -9.75987558181032 0.00079019757322384976 0 0 0 0 3.8410290743600974 -10.933054776106019 0 -10.933054776106019 2.4953590982986498 0 0 0 0 2.8220771913449916 -9.2140702876023219 0 -9.2140702876023219 -1.0652648198281796 0 0 0 0 0.60652348229075415 -6.8370427195977754 0 -6.8370427195977754 50.448831584934851 0 0 0 0 3.1686041041114095 -9.5968729274864017 0 -9.5968729274864017 0.00092749113537138328 0 0 0 0 3.2258612026902256 -9.7203522789436647 0 -9.7203522789436647 0.24567911526355601 0 0 0 0 1.5748285365556285 -6.1054017889809984 0 -6.1054017889809984 35.960393055278246 0 0 0 0 3.0030271086641811 -9.1242590326544786 0 -9.1242590326544786 -0.86156496264782811 0 0 0 0 3.0389293380222959 -3.7495167694551128 0 -3.7495167694551128 31.560726257082933 0 0 0 0 9.4744392642129469 -14.438868431871924 0 -14.438868431871924 13.909144796361943 0 0 0 0 15.423295585020583 -22.40950149938817 0 -22.40950149938817 37.961072503173909 0 0 0 0 3.715967667191876 10.107391181517926 0 10.107391181517926 12.385210260272288 0 0 0 0 0.91776326826868626 -30.325146630276322 0 -30.325146630276322 63.874818765454734 0 0 0 0 0.55134241987057386 0.1891215739789871 0 0.1891215739789871 -0.45273523850035957 0 0 0 0 2.9383874562735524 7.1652159199394418 0 7.1652159199394418 42.606533023992597 0 0 0 0 0.81298691397589717 -0.51013046984701305 0 -0.51013046984701305 0.14991938647104774 0 0 0 0 33.655040884911216 -9.601014589053193 0 -9.601014589053193 -10.841988093166037 0 0 0 0 -14.908196174898585 2.4033274556795732 0 2.4033274556795732 51.295561699180325 0 0 0 0 -10.625989615562162 2.4676959531307148 0 2.4676959531307148 58.940899800596526 0 0 0 0 -2.9130962618696117 14.083640094253951 0 14.083640094253951 23.384439203102374 0 0 0 0 5.0949335618776104 -2.9426317362040209 0 -2.9426317362040209 44.618244491539826 0 0 0 0 -2.3678748782335504 -2.8568306113561448 0 -2.8568306113561448 45.399655517114297 0 0 0 0 1.9991321926548657 -9.6190085140788142 0 -9.6190085140788142 44.647225499968044 0 0 0 0 4.5750030095333614 -5.6747544151576221 0 -5.6747544151576221 41.44286444572117 0 0 0 0 -1.2929948565094946 7.2996716836842097 0 7.2996716836842097 13.583642855440303 0 0 0 0 0.14123777809517024 -0.43171944373585802 0 -0.43171944373585802 0.2814329491930998 0 0 0 0 -7.1089105209278074 -10.894990155434698 0 -10.894990155434698 39.528865669642983 0 0 0 0 10.697972593175564 -13.706044667701917 0 -13.706044667701917 -49.760193619375059 0 0 0 0 -47.224518284088845 3.3897740530719602 0 3.3897740530719602 58.763818282368447 0 0 0 0 -32.888404484708758 -4.5086296063645932 0 -4.5086296063645932 -41.65868658643285 0 0 0 0 -9.9680423230569772 -47.16204298476805 0 -47.16204298476805 -107.7058881341718 0 0 0 0 -76.73089426516141 -58.986458814496928 0 -58.986458814496928 -27.703515148201404 0 0 0 0 -12.269595350546847 -26.240094079807307 0 -26.240094079807307 -32.370195223400515 0 0 0 0 6.1457962161326805 -27.903069597860849 0 -27.903069597860849 -41.387024462146655 0 0 0 0 3.8052601222195612 18.294479996576001 0 18.294479996576001 -20.152337820789398 0 0 0 0 15.974512149570117 -12.27339680726709 0 -12.27339680726709 -59.068620917278167 0 0 0 0 8.0305804738585138 4.3290593697020086 0 4.3290593697020086 -30.158662241736238 0 0 0 0 5.9432542100238983 0.13548888072909904 0 0.13548888072909904 -8.6813935861018763 0 0 0 0 10.541049151134601 -10.667163766780504 0 -10.667163766780504 -21.937272249828311 0 0 0 0 0.60555936625831919 -5.2543253665244265 0 -5.2543253665244265 -13.775927001441232 0 0 0 0 6.2284352032632455 -15.728319144442139 0 -15.728319144442139 -10.260045543615433 0 0 0 0 1.3148816726623238 -8.7633920430416765 0 -8.7633920430416765 -0.40547552927091601 0 0 0 0 0.79419417995417185 -0.82171972996907172 0 -0.82171972996907172 1.7585239050570056 0 0 0 0 -49.21282015934321 -10.735422430468134 0 -10.735422430468134 8.6749240844656015 0 0 0 0 -1.0321038698002667 -18.095546330816887 0 -18.095546330816887 7.4094543370520114 0 0 0 0 -6.5304778404828596 -48.843273536348988 0 -48.843273536348988 37.998056273116163 0 0 0 0 8.4233955195031314 -12.399545617327931 0 -12.399545617327931 -22.09576542330251 0 0 0 0 22.614085828849952 -28.559253976153741 0 -28.559253976153741 -21.846608114418629 0 0 0 0 6.1488413284721481 -27.52246874993719 0 -27.52246874993719 -8.4681269576776685 0 0 0 0 0.69610920482728034 -36.446200800191946 0 -36.446200800191946 -8.0866596192645375 0 0 0 0 33.018287276665063 -49.352016579212432 0 -49.352016579212432 -16.235032255635815 0 0 0 0 88.933505532311813 -126.47339017920058 0 -126.47339017920058 46.74695501376641 0 0 0 0 27.236051043599673 -59.967586964666225 0 -59.967586964666225 -24.094120439767721 0 0 0 0 158.73081534977092 -142.63869933910701 0 -142.63869933910701 -70.512289803833482 0 0 0 0 220.80334684572199 6.8790313308300028 0 6.8790313308300028 -56.252227685465186 0 0 0 0 132.49671850176168 -62.598292159708961 0 -62.598292159708961 -97.723064442983741 0 0 0 0 132.38793871922661 -56.091343547557699 0 -56.091343547557699 -26.476744485779818 0 0 0 0 19.07269247926881 -53.464139105533377 0 -53.464139105533377 -11.672248321918232 0 0 0 0 44.553207091254485 -23.783878888459185 0 -23.783878888459185 -1.8676228631884442 0 0 0 0 -31.052019389706437 -43.526703302251576 0 -43.526703302251576 -0.33360639908460143 0 0 0 0 -31.209463396441549 -41.57299872213207 0 -41.57299872213207 0.48555344641226839 0 0 0 0 -68.741314390118987 -52.564487566596654 0 -52.564487566596654 -0.55575949563717586 0 0 0 0 -81.253727955477757 -70.100032231696787 0 -70.100032231696787 -11.134898413081828 0 0 0 0 -52.716716607996091 -58.628150609220029 0 -58.628150609220029 -29.804967926062091 0 0 0 0 -38.02910230891149 -38.676832905850461 0 -38.676832905850461 -15.297239478062693 0 0 0 0 -20.493843669024386 -56.292447785982404 0 -56.292447785982404 -21.729514066163574 0 0 0 0 5.1329903388268017 -23.332234939756745 0 -23.332234939756745 22.717911027977607 0 0 0 0 34.294326691979052 7.6847759115726149 0 7.6847759115726149 -6.8663650475546092 0 0 0 0 5.614617638942514 -9.5293483552369214 0 -9.5293483552369214 11.777705384639866 0 0 0 0 10.218328550870638 -14.970921782534333 0 -14.970921782534333 -16.701497469837705 0 0 0 0 5.1958004885570972 -18.016198449507101 0 -18.016198449507101 12.719410103556584 0 0 0 0 2.8053218401225841 -1.5872325144004993 0 -1.5872325144004993 -3.3584872720309846 0 0 0 0 -26.013357023753542 96.622439319264231 0 96.622439319264231 -131.76214251020247 0 0 0 0 -19.638397109647997 -51.419361675689288 0 -51.419361675689288 -267.79143803213992 0 0 0 0 44.620852039187469 17.133915723232349 0 17.133915723232349 -269.64498169887065 0 0 0 0 41.526454579635981 -32.331011791620767 0 -32.331011791620767 24.723360409719589 0 0 0 0 -0.31474206539157767 -1.9462521139616094 0 -1.9462521139616094 1.2592184480815138 0 0 0 0 114.2502609848184 -109.20271302738274 0 -109.20271302738274 -111.77569249923272 0 0 0 0 0.25955114611965735 -0.021882170738536821 0 -0.021882170738536821 -0.98342943885912604 0 0 0 0 151.67751801637149 -79.838496471870258 0 -79.838496471870258 -159.90224943402427 0 0 0 0 125.74974910719163 -101.46336364455328 0 -101.46336364455328 -136.70081132770747 0 0 0 0 103.02807538152555 -43.773733882222132 0 -43.773733882222132 32.467703390946554 0 0 0 0 188.0834898166861 -104.62094115605032 0 -104.62094115605032 -141.65432750092532 0 0 0 0 136.32973452366068 -62.769138569571624 0 -62.769138569571624 -21.720374023534532 0 0 0 0 219.77322484845172 -74.618179213823169 0 -74.618179213823169 -26.834988372763746 0 0 0 0 156.76658311135827 -174.16784966992236 0 -174.16784966992236 131.87563343589045 0 0 0 0 85.988514936086204 -9.3766509262195541 0 -9.3766509262195541 -1.6006782736294554 0 0 0 0 198.74485540033251 27.235079578087266 0 27.235079578087266 -30.224220424444866 0 0 0 0 165.56050690525603 -80.917869009690321 0 -80.917869009690321 29.902541892923182 0 0 0 0 583.06754939430812 -212.79408651686936 0 -212.79408651686936 2.8825276430507074 0 0 0 0 309.90580637152607 -105.00936158852528 0 -105.00936158852528 -38.490693787560303 0 0 0 0 0.12138364050216754 -0.06384509576975006 0 -0.06384509576975006 1.022479819034082 0 0 0 0 331.33272467550057 -217.43559320647455 0 -217.43559320647455 49.906415078884493 0 0 0 0 259.74100308775297 -195.82145121113217 0 -195.82145121113217 81.804519233301107 0 0 0 0 -10.931578263506367 -9.766603311205472 0 -9.766603311205472 0.42093078539073758 0 0 0 0 0.90064053935373134 -0.52947341942093296 0 -0.52947341942093296 3.0562077226820534 0 0 0 0 79.045650388832428 -83.7400493810228 0 -83.7400493810228 135.07814029478959 0 0 0 0 698.83816854842098 9.007409165145873 0 9.007409165145873 -230.22629079039143 0 0 0 0 399.47806178505095 505.69823719606939 0 505.69823719606939 118.45072194057138 0 0 0 0 212.50579028877735 -268.99515591245108 0 -268.99515591245108 321.22901350328902 0 0 0 0 3.257213006618378 -1.2631574083100041 0 -1.2631574083100041 1.382388048055196 0 0 0 0 740.67553512192353 70.031613769555406 0 70.031613769555406 -387.99236585353356 0 0 0 0 977.30930162360937 -275.23236673558131 0 -275.23236673558131 33.893960570170293 0 0 0 0 -67.964493112588571 18.664924979502757 0 18.664924979502757 57.536629801856179 0 0 0 0 -7.3200819356770808 -41.256443127251259 0 -41.256443127251259 21.743951422466125 0 0 0 0 -1.1166070756507906 -26.683292658790378 0 -26.683292658790378 8.4829864018829539 0 0 0 0 16.807529901831003 -34.32947007302937 0 -34.32947007302937 -59.580794887602679 0 0 0 0 5.5750212855705286 -18.403516311720523 0 -18.403516311720523 -103.64020678297311 0 0 0 0 -34.43107244322772 -54.793560747577089 0 -54.793560747577089 -23.443363225989742 0 0 0 0 4.400488443063467 -6.9306700598756787 0 -6.9306700598756787 10.763622978142344 0 0 0 0 -6.6994475625799419 -51.84379154825956 0 -51.84379154825956 67.131557581391462 0 0 0 0 -31.406264729800569 -85.682530607788067 0 -85.682530607788067 -54.509822096895732 0 0 0 0 38.152204551348404 -36.297102509562137 0 -36.297102509562137 -42.576878572985152 0 0 0 0 -3.0155492309795591 -27.591829274908378 0 -27.591829274908378 -19.078315805588318 0 0 0 0 11.205714277143898 -31.878763453189549 0 -31.878763453189549 -20.338493291310442 0 0 0 0 18.53053777389141 -49.962171468408997 0 -49.962171468408997 -11.083205219092633 0 0 0 0 39.622908760504515 -50.371283781068996 0 -50.371283781068996 -43.223856987828185 0 0 0 0 25.971305796966135 -107.90498771346665 0 -107.90498771346665 38.407992755532177 0 0 0 0 25.449193738515305 -64.788978124453479 0 -64.788978124453479 19.842624556433293 0 0 0 0 19.551660879941664 -92.319344121928225 0 -92.319344121928225 9.2029902359099651 0 0 0 0 5.3511654301632916 -105.52503157477076 0 -105.52503157477076 77.383072562388406 0 0 0 0 -10.459107098698951 -86.806791201479427 0 -86.806791201479427 56.040274509239225 0 0 0 0 -7.8870986164629358 -43.68436779539843 0 -43.68436779539843 61.923940452601528 0 0 0 0 -24.220214673362534 -110.26239096711106 0 -110.26239096711106 185.42985435025548 0 0 0 0 -62.339405185515602 -54.766810586167367 0 -54.766810586167367 270.80117330802022 0 0 0 0 -57.264950773460441 -29.245060840779843 0 -29.245060840779843 81.380037364004238 0 0 0 0 -5.6261299027103178 -199.75400933548372 0 -199.75400933548372 219.6236181925924 0 0 0 0 -13.313760050252768 -167.98491006651511 0 -167.98491006651511 94.913584595218708 0 0 0 0 43.694587639216479 -171.07559220081748 0 -171.07559220081748 93.646253914416775 0 0 0 0 23.953939777604774 -140.7943624779673 0 -140.7943624779673 58.48872988426956 0 0 0 0 81.062560269793153 -253.55074657518662 0 -253.55074657518662 96.285492196027917 0 0 0 0 62.06579719841011 -178.33045744322408 0 -178.33045744322408 45.42327301912519 0 0 0 0 74.27685453842787 -165.29608913683842 0 -165.29608913683842 32.957837470192317 0 0 0 0 142.72428331620586 -147.92712722451097 0 -147.92712722451097 -136.45529535329842 0 0 0 0 143.32830403797999 -156.8964064942852 0 -156.8964064942852 -3.4154458508346579 0 0 0 0 76.36104376283339 -139.86659314806548 0 -139.86659314806548 48.820573293767666 0 0 0 0 35.245083696464462 -122.1222931043194 0 -122.1222931043194 41.762215235296026 0 0 0 0 28.979532525664126 -125.2087273653533 0 -125.2087273653533 36.267342453098536 0 0 0 0 33.92113944808716 -125.56367788884745 0 -125.56367788884745 56.570353594353946 0 0 0 0 20.525570033652002 -125.64676465490447 0 -125.64676465490447 57.468845966845038 0 0 0 0 30.799181747033344 -132.83542279040466 0 -132.83542279040466 54.683556198739097 0 0 0 0 172.56819877971702 81.868910329829305 0 81.868910329829305 801.26445691296976 0 0 0 0 -0.90796394433476801 -1.6476591132206271 0 -1.6476591132206271 10.594236144906262 0 0 0 0 -8.8895480979984427 9.3612420559281873 0 9.3612420559281873 19.924144155547765 0 0 0 0 1.490477330264298 1.4598987934641627 0 1.4598987934641627 -5.7175933921457727 0 0 0 0 2.7438083663827961 -3.3242120771522767 0 -3.3242120771522767 4.1279182081464825 0 0 0 0 -76.95687601724967 -36.175126028012528 0 -36.175126028012528 342.88772420769601 0 0 0 0 423.5612614763877 -671.65411541794128 0 -671.65411541794128 -54.482741255797009 0 0 0 0 691.03453969701059 144.59101744467989 0 144.59101744467989 -330.81421941180724 0 0 0 0 -8.131947743222554 -416.85912802711937 0 -416.85912802711937 606.17002315056379 0 0 0 0 -45.381015331537583 -266.69786051860956 0 -266.69786051860956 106.91404810363747 0 0 0 0 85.36549936378151 -20.629947592437929 0 -20.629947592437929 -92.198962989315987 0 0 0 0 259.60098876277436 -176.15775817014287 0 -176.15775817014287 -450.17658412477977 0 0 0 0 229.65754315203139 -252.81026245872272 0 -252.81026245872272 -20.202959184833162 0 0 0 0 11.788092626547268 -0.23910618551872176 0 -0.23910618551872176 14.259415256266948 0 0 0 0 12.284679917176163 -2.1681371549184405 0 -2.1681371549184405 6.4908460674487287 0 0 0 0 1.2525538739155309 -5.2856621491328042 0 -5.2856621491328042 36.122232193951277 0 0 0 0 -2.6993221541868024 -15.263182988014705 0 -15.263182988014705 16.16568141071366 0 0 0 0 3.292224235305611 -8.9345552842711058 0 -8.9345552842711058 -1.2987972743337308 0 0 0 0 -2.7102315931555836 -5.7565659411650358 0 -5.7565659411650358 27.564544568418569 0 0 0 0 1.4835247775866627 -0.71577348084848502 0 -0.71577348084848502 2.922066224524734 0 0 0 0 -2.0121351260643223 -16.116653396340553 0 -16.116653396340553 32.500380000150471 0 0 0 0 93.891383945979669 -60.308776905854756 0 -60.308776905854756 45.0691726219884 0 0 0 0 -5.5013872646426876 -8.8541553028687758 0 -8.8541553028687758 27.354469083935328 0 0 0 0 -1.2065443588888574 -0.3351149443769823 0 -0.3351149443769823 13.792313309999919 0 0 0 0 17.606919486214338 -5.2837576644942601 0 -5.2837576644942601 6.3411639621044742 0 0 0 0 117.81211479754074 -63.096787132588361 0 -63.096787132588361 -79.521525311409277 0 0 0 0 5.3137525076940619 -4.3799085181262853 0 -4.3799085181262853 17.415039706316747 0 0 0 0 89.080281077408927 -97.809921769428911 0 -97.809921769428911 160.42678601768785 0 0 0 0 0.43928680371300999 -1.6485807962809567 0 -1.6485807962809567 3.1467883911371533 0 0 0 0 3.5935958155115846 -5.4437253872694313 0 -5.4437253872694313 4.93232165235439 0 0 0 0 1.0767339689664368 -5.1628434457961703 0 -5.1628434457961703 8.6505306963945259 0 0 0 0 2.0638993214187389 -5.6524258213194365 0 -5.6524258213194365 3.6847542361336849 0 0 0 0 -0.21741237766088473 -5.3607682428025063 0 -5.3607682428025063 8.0429377420205768 0 0 0 0 7.9591827264371204 -9.5607024747778269 0 -9.5607024747778269 -0.00012526756472652778 0 0 0 0 3.2495209231722129 -8.6839322707264728 0 -8.6839322707264728 1.1364448079430076 0 0 0 0 1.1649840076137465 -0.79684674892984653 0 -0.79684674892984653 0.39797495862366361 0 0 0 0 4.4130214939750658 -8.7475983695385366 0 -8.7475983695385366 -0.41330652338479013 0 0 0 0 20.993773718227658 -127.81020875119248 0 -127.81020875119248 67.552119149431746 0 0 0 0 10.088469349295337 -132.87341298229171 0 -132.87341298229171 67.100537187623559 0 0 0 0 84.613117702402633 -88.100440087386232 0 -88.100440087386232 65.074453926456044 0 0 0 0 88.177066717441448 -102.96804462796899 0 -102.96804462796899 -24.534267564419679 0 0 0 0 107.36249168281302 -64.521529473986448 0 -64.521529473986448 40.21411859489308 0 0 0 0 114.37973708499794 -77.377796849628794 0 -77.377796849628794 36.621239693894495 0 0 0 0 55.717451098311358 -56.062293821254571 0 -56.062293821254571 111.38150901851986 0 0 0 0 3.4954954173608712 -103.45802062731855 0 -103.45802062731855 72.85828414361049 0 0 0 0 1.8287002410429523 -8.0236282460482471 0 -8.0236282460482471 0.036195259111991618 0 0 0 0 -38.402348221126886 -109.16130465799142 0 -109.16130465799142 94.103668273721269 0 0 0 0 66.728261132415355 -58.722804453495883 0 -58.722804453495883 49.647630388141806 0 0 0 0 0.30217203030171369 -1.2239525926865369 0 -1.2239525926865369 0.22741201903049912 0 0 0 0 33.830606067477675 -161.38651457907145 0 -161.38651457907145 0.20181403224110955 0 0 0 0 -34.532088310955743 -158.75215095434197 0 -158.75215095434197 71.529725174052146 0 0 0 0 68.378423863010994 -122.36515998427967 0 -122.36515998427967 42.61624388290511 0 0 0 0 20.867270124569586 -128.63007255889136 0 -128.63007255889136 62.753118631622783 0 0 0 0 44.657800749617309 -135.83325456962302 0 -135.83325456962302 44.780678730045565 0 0 0 0 52.106294114203479 -102.33383893583914 0 -102.33383893583914 70.425364438386168 0 0 0 0 95.451819280707241 -117.97194670427598 0 -117.97194670427598 44.188134681604993 0 0 0 0 130.45365280582382 -122.77066725606801 0 -122.77066725606801 -0.019370263096789131 0 0 0 0 65.933542520678657 -115.40643552214874 0 -115.40643552214874 44.03111023706515 0 0 0 0 147.61181905208673 -98.896403149448815 0 -98.896403149448815 23.236468152241287 0 0 0 0 165.73439650929504 -107.79006350148848 0 -107.79006350148848 0.0069388751326187048 0 0 0 0 165.30600673136814 -112.83919117678488 0 -112.83919117678488 5.7896353310643462 0 0 0 0 66.801296673485922 -65.328367865217842 0 -65.328367865217842 46.084723663465411 0 0 0 0 162.71231292709899 -105.82679428755546 0 -105.82679428755546 36.782971571694361 0 0 0 0 139.12895510233466 -147.7620998063594 0 -147.7620998063594 135.20579115162946 0 0 0 0 -0.75730309872212409 -2.6323006131929292 0 -2.6323006131929292 -2.9101168760622045 0 0 0 0 213.59712019797826 -108.26705479719749 0 -108.26705479719749 24.353338429501491 0 0 0 0 122.53400026326835 -55.300564536913043 0 -55.300564536913043 95.390946366289427 0 0 0 0 56.40770685885127 -108.89753417405154 0 -108.89753417405154 126.64034511529371 0 0 0 0 186.49557843816046 -73.08328674564018 0 -73.08328674564018 -24.216619711951353 0 0 0 0 137.70508344419272 -155.09985708668091 0 -155.09985708668091 35.130037207160058 0 0 0 0 -0.067842951170011823 -3.9425871764430678 0 -3.9425871764430678 -9.264448853818152 0 0 0 0 77.238088361193149 28.662951414654344 0 28.662951414654344 2.7244660688849081 0 0 0 0 339.04501314064601 -29.575636529133135 0 -29.575636529133135 -448.19817045591299 0 0 0 0 1.4294726608365167 -1.1927501720523956 0 -1.1927501720523956 -2.4826031577135437 0 0 0 0 -124.18082273174878 275.09593619298448 0 275.09593619298448 -134.91367462462313 0 0 0 0 0.10589786257341327 -0.59189649820067824 0 -0.59189649820067824 -4.1509849634318456 0 0 0 0 -45.254809230569663 -138.84053405087252 0 -138.84053405087252 -75.944997375775529 0 0 0 0 110.05761653322679 -49.027353204599422 0 -49.027353204599422 -31.276692909340454 0 0 0 0 16.888379086316036 -126.14275891267243 0 -126.14275891267243 28.257714429553744 0 0 0 0 69.064565574770313 -152.34287443752146 0 -152.34287443752146 -97.777644377862316 0 0 0 0 41.461979777232955 -129.48857331048157 0 -129.48857331048157 20.949487779909759 0 0 0 0 57.633134544505992 -62.700833842482098 0 -62.700833842482098 -53.137794474347174 0 0 0 0 47.094392341866296 -119.24744668359381 0 -119.24744668359381 -30.545787382363415 0 0 0 0 45.144269478323395 -124.27317817007452 0 -124.27317817007452 21.353962201164904 0 0 0 0 28.62060569389314 -134.76860565188963 0 -134.76860565188963 59.28077826632034 0 0 0 0 49.449761127621059 -149.87082995926357 0 -149.87082995926357 71.170003144341194 0 0 0 0 167.13734640439361 59.403736218700942 0 59.403736218700942 -104.67581992527266 0 0 0 0 6.2721509868117344 -6.7602932532071236 0 -6.7602932532071236 -0.42916812434971741 0 0 0 0 4.8422933284673491 -7.126116995043958 0 -7.126116995043958 1.1193970392996562 0 0 0 0 5.5594307229230253 -8.2769454316376141 0 -8.2769454316376141 -0.0036172322834318038 0 0 0 0 1.1823763086172221 -5.158544994341355 0 -5.158544994341355 -1.7093414972641767 0 0 0 0 4.7827832690700234 -8.2582489687115412 0 -8.2582489687115412 -2.4130380074821005 0 0 0 0 2.2279286115159742 -3.0218238804532547 0 -3.0218238804532547 0.792930721832807 0 0 0 0 -0.1204799472261584 -3.8022522677920279 0 -3.8022522677920279 -5.226521851720463 0 0 0 0 -0.61262970648385817 -3.48221546151035 0 -3.48221546151035 -1.3917940798964992 0 0 0 0 -0.098895001366827273 -1.3583351226166869 0 -1.3583351226166869 2.0255965701286165 0 0 0 0 -1.9697671123790315 -6.8773805711753084 0 -6.8773805711753084 -0.00121652397683647 0 0 0 0 -0.28064682103013183 -4.0024098847898131 0 -4.0024098847898131 -1.7476332767255371 0 0 0 0 -5.1196260274300585 -4.3408334978157654 0 -4.3408334978157654 -1.4824258342378016 0 0 0 0 116.94836809948902 -66.885818453076354 0 -66.885818453076354 6.3901612175977789 0 0 0 0 250.31414568986656 -67.76285955327694 0 -67.76285955327694 -6.2363804147662449 0 0 0 0 0.056018568507624877 -4.5410450652771033 0 -4.5410450652771033 -1.6943475724183372 0 0 0 0 0.15115030655367612 -0.24454303695683421 0 -0.24454303695683421 0.18338966796700618 0 0 0 0 -0.35200648918726074 -1.3309697861877794 0 -1.3309697861877794 -0.0011440228881838266 0 0 0 0 -0.44483309708037133 -0.56838884224064401 0 -0.56838884224064401 -0.17392989015214866 0 0 0 0 -0.377086973386632 -1.2547375366232236 0 -1.2547375366232236 -2.2415718117966108 0 0 0 0 2.6542502682027589 -3.1525111897790339 0 -3.1525111897790339 -2.2624239305514493 0 0 0 0 0.63388762101840257 -4.4820771388203866 0 -4.4820771388203866 -3.1366530707146012 0 0 0 0 -545.09114868537563 30.875819594714812 0 30.875819594714812 260.26745436041256 0 0 0 0 -0.0028000690145262297 -4.3369420348172376 0 -4.3369420348172376 -2.3386082924295288 0 0 0 0 -0.19983287852323217 -0.043190401563388825 0 -0.043190401563388825 -5.7872052349059047 0 0 0 0 -123.38891680817596 -153.20680607979011 0 -153.20680607979011 -127.89220715160536 0 0 0 0 127.22913358323967 -0.093117545462519047 0 -0.093117545462519047 -152.49601528367566 0 0 0 0 7.5697867715234679 -48.871831887511689 0 -48.871831887511689 -166.76403116578012 0 0 0 0 48.159740274237265 -124.30367659177864 0 -124.30367659177864 -347.61758287412522 0 0 0 0 201.04592057402078 94.407584817090537 0 94.407584817090537 -323.82374618635947 0 0 0 0 0.22916444306549266 -3.6879887062054983 0 -3.6879887062054983 0.34158071254480271 0 0 0 0 63.145608138714124 85.784155054609073 0 85.784155054609073 -54.171617507241535 0 0 0 0 24.53436515160098 -100.32119667575222 0 -100.32119667575222 -161.31439788960051 0 0 0 0 90.01108619857041 21.02153869779977 0 21.02153869779977 -140.31978580092891 0 0 0 0 37.144729334366275 22.814740431362225 0 22.814740431362225 -139.87555845449424 0 0 0 0 152.08182015523926 6.3115789487328584 0 6.3115789487328584 -160.64497410195327 0 0 0 0 86.294064638031159 14.618629826077267 0 14.618629826077267 -151.19678234077946 0 0 0 0 289.82669078957861 9.6689693529779106 0 9.6689693529779106 -223.10800211211608 0 0 0 0 271.24885053291564 -30.057236326388193 0 -30.057236326388193 -196.80020411972237 0 0 0 0 150.63576021269 -4.6484172409786879 0 -4.6484172409786879 -184.7381991195216 0 0 0 0 219.78988728376135 45.066908439516737 0 45.066908439516737 -194.99128736733292 0 0 0 0 -124.92206274807722 -21.257813421188075 0 -21.257813421188075 2.5067052954655082 0 0 0 0 -155.22331316802638 -69.781352172085462 0 -69.781352172085462 -14.451775935085607 0 0 0 0 307.21654957549981 -42.670241223151606 0 -42.670241223151606 -269.32387239018863 0 0 0 0 0.33268017671691474 -1.1878698169703785 0 -1.1878698169703785 0.78340095164481482 0 0 0 0 189.42577383901516 -81.174494722686177 0 -81.174494722686177 -163.16583484190232 0 0 0 0 1.7001582278183296 -0.29095277180992341 0 -0.29095277180992341 -3.8125993572443591 0 0 0 0 287.23820150808206 -240.32001999438944 0 -240.32001999438944 -72.239949804043135 0 0 0 0 -99.10247650173369 -96.217582655994192 0 -96.217582655994192 -91.612135409028269 0 0 0 0 -61.165318192090126 -64.700921930807453 0 -64.700921930807453 -143.38906110751122 0 0 0 0 128.37556948079327 -61.822958483639923 0 -61.822958483639923 -94.9023862418926 0 0 0 0 135.89738698259794 -225.00553430872105 0 -225.00553430872105 98.682508769454216 0 0 0 0 5.5917368612277869 -36.428662628330812 0 -36.428662628330812 1.1624689830496209 0 0 0 0 47.596270868486044 -29.473306850833069 0 -29.473306850833069 327.10539645049721 0 0 0 0 0.4166101361526926 -1.9487363083399387 0 -1.9487363083399387 1.7877278885848682 0 0 0 0 178.89038987833919 54.652608602438704 0 54.652608602438704 -195.96666859325933 0 0 0 0 23.523878501752961 -245.27730898922391 0 -245.27730898922391 336.65557284455917 0 0 0 0 2.3339520148820423 0.17448954917219872 0 0.17448954917219872 0.35914323321936514 0 0 0 0 56.654525588649449 29.293887211154924 0 29.293887211154924 -148.47494746586199 0 0 0 0 125.15178980786914 47.592354089202217 0 47.592354089202217 -166.26843167529387 0 0 0 0 38.557508283804964 -87.397132078893264 0 -87.397132078893264 217.90965698185164 0 0 0 0 104.05139071709846 -94.196091817347678 0 -94.196091817347678 41.506484472445663 0 0 0 0 -40.752151834986307 -26.69582623616634 0 -26.69582623616634 -17.375654018651403 0 0 0 0 16.761407206224249 -8.2587974815055532 0 -8.2587974815055532 -46.307735796385714 0 0 0 0 2.9228947471439142 -3.8147312071371768 0 -3.8147312071371768 -14.529478742188076 0 0 0 0 75.56968498582205 -117.04809442720193 0 -117.04809442720193 106.84628000149496 0 0 0 0 8.2163126118486502 0.47726978449320789 0 0.47726978449320789 -2.0676625780861144 0 0 0 0 118.38582940211927 -80.150408244207938 0 -80.150408244207938 33.161721014660543 0 0 0 0 137.49590237179723 -78.430487557032393 0 -78.430487557032393 32.813593883016438 0 0 0 0 152.49317515377652 -95.554940175375123 0 -95.554940175375123 7.7435732420390195 0 0 0 0 82.233765822311398 -142.57253534359006 0 -142.57253534359006 -24.898218854042625 0 0 0 0 144.59886824516525 -61.483553188334554 0 -61.483553188334554 -57.52243257593409 0 0 0 0 -18.185021705647614 -73.155247201441398 0 -73.155247201441398 47.10210173239193 0 0 0 0 46.088880439066088 -18.148722951726086 0 -18.148722951726086 -58.264025863356437 0 0 0 0 181.00687754869068 -92.705558189688418 0 -92.705558189688418 -111.57013271288588 0 0 0 0 0.92707281015839449 -0.87970742623699394 0 -0.87970742623699394 0.08512554051539567 0 0 0 0 -213.44524136411746 -291.65672298898971 0 -291.65672298898971 -28.118699538996225 0 0 0 0 267.73212683308884 108.43832691624721 0 108.43832691624721 -18.151101545881829 0 0 0 0 -259.63443657932476 -226.82282997270886 0 -226.82282997270886 -99.300619758976609 0 0 0 0 0.090693917348016129 -0.84789104656318592 0 -0.84789104656318592 0.98653849132934113 0 0 0 0 -48.785009074025766 37.673091947995999 0 37.673091947995999 -38.380397117384746 0 0 0 0 10.079676624378862 88.737238623260055 0 88.737238623260055 -42.311830307648961 0 0 0 0 12.728167188386124 -1.1198647289820656 0 -1.1198647289820656 46.560865185429066 0 0 0 0 11.906490556083554 10.397382628342712 0 10.397382628342712 -30.502568289212832 0 0 0 0 37.55148077706906 -18.788996122986475 0 -18.788996122986475 -65.350906604724514 0 0 0 0 61.892818213111241 -46.109376444448571 0 -46.109376444448571 -43.49175959657623 0 0 0 0 75.370602742319988 -56.877127828017819 0 -56.877127828017819 -54.017748592312273 0 0 0 0 86.134454457774154 -92.797914993845552 0 -92.797914993845552 -89.838720885806197 0 0 0 0 82.282302165790838 -46.149428477428273 0 -46.149428477428273 -188.40265670651206 0 0 0 0 103.22809912262665 -114.8129330556535 0 -114.8129330556535 -373.13385045755422 0 0 0 0 183.81464428862637 -8.5058340561090517 0 -8.5058340561090517 -303.37597030716825 0 0 0 0 -114.2700003500031 282.12832850187078 0 282.12832850187078 -152.38834252253673 0 0 0 0 8.867257619359874 -9.2086086153955691 0 -9.2086086153955691 -8.8567107623304917 0 0 0 0 -147.41117651336936 -159.46824876181472 0 -159.46824876181472 74.690252877369858 0 0 0 0 -19.188341616632897 172.4247745530156 0 172.4247745530156 -259.05616840613902 0 0 0 0 14.46949662420252 -23.670423922641021 0 -23.670423922641021 -7.2987467713765 0 0 0 0 2.4351218089167013 -2.1476923835746953 0 -2.1476923835746953 1.2530387542233754 0 0 0 0 2.3506508146770102 -20.472774988043057 0 -20.472774988043057 -7.6061067074688253 0 0 0 0 0.22859381413834279 0.45802447245444688 0 0.45802447245444688 -0.037006930910081337 0 0 0 0 262.10202379720567 -99.487778633654671 0 -99.487778633654671 -25.69566323809704 0 0 0 0 -56.854893599112074 -50.315169338044711 0 -50.315169338044711 -16.624017405176346 0 0 0 0 47.166547452304712 -88.840759186738069 0 -88.840759186738069 -4.3632122894332497 0 0 0 0 41.694989877693388 -37.089688208181542 0 -37.089688208181542 -44.246117853110263 0 0 0 0 13.96458094647992 -17.620777825751361 0 -17.620777825751361 -56.158550190582901 0 0 0 0 8.1317033845351236 -8.9220178850201393 0 -8.9220178850201393 -6.8501512124643646 0 0 0 0 9.4012217000507246 -8.9126534185975288 0 -8.9126534185975288 -5.4079233132649982 0 0 0 0 6.9555331100855255 4.6695635212754496 0 4.6695635212754496 -72.685648757759736 0 0 0 0 20.729931801033217 3.2104458496241932 0 3.2104458496241932 -117.65550407782302 0 0 0 0 42.167283894591037 -41.637666557592183 0 -41.637666557592183 -75.971617905996027 0 0 0 0 40.421807662481569 -25.953680026082111 0 -25.953680026082111 -210.60753648539412 0 0 0 0 57.089957920756206 -69.717662167978233 0 -69.717662167978233 -85.438337990341097 0 0 0 0 28.879524439580848 -80.942507957614225 0 -80.942507957614225 -36.363123644916413 0 0 0 0 41.19676969775324 -50.233565045431533 0 -50.233565045431533 -93.522783248357882 0 0 0 0 45.862514173571299 -93.936990217153834 0 -93.936990217153834 21.680612762600049 0 0 0 0 65.463014812379697 -92.109811373506773 0 -92.109811373506773 -41.281690821393568 0 0 0 0 46.636251866708449 -61.451236349983901 0 -61.451236349983901 -4.9017392620771716 0 0 0 0 47.752402395784202 -94.277528121738669 0 -94.277528121738669 31.871024297524855 0 0 0 0 54.196343869130374 -103.63522698845281 0 -103.63522698845281 -13.6102627380169 0 0 0 0 50.497385143594784 -89.384944465018862 0 -89.384944465018862 -5.16823470399504 0 0 0 0 44.055781985979138 -72.751029884978834 0 -72.751029884978834 -36.680025206445862 0 0 0 0 36.237353364095497 -45.803211148459468 0 -45.803211148459468 -54.349556513554489 0 0 0 0 82.207931925987623 -72.300532145471607 0 -72.300532145471607 -8.8036320070041256 0 0 0 0 56.709455440442525 -92.139657196373264 0 -92.139657196373264 3.2220690092394761 0 0 0 0 76.211551741680523 -72.647817719698651 0 -72.647817719698651 21.467369675396185 0 0 0 0 48.945461440005715 -89.947227217391173 0 -89.947227217391173 32.076642434534733 0 0 0 0 52.049741628314678 -91.454689227114613 0 -91.454689227114613 -7.0148718204472971 0 0 0 0 29.140001917227437 -76.070138936959665 0 -76.070138936959665 40.68682164407528 0 0 0 0 43.890185444109648 -78.044100011707997 0 -78.044100011707997 39.169955861069866 0 0 0 0 37.690145249915304 -61.713081163658899 0 -61.713081163658899 34.155471537898848 0 0 0 0 44.763070989496356 -70.089115896270584 0 -70.089115896270584 22.301249059013571 0 0 0 0 34.962917097111585 -68.052368127770933 0 -68.052368127770933 51.649175007620215 0 0 0 0 30.16889611350598 -33.823851448117694 0 -33.823851448117694 23.434692061828173 0 0 0 0 16.922634447331802 -35.774903418165195 0 -35.774903418165195 58.099614988877875 0 0 0 0 31.318984178911933 -86.922281639047924 0 -86.922281639047924 81.913876674032508 0 0 0 0 7.4735713304394267 -17.371833392994631 0 -17.371833392994631 40.613535646798482 0 0 0 0 9.594256270297592 -34.786256682541534 0 -34.786256682541534 112.11110356145764 0 0 0 0 27.593015203024606 -55.026220816240311 0 -55.026220816240311 75.865208562296175 0 0 0 0 28.114283367007374 -72.397571788902496 0 -72.397571788902496 114.26423085236456 0 0 0 0 34.914306747838964 -94.606410623485317 0 -94.606410623485317 104.31326126756812 0 0 0 0 30.183459403872348 -65.73473039984674 0 -65.73473039984674 123.58003469083815 0 0 0 0 39.943928153606521 -64.900377369704074 0 -64.900377369704074 133.39342207916525 0 0 0 0 34.930285721417931 -93.678781708274073 0 -93.678781708274073 155.11206157582728 0 0 0 0 81.053661719270508 -131.51789226510573 0 -131.51789226510573 88.521222554230917 0 0 0 0 109.75740426353698 -75.221255022870082 0 -75.221255022870082 38.791527037308697 0 0 0 0 65.156246838645302 -94.831968311324999 0 -94.831968311324999 20.529450006331444 0 0 0 0 36.317977926162371 -81.918987244095661 0 -81.918987244095661 78.18908582054064 0 0 0 0 51.724005173668502 -113.19416010497389 0 -113.19416010497389 50.213570292437907 0 0 0 0 75.849164952719491 11.779308565679344 0 11.779308565679344 -15.668033862830271 0 0 0 0 58.04862645598314 -43.077415347811439 0 -43.077415347811439 -24.834678427233996 0 0 0 0 75.760928061838513 6.8408476863296528 0 6.8408476863296528 20.771926524445007 0 0 0 0 -40.151238984336487 -106.54650971063984 0 -106.54650971063984 4.4617558459476641 0 0 0 0 98.614171707933565 -7.6203210843546003 0 -7.6203210843546003 -24.198869267791451 0 0 0 0 16.341920510662931 -20.505086705714348 0 -20.505086705714348 -10.735064416601745 0 0 0 0 0.71457528833889228 -40.756658335320935 0 -40.756658335320935 5.677933935554563 0 0 0 0 -0.84747401679443435 -1.9933201774796334 0 -1.9933201774796334 -5.0458653038981112 0 0 0 0 -123.62348612650612 2.3601600447104829 0 2.3601600447104829 9.8528818643881095 0 0 0 0 -0.14391145585609699 -0.61771229796724869 0 -0.61771229796724869 -1.7392244958505287 0 0 0 0 134.95549116647226 -37.561664887297638 0 -37.561664887297638 -29.891523135782336 0 0 0 0 81.532003038941525 -72.021114873100942 0 -72.021114873100942 -0.05767806547555665 0 0 0 0 121.35339936902119 -44.847633844581651 0 -44.847633844581651 8.5089219464713324 0 0 0 0 72.952552043485866 -61.606212684459933 0 -61.606212684459933 9.4702525426556008 0 0 0 0 90.777079931835488 -54.718189062854435 0 -54.718189062854435 9.5407756824233729 0 0 0 0 52.590262113431208 -40.528346854070833 0 -40.528346854070833 5.5506824320091255 0 0 0 0 0.8209521246828686 -3.5961579895586779 0 -3.5961579895586779 -8.3394507428672497 0 0 0 0 20.604692382526082 -28.955845479969867 0 -28.955845479969867 24.286336240658784 0 0 0 0 11.604244125245259 -8.8864143695805069 0 -8.8864143695805069 -16.316161524799099 0 0 0 0 -24.961795693719523 -15.541483103646442 0 -15.541483103646442 0.4494690834035282 0 0 0 0 5.159788751049291 -12.752331047777261 0 -12.752331047777261 -3.0286743486649357 0 0 0 0 14.781208950872497 -24.29887220818091 0 -24.29887220818091 -12.065109514425785 0 0 0 0 5.2825017591892447 -14.915980719011714 0 -14.915980719011714 -17.271893387565797 0 0 0 0 18.806580947110888 -4.646914609304531 0 -4.646914609304531 -43.085452621855438 0 0 0 0 5.8178605712837452 -7.6814326375979363 0 -7.6814326375979363 -13.83508640811624 0 0 0 0 4.9337182272149676 -1.5423164602298129 0 -1.5423164602298129 -24.468659348994152 0 0 0 0 47.646938052304904 2.8795385035355139 0 2.8795385035355139 -24.06626810650323 0 0 0 0 33.459289487276465 -119.89429322795968 0 -119.89429322795968 194.89501677021326 0 0 0 0 131.73737240621085 -154.02120489162553 0 -154.02120489162553 153.67842086721066 0 0 0 0 84.659060476432842 -148.04999665571404 0 -148.04999665571404 179.69266943389084 0 0 0 0 85.029009008924731 -144.77417038076374 0 -144.77417038076374 206.13551111914421 0 0 0 0 108.48357649811078 -184.51676110868721 0 -184.51676110868721 230.19617099549214 0 0 0 0 136.47681356262518 -84.150470696699244 0 -84.150470696699244 104.43283139220148 0 0 0 0 187.050640956797 -245.83111119201567 0 -245.83111119201567 207.2908419140731 0 0 0 0 99.110249134651895 -99.515161016064667 0 -99.515161016064667 105.10684364104236 0 0 0 0 62.009012884991535 -125.78046751421243 0 -125.78046751421243 163.95773286597978 0 0 0 0 97.574267979260185 -110.19949012506004 0 -110.19949012506004 103.34213281015764 0 0 0 0 61.905034788909688 -123.83124888305611 0 -123.83124888305611 127.46500145971731 0 0 0 0 -64.287502658458834 -94.610829706923141 0 -94.610829706923141 -82.9142758484777 0 0 0 0 124.08634259130486 -48.74885152272509 0 -48.74885152272509 -514.7269170621289 0 0 0 0 35.137161429669504 -91.029866249355109 0 -91.029866249355109 261.2849704113105 0 0 0 0 23.333154312382248 -85.290783760719933 0 -85.290783760719933 424.82468600801076 0 0 0 0 96.274724573746425 -227.25602227892887 0 -227.25602227892887 497.51402096134552 0 0 0 0 8.1306362646055277 -97.126477809838434 0 -97.126477809838434 649.75751518559264 0 0 0 0 -0.19283302662756086 -1.9197816105061953 0 -1.9197816105061953 -0.36727412593881459 0 0 0 0 17.885386862645646 8.283782612151299 0 8.283782612151299 -66.347190043038609 0 0 0 0 -13.053959621312515 -132.65520790333721 0 -132.65520790333721 -156.10234248178676 0 0 0 0 45.231813519919115 -42.451514148992828 0 -42.451514148992828 -195.13235771649124 0 0 0 0 -21.930499834661532 -45.688922942408681 0 -45.688922942408681 -76.726911312664015 0 0 0 0 5.4562649588479069 -0.13473061450067725 0 -0.13473061450067725 -0.013585835991077211 0 0 0 0 -32.058815081192279 38.379492179758017 0 38.379492179758017 -159.03126736552713 0 0 0 0 58.285750168554841 -66.693099238423201 0 -66.693099238423201 -291.79750001058164 0 0 0 0 7.6570181108655717 0.27866563633248376 0 0.27866563633248376 -0.65335849623579767 0 0 0 0 -6.2526345234557414 -4.4000298197289993 0 -4.4000298197289993 -2.0495385056039286 0 0 0 0 6.7303466979642295 -32.748785110711651 0 -32.748785110711651 -6.449521456527691 0 0 0 0 12.216609518871337 -109.78176405512022 0 -109.78176405512022 201.64113303396243 0 0 0 0 23.426855554980079 -24.330418690863553 0 -24.330418690863553 -78.277226213283029 0 0 0 0 -17.022751718401537 -2.5150706263793836 0 -2.5150706263793836 20.645828145094129 0 0 0 0 6.1969858422832216 0.089351679379145565 0 0.089351679379145565 -0.42645435225647432 0 0 0 0 22.109033491799615 21.571152410997229 0 21.571152410997229 -40.327034424706653 0 0 0 0 20.62779224552304 -51.402549660301929 0 -51.402549660301929 -231.22827128747031 0 0 0 0 9.8025967401350051 -0.081020622773458228 0 -0.081020622773458228 -2.0609164900465307 0 0 0 0 -5.9847514377267998 -39.670019739989584 0 -39.670019739989584 -210.11203678415006 0 0 0 0 8.6561184470772332 -11.54456765880559 0 -11.54456765880559 -18.709782243434347 0 0 0 0 3.6379992744196574 0.038619195667049411 0 0.038619195667049411 -0.48443840683849526 0 0 0 0 -23.206796077512124 17.936732979901421 0 17.936732979901421 -316.92317652440215 0 0 0 0 -11.77485276970561 4.7437274009872112 0 4.7437274009872112 -22.472116378312421 0 0 0 0 -17.947527254633428 -51.396727464633841 0 -51.396727464633841 -18.755878094449145 0 0 0 0 29.979197848431966 -7.3407132580484813 0 -7.3407132580484813 -21.166675273398141 0 0 0 0 30.810488850079196 -76.480500161633472 0 -76.480500161633472 33.620849273558633 0 0 0 0 30.633660955188134 -64.118865965806435 0 -64.118865965806435 20.84405128349681 0 0 0 0 6.4552244617882479 -57.894795086131126 0 -57.894795086131126 37.52017606892241 0 0 0 0 -0.21671136351665155 -87.010641656200278 0 -87.010641656200278 78.490432153224901 0 0 0 0 24.166711043793384 -94.109764849913518 0 -94.109764849913518 79.527857794661031 0 0 0 0 -4.9877690937451753 -3.9628093119970309 0 -3.9628093119970309 -2.2366830638118138 0 0 0 0 54.565815979488889 -47.785701625707588 0 -47.785701625707588 92.88150840947128 0 0 0 0 16.037560963985925 -52.102190285726465 0 -52.102190285726465 180.74851619596666 0 0 0 0 45.342722365981444 -83.594382576084172 0 -83.594382576084172 86.229134353170593 0 0 0 0 27.080466062103199 -44.704593408055644 0 -44.704593408055644 79.253636506105977 0 0 0 0 23.813748506468528 -92.701139594651977 0 -92.701139594651977 66.858258477781419 0 0 0 0 -24.773932474190133 -101.35834665788661 0 -101.35834665788661 3.340745424369743 0 0 0 0 24.986805382900911 -41.413005136210359 0 -41.413005136210359 -17.624241370596792 0 0 0 0 11.743111074797525 -43.023889753484582 0 -43.023889753484582 15.450474776178453 0 0 0 0 54.917039382595249 -65.37295943537265 0 -65.37295943537265 20.152146495362786 0 0 0 0 36.871873502381277 -44.531353917095657 0 -44.531353917095657 -18.270780523467693 0 0 0 0 23.926905964190155 -18.395036483174408 0 -18.395036483174408 -14.803636963053577 0 0 0 0 44.916976585740031 -41.940446966614218 0 -41.940446966614218 -1.2179193236661376 0 0 0 0 69.671084725233413 -76.183881560242298 0 -76.183881560242298 57.059149347604034 0 0 0 0 36.992968898063282 -29.538584859345065 0 -29.538584859345065 23.40668896068928 0 0 0 0 36.848681370650866 -91.711367333840826 0 -91.711367333840826 139.62876290506756 0 0 0 0 66.650706068175168 -74.666725710786523 0 -74.666725710786523 60.024635125497298 0 0 0 0 77.593027869376783 -105.76176869971277 0 -105.76176869971277 112.37717535078082 0 0 0 0 94.740540066350377 -64.427692181232487 0 -64.427692181232487 55.29061245464618 0 0 0 0 149.23626349209553 22.705994678825391 0 22.705994678825391 -110.74452131586258 0 0 0 0 59.562202867964515 -35.835297374760557 0 -35.835297374760557 -105.36023023220764 0 0 0 0 -171.53824181766743 9.9333569171294585 0 9.9333569171294585 -113.36943478316016 0 0 0 0 106.30656508018444 100.22235341495571 0 100.22235341495571 -304.1234201993575 0 0 0 0 65.174857963263037 -154.68373286355654 0 -154.68373286355654 372.46696369758411 0 0 0 0 306.62754407354737 86.48000530102945 0 86.48000530102945 -408.71700723407139 0 0 0 0 44.025942857578343 -152.81521219732986 0 -152.81521219732986 -357.93522424260482 0 0 0 0 7.3621540345092749 -2.9241316483434048 0 -2.9241316483434048 -0.47368909142481908 0 0 0 0 15.086354439129764 -61.834134661137796 0 -61.834134661137796 145.68697968409197 0 0 0 0 38.806212611849958 -68.893775776357415 0 -68.893775776357415 123.89733397114105 0 0 0 0 4.4786343178197967 -43.376479010197727 0 -43.376479010197727 133.16536532300506 0 0 0 0 -266.13699024289417 62.977092484337845 0 62.977092484337845 -396.84474558277816 0 0 0 0 1.1226689648507509 0.010898891039090586 0 0.010898891039090586 -0.35042350847404791 0 0 0 0 71.993001771036006 48.237836431448159 0 48.237836431448159 -64.372794705147044 0 0 0 0 7.7301783897055545 -4.9033020106381677 0 -4.9033020106381677 -1.4783857346469886 0 0 0 0 146.97201412125088 -79.315679787569024 0 -79.315679787569024 -400.73435122225192 0 0 0 0 31.211910148913375 -24.496592140358189 0 -24.496592140358189 16.469283692804311 0 0 0 0 30.578657024539211 -24.386781939174398 0 -24.386781939174398 -108.02001748521889 0 0 0 0 -11.036195029972504 -21.965749920218514 0 -21.965749920218514 -30.357202483928631 0 0 0 0 44.631245979131108 -17.76800660205663 0 -17.76800660205663 -31.024172836362823 0 0 0 0 82.687198317039019 -16.661125361059021 0 -16.661125361059021 -124.6403106905741 0 0 0 0 11.973145483917477 32.498221848856474 0 32.498221848856474 -60.210452059425734 0 0 0 0 80.944049016001827 -1.2616190932258178 0 -1.2616190932258178 -43.726916602581696 0 0 0 0 35.644823073787734 -15.722249228934743 0 -15.722249228934743 38.299886707034602 0 0 0 0 60.718723591706521 -38.253403977271773 0 -38.253403977271773 0.32498633380464526 0 0 0 0 25.170460500882427 -0.54888424731780106 0 -0.54888424731780106 -10.408956203164053 0 0 0 0 19.07979075640776 -66.56550289493498 0 -66.56550289493498 83.914383177901072 0 0 0 0 -0.16295671265345391 -6.5687166907728169 0 -6.5687166907728169 48.858696758023143 0 0 0 0 -2.8106866726070194 -2.845369449727297 0 -2.845369449727297 -1.7810574817510663 0 0 0 0 74.937204790080642 -20.569637766787082 0 -20.569637766787082 -63.051190587745623 0 0 0 0 -0.81880102493764761 -1.0653276413778698 0 -1.0653276413778698 -0.73670434361257087 0 0 0 0 1.6777621002441947 -116.13761472947226 0 -116.13761472947226 118.73052098007247 0 0 0 0 2.8558709314190764 -123.2505734605902 0 -123.2505734605902 -41.276900014517196 0 0 0 0 18.36998199835125 -77.218490255226243 0 -77.218490255226243 -36.100072667013592 0 0 0 0 8.0747868789222395 -22.112987519417459 0 -22.112987519417459 -55.068061139940255 0 0 0 0 72.727681067631551 -31.882396991924452 0 -31.882396991924452 -90.132414312047331 0 0 0 0 81.421620085546238 -82.491976009207065 0 -82.491976009207065 -21.058192854110075 0 0 0 0 224.47368318174438 -70.16531691302589 0 -70.16531691302589 -93.473567962073503 0 0 0 0 209.8376110996561 22.199166840858197 0 22.199166840858197 -101.89632111665014 0 0 0 0 194.80700378056201 13.172324100979495 0 13.172324100979495 -89.295681604523452 0 0 0 0 216.30297101346719 42.549214644122912 0 42.549214644122912 -96.497672533349032 0 0 0 0 190.64742760181099 6.4743593243106261 0 6.4743593243106261 -114.02725342841768 0 0 0 0 163.30383110227953 41.912733315467449 0 41.912733315467449 -94.652591166388447 0 0 0 0 111.19786683711959 6.1892063037021217 0 6.1892063037021217 -87.709765545737298 0 0 0 0 176.06292324238436 -1.3766782062821221 0 -1.3766782062821221 -136.27005080876188 0 0 0 0 177.72921982129103 -12.069751228077621 0 -12.069751228077621 -89.042858524784606 0 0 0 0 173.8857383108641 -6.4463974211939785 0 -6.4463974211939785 -99.414752965150001 0 0 0 0 170.2853548897657 3.8747673650659635 0 3.8747673650659635 -113.65708691760926 0 0 0 0 243.75298420989066 3.6116377543939961 0 3.6116377543939961 -236.34840971000904 0 0 0 0 134.71271088560781 -125.131030046874 0 -125.131030046874 74.532634517263432 0 0 0 0 142.06461943974003 35.307238609665546 0 35.307238609665546 81.682620081088601 0 0 0 0 35.387951336032089 37.552589766858659 0 37.552589766858659 -113.0608353071475 0 0 0 0 274.9882729101688 -93.06020588688807 0 -93.06020588688807 -111.06898954241456 0 0 0 0 3.2764635042022046 -0.9909672935210132 0 -0.9909672935210132 -0.092276197648259561 0 0 0 0 13.665257289693244 -26.679630054304653 0 -26.679630054304653 1.1206583856131829 0 0 0 0 60.866701464389337 -41.886377195934074 0 -41.886377195934074 -16.139642598604041 0 0 0 0 59.550070920037712 -35.925758443552695 0 -35.925758443552695 -20.769203078511055 0 0 0 0 23.620164674860689 -52.755040536629622 0 -52.755040536629622 4.9368732916027511 0 0 0 0 21.234695874083684 -30.937895573948481 0 -30.937895573948481 -30.814539776050879 0 0 0 0 40.606485069254688 -46.729013007917274 0 -46.729013007917274 -19.135650951564458 0 0 0 0 112.45950729121284 -59.496623008924871 0 -59.496623008924871 -27.025175512212627 0 0 0 0 73.618341276206792 -21.366589540281893 0 -21.366589540281893 -45.656704004761195 0 0 0 0 103.71306537670486 10.290426211235626 0 10.290426211235626 -59.463952886415427 0 0 0 0 35.125362752930982 -18.508021250546335 0 -18.508021250546335 -45.344209392750599 0 0 0 0 11.894241392409299 4.6616878406930482 0 4.6616878406930482 -54.65776011208709 0 0 0 0 43.906624376513207 -36.712840103215967 0 -36.712840103215967 -47.062451120315018 0 0 0 0 13.449687744581752 -44.717408389411503 0 -44.717408389411503 -63.624806343493219 0 0 0 0 17.351875090895987 -25.379019475280074 0 -25.379019475280074 -51.879333399521784 0 0 0 0 19.504611719625832 -41.954369033481385 0 -41.954369033481385 -58.682489101320243 0 0 0 0 4.8710808617529722 -36.555653043264101 0 -36.555653043264101 -37.188758456990399 0 0 0 0 6.2244769636439798 -36.589352766191041 0 -36.589352766191041 -48.377352963760472 0 0 0 0 -0.80567240200326751 -28.622347768359759 0 -28.622347768359759 -49.20217866676694 0 0 0 0 -4.5032154853007 -34.160349094541743 0 -34.160349094541743 -43.669539798274855 0 0 0 0 -2.3932613926179016 -33.038859575443894 0 -33.038859575443894 -43.140186769091088 0 0 0 0 -3.3702583518863918 -38.875224342663387 0 -38.875224342663387 -29.504969240806531 0 0 0 0 -0.10004407349390476 -38.97740676702324 0 -38.97740676702324 -29.795459928232503 0 0 0 0 -6.8726419231344451 -42.535651197859806 0 -42.535651197859806 -16.113315884747863 0 0 0 0 1.8506206356168349 -44.462047823992179 0 -44.462047823992179 -14.785038581843764 0 0 0 0 21.649558880875453 -42.911520073208038 0 -42.911520073208038 -35.22181547024411 0 0 0 0 -7.7214169546613718 -15.000526697096575 0 -15.000526697096575 -11.99461515330313 0 0 0 0 7.5404332248248851 -2.5898702540562546 0 -2.5898702540562546 0.42220279285555407 0 0 0 0 -11.21073026778372 -20.106733212431209 0 -20.106733212431209 -14.118418760888744 0 0 0 0 -7.9739018848950494 -26.902618826097751 0 -26.902618826097751 -24.720195029697607 0 0 0 0 -0.38799853446571575 -25.997657935266034 0 -25.997657935266034 -45.240509674282293 0 0 0 0 1.6671387612335735 -18.984398842376322 0 -18.984398842376322 -21.43612120192256 0 0 0 0 -3.8240773191899109 -32.51390841101238 0 -32.51390841101238 -26.054962140951829 0 0 0 0 -10.103425754153083 -33.245089975463316 0 -33.245089975463316 -15.031753912000568 0 0 0 0 -10.716913001839572 -36.087000329059265 0 -36.087000329059265 -26.930616137687366 0 0 0 0 -19.383407018988542 -33.412305280212422 0 -33.412305280212422 -11.340064700414587 0 0 0 0 -24.202799872760188 -20.35083615284293 0 -20.35083615284293 -5.1430929682792339 0 0 0 0 -32.079073804192561 -30.651591268493576 0 -30.651591268493576 -11.524995387188937 0 0 0 0 -35.289732721756948 -32.885202039950855 0 -32.885202039950855 -5.7207300214558927 0 0 0 0 -17.947674983373368 -44.462901255521956 0 -44.462901255521956 -8.9274609036529 0 0 0 0 -28.281460201021773 -36.954202200187865 0 -36.954202200187865 -9.5942135670799189 0 0 0 0 -36.822777349447975 -42.521605062702747 0 -42.521605062702747 -4.5579386213703401 0 0 0 0 16.835570156462225 -36.50040228866601 0 -36.50040228866601 -14.931610012156355 0 0 0 0 -10.292671909868787 -37.508233624819695 0 -37.508233624819695 -14.272042537544166 0 0 0 0 0.1410170451570707 -48.069781391421657 0 -48.069781391421657 -9.6950279756538293 0 0 0 0 -11.189234026609739 -49.324049217863831 0 -49.324049217863831 -10.385914645095909 0 0 0 0 -0.7083806224100897 -36.930166151710182 0 -36.930166151710182 -5.4674802157269369 0 0 0 0 22.643930381539541 -25.057037264310168 0 -25.057037264310168 -8.9893824210612365 0 0 0 0 24.625703200598572 -39.635605954539585 0 -39.635605954539585 -15.109488011390567 0 0 0 0 -6.8542246564786851 -38.284275641142358 0 -38.284275641142358 -11.564399278669953 0 0 0 0 0.83769070567208814 -45.198353293301807 0 -45.198353293301807 -10.533111054645815 0 0 0 0 41.033742487807984 -33.694906683127556 0 -33.694906683127556 -16.782488941109477 0 0 0 0 -14.90305239665048 -49.777620998176644 0 -49.777620998176644 -7.7472746898120022 0 0 0 0 38.593658756850886 -33.079729492589195 0 -33.079729492589195 -10.921264212024653 0 0 0 0 -53.532339784237536 -36.33403299679685 0 -36.33403299679685 -6.2650830688676251 0 0 0 0 -28.028570266688632 -55.113384124541426 0 -55.113384124541426 -17.288398557975597 0 0 0 0 -86.691619424434151 -54.552682984518775 0 -54.552682984518775 -7.0709875505090167 0 0 0 0 -24.973022015068523 -30.165190330714722 0 -30.165190330714722 -21.817260585896975 0 0 0 0 -0.31770473443694164 0.055098308381474226 0 0.055098308381474226 0.063449171984139241 0 0 0 0 -31.681680873684034 1.5165352070252993 0 1.5165352070252993 -14.042047306504173 0 0 0 0 -69.655484465135487 -34.932488506595973 0 -34.932488506595973 11.152988477777399 0 0 0 0 -74.066397723077785 -35.120237978680962 0 -35.120237978680962 -45.533301223969374 0 0 0 0 -86.807548481829826 -85.379008284901829 0 -85.379008284901829 -29.660987938155813 0 0 0 0 -21.328964631932422 -52.461951363889966 0 -52.461951363889966 0.19700128769909497 0 0 0 0 -40.576594371971765 -29.206665104909007 0 -29.206665104909007 -21.720536779026588 0 0 0 0 -21.902318975367749 -25.158381602574536 0 -25.158381602574536 -1.9544066380676668 0 0 0 0 -51.635251874382561 -52.152410247854277 0 -52.152410247854277 6.3402736965572331 0 0 0 0 -66.728209764432307 -56.280579027573822 0 -56.280579027573822 3.0359267254170845 0 0 0 0 -74.435207703729986 -33.26849369599222 0 -33.26849369599222 -4.430293448649536 0 0 0 0 79.774952226933593 -2.5526211386873001 0 -2.5526211386873001 0.12044814251203206 0 0 0 0 18.616490238909066 -27.836708608784647 0 -27.836708608784647 -22.765631650408523 0 0 0 0 29.312316868861465 -46.211744825279766 0 -46.211744825279766 5.6982762035659107 0 0 0 0 23.407900792671157 -44.609417987560846 0 -44.609417987560846 -0.25226125810377198 0 0 0 0 23.228906873566899 -43.137950983851624 0 -43.137950983851624 -7.0328398882593319 0 0 0 0 89.474939352624261 -8.9143572041796233 0 -8.9143572041796233 27.630406372449215 0 0 0 0 91.515366295773674 -20.063956571572419 0 -20.063956571572419 -15.355203064034868 0 0 0 0 135.40264578118942 -10.333232380154641 0 -10.333232380154641 -16.807904736864657 0 0 0 0 151.2588917205365 23.676488303092128 0 23.676488303092128 -24.807819533589281 0 0 0 0 0.3009934621302866 0.057982157093068309 0 0.057982157093068309 -1.73910375957486 0 0 0 0 93.488878821905942 61.95799776736294 0 61.95799776736294 -6.368621842354969 0 0 0 0 73.287620491508079 66.66317519828317 0 66.66317519828317 -43.736932126659667 0 0 0 0 12.357608097886754 -19.086222227600047 0 -19.086222227600047 -30.535521377096302 0 0 0 0 64.313858298960909 -54.374518218146022 0 -54.374518218146022 -218.84263289302908 0 0 0 0 25.360136448898857 31.557273044348221 0 31.557273044348221 -115.93951814087268 0 0 0 0 -27.494948922235494 -77.536084953636419 0 -77.536084953636419 -103.66007294681185 0 0 0 0 -30.21777240075744 34.406545342434583 0 34.406545342434583 -175.52899910267388 0 0 0 0 20.29034482465562 -43.874619010257447 0 -43.874619010257447 -88.812858470595529 0 0 0 0 68.315476019941798 -48.444779378713065 0 -48.444779378713065 -18.863570580973828 0 0 0 0 40.734215352147999 -86.142177438168801 0 -86.142177438168801 -46.845830647935145 0 0 0 0 28.800233785380847 -7.7438176545340411 0 -7.7438176545340411 -54.733318091666661 0 0 0 0 58.523159901409798 29.085088991732846 0 29.085088991732846 -2.6847007405931436 0 0 0 0 54.370929656690343 -21.892760716316729 0 -21.892760716316729 -58.400027905263414 0 0 0 0 141.44977665375984 17.225246444700133 0 17.225246444700133 11.432200437951906 0 0 0 0 65.897143809582289 12.99021933233962 0 12.99021933233962 14.415532819252803 0 0 0 0 102.6410303083956 -1.6634629151985791 0 -1.6634629151985791 56.114054190351453 0 0 0 0 79.704376992838206 -98.443401312191781 0 -98.443401312191781 22.881613745523282 0 0 0 0 76.491830799788204 -24.981469658754577 0 -24.981469658754577 9.1846959609447367 0 0 0 0 155.28584853985456 -57.105017415706243 0 -57.105017415706243 21.490003292102301 0 0 0 0 93.833245614829167 -74.166613152046011 0 -74.166613152046011 81.118665313386373 0 0 0 0 234.31239076358304 -171.00619602474671 0 -171.00619602474671 122.36402057404848 0 0 0 0 268.20818910177786 -30.62764903494417 0 -30.62764903494417 23.651939293149553 0 0 0 0 75.85849539295873 -18.561568778194214 0 -18.561568778194214 44.005898615536353 0 0 0 0 91.914045370219952 53.49805253300292 0 53.49805253300292 30.116892655969878 0 0 0 0 0.087577716545864298 -0.045590143808412975 0 -0.045590143808412975 -0.28038450331127507 0 0 0 0 72.455297204843163 -9.7622801838133455 0 -9.7622801838133455 -11.443034507941775 0 0 0 0 0.19136011733656882 0.01668703178333919 0 0.01668703178333919 -1.0417852634389035 0 0 0 0 92.599943777760572 45.774515566492141 0 45.774515566492141 15.582360347631038 0 0 0 0 -9.045547633073511 -27.604319624727623 0 -27.604319624727623 26.847818623844432 0 0 0 0 1.9427686718718178 -10.630517916629287 0 -10.630517916629287 9.7075705690740506 0 0 0 0 0.010113860742421821 -33.18577787883487 0 -33.18577787883487 -23.050577057235387 0 0 0 0 -3.8118539097686153 -11.739700665927558 0 -11.739700665927558 -34.263114633573878 0 0 0 0 -36.192239846934172 -78.376748828317432 0 -78.376748828317432 -22.90717505394241 0 0 0 0 17.287846407728466 -10.847028287203102 0 -10.847028287203102 65.274360173083551 0 0 0 0 88.597696099857785 -48.850072443663521 0 -48.850072443663521 -6.4881366537647409 0 0 0 0 26.696058937679481 -44.444444462567844 0 -44.444444462567844 -4.7483346435219573 0 0 0 0 18.082492854398879 -19.574151515385893 0 -19.574151515385893 15.298289653247593 0 0 0 0 6.5512539624851343 -42.02821874831443 0 -42.02821874831443 -4.5288744261970351 0 0 0 0 0.20415844864874089 -30.360016654791252 0 -30.360016654791252 55.772385727452274 0 0 0 0 18.6145094048602 -31.495761219260032 0 -31.495761219260032 49.825676750082494 0 0 0 0 -0.63640837750336487 1.0486784869016788 0 1.0486784869016788 4.1141912345208809 0 0 0 0 17.402800118974483 -46.091792054863618 0 -46.091792054863618 60.138596803608038 0 0 0 0 -27.381023444890161 8.5673521186013204 0 8.5673521186013204 30.69842532804978 0 0 0 0 -9.9391892202695971 -9.9940453585406992 0 -9.9940453585406992 -3.695898324681389 0 0 0 0 -33.338902580349895 -18.132712951125541 0 -18.132712951125541 -1.3183049225644936 0 0 0 0 0.39786011631733231 -0.5744012012007822 0 -0.5744012012007822 -0.83567180330606128 0 0 0 0 5.6063298705521447 -27.319647823685045 0 -27.319647823685045 54.080159022058069 0 0 0 0 -0.058974686575034241 0.43070011248231665 0 0.43070011248231665 0.17907410415426739 0 0 0 0 0.61679389013625041 -35.319895604550766 0 -35.319895604550766 100.07703439162469 0 0 0 0 7.9099629274505787 -20.985838020649226 0 -20.985838020649226 66.773239405090862 0 0 0 0 6.8382644285047718 -22.608302620119503 0 -22.608302620119503 28.268515161897994 0 0 0 0 0.98199514689440548 -35.227919999161713 0 -35.227919999161713 54.856607769808761 0 0 0 0 5.0514182677179633 -18.201540384123291 0 -18.201540384123291 58.082327734920909 0 0 0 0 -0.0078774448866170133 -31.897168348056312 0 -31.897168348056312 34.537086353984705 0 0 0 0 16.036802335431275 -37.377492227233233 0 -37.377492227233233 53.65728577649088 0 0 0 0 8.2368284127423976 -15.730308888904801 0 -15.730308888904801 -2.363655301858671 0 0 0 0 0.013427962139758165 -18.126256944813122 0 -18.126256944813122 30.722358165765399 0 0 0 0 9.2820522961083043 -9.3955601802999809 0 -9.3955601802999809 -35.44063426249204 0 0 0 0 -0.28894916830540751 -3.6949812418824877 0 -3.6949812418824877 -0.77792444535225513 0 0 0 0 -2.1269738111698331 -3.4744755872755473 0 -3.4744755872755473 -5.6971012555381009 0 0 0 0 5.0975320593915967 -15.320043631416411 0 -15.320043631416411 -2.8851968918868351 0 0 0 0 1.6475718090646296 64.520950821346787 0 64.520950821346787 -55.875434282505012 0 0 0 0 4.7721316279265693 -8.3776402857575647 0 -8.3776402857575647 3.1010215512324066 0 0 0 0 0.013324848019692581 -7.2828905286778536 0 -7.2828905286778536 4.3080777760533238 0 0 0 0 -60.686325653838139 98.60432928539467 0 98.60432928539467 -413.38933110105245 0 0 0 0 -0.82136650172221692 -1.0957612958570717 0 -1.0957612958570717 -2.0937606659874461 0 0 0 0 -45.413263051534159 24.836985981866746 0 24.836985981866746 -57.410151288873237 0 0 0 0 -1.0204573716782761 71.530346499353072 0 71.530346499353072 -11.201671332210026 0 0 0 0 0.1614463025153583 -0.41255883930953718 0 -0.41255883930953718 -0.85336416038310148 0 0 0 0 -107.48020599279425 -231.78452967964267 0 -231.78452967964267 -101.96288858491607 0 0 0 0 -91.066059834659882 -275.45906637104235 0 -275.45906637104235 -0.39067856372821552 0 0 0 0 0.017598375685338397 -452.41451620063344 0 -452.41451620063344 -443.3356944934842 0 0 0 0 -3.1678833283376662 -45.405657876514852 0 -45.405657876514852 -0.0088015406618069392 0 0 0 0 22.432270888588391 -15.921661564084843 0 -15.921661564084843 14.788984230905044 0 0 0 0 49.278053952843038 -37.899951150098786 0 -37.899951150098786 0.037906310802966116 0 0 0 0 0.23218657387921837 -0.32125173489415459 0 -0.32125173489415459 -1.0369586829901607 0 0 0 0 -13.61839942813458 -55.178540387861176 0 -55.178540387861176 27.612229218657603 0 0 0 0 89.374276624098457 19.508275586874333 0 19.508275586874333 -86.110491746727348 0 0 0 0 17.622671063204507 9.9991645990062352 0 9.9991645990062352 -85.536505612102701 0 0 0 0 -4.6701515263152871 -6.6048492847055629 0 -6.6048492847055629 -6.6040303058537617 0 0 0 0 3.9804131845012307 -12.36478916883334 0 -12.36478916883334 -10.537657262822904 0 0 0 0 3.1287182278920227 -6.2622547912224036 0 -6.2622547912224036 -30.022917336293176 0 0 0 0 -27.598521636826263 -38.161778495835279 0 -38.161778495835279 -45.673266067553413 0 0 0 0 -20.272351423776172 2.5702669495231021 0 2.5702669495231021 -31.155572439658499 0 0 0 0 -0.19974636432198167 -16.769192480438505 0 -16.769192480438505 -14.555184982687933 0 0 0 0 4.7120284884840657 -2.7556670237790968 0 -2.7556670237790968 -11.936670818908169 0 0 0 0 51.084338200838829 -7.1112809068818024 0 -7.1112809068818024 -27.695582096184808 0 0 0 0 36.629910873609333 -0.0021106107851665001 0 -0.0021106107851665001 -25.927736575820745 0 0 0 0 -0.15323463636612544 0.23817551426289896 0 0.23817551426289896 0.11693852401550942 0 0 0 0 -46.528284303613873 -53.432145051359385 0 -53.432145051359385 -16.285993056546431 0 0 0 0 31.719650915814782 -22.355845457233045 0 -22.355845457233045 -4.4852282456486137 0 0 0 0 4.5517493326369731 -25.550689449629317 0 -25.550689449629317 -11.690951677859175 0 0 0 0 -11.35814734777432 -33.843102470749727 0 -33.843102470749727 -13.908320774566164 0 0 0 0 9.1980383855061518 -39.151333908110246 0 -39.151333908110246 -68.660325757387 0 0 0 0 -9.1123338182389944 -67.276337231276671 0 -67.276337231276671 -27.415676946729945 0 0 0 0 -21.784961438329958 -31.333680099187546 0 -31.333680099187546 -14.459385657302846 0 0 0 0 -58.819489834693741 -43.212219166047362 0 -43.212219166047362 0.0031457481304684597 0 0 0 0 -21.050649537041863 -42.048841097805962 0 -42.048841097805962 10.418896462128941 0 0 0 0 -4.541566311085262 -28.513587591214673 0 -28.513587591214673 0.012168188718796567 0 0 0 0 -0.19735889001210616 0.25780131810722295 0 0.25780131810722295 0.15502213440947799 0 0 0 0 29.446192511861227 -9.3959422612661001 0 -9.3959422612661001 -8.2009919655356498 0 0 0 0 -9.2307305269659992 -20.521016240238168 0 -20.521016240238168 -8.6284320005171367 0 0 0 0 -10.007411287936975 -25.421620060873465 0 -25.421620060873465 -15.428812474081496 0 0 0 0 -7.2564054405361276 -20.961257613355883 0 -20.961257613355883 -16.048185484125497 0 0 0 0 -3.7959810755342005 -18.847894484849348 0 -18.847894484849348 -13.265805507946425 0 0 0 0 -0.12785494742707115 0.15311541326836675 0 0.15311541326836675 0.082075818549128599 0 0 0 0 -16.689179830646026 -16.169959278242459 0 -16.169959278242459 -13.806455821933014 0 0 0 0 -38.081757727397417 -22.279303616843208 0 -22.279303616843208 -3.7901096597979631 0 0 0 0 -10.69001589716845 -24.461596806259422 0 -24.461596806259422 -9.0568814054677205 0 0 0 0 5.5330572641734008 -7.7582214035639652 0 -7.7582214035639652 7.0929667670698251 0 0 0 0 -2.8061796822239558 -11.209920007404435 0 -11.209920007404435 -7.6751050312375355 0 0 0 0 -9.5840417228532715 -15.761426220794874 0 -15.761426220794874 18.182266521299425 0 0 0 0 15.199044497041086 -10.049900149885843 0 -10.049900149885843 -16.483629800351991 0 0 0 0 -5.3514666215137794 -1.6701533424884722 0 -1.6701533424884722 1.1624797728308316 0 0 0 0 7.4073341617544202 -58.345934831601653 0 -58.345934831601653 17.583655339705729 0 0 0 0 -9.063361954949869 -35.020787870590539 0 -35.020787870590539 16.699262482954509 0 0 0 0 2.9294681128376396 -27.553984246686014 0 -27.553984246686014 14.738391215400043 0 0 0 0 -12.483193099019545 -8.5376392290932372 0 -8.5376392290932372 -1.2480885786930074 0 0 0 0 0.80615862155197604 -1.2249000011924736 0 -1.2249000011924736 -2.3449264410192185 0 0 0 0 18.567268152926772 -22.715078272830397 0 -22.715078272830397 14.935531572411492 0 0 0 0 -4.5584679662995313 -27.948850558037634 0 -27.948850558037634 -14.407775663756183 0 0 0 0 -7.6562288190762047 -17.450847696938581 0 -17.450847696938581 12.985592592471221 0 0 0 0 5.1176525495902467 -10.317468832612345 0 -10.317468832612345 -2.5456445190294907 0 0 0 0 -16.672487483288933 -21.377179589047955 0 -21.377179589047955 5.2383958054433606 0 0 0 0 -13.595378187186725 -25.856618297824753 0 -25.856618297824753 -21.827878546714601 0 0 0 0 -11.864471240278959 -11.092329800770411 0 -11.092329800770411 -2.3044443360421045 0 0 0 0 -12.558486543196977 -21.052346173519254 0 -21.052346173519254 -1.5227812828052265 0 0 0 0 0.44201947020337684 -36.669300102734269 0 -36.669300102734269 -13.853023429557652 0 0 0 0 -4.1299254385265662 -1.2553569298930878 0 -1.2553569298930878 6.8215733489363899 0 0 0 0 3.6554639203932311 -12.312474293132254 0 -12.312474293132254 3.1848832476116513 0 0 0 0 -2.0930769980532204 -3.7177814360529737 0 -3.7177814360529737 -8.8300674315360084 0 0 0 0 -0.081711758644814836 -17.998196817779899 0 -17.998196817779899 5.5121628633587534 0 0 0 0 -47.375570383632294 23.808444749098271 0 23.808444749098271 -7.1694072596819751 0 0 0 0 -49.15276768071999 -23.920403488670672 0 -23.920403488670672 62.048560133459887 0 0 0 0 11.16884830859567 -22.845029758482838 0 -22.845029758482838 21.286091282741836 0 0 0 0 -63.865614202237339 -49.773451893543097 0 -49.773451893543097 12.276932181726806 0 0 0 0 -5.9750770579303207 -24.738578902253721 0 -24.738578902253721 -13.263130372059095 0 0 0 0 -80.802288571398094 -71.124456470160112 0 -71.124456470160112 -37.732080835919987 0 0 0 0 41.53776358767027 -117.53880671740308 0 -117.53880671740308 11.439312276459532 0 0 0 0 0.30319120952984946 0.43930753691662261 0 0.43930753691662261 0.64439735227986006 0 0 0 0 -126.90081537895821 26.266443868629722 0 26.266443868629722 5.8775228120102838 0 0 0 0 -228.34976199772791 -157.72320005411166 0 -157.72320005411166 67.313597781583667 0 0 0 0 1.8767641473351375 -3.9382327399141133 0 -3.9382327399141133 3.3473590957827568 0 0 0 0 -17.121891981159933 -90.886844783626657 0 -90.886844783626657 -54.915469066549804 0 0 0 0 16.768657256017832 -112.57412328565317 0 -112.57412328565317 -13.18477593701391 0 0 0 0 -155.31436308623961 -43.330001750262454 0 -43.330001750262454 -37.196891388460244 0 0 0 0 96.459759658850089 128.95211083533286 0 128.95211083533286 65.450545897175687 0 0 0 0 -0.12656755389188135 -0.72925798318532919 0 -0.72925798318532919 0.9221308331039495 0 0 0 0 12.334927703859648 -3.4831880378742426 0 -3.4831880378742426 -5.2186256507256985 0 0 0 0 0.249644892215656 -0.30361720632616951 0 -0.30361720632616951 -1.2588747214572074 0 0 0 0 -27.777876093321538 -42.122136012963892 0 -42.122136012963892 -57.041539565925632 0 0 0 0 8.6196876887279359 -10.973234133090955 0 -10.973234133090955 1.0328550809117587 0 0 0 0 6.6267704816818878 -16.767241149451365 0 -16.767241149451365 8.3447111742066227 0 0 0 0 21.28214510007831 -30.713292619566516 0 -30.713292619566516 10.546224208492276 0 0 0 0 -11.443132436144481 -6.8713474569977455 0 -6.8713474569977455 -3.0330807203311458 0 0 0 0 19.666664987253171 -17.025809442662649 0 -17.025809442662649 -7.0233385284377619 0 0 0 0 -4.0602304276214909 -35.448738478518862 0 -35.448738478518862 23.268679349093873 0 0 0 0 -46.361238690793471 -28.308543532339172 0 -28.308543532339172 8.9853106358341392 0 0 0 0 -4.6569065333369508 -20.51013221600806 0 -20.51013221600806 10.358261471017613 0 0 0 0 -18.266185653053981 -8.554305148977619 0 -8.554305148977619 1.1649707727729037 0 0 0 0 21.517111132514401 -23.207203494837813 0 -23.207203494837813 -12.871819683100512 0 0 0 0 13.486172552877179 -45.426863894795133 0 -45.426863894795133 7.4776754487531889 0 0 0 0 -10.240635186455876 -6.6216881382260704 0 -6.6216881382260704 -0.60413774882105997 0 0 0 0 -4.7186661232426559 -24.366762930125333 0 -24.366762930125333 31.903054605748139 0 0 0 0 -23.452238175844286 -24.74806901363354 0 -24.74806901363354 32.070496743353942 0 0 0 0 7.4384236378336936 -36.20615843745145 0 -36.20615843745145 34.163060563681938 0 0 0 0 -19.706753510796261 -5.4235857609510276 0 -5.4235857609510276 14.706841075139891 0 0 0 0 -2.2638983886030655 0.2882377719019118 0 0.2882377719019118 0.51892002599559817 0 0 0 0 0.83908495120522275 -26.885454961342475 0 -26.885454961342475 53.261549594841199 0 0 0 0 22.598249304222918 -13.175082172054317 0 -13.175082172054317 -12.452817446534027 0 0 0 0 1.9364414593606547 -0.52041438106542337 0 -0.52041438106542337 1.4647240167289297 0 0 0 0 -6.5240382422462062 9.6001868621742688 0 9.6001868621742688 -5.139057493963719 0 0 0 0 16.960693097301373 -6.1601606569024625 0 -6.1601606569024625 9.7258286915748613 0 0 0 0 3.0940357896742814 -11.106998543121756 0 -11.106998543121756 5.2785391461655209 0 0 0 0 -4.8970177488217814 -6.4450758426019092 0 -6.4450758426019092 3.3749156901994866 0 0 0 0 -14.091285083333787 4.2341900641645225 0 4.2341900641645225 -4.3200147970219405 0 0 0 0 -194.22410487477464 -54.54204179599401 0 -54.54204179599401 32.62661280420798 0 0 0 0 -68.601986817599936 -50.315720662482363 0 -50.315720662482363 10.176436202338664 0 0 0 0 -51.564886876799392 -83.844267127669809 0 -83.844267127669809 -25.645010942826048 0 0 0 0 106.40414799609243 -45.517849065063274 0 -45.517849065063274 -134.97568317819605 0 0 0 0 19.099927019315146 -12.434040093742624 0 -12.434040093742624 -11.485206662056953 0 0 0 0 24.564350786869909 0.60555296847087448 0 0.60555296847087448 11.546585379573571 0 0 0 0 3.1491810953034474 -22.112436440093916 0 -22.112436440093916 5.2263488437019987 0 0 0 0 8.6902896403817067 -33.980596972127842 0 -33.980596972127842 -0.77934055366495159 0 0 0 0 -14.976071028009756 -34.924703971677445 0 -34.924703971677445 4.4194624365463824 0 0 0 0 -3.804957646881121 -24.628733066150289 0 -24.628733066150289 4.5464817518786731 0 0 0 0 -27.464145879550415 -24.262507382672993 0 -24.262507382672993 18.960319484966021 0 0 0 0 -29.897981892264397 -10.226867145646111 0 -10.226867145646111 25.795047846404486 0 0 0 0 -22.91045988564656 -60.442276487450727 0 -60.442276487450727 -18.002445684623126 0 0 0 0 -42.564294518040697 -26.367562907929823 0 -26.367562907929823 23.086934955492325 0 0 0 0 -21.803413051782627 -22.629636855575882 0 -22.629636855575882 17.838841196147769 0 0 0 0 -15.615847018319073 -1.4838938186157975 0 -1.4838938186157975 30.429881929761905 0 0 0 0 -10.422863501555184 -8.2094973796201884 0 -8.2094973796201884 17.273216951138238 0 0 0 0 -5.8500652065195027 0.17201311561711918 0 0.17201311561711918 21.949398802595169 0 0 0 0 3.690752113840972 -37.940020076339351 0 -37.940020076339351 -102.30881581524591 0 0 0 0 -3.0727005508615548 -6.9435785146788476 0 -6.9435785146788476 -63.839396720542936 0 0 0 0 -1.9275939847401773 -0.0038181307877067638 0 -0.0038181307877067638 -0.24920285665332464 0 0 0 0 -38.634674040073605 -16.776874283156303 0 -16.776874283156303 39.770134089634666 0 0 0 0 -4.8604927516207681 -29.348464158712886 0 -29.348464158712886 12.714882963200353 0 0 0 0 5.9162746040610728 -7.8747820870430587 0 -7.8747820870430587 3.2069281063777453 0 0 0 0 -8.6687336339946341 -20.5528790014896 0 -20.5528790014896 4.65960048453951 0 0 0 0 3.9251121296680012 -4.4417784637515823 0 -4.4417784637515823 5.1490486969717466 0 0 0 0 -6.3592362790263905 -18.414011786903757 0 -18.414011786903757 18.679907558976993 0 0 0 0 -5.9570415155916407 -27.133592104489708 0 -27.133592104489708 7.278112428735767 0 0 0 0 -6.4539028396075082 -17.122383024733608 0 -17.122383024733608 9.9723084107754403 0 0 0 0 -6.5197452024842732 -30.19209959930231 0 -30.19209959930231 29.938817762787949 0 0 0 0 -21.688544610049576 -22.21362307387335 0 -22.21362307387335 -2.968067733980206 0 0 0 0 -22.253358476885296 -28.956661869863638 0 -28.956661869863638 -15.726253593056754 0 0 0 0 1.9311518540610777 -2.0044321297004615 0 -2.0044321297004615 1.9047718177303068 0 0 0 0 90.547064209413293 7.1526113871750567 0 7.1526113871750567 -49.87417628897856 0 0 0 0 88.530812013208561 -131.99080412827789 0 -131.99080412827789 -301.166058968789 0 0 0 0 -27.127598326028419 -16.115237541446731 0 -16.115237541446731 -6.0069580638955813 0 0 0 0 -30.16717597787374 -20.139933416853637 0 -20.139933416853637 -0.028184131944726687 0 0 0 0 -19.844859903801989 -23.279220896924016 0 -23.279220896924016 0.0015525133030719347 0 0 0 0 -7.2218964924609281 -19.669386027639348 0 -19.669386027639348 -11.090521540838381 0 0 0 0 -15.979394033231074 -56.431341296260143 0 -56.431341296260143 0.079688396446726983 0 0 0 0 67.741605864044686 62.106350000207385 0 62.106350000207385 -17.057083033552772 0 0 0 0 0.093906251555601727 -0.23153363702794039 0 -0.23153363702794039 0.58722830646181734 0 0 0 0 62.255893537429074 -57.978018525620428 0 -57.978018525620428 -54.090571747992726 0 0 0 0 -2.3989150223228464 0.073161569444472718 0 0.073161569444472718 -0.28293797149642552 0 0 0 0 66.568944878112234 -39.426504271537851 0 -39.426504271537851 -199.85009334986353 0 0 0 0 -30.376538003409223 -21.472743844944489 0 -21.472743844944489 67.72386477658597 0 0 0 0 -243.24009424401993 -143.69334229316792 0 -143.69334229316792 113.65450405885713 0 0 0 0 -55.834783010593128 -56.541061611577788 0 -56.541061611577788 19.632456371706212 0 0 0 0 -22.551907502365793 1.102896392261755 0 1.102896392261755 -84.203782376398522 0 0 0 0 -20.971593584922147 -43.235459972259576 0 -43.235459972259576 -31.185801863601228 0 0 0 0 5.4747972438490251 -6.5006365428553181 0 -6.5006365428553181 21.021156433147553 0 0 0 0 -4.1565481206926052 -19.966146983933868 0 -19.966146983933868 15.882584192885588 0 0 0 0 -6.1754341819550973 -1.8294367978996888 0 -1.8294367978996888 41.107289270606998 0 0 0 0 -3.4383073978660832 -13.31822339993596 0 -13.31822339993596 20.418395080123446 0 0 0 0 -13.307084355461484 -17.036421214266738 0 -17.036421214266738 30.187667463253092 0 0 0 0 -13.414450448921343 -19.572987071853277 0 -19.572987071853277 18.834168229470379 0 0 0 0 -8.8452396948923706 -14.6553966578158 0 -14.6553966578158 14.168160223114683 0 0 0 0 -9.5605017175757894 -19.166644937718615 0 -19.166644937718615 16.678598791058903 0 0 0 0 -11.215711925502546 -19.145724484925267 0 -19.145724484925267 14.612688191140478 0 0 0 0 -7.9099945866364578 -17.98369911966256 0 -17.98369911966256 14.568266069098172 0 0 0 0 -14.979215367135112 -12.377614953018565 0 -12.377614953018565 13.74806042182172 0 0 0 0 -2.9444026143974042 -19.056586888714264 0 -19.056586888714264 14.05275226133017 0 0 0 0 -3.2286056037373783 -26.35313463737748 0 -26.35313463737748 9.5556684282037168 0 0 0 0 -6.8674302324070595 -24.336177976238787 0 -24.336177976238787 8.4947615992969077 0 0 0 0 -1.9696574828146822 -22.682119007420511 0 -22.682119007420511 3.3892036196557456 0 0 0 0 5.9350328992780437 -12.178805069452057 0 -12.178805069452057 7.8820952618461035 0 0 0 0 -6.0019401415229368 -25.441600192863007 0 -25.441600192863007 7.360697630055256 0 0 0 0 -3.8690608833398983 -30.415925662350674 0 -30.415925662350674 -0.91692736294317001 0 0 0 0 -8.7473123713511995 -32.095372040867915 0 -32.095372040867915 1.0244845044508111 0 0 0 0 -0.84740959272949112 -37.309070141570373 0 -37.309070141570373 -3.8672422133404325 0 0 0 0 5.9322272016975148 -16.340765305340938 0 -16.340765305340938 9.1274893017271097 0 0 0 0 18.017825948687914 -12.409898094685559 0 -12.409898094685559 -4.7035864840081558 0 0 0 0 -17.76816050913294 -14.364995104398986 0 -14.364995104398986 19.328950802134386 0 0 0 0 6.1510290988199934 -13.305147133174017 0 -13.305147133174017 8.9515231869377345 0 0 0 0 -17.238895360917013 -27.19742713125197 0 -27.19742713125197 -27.576891275464732 0 0 0 0 -5.1399112713324939 -21.291451638172248 0 -21.291451638172248 22.691808694335123 0 0 0 0 -13.593067367146432 -34.56887781106343 0 -34.56887781106343 -50.243159524544581 0 0 0 0 -7.0119327777209435 -2.8463287817909197 0 -2.8463287817909197 1.5926618581305716 0 0 0 0 20.167985240492726 -8.1892394447531842 0 -8.1892394447531842 -10.841869491203397 0 0 0 0 10.155941187187636 -7.9677705834528751 0 -7.9677705834528751 -4.9015672031819122 0 0 0 0 0.95175993216636989 -1.410411471440888 0 -1.410411471440888 -0.89108802115140406 0 0 0 0 11.754297277180083 -7.7520315131647202 0 -7.7520315131647202 -0.24396433017709773 0 0 0 0 -14.213423111453267 -24.402137520976794 0 -24.402137520976794 -0.051631942851599888 0 0 0 0 7.059342708065742 -21.293270197544189 0 -21.293270197544189 -21.216905528550342 0 0 0 0 -21.210548609513353 -36.956892853630052 0 -36.956892853630052 -28.222368353783168 0 0 0 0 -21.225383802666329 -41.565695683784725 0 -41.565695683784725 -19.610590274838614 0 0 0 0 6.2006717531285176 -8.8562117052924805 0 -8.8562117052924805 -2.3155316020747705 0 0 0 0 7.0507408260928059 -10.532573393920757 0 -10.532573393920757 -0.0011608031218202086 0 0 0 0 5.1691143062912488 -13.856121957223536 0 -13.856121957223536 -4.4334276860172395 0 0 0 0 10.449676620564787 -8.3702363293687085 0 -8.3702363293687085 -7.1804539525228392 0 0 0 0 8.4555255602517718 -7.5800986210565497 0 -7.5800986210565497 -1.8088822314712161 0 0 0 0 8.7616970327869232 -6.2572134721755042 0 -6.2572134721755042 -0.97167757592415249 0 0 0 0 8.2285340149983313 -7.8393329224418267 0 -7.8393329224418267 -2.101817869290926 0 0 0 0 -34.155405725907258 -45.500407636758609 0 -45.500407636758609 -39.821943660249644 0 0 0 0 -44.811354821387795 -26.29086578740953 0 -26.29086578740953 -72.644819181114144 0 0 0 0 -51.08464687083324 -56.22102641978563 0 -56.22102641978563 -30.225582700168161 0 0 0 0 -52.31423105475551 -49.326087774767075 0 -49.326087774767075 -39.312844197767845 0 0 0 0 -97.261700738071852 -72.546079846189116 0 -72.546079846189116 -48.273940127979586 0 0 0 0 16.435920394980712 -18.044121436350906 0 -18.044121436350906 -31.303378121883725 0 0 0 0 1.0346855319785391 -43.373346500835396 0 -43.373346500835396 -53.873787519329198 0 0 0 0 -9.2557274874561699 -51.447124813174014 0 -51.447124813174014 -23.998213398663211 0 0 0 0 -16.422142217477813 -47.787899129560174 0 -47.787899129560174 -18.069721097076581 0 0 0 0 -16.110646584936376 -47.78815849646594 0 -47.78815849646594 -33.700386707652797 0 0 0 0 -20.418939555141151 -46.217078125170701 0 -46.217078125170701 -14.302770460271859 0 0 0 0 -26.750234207014728 -59.3863352760618 0 -59.3863352760618 -7.3354413864799426 0 0 0 0 -45.966297618645285 -41.593503459763724 0 -41.593503459763724 -24.097764935402665 0 0 0 0 -86.698933854577263 -64.325693488914112 0 -64.325693488914112 -26.555823832736678 0 0 0 0 -43.178111289584194 -58.742824271152131 0 -58.742824271152131 -21.196119325310065 0 0 0 0 -72.125098420841823 -10.602601041156959 0 -10.602601041156959 -6.06744516411527 0 0 0 0 -47.656411651716553 -53.399338918896319 0 -53.399338918896319 -15.614098840474981 0 0 0 0 -22.211040604448499 -16.614864840143127 0 -16.614864840143127 -5.5394503307470586 0 0 0 0 -21.271883002926188 -55.083482871032174 0 -55.083482871032174 -0.41306100365363818 0 0 0 0 -39.157607068169455 -44.427046392595912 0 -44.427046392595912 -6.2119509663043573 0 0 0 0 -29.10628726649702 -53.463988454070204 0 -53.463988454070204 10.672118608339588 0 0 0 0 -13.36742886654838 -48.081982246191274 0 -48.081982246191274 26.337151747982716 0 0 0 0 -4.6532327100799193 -50.871552978444015 0 -50.871552978444015 10.492225551119191 0 0 0 0 -24.87407456883102 -65.399909468861551 0 -65.399909468861551 29.073765096994975 0 0 0 0 -42.031087534742255 -47.630927035477725 0 -47.630927035477725 11.717634205739159 0 0 0 0 -20.965046933861913 -53.14909263950949 0 -53.14909263950949 10.426779150147922 0 0 0 0 -19.776059395980155 -53.769928791306484 0 -53.769928791306484 -3.6994222045977949 0 0 0 0 -12.821380718273986 -31.905424709105091 0 -31.905424709105091 4.3286463442073 0 0 0 0 -20.674430221235525 -46.374094093148415 0 -46.374094093148415 -5.4546041404971675 0 0 0 0 6.159037348276339 -12.028157248511064 0 -12.028157248511064 6.2739896386946015 0 0 0 0 -29.973928355065027 -28.043790844347086 0 -28.043790844347086 5.0128382495731785 0 0 0 0 -30.50928816612759 -28.118526937429124 0 -28.118526937429124 6.1255391755705659 0 0 0 0 -29.814478764363685 -32.73656283723858 0 -32.73656283723858 24.459091110107693 0 0 0 0 -42.733741939845004 -6.8868312746417359 0 -6.8868312746417359 36.200125227926037 0 0 0 0 -68.273182045626527 -25.650037778080332 0 -25.650037778080332 24.409464203717107 0 0 0 0 -24.017779142061954 -17.76446566154209 0 -17.76446566154209 4.6097915176949584 0 0 0 0 -35.643140097618016 -18.102709221699797 0 -18.102709221699797 17.862222923229638 0 0 0 0 -22.088323493596363 -10.146387567812781 0 -10.146387567812781 7.9098401901351281 0 0 0 0 0.75267071369239602 25.04077583396429 0 25.04077583396429 38.840641702763605 0 0 0 0 -156.36288634715356 -112.13145667775279 0 -112.13145667775279 -46.99410093069946 0 0 0 0 -0.0011566343777751342 0.24998850205862055 0 0.24998850205862055 -0.46579272783100834 0 0 0 0 -127.36859027278842 -60.073748176893787 0 -60.073748176893787 -6.7853205220926611 0 0 0 0 -31.588150405169927 -31.337230225289204 0 -31.337230225289204 -11.100564150525315 0 0 0 0 -24.216465088015411 -70.298949427901334 0 -70.298949427901334 -95.465766747705857 0 0 0 0 82.45259229320618 -174.36256120625058 0 -174.36256120625058 -32.924762324392759 0 0 0 0 -117.93078962377876 -134.85712461593539 0 -134.85712461593539 6.1724731217782391 0 0 0 0 40.014406612654057 -8.1760215513550065 0 -8.1760215513550065 35.164866646708333 0 0 0 0 218.56068147225687 -62.044618483138152 0 -62.044618483138152 -63.339412158640698 0 0 0 0 -70.067755034953734 -58.207096715509579 0 -58.207096715509579 31.925862457394715 0 0 0 0 -0.42197788353860233 -86.748968431402091 0 -86.748968431402091 2.6172424395153939 0 0 0 0 -69.445552038928327 -129.08708042977378 0 -129.08708042977378 -102.92005222861371 0 0 0 0 -53.120149263661858 -119.21184655242496 0 -119.21184655242496 -104.250825059411 0 0 0 0 -29.433417317853127 -24.560122441310341 0 -24.560122441310341 -50.797310319861936 0 0 0 0 -88.060854872699565 -124.57433593423229 0 -124.57433593423229 -89.530261454922766 0 0 0 0 2.4988648582850361 -2.1636138913086853 0 -2.1636138913086853 0.020533779544120279 0 0 0 0 118.73134853341617 4.8720871210098267 0 4.8720871210098267 -18.11120703774759 0 0 0 0 -51.838239660733706 -101.97808431226176 0 -101.97808431226176 -133.07748528362754 0 0 0 0 -244.8168889702938 -55.804927393847606 0 -55.804927393847606 -42.48631796650443 0 0 0 0 -76.282816608547364 -64.346942480080543 0 -64.346942480080543 -148.44004145503368 0 0 0 0 -68.820146164930975 -85.131254616630031 0 -85.131254616630031 -95.727904300043519 0 0 0 0 -82.171018201654078 -100.98381080070703 0 -100.98381080070703 -114.36586777793673 0 0 0 0 -81.376201256080321 -107.28685835517183 0 -107.28685835517183 -78.917195650652502 0 0 0 0 -141.4732496415636 -109.66506604308415 0 -109.66506604308415 -46.586936243342734 0 0 0 0 -88.442563805549071 -60.041061528475439 0 -60.041061528475439 -24.760979700193275 0 0 0 0 -334.69213959583612 -99.505199426910622 0 -99.505199426910622 16.790227993618828 0 0 0 0 -19.457632599759563 -0.36664515600477898 0 -0.36664515600477898 14.062378794602409 0 0 0 0 -116.35794577165984 5.643988164106986 0 5.643988164106986 -7.1786252222336771 0 0 0 0 -3.6919964325204333 -0.29119090835777683 0 -0.29119090835777683 0.72000583889614234 0 0 0 0 -7.4185042518865885 -12.784250110448056 0 -12.784250110448056 -4.5280232532622904 0 0 0 0 -2.7349515536955789 -6.6908257964282623 0 -6.6908257964282623 -1.4288096696518693 0 0 0 0 -125.08368722607247 59.179861767646798 0 59.179861767646798 28.815713266434614 0 0 0 0 3.0117443541903413 -50.758511565644767 0 -50.758511565644767 -9.913421614247909 0 0 0 0 -951.03743036584638 -85.563234096956876 0 -85.563234096956876 -8.94293542761352 0 0 0 0 -1.6706800489225735 -1.708249421310704 0 -1.708249421310704 -1.1807542914586868 0 0 0 0 -0.43284571884674961 -6.6226767972379434 0 -6.6226767972379434 2.5814039628884942 0 0 0 0 -146.01690770862706 -220.70719220679757 0 -220.70719220679757 -190.52585265079324 0 0 0 0 -146.26663855904917 -309.25378056909722 0 -309.25378056909722 -452.20815227919229 0 0 0 0 -62.726760641406145 -128.38939322982333 0 -128.38939322982333 -162.72766349074027 0 0 0 0 -36.759562585913955 -106.80083277939411 0 -106.80083277939411 -230.72409740056355 0 0 0 0 -8.9529415605247777 35.304952342520892 0 35.304952342520892 -89.845386457185668 0 0 0 0 -617.64783789026342 -443.00802772401539 0 -443.00802772401539 -750.60938094438825 0 0 0 0 -29.97464818773733 -11.140664998620196 0 -11.140664998620196 31.582927152706702 0 0 0 0 30.399454368054649 -38.332461354549196 0 -38.332461354549196 -237.9593715629353 0 0 0 0 -0.2362842818295956 -0.94000266325679149 0 -0.94000266325679149 -2.667900377592602 0 0 0 0 -70.274839825284289 120.98923221218115 0 120.98923221218115 -53.722391912775493 0 0 0 0 -631.11269462080054 -356.0796245109741 0 -356.0796245109741 -54.331801128666598 0 0 0 0 -0.90125502476621477 70.389018855293671 0 70.389018855293671 -512.45843153915848 0 0 0 0 -0.2377071829166475 -2.7829363693965687 0 -2.7829363693965687 -4.5772768072251999 0 0 0 0 -1165.5679900459445 -225.09459178577799 0 -225.09459178577799 555.62262269559506 0 0 0 0 -44.281640922592487 -347.1347011957987 0 -347.1347011957987 -897.4148250545295 0 0 0 0 -593.22857977868625 -757.71341274393308 0 -757.71341274393308 -487.54200412528371 0 0 0 0 36.294476593181571 -136.49907799639459 0 -136.49907799639459 -367.28970732354719 0 0 0 0 -176.47822155654285 -391.52416357840775 0 -391.52416357840775 -384.83400269559615 0 0 0 0 -40.305552370055011 -201.62860636658479 0 -201.62860636658479 -127.68064279196551 0 0 0 0 -195.23956996738707 -230.19242330705379 0 -230.19242330705379 -95.733737517279224 0 0 0 0 -226.1761356109273 -92.107563189827488 0 -92.107563189827488 165.85622555726877 0 0 0 0 -291.71539958256835 283.44218744175396 0 283.44218744175396 496.91698643792552 0 0 0 0 -433.40430129391825 -256.86739014550221 0 -256.86739014550221 34.863021169825515 0 0 0 0 -258.99339724234596 -312.42650471030402 0 -312.42650471030402 52.501794805761165 0 0 0 0 -549.84517730672178 53.864985384515876 0 53.864985384515876 372.29924412821128 0 0 0 0 -91.6765115300459 114.81094380277136 0 114.81094380277136 187.25239652095843 0 0 0 0 -211.38459459172418 50.722401946437913 0 50.722401946437913 164.97302728146315 0 0 0 0 -40.812115586490108 77.911464398706812 0 77.911464398706812 156.42707079015599 0 0 0 0 -162.49695447379418 36.050469572795919 0 36.050469572795919 162.69582995044038 0 0 0 0 -184.88905259001331 -43.435509709479902 0 -43.435509709479902 112.76021092775773 0 0 0 0 -135.66626970525613 4.9614688544752426 0 4.9614688544752426 123.27064692880595 0 0 0 0 -157.9791218060127 -13.825961085880408 0 -13.825961085880408 136.73787571904904 0 0 0 0 -159.89802303482384 -76.766970430268145 0 -76.766970430268145 42.609564355458133 0 0 0 0 -43.099749391218211 0.40613055220092065 0 0.40613055220092065 80.239285031755571 0 0 0 0 -59.064466855310457 -97.27534805653886 0 -97.27534805653886 31.404118665330316 0 0 0 0 -4.4450830099060248 -0.97206924183338916 0 -0.97206924183338916 -2.713554958251521 0 0 0 0 -1.807545677101313 -5.1995886949069359 0 -5.1995886949069359 2.2810881319133678 0 0 0 0 -18.343619358716751 -11.346403563448803 0 -11.346403563448803 31.564171772030988 0 0 0 0 157.87107860615288 77.948657005598761 0 77.948657005598761 53.677107280429482 0 0 0 0 -7.6857938404209563 301.75905869008238 0 301.75905869008238 246.05365638323565 0 0 0 0 -62.445689775600897 -100.67261493514258 0 -100.67261493514258 6.776526878000368 0 0 0 0 -57.528238364887329 -58.935354219860528 0 -58.935354219860528 80.073617110461782 0 0 0 0 3.8743905466646407 -2.822469946317046 0 -2.822469946317046 0.667992943147933 0 0 0 0 9.0505097014511193 17.373273692974635 0 17.373273692974635 -91.737563566612152 0 0 0 0 41.308419497731393 -26.903813156003707 0 -26.903813156003707 -51.56813139060614 0 0 0 0 57.633312317311265 -4.1879139864313402 0 -4.1879139864313402 -20.981721824201713 0 0 0 0 56.958860606385315 38.389469161418219 0 38.389469161418219 -27.967468995835588 0 0 0 0 128.48599250205916 -13.09715422683621 0 -13.09715422683621 -51.535974868752866 0 0 0 0 30.907173275834793 -76.028356136453567 0 -76.028356136453567 91.340999240399469 0 0 0 0 1.7466929627712293 -0.13625426572309784 0 -0.13625426572309784 -0.0014890835730907437 0 0 0 0 94.224343898782536 -45.284178834370323 0 -45.284178834370323 -43.782081616860523 0 0 0 0 212.41553440899429 -18.275617607480399 0 -18.275617607480399 -38.351523868579534 0 0 0 0 176.59408799026914 -93.151074691719259 0 -93.151074691719259 -65.537615019842633 0 0 0 0 133.84492225046597 -127.39312824507579 0 -127.39312824507579 -60.532055949977803 0 0 0 0 57.510107790829352 45.100003489111259 0 45.100003489111259 70.49713323051617 0 0 0 0 -36.960929354378095 19.381122102706286 0 19.381122102706286 15.449684733088134 0 0 0 0 -19.036967016462313 -31.01185326464747 0 -31.01185326464747 12.000685229328155 0 0 0 0 -3.0421001968704786 -43.415978913721119 0 -43.415978913721119 -27.367500524953357 0 0 0 0 -96.923045347205516 -23.120300138397852 0 -23.120300138397852 35.80331606895561 0 0 0 0 48.773117511704527 -49.239344393210786 0 -49.239344393210786 -8.2503608559782151 0 0 0 0 46.501822503808398 -15.446434184778809 0 -15.446434184778809 -5.4146159786250792 0 0 0 0 2.5158152625754155 -29.442229693946501 0 -29.442229693946501 5.8756664697989436 0 0 0 0 -60.806607550374338 -45.727412024812111 0 -45.727412024812111 2.5203860249930585 0 0 0 0 114.14666793695619 -122.8789614115492 0 -122.8789614115492 -34.467097127322631 0 0 0 0 127.49944487821267 -134.56248122724719 0 -134.56248122724719 -9.6642578155297088 0 0 0 0 86.005781734862467 -105.28180263782451 0 -105.28180263782451 11.44934542188912 0 0 0 0 130.98502130611087 -114.98841987109699 0 -114.98841987109699 -33.628827565979009 0 0 0 0 138.23441154297871 -133.53150554879176 0 -133.53150554879176 -25.294630873571805 0 0 0 0 131.51061919617496 -114.84274144115625 0 -114.84274144115625 -41.047018690944242 0 0 0 0 145.45111676318948 -84.480817139613009 0 -84.480817139613009 -28.210215942955983 0 0 0 0 73.145368281766423 -60.895714160320495 0 -60.895714160320495 -3.9295037556439638 0 0 0 0 72.525295643696154 -77.122099134849122 0 -77.122099134849122 -12.351050504716113 0 0 0 0 89.631875725219288 -92.349376033165754 0 -92.349376033165754 0.69333427393758029 0 0 0 0 39.98744390801312 -70.260065110593132 0 -70.260065110593132 38.736588820958787 0 0 0 0 102.6910616694704 -146.25852308053436 0 -146.25852308053436 105.05909610330855 0 0 0 0 91.261313140528728 -54.386255889834501 0 -54.386255889834501 41.725136794770151 0 0 0 0 -2.4152662475135003 3.6737827620145254 0 3.6737827620145254 -1.714708067554966 0 0 0 0 10.033110141119778 -35.006984052302869 0 -35.006984052302869 10.900373878810569 0 0 0 0 78.354416984059753 -75.751650014135521 0 -75.751650014135521 47.804779555122877 0 0 0 0 47.075580403001368 -66.678234137039908 0 -66.678234137039908 73.046393714330407 0 0 0 0 40.193479090281926 -29.521055885477381 0 -29.521055885477381 24.994094391786348 0 0 0 0 39.018835883665815 -40.390803312027856 0 -40.390803312027856 6.8599400101320498 0 0 0 0 42.184449853911303 -25.849332432620656 0 -25.849332432620656 6.082100606901804 0 0 0 0 -8.9380293132042539 -22.579385985996126 0 -22.579385985996126 -8.9401927158461874 0 0 0 0 -34.910567119636198 15.939670634391405 0 15.939670634391405 -36.610708903173872 0 0 0 0 -86.549675072176569 17.727394047881944 0 17.727394047881944 6.7752035854136921 0 0 0 0 -52.185533349521393 -8.3882962936381773 0 -8.3882962936381773 3.7486814492112899 0 0 0 0 -63.914577378085141 -26.19036061765928 0 -26.19036061765928 -3.2599477752046369 0 0 0 0 -33.180999253218943 -22.998084626304262 0 -22.998084626304262 -31.889846276462777 0 0 0 0 4.5076065240600656 -19.414463673754653 0 -19.414463673754653 -14.875695436085152 0 0 0 0 6.4263794189691907 -3.1183553947585096 0 -3.1183553947585096 -23.325521793425196 0 0 0 0 24.584378418827328 -8.2488390569692456 0 -8.2488390569692456 -9.9358431581749755 0 0 0 0 -6.9724396955839438 2.0939983698035576 0 2.0939983698035576 -15.320428726394312 0 0 0 0 -25.72965507592744 -5.7955460760235837 0 -5.7955460760235837 41.853632973982258 0 0 0 0 -46.973069716774262 -8.1378356173613611 0 -8.1378356173613611 48.553483093106934 0 0 0 0 -113.59249324069242 248.53540682113726 0 248.53540682113726 267.43430093011739 0 0 0 0 -0.39327118532416705 -0.81827782389603954 0 -0.81827782389603954 -1.3499994885526725 0 0 0 0 -74.46791673547159 -1.1057049930473113 0 -1.1057049930473113 -133.11632124271091 0 0 0 0 -113.36071945992262 18.038388535734839 0 18.038388535734839 11.429679489269802 0 0 0 0 -5.670255099218231 -3.158154044716909 0 -3.158154044716909 -1.5504021048712247 0 0 0 0 -20.726283080676865 -6.4681891633302229 0 -6.4681891633302229 43.046509420253642 0 0 0 0 -21.147249012657994 -22.237384300943177 0 -22.237384300943177 54.780048847372427 0 0 0 0 -3.9252224096669082 -3.5852949097465903 0 -3.5852949097465903 1.1735279981045288 0 0 0 0 -48.277389774681069 -11.643101083504916 0 -11.643101083504916 -11.158119561601779 0 0 0 0 -21.603357477788492 -16.752967982404154 0 -16.752967982404154 -10.796196938285917 0 0 0 0 -38.717646910527492 -43.763985869202429 0 -43.763985869202429 -34.031396217100337 0 0 0 0 -68.989136046906424 -10.542451188676296 0 -10.542451188676296 2.0929781546736876 0 0 0 0 -109.25114049495767 19.300235835214835 0 19.300235835214835 20.760196404011367 0 0 0 0 -22.901610741376544 7.7623853490049655 0 7.7623853490049655 8.6161895357089016 0 0 0 0 -11.320601303889159 -22.150190389334583 0 -22.150190389334583 -4.0324699963465349 0 0 0 0 12.935194136674909 44.999641216981217 0 44.999641216981217 120.88129910413409 0 0 0 0 -185.02464113338101 -21.971273259707232 0 -21.971273259707232 32.609873085076288 0 0 0 0 -61.468934312290003 -84.319762887492288 0 -84.319762887492288 -11.996565945366456 0 0 0 0 -36.867547927887244 -0.8154375104072642 0 -0.8154375104072642 -38.704786388490902 0 0 0 0 -49.156788377995326 -55.467166682618881 0 -55.467166682618881 -39.196912329132829 0 0 0 0 -97.469504133867304 37.113969241121595 0 37.113969241121595 152.06112615433631 0 0 0 0 -1.7308055372069298 -3.9107572464880214 0 -3.9107572464880214 -1.0492664019571034 0 0 0 0 -41.307627879046777 33.671879898687621 0 33.671879898687621 146.90754892964469 0 0 0 0 -52.877741073654761 49.933614388719434 0 49.933614388719434 133.11481484258434 0 0 0 0 -142.29025074627498 3.5179014164477849 0 3.5179014164477849 128.58961142145199 0 0 0 0 83.216033350850921 30.17731068244575 0 30.17731068244575 42.005908730054216 0 0 0 0 -72.443390075090065 40.869036871031312 0 40.869036871031312 -4.8420599942010085 0 0 0 0 66.758315274000779 78.386731740980395 0 78.386731740980395 42.538664772873744 0 0 0 0 -62.790406537067611 8.1034573499455291 0 8.1034573499455291 -42.79238142979375 0 0 0 0 -6.3266047497654228 -1.3295859457071835 0 -1.3295859457071835 2.0299505393151769 0 0 0 0 -30.653875860133276 -12.916578069720895 0 -12.916578069720895 -1.7476581794650015 0 0 0 0 -32.106233631064242 -14.770244543898116 0 -14.770244543898116 -10.70721100171636 0 0 0 0 -24.132021707189345 -1.9319050344716153 0 -1.9319050344716153 1.117219288771337 0 0 0 0 -43.756522612708068 -93.96866775791932 0 -93.96866775791932 -111.2014254698588 0 0 0 0 -130.95849170098609 -91.211498442654829 0 -91.211498442654829 -90.857235705005223 0 0 0 0 -46.716457751066628 -20.381118872385741 0 -20.381118872385741 17.178304100342757 0 0 0 0 -3.4510400674319683 -3.6788208306418184 0 -3.6788208306418184 0.70806871685887174 0 0 0 0 -33.564668784907553 -17.973938261802687 0 -17.973938261802687 -9.8463605862434633 0 0 0 0 -31.615200496315083 -16.057574021493565 0 -16.057574021493565 -9.1712512790745677 0 0 0 0 -31.463192902647279 -14.588688930291028 0 -14.588688930291028 -7.5271518839035707 0 0 0 0 -30.798164336276386 -17.202061301710273 0 -17.202061301710273 -11.024242870179478 0 0 0 0 -32.455964839984517 -9.0903911681657519 0 -9.0903911681657519 -1.1657508409880393 0 0 0 0 -39.175598238027305 -17.61840016249289 0 -17.61840016249289 -5.9193895870021151 0 0 0 0 -18.848891972884303 -14.277702640511507 0 -14.277702640511507 -10.531849327720465 0 0 0 0 -21.650653230950866 -19.314690695992454 0 -19.314690695992454 -9.8465206355567716 0 0 0 0 -33.189560017510303 -22.390361814177822 0 -22.390361814177822 66.687950848529908 0 0 0 0 -10.824403819404324 -17.914508057121793 0 -17.914508057121793 -9.7361681659749593 0 0 0 0 -35.952943086134837 -37.371366961809599 0 -37.371366961809599 -5.7057697939215473 0 0 0 0 0.56059668354042813 -0.15997677467231242 0 -0.15997677467231242 0.98010780427475552 0 0 0 0 0.41159208677715498 -0.55767738478425244 0 -0.55767738478425244 0.47660383211237445 0 0 0 0 26.222299647044565 -73.980304630689261 0 -73.980304630689261 -25.415343640539959 0 0 0 0 -20.103948318340272 -7.0996214478520159 0 -7.0996214478520159 99.029630465978698 0 0 0 0 25.368445765847355 -92.372526003857729 0 -92.372526003857729 17.519163646168636 0 0 0 0 -19.917374723638204 7.1139092190087467 0 7.1139092190087467 53.74498498095636 0 0 0 0 -60.726347999301652 -46.568359078835783 0 -46.568359078835783 -1.2981938272951083 0 0 0 0 1.3843716586251418 -0.95131745186612804 0 -0.95131745186612804 1.3462318917996399 0 0 0 0 -11.742604298677179 -9.2087801471325292 0 -9.2087801471325292 -35.770200027316832 0 0 0 0 1.994255405934382 -39.419257478344889 0 -39.419257478344889 29.567013282201515 0 0 0 0 1.1197161958243669 -19.542833315860662 0 -19.542833315860662 10.399783579099676 0 0 0 0 -30.240852867730609 -8.7586168555542372 0 -8.7586168555542372 54.201658805910483 0 0 0 0 -6.4381987876149651 -6.8646798442905492 0 -6.8646798442905492 -10.953347964397608 0 0 0 0 -56.136705083474226 -73.779592840978694 0 -73.779592840978694 -142.87535596395719 0 0 0 0 38.968697903232169 -88.550957325549462 0 -88.550957325549462 -342.35129612882065 0 0 0 0 0.016916932390813599 -180.42770879119598 0 -180.42770879119598 -156.85416803497765 0 0 0 0 -15.363440157363328 -2.7025170862816772 0 -2.7025170862816772 0.63853982602765136 0 0 0 0 0.93535360124374733 -0.99195216358191018 0 -0.99195216358191018 0.74369172284818319 0 0 0 0 -51.897995851493761 -25.265928465048773 0 -25.265928465048773 -40.224344656200628 0 0 0 0 -50.925242730310856 24.348156040076901 0 24.348156040076901 9.7189689099914176 0 0 0 0 -33.051321709192052 -20.071716964527241 0 -20.071716964527241 1.3637288598820305 0 0 0 0 0.26691732231029164 -49.029325415976018 0 -49.029325415976018 -51.604921175086929 0 0 0 0 0.95372086323972383 -1.496669486349294 0 -1.496669486349294 0.66623287402429909 0 0 0 0 22.250233538238717 -21.163117903305647 0 -21.163117903305647 -22.043229139255345 0 0 0 0 4.648832424532884 -16.152005184369045 0 -16.152005184369045 -80.205227240492832 0 0 0 0 11.302849234652967 -9.4664676425672951 0 -9.4664676425672951 -13.61302828078351 0 0 0 0 3.6527405738863123 -3.153761010201336 0 -3.153761010201336 0.45493252898885927 0 0 0 0 -27.450659563866793 -71.664681260000179 0 -71.664681260000179 -71.023987551376194 0 0 0 0 -2.283230298129638 -64.631909166268088 0 -64.631909166268088 -144.08567712891636 0 0 0 0 -20.947592885348058 -61.380544604189708 0 -61.380544604189708 -97.217155707679922 0 0 0 0 -5.1718455519112467 -82.448318578190992 0 -82.448318578190992 -115.16723533217191 0 0 0 0 -177.72247984983551 -152.45471996931792 0 -152.45471996931792 -125.37986046094102 0 0 0 0 -6.2839612649240735 -102.20281791783691 0 -102.20281791783691 -217.98937810237658 0 0 0 0 92.678012767490145 -92.537323349361031 0 -92.537323349361031 -91.105596209221403 0 0 0 0 -3.2143652251962394 0.072602238948679343 0 0.072602238948679343 -0.68401503233724625 0 0 0 0 -76.609990571865637 -167.85102508423552 0 -167.85102508423552 -104.36347721258608 0 0 0 0 -48.205891284636209 -56.832805393289391 0 -56.832805393289391 -7.6015162962648901 0 0 0 0 51.057692610385857 -57.506715446124872 0 -57.506715446124872 -19.74644955484473 0 0 0 0 -190.16621822749039 -87.31280472524395 0 -87.31280472524395 -62.955479816384468 0 0 0 0 28.337120530803077 -167.78022983467054 0 -167.78022983467054 -163.97971158088694 0 0 0 0 2.0341349064619862 -201.46382863922736 0 -201.46382863922736 -175.060323529161 0 0 0 0 -34.190392453787126 -228.78422369106806 0 -228.78422369106806 -216.16159897164471 0 0 0 0 22.926756209502855 -162.57220588111431 0 -162.57220588111431 -153.05853747029869 0 0 0 0 33.373377091153088 -146.42313748688593 0 -146.42313748688593 -272.85679368919 0 0 0 0 12.160966012604376 -61.473311592283153 0 -61.473311592283153 -102.98892879905361 0 0 0 0 -10.611156725142791 -18.81066096682116 0 -18.81066096682116 -14.385599598892441 0 0 0 0 -2.4795769464532711 -5.4670410919517103 0 -5.4670410919517103 3.4620343308645136 0 0 0 0 11.741018594521847 -158.34313330028999 0 -158.34313330028999 -259.67535863414196 0 0 0 0 1.272391641196009 -9.6440933318044699 0 -9.6440933318044699 -10.352431455581609 0 0 0 0 0.23625425996152671 -0.44015774489679416 0 -0.44015774489679416 -0.88297404336482899 0 0 0 0 -43.109091172171247 -31.754997110575459 0 -31.754997110575459 -135.6690734585718 0 0 0 0 -135.5508530219231 -150.86195108204856 0 -150.86195108204856 -156.36851238039617 0 0 0 0 7.272543575817906 -2.5188133132114459 0 -2.5188133132114459 -5.2773055095808594 0 0 0 0 -1.2418615684946417 -14.792308630850584 0 -14.792308630850584 -9.830927959532346 0 0 0 0 -4.5275492801525097 -8.4858054979464228 0 -8.4858054979464228 -7.8496027978912828 0 0 0 0 0.41397701077301008 -5.3678360829636631 0 -5.3678360829636631 -6.4648542733903014 0 0 0 0 4.5187390398950811 -31.366017495167398 0 -31.366017495167398 -1.9298516245380597 0 0 0 0 0.2948596810321078 -8.0667209050387356 0 -8.0667209050387356 5.7395732099934378 0 0 0 0 -4.32975191294463 -14.018465466193447 0 -14.018465466193447 -11.143499410107324 0 0 0 0 -4.6263237073270531 -9.3228167367785382 0 -9.3228167367785382 6.6492022355682572 0 0 0 0 -17.731966633325101 1.5948724185486753 0 1.5948724185486753 21.443305797445646 0 0 0 0 -1.3715490192717859 -1.9794542004275932 0 -1.9794542004275932 -1.2384795687599173 0 0 0 0 4.6343140071739981 -29.232769523596517 0 -29.232769523596517 -4.0075921644456685 0 0 0 0 -12.348847592727907 -9.0083747330509141 0 -9.0083747330509141 59.651036464502795 0 0 0 0 3.0041960432583963 -9.4191052847145365 0 -9.4191052847145365 4.9681289066718719 0 0 0 0 3.704137579898088 -20.269995106805254 0 -20.269995106805254 4.5660718512408494 0 0 0 0 4.8758872079199591 -12.497497668769029 0 -12.497497668769029 0.17966375398646051 0 0 0 0 4.3855093057220387 -7.6339716423045623 0 -7.6339716423045623 5.2028657097120625 0 0 0 0 -5.7846953052380172 -8.1590353685440249 0 -8.1590353685440249 5.8172986022127589 0 0 0 0 -6.4384084902378902 -29.142984102184059 0 -29.142984102184059 -16.817329972784137 0 0 0 0 0.12747414851401118 -19.754432617785824 0 -19.754432617785824 -6.3098204150169295 0 0 0 0 1.9142277645278227 -6.6478469519247483 0 -6.6478469519247483 -3.782648246205099 0 0 0 0 0.9712648369091994 -4.7657258312000179 0 -4.7657258312000179 -6.4466469386523393 0 0 0 0 2.2785497269960615 -3.3084838443123772 0 -3.3084838443123772 -0.29954179774449585 0 0 0 0 7.753880096883222 -15.975040181633631 0 -15.975040181633631 -6.1224633905476367 0 0 0 0 6.8742385585610464 -11.003700456239926 0 -11.003700456239926 -3.5023794282114977 0 0 0 0 12.947031985811009 -12.498998914795266 0 -12.498998914795266 -3.2543897060422751 0 0 0 0 1.1154271643209839 -3.1170473515771739 0 -3.1170473515771739 -6.4213130957857842 0 0 0 0 2.5299542665125045 -5.6510316497278836 0 -5.6510316497278836 -5.5946168530772411 0 0 0 0 4.7896415351308406 -14.852697719013179 0 -14.852697719013179 -1.9098770053260523 0 0 0 0 -6.9142903798729094 -9.3084212264252528 0 -9.3084212264252528 1.3204189766020136 0 0 0 0 6.5279821259682649 -24.762556500265418 0 -24.762556500265418 18.908420385045247 0 0 0 0 15.744189605349675 -9.7678006818928225 0 -9.7678006818928225 -4.778495992633907 0 0 0 0 0.74000364449955214 -0.74817825111983183 0 -0.74817825111983183 0.73698538334639174 0 0 0 0 44.683264259202588 -7.8681389966348547 0 -7.8681389966348547 -10.974299678833631 0 0 0 0 34.266503144173839 -75.266985162263154 0 -75.266985162263154 61.393546627517935 0 0 0 0 -26.720981769673017 -22.346296260217059 0 -22.346296260217059 19.342583718751825 0 0 0 0 -74.377411267501884 38.412472008839813 0 38.412472008839813 81.579670758864722 0 0 0 0 -49.895385650458593 46.149517311220279 0 46.149517311220279 -56.585425225564904 0 0 0 0 54.789744304225678 -120.88767630978327 0 -120.88767630978327 -106.62370049727633 0 0 0 0 -47.415567782787548 20.463650359859912 0 20.463650359859912 107.11794600084795 0 0 0 0 -59.068210905059232 -76.691723916957585 0 -76.691723916957585 1.7759508875969914 0 0 0 0 2.6313795761992864 -2.527176581850398 0 -2.527176581850398 0.1098194544270239 0 0 0 0 6.5379955347398209 -10.066756878255092 0 -10.066756878255092 -60.120417304932744 0 0 0 0 8.638638197837281 -24.480816582211446 0 -24.480816582211446 36.045481649919566 0 0 0 0 88.138587285964604 -48.603151761548361 0 -48.603151761548361 -52.236245680447155 0 0 0 0 11.731721186044524 -97.741506202378787 0 -97.741506202378787 -34.539914573180795 0 0 0 0 -48.609282758165136 28.783913624536126 0 28.783913624536126 -70.616195600425044 0 0 0 0 40.249000429282205 -83.022162759431467 0 -83.022162759431467 -390.51629450973724 0 0 0 0 28.599249358318048 -27.597808687055476 0 -27.597808687055476 81.523007081789274 0 0 0 0 -17.894461526439045 -18.868157283655819 0 -18.868157283655819 104.70996923776329 0 0 0 0 -7.8824173005570231 -1.9937075633327908 0 -1.9937075633327908 0.34256399263886728 0 0 0 0 0.24771411338042526 -18.578168451020701 0 -18.578168451020701 87.868447864128939 0 0 0 0 -13.85183073502958 -29.432197382385539 0 -29.432197382385539 85.930177366327371 0 0 0 0 3.5276725281910331 -44.501277165311876 0 -44.501277165311876 25.800043244743392 0 0 0 0 -34.774497468399204 -70.1555482668482 0 -70.1555482668482 38.387855854507507 0 0 0 0 -15.220701954249307 -43.839925970835338 0 -43.839925970835338 19.145085718709197 0 0 0 0 4.3195598369529762 -58.834362541502742 0 -58.834362541502742 41.655337341437189 0 0 0 0 -4.5618732799066493 -90.966099937166746 0 -90.966099937166746 44.861605949843579 0 0 0 0 5.2572537502855994 -61.895506624642621 0 -61.895506624642621 -6.2081181797666432 0 0 0 0 -68.565967027469014 -44.324252706644074 0 -44.324252706644074 63.661222154012648 0 0 0 0 -22.5869484083305 -52.590612370173858 0 -52.590612370173858 17.59313057174586 0 0 0 0 -59.535245156806923 -46.450979407242812 0 -46.450979407242812 57.834047385122837 0 0 0 0 -66.519145219968777 -51.231009188595635 0 -51.231009188595635 57.843241074087786 0 0 0 0 -22.993542991718641 -46.31091451279417 0 -46.31091451279417 44.20950965889773 0 0 0 0 -4.4175621315043827 -50.570206447012424 0 -50.570206447012424 44.643532536368298 0 0 0 0 -74.543247139456071 -32.864184044844478 0 -32.864184044844478 120.53896752793662 0 0 0 0 -21.227716054999291 -14.565430137702378 0 -14.565430137702378 84.127818336875862 0 0 0 0 -63.069499047869613 -39.047714849759814 0 -39.047714849759814 66.870806329545303 0 0 0 0 -94.941071738643586 -61.158033477496701 0 -61.158033477496701 85.067099238232913 0 0 0 0 37.454621540447988 -138.18889276429127 0 -138.18889276429127 -505.79929502860705 0 0 0 0 -94.717649322363286 -101.37802204550007 0 -101.37802204550007 114.89485996104668 0 0 0 0 -2.4006923786592154 -0.6909130233859706 0 -0.6909130233859706 -0.031385044121820638 0 0 0 0 -65.353796616067484 -1.5735028855451674 0 -1.5735028855451674 231.51797930909925 0 0 0 0 -81.56791344038993 10.650039499939567 0 10.650039499939567 -184.88634562869174 0 0 0 0 -210.22625795423301 -119.18083862811181 0 -119.18083862811181 -102.53424250411626 0 0 0 0 -60.159748659581965 -42.523152893971201 0 -42.523152893971201 -153.66735625865203 0 0 0 0 -67.679109709697514 22.085346227296213 0 22.085346227296213 6.3071046540999305 0 0 0 0 -21.439925109052638 -22.74939514274638 0 -22.74939514274638 -88.016134563815285 0 0 0 0 -76.305963424951187 -55.924468958013676 0 -55.924468958013676 -39.462022630621505 0 0 0 0 62.429038476631831 38.967980451619951 0 38.967980451619951 -12.159845907565796 0 0 0 0 -17.866762703434688 4.0711697494480177 0 4.0711697494480177 69.362079978562178 0 0 0 0 19.65016528006845 8.6094107419211525 0 8.6094107419211525 -64.540857828295884 0 0 0 0 22.259619843113114 -14.356840917737088 0 -14.356840917737088 -3.2327379076923535 0 0 0 0 0.010170807576429297 -0.023433050076850037 0 -0.023433050076850037 0.088474403755434139 0 0 0 0 22.843665996904747 -131.1208960658214 0 -131.1208960658214 -41.722148126658794 0 0 0 0 50.77690716829602 -108.54369744150335 0 -108.54369744150335 -178.29105985578644 0 0 0 0 -99.607669221746619 12.972998269190612 0 12.972998269190612 -140.22135258275375 0 0 0 0 -101.66870761143264 -145.9450656865605 0 -145.9450656865605 -19.545975507715411 0 0 0 0 32.940117239540996 -54.234490492637633 0 -54.234490492637633 -245.24563401443629 0 0 0 0 -75.845570281662049 -94.42374129081378 0 -94.42374129081378 7.796059945194429 0 0 0 0 -74.661556169241521 -63.628847278665489 0 -63.628847278665489 54.174483395163406 0 0 0 0 29.27584440350256 -67.894946077016357 0 -67.894946077016357 -78.721973890706522 0 0 0 0 28.763991239246025 -48.701981230538649 0 -48.701981230538649 32.453583206662188 0 0 0 0 49.877406736464764 -95.245022821141106 0 -95.245022821141106 19.558930597226208 0 0 0 0 26.314859911339227 -40.935705767592935 0 -40.935705767592935 34.188446653134633 0 0 0 0 -56.682545558745915 -33.750744177079468 0 -33.750744177079468 62.920107257844847 0 0 0 0 -0.0008229828436014941 -35.756563197086507 0 -35.756563197086507 40.04385623618964 0 0 0 0 -1.0469389114824708 -0.97270764112115593 0 -0.97270764112115593 -0.27548773120471282 0 0 0 0 33.301379796555921 -57.661664995887804 0 -57.661664995887804 41.243566331030593 0 0 0 0 23.700781958915741 -26.312955323457686 0 -26.312955323457686 35.39495546465696 0 0 0 0 78.871724025616459 -23.728215837999983 0 -23.728215837999983 -19.29467044647572 0 0 0 0 69.063978826150958 -20.884868156076266 0 -20.884868156076266 -15.741813925679708 0 0 0 0 0.046623021922641783 -20.857256400355254 0 -20.857256400355254 34.166991640420974 0 0 0 0 -0.62381086190828938 -0.48743018828924001 0 -0.48743018828924001 0.031078220838601567 0 0 0 0 73.614490246563946 -17.791563662378394 0 -17.791563662378394 -12.085244542766304 0 0 0 0 1.1088432279175322 -5.1112491563176263 0 -5.1112491563176263 4.249042024415985 0 0 0 0 -0.23768816060652043 -0.12822657158487694 0 -0.12822657158487694 0.69721791334676553 0 0 0 0 67.533685422724375 -42.249733177896815 0 -42.249733177896815 8.4909318610752962 0 0 0 0 49.519972390902694 -99.434823026960657 0 -99.434823026960657 11.097934517284557 0 0 0 0 0.031332215748989256 -75.403208693237957 0 -75.403208693237957 42.449691993424494 0 0 0 0 90.463352910079266 -92.744964504085146 0 -92.744964504085146 8.3862452145622228 0 0 0 0 53.5999569884425 -35.146925544606347 0 -35.146925544606347 48.906788445565326 0 0 0 0 0.079668799120554468 -33.205683690032856 0 -33.205683690032856 49.756093415101077 0 0 0 0 1.0221270828981801 0.9270372672566749 0 0.9270372672566749 1.0510561636357671 0 0 0 0 -3.0930861914494017 -8.9052114297041953 0 -8.9052114297041953 4.764008790585649 0 0 0 0 1.624262401890519 0.37729136843154265 0 0.37729136843154265 3.6564272083778633 0 0 0 0 -0.32992053516357345 0.11582558588394321 0 0.11582558588394321 1.6257487847431484 0 0 0 0 -6.1791921652493329 -14.980151351513086 0 -14.980151351513086 -79.489586058341956 0 0 0 0 -0.74020667025350662 -0.67389657454047303 0 -0.67389657454047303 -0.64663449641840032 0 0 0 0 4.6889268588965933 1.759740210016389 0 1.759740210016389 3.9321587405438549 0 0 0 0 -1.2726844788412564 2.5382318418005525 0 2.5382318418005525 4.021711901982485 0 0 0 0 -0.57527215939395404 -1.1694002665423007 0 -1.1694002665423007 1.8708130156608078 0 0 0 0 0.74233713865416462 0.39974645850752566 0 0.39974645850752566 0.10583144085038043 0 0 0 0 11.786556472512075 -3.6940577774092844 0 -3.6940577774092844 3.994587020304607 0 0 0 0 18.119036427975516 -2.2403266149030969 0 -2.2403266149030969 3.5904323234231015 0 0 0 0 46.153577827764821 -6.8707427830786401 0 -6.8707427830786401 -3.4193381841214432 0 0 0 0 4.9094349097140366 4.0348088624014053 0 4.0348088624014053 1.6531541461590677 0 0 0 0 4.6924157694593305 34.258702906216058 0 34.258702906216058 -2.0303151371217609 0 0 0 0 37.085118951283221 9.960585735560926 0 9.960585735560926 0.10623964832484489 0 0 0 0 14.733072751926102 9.9917414509981199 0 9.9917414509981199 0.21888127442616678 0 0 0 0 -24.74152817212962 51.825677273547626 0 51.825677273547626 -27.157105361892718 0 0 0 0 -10.434720105189626 24.009877676387532 0 24.009877676387532 11.476981094858274 0 0 0 0 -66.716639198461053 26.897531252312092 0 26.897531252312092 48.786289703648436 0 0 0 0 -28.59260270935556 3.4196074043056797 0 3.4196074043056797 17.065854705899255 0 0 0 0 -23.139038170580534 -11.160691289260967 0 -11.160691289260967 51.010898125659878 0 0 0 0 1.7511990635703114 8.462662290634853 0 8.462662290634853 4.29708861686413 0 0 0 0 3.6412378890563559 3.8217613400029222 0 3.8217613400029222 8.5086861864356251 0 0 0 0 -7.4568896313321602 19.879836758868805 0 19.879836758868805 13.160794067005554 0 0 0 0 0.76615523196994673 -2.5969781983645461 0 -2.5969781983645461 3.2256879772566158 0 0 0 0 -8.6497231101784564 -1.07162226124683 0 -1.07162226124683 7.5064476298339287 0 0 0 0 -6.8063358852705278 -5.8754752876179737 0 -5.8754752876179737 19.9954482430403 0 0 0 0 -13.385256606068651 -54.879846168707786 0 -54.879846168707786 -68.245272326381382 0 0 0 0 2.4283529055519466 -22.038160692333122 0 -22.038160692333122 -59.837986007398285 0 0 0 0 -3.7309115384850884 -21.02346719954312 0 -21.02346719954312 -31.376415575613009 0 0 0 0 -0.0013684591745251298 -30.193504376773053 0 -30.193504376773053 -59.247739464888582 0 0 0 0 0.373305885688751 -29.355951813986394 0 -29.355951813986394 -62.386852034601361 0 0 0 0 9.6865087091755413 -30.396407080237168 0 -30.396407080237168 -7.4265227752850933 0 0 0 0 -0.0050789990382327233 -42.491738870239942 0 -42.491738870239942 -7.5310205439841411 0 0 0 0 1.5786821843812504 -39.395407889820717 0 -39.395407889820717 -13.427451631601798 0 0 0 0 2.0165044339069027 -38.288541454882704 0 -38.288541454882704 -12.186969007927473 0 0 0 0 9.3384246650421119 -38.47802277894607 0 -38.47802277894607 -20.492373919862985 0 0 0 0 7.8615882292815513 -37.280146537813152 0 -37.280146537813152 -15.078014667678872 0 0 0 0 10.020516929982477 -41.840076172760519 0 -41.840076172760519 -25.373511657699737 0 0 0 0 2.9112496823836409 -42.679127611627564 0 -42.679127611627564 -22.852135984189772 0 0 0 0 7.30835699212912 -31.712166991587765 0 -31.712166991587765 -0.54228887231374756 0 0 0 0 3.9354798765725718 -43.788957801386459 0 -43.788957801386459 -22.248933688095804 0 0 0 0 15.105686145616346 -31.856381821187824 0 -31.856381821187824 -24.647610880584125 0 0 0 0 10.972453014926941 -36.932341757323229 0 -36.932341757323229 -15.778702123164976 0 0 0 0 20.676587724841738 -23.066521573733098 0 -23.066521573733098 -0.99281760116915052 0 0 0 0 -0.48905963820222098 0.0043959565832392133 0 0.0043959565832392133 0.061690077767210916 0 0 0 0 -9.9242093098428086 -37.954769864453965 0 -37.954769864453965 71.579471990683032 0 0 0 0 -12.478884680232113 -57.11109361403237 0 -57.11109361403237 -2.9231261684981291 0 0 0 0 -7.8072129164629587 -37.719860841283889 0 -37.719860841283889 11.870602037211938 0 0 0 0 -7.8452496141610339 -48.630536536737281 0 -48.630536536737281 -12.325445124001817 0 0 0 0 -0.015826509044927661 -47.225992995173328 0 -47.225992995173328 -15.269620916772283 0 0 0 0 -1.1364534044969332 -60.406662781173623 0 -60.406662781173623 -42.409944491483657 0 0 0 0 -6.9042843134520808 -45.894611224982327 0 -45.894611224982327 -40.82502915645324 0 0 0 0 0.026111288676474942 -51.263453582275815 0 -51.263453582275815 -36.888745703186032 0 0 0 0 -17.556127711131921 -47.725641996439663 0 -47.725641996439663 -30.825431933818436 0 0 0 0 -10.831408303150965 -52.605332962225248 0 -52.605332962225248 -27.428614831334926 0 0 0 0 -0.00012190016241220292 -44.159943556050621 0 -44.159943556050621 10.178176030724899 0 0 0 0 25.158815029719335 -36.914036961849433 0 -36.914036961849433 -25.756361914322838 0 0 0 0 4.718446827318985 -39.557666795784371 0 -39.557666795784371 46.577325891644023 0 0 0 0 14.390338672726102 -28.962313714052243 0 -28.962313714052243 18.866393702062851 0 0 0 0 66.825635302640876 -49.744484336735013 0 -49.744484336735013 -11.197185331958735 0 0 0 0 -1.685314949536405 -77.925371686155813 0 -77.925371686155813 -18.855598934813315 0 0 0 0 -94.409107773799406 -52.568741006772598 0 -52.568741006772598 58.544524014547278 0 0 0 0 -0.79759035466662453 -0.57004323185008765 0 -0.57004323185008765 0.068958774737975403 0 0 0 0 -35.226959166504457 -50.022637319166904 0 -50.022637319166904 -22.722691804811802 0 0 0 0 -28.305960503268579 -65.712573606247133 0 -65.712573606247133 -23.777435068966952 0 0 0 0 -0.93374135845078854 -44.896525604081944 0 -44.896525604081944 -96.196687814822553 0 0 0 0 -12.266451585176128 -78.273819056935338 0 -78.273819056935338 -43.889561538918315 0 0 0 0 6.5286540365823384 -18.637528224203095 0 -18.637528224203095 -15.357373720521991 0 0 0 0 -9.0361695491028513 -26.918625591258433 0 -26.918625591258433 -13.027112438435324 0 0 0 0 5.3635839461985597 -9.6495490018751298 0 -9.6495490018751298 -11.044271615647176 0 0 0 0 -12.205907221665711 -21.571766177210748 0 -21.571766177210748 -5.9234048149464797 0 0 0 0 -36.566389440418789 -74.349339077616605 0 -74.349339077616605 -30.704511632516187 0 0 0 0 -18.933316770514921 -50.122946009054431 0 -50.122946009054431 14.460325177626146 0 0 0 0 -21.714883030440433 -46.373816638446783 0 -46.373816638446783 19.959412291878834 0 0 0 0 -0.52657075834062539 -0.13983896881308144 0 -0.13983896881308144 0.20512994518870542 0 0 0 0 28.575830998674064 -1.7853157526292307 0 -1.7853157526292307 38.15347758659118 0 0 0 0 -21.830903574718832 -49.169304985334747 0 -49.169304985334747 19.831282240240967 0 0 0 0 -2.701462220549729 -4.4652022660916373 0 -4.4652022660916373 44.652507965295626 0 0 0 0 -21.769112948471616 -50.897695583747762 0 -50.897695583747762 66.179999458185193 0 0 0 0 2.0319822108958761 0.88236548458553443 0 0.88236548458553443 -7.9213579953020599 0 0 0 0 -14.787092033368026 -25.279711760200371 0 -25.279711760200371 20.535502810261278 0 0 0 0 -16.905913431253794 -15.912913389102414 0 -15.912913389102414 10.303818785426415 0 0 0 0 -11.742718223218617 -0.64164181871205983 0 -0.64164181871205983 -5.5793790466186692 0 0 0 0 -28.396109661817263 -33.236907654065703 0 -33.236907654065703 -27.112331536666716 0 0 0 0 -86.23938281380606 -80.305689824328283 0 -80.305689824328283 -51.641790581736132 0 0 0 0 -64.093815255255322 -15.386498995718739 0 -15.386498995718739 -35.936639436285077 0 0 0 0 -69.255396623761044 -84.770717293236657 0 -84.770717293236657 43.51253174269641 0 0 0 0 -40.095228081983805 -69.945578320313416 0 -69.945578320313416 -84.997719796603405 0 0 0 0 -52.083124766631954 -89.693064554224975 0 -89.693064554224975 -68.37460399763313 0 0 0 0 -0.52113323496795516 0.0076686099150993225 0 0.0076686099150993225 0.056487628496077136 0 0 0 0 -20.748325469648989 -75.757501732720357 0 -75.757501732720357 -120.77814451824088 0 0 0 0 -67.286339390751891 -54.728043347324501 0 -54.728043347324501 -11.561036768201575 0 0 0 0 -40.341675196098436 -62.098023460012804 0 -62.098023460012804 56.353539266827283 0 0 0 0 7.6969367193851213 0.35979260894055187 0 0.35979260894055187 -6.6718273353490076 0 0 0 0 18.617919522212105 -7.1302714788603225 0 -7.1302714788603225 -13.672453092867272 0 0 0 0 7.9009449186451093 -31.926506348426983 0 -31.926506348426983 7.6900724799124873 0 0 0 0 -0.8278642528978466 -0.29212296594620746 0 -0.29212296594620746 -0.048935784183200326 0 0 0 0 0.23019191121602489 -30.042867757372733 0 -30.042867757372733 1.6082774222272747 0 0 0 0 8.6592874799148376 -39.228118143125585 0 -39.228118143125585 8.3588358126994535 0 0 0 0 -1.347103022013016 -34.876041229800421 0 -34.876041229800421 -55.948387987484239 0 0 0 0 1.3937054434468337 -24.657876865744186 0 -24.657876865744186 -27.804569196315242 0 0 0 0 -31.225937980530944 -68.060936087376149 0 -68.060936087376149 -41.800806108993129 0 0 0 0 -5.872987535327411 -56.225487257604982 0 -56.225487257604982 -34.711766762085801 0 0 0 0 0.55155477000153041 -48.949404076598967 0 -48.949404076598967 -28.566105892779433 0 0 0 0 4.0224473072503315 -43.02209347658561 0 -43.02209347658561 -25.480236285603951 0 0 0 0 -23.698219742473157 -51.700302099947294 0 -51.700302099947294 -22.031142672931423 0 0 0 0 -13.401338476051933 -47.756741953082042 0 -47.756741953082042 -23.631683363249977 0 0 0 0 -51.195418009989226 -47.854735466991315 0 -47.854735466991315 -11.862901782214635 0 0 0 0 -30.376948675955646 -42.397896611063516 0 -42.397896611063516 -15.220789642261934 0 0 0 0 -38.087177623212483 -35.065218409762338 0 -35.065218409762338 -14.481493065209179 0 0 0 0 -30.665429502663756 -28.920415762461289 0 -28.920415762461289 -10.110273704883184 0 0 0 0 -31.111496479135894 -27.341823338435347 0 -27.341823338435347 -15.415147480181076 0 0 0 0 -47.256023028061463 -35.498826905158694 0 -35.498826905158694 -7.4450874982953792 0 0 0 0 -54.491781402671222 -53.540383762300394 0 -53.540383762300394 -15.402581287262365 0 0 0 0 -45.08665423466482 -18.763852834312502 0 -18.763852834312502 33.432796808441708 0 0 0 0 -35.992990424711024 -25.35091778750575 0 -25.35091778750575 0.21094411792637402 0 0 0 0 -63.054632376584777 -40.67655807995402 0 -40.67655807995402 11.411420696376808 0 0 0 0 -43.693078768043051 -39.132327017858188 0 -39.132327017858188 -6.7241532844009271 0 0 0 0 -6.2622249052292318 -32.376738935324738 0 -32.376738935324738 10.576794549232318 0 0 0 0 -20.293843679266502 -34.591504474584781 0 -34.591504474584781 32.756693056225686 0 0 0 0 -9.3389977839869971 -39.855918203344572 0 -39.855918203344572 10.483729429277901 0 0 0 0 -10.51714022811575 -18.969108455755759 0 -18.969108455755759 4.1956149769471267 0 0 0 0 -34.834393874747548 -28.752988277198483 0 -28.752988277198483 0.87825833769420569 0 0 0 0 -20.770887632987069 -30.461546920798639 0 -30.461546920798639 -8.0794775902613765 0 0 0 0 -24.993955781912518 -19.843744277783117 0 -19.843744277783117 -6.8475747954037161 0 0 0 0 -29.071035262000805 -20.566872164341021 0 -20.566872164341021 -14.743249886439116 0 0 0 0 -19.367878092703904 -23.80093615721853 0 -23.80093615721853 -0.20721522897474642 0 0 0 0 -19.18467996928463 -42.088244916419328 0 -42.088244916419328 4.354726761069287 0 0 0 0 -31.244262832173263 -31.246064260641106 0 -31.246064260641106 -3.339351726863697 0 0 0 0 -24.407301850518706 -35.386376318456769 0 -35.386376318456769 -10.879593503957949 0 0 0 0 -39.113606799197441 -36.342653905641328 0 -36.342653905641328 -2.9763717214932512 0 0 0 0 -25.149089733597066 -52.321378423947408 0 -52.321378423947408 8.4421015835641811 0 0 0 0 6.9715002313241712 -75.066098992638899 0 -75.066098992638899 6.1636837020371331 0 0 0 0 -13.098663092681818 -53.952137378666976 0 -53.952137378666976 -10.516064912174897 0 0 0 0 -14.828181352320826 -49.43684059910629 0 -49.43684059910629 -3.3159483814251871 0 0 0 0 -18.638971472133562 -41.23454214815456 0 -41.23454214815456 -7.4749461818303189 0 0 0 0 -9.404823074435626 -51.208208325808528 0 -51.208208325808528 1.896577803803666 0 0 0 0 -13.612627291655372 -51.942046745142761 0 -51.942046745142761 5.1174220926750422 0 0 0 0 -14.668108008165291 -21.019164651623896 0 -21.019164651623896 54.387897401809823 0 0 0 0 -13.039140726104961 -38.109236071394662 0 -38.109236071394662 18.532631190590109 0 0 0 0 -1.5027543773539946 -17.03665575458308 0 -17.03665575458308 6.0326262107707862 0 0 0 0 -13.027981211824226 -34.575309070100047 0 -34.575309070100047 -26.732796256835627 0 0 0 0 -18.147961182596191 -44.227378610148207 0 -44.227378610148207 -18.43532170277831 0 0 0 0 -15.414316794493061 -45.453912912341139 0 -45.453912912341139 -4.1771363205589296 0 0 0 0 -2.5367659462499432 -21.720423942911111 0 -21.720423942911111 -12.426270534519972 0 0 0 0 13.474398303656926 -0.63034480873284338 0 -0.63034480873284338 84.359640718214905 0 0 0 0 -105.06232587315753 23.605845538862468 0 23.605845538862468 157.51909905217508 0 0 0 0 -1.8325679120557297 -0.29320839758564077 0 -0.29320839758564077 0.19650355418048093 0 0 0 0 -22.105212030030998 -109.37168512468452 0 -109.37168512468452 -35.784880778676779 0 0 0 0 10.500866258593305 -91.88523444350858 0 -91.88523444350858 -78.792454370634914 0 0 0 0 -24.077231952878719 -63.724163268255552 0 -63.724163268255552 -76.109024226062502 0 0 0 0 -7.1371563625834824 -93.038466461998269 0 -93.038466461998269 -74.950866327068979 0 0 0 0 -1.7835496352432756 -0.55084810476212454 0 -0.55084810476212454 0.15770755813961834 0 0 0 0 23.066756139780409 -15.537778103397386 0 -15.537778103397386 31.801155828110041 0 0 0 0 -0.5956285360635647 -0.07504353825661525 0 -0.07504353825661525 -0.045385081262021565 0 0 0 0 -53.194804691553145 -10.554979613571504 0 -10.554979613571504 150.83332386375969 0 0 0 0 -2.3073376760694373 -72.649197614251534 0 -72.649197614251534 -156.22831829055849 0 0 0 0 -45.594546621542122 -150.36309462941267 0 -150.36309462941267 -219.92156373174157 0 0 0 0 42.276554012829365 -30.820490324746515 0 -30.820490324746515 -73.064045662628473 0 0 0 0 -34.886937923563892 -38.823913787351103 0 -38.823913787351103 37.6808435047692 0 0 0 0 -0.83395806334205247 -0.5744014591734441 0 -0.5744014591734441 -0.15929143939172086 0 0 0 0 31.742079108069447 -64.892048839165 0 -64.892048839165 42.826266096908967 0 0 0 0 31.011692283849698 -40.28264676679828 0 -40.28264676679828 30.615992825781177 0 0 0 0 15.945049283128355 -13.146996592251071 0 -13.146996592251071 24.492114554635918 0 0 0 0 25.881510348826851 -41.332414921436225 0 -41.332414921436225 55.19374401690402 0 0 0 0 -9.0505430193443317 -29.102104770970527 0 -29.102104770970527 52.406284449511077 0 0 0 0 -17.581821730775118 -25.785049455597346 0 -25.785049455597346 73.841045837751153 0 0 0 0 9.0084653006852022 -61.648326834588261 0 -61.648326834588261 107.24753556345388 0 0 0 0 50.735021509203307 -70.378321522493366 0 -70.378321522493366 52.083493448497393 0 0 0 0 -10.433207132577081 99.587750057356516 0 99.587750057356516 94.463596607547515 0 0 0 0 -44.744578368395196 -84.673398344704424 0 -84.673398344704424 38.853629597100735 0 0 0 0 -5.7331318288815964 7.2733900004850511 0 7.2733900004850511 76.89669729865318 0 0 0 0 -35.861949750454187 -5.4784072033030498 0 -5.4784072033030498 87.235921275148939 0 0 0 0 22.85927261766119 -1.8644078670354247 0 -1.8644078670354247 -4.1307078724403254 0 0 0 0 -2.9664862545869255 19.746793670237366 0 19.746793670237366 33.60664664199976 0 0 0 0 -63.085429847382329 -13.929366362322526 0 -13.929366362322526 -156.62712119308117 0 0 0 0 -129.60754781061223 -175.88936050463735 0 -175.88936050463735 -60.957287753220044 0 0 0 0 -50.697652716911762 -136.53304888560342 0 -136.53304888560342 -71.900796521524171 0 0 0 0 -89.506490239895356 -116.86363863829229 0 -116.86363863829229 -79.404707374449572 0 0 0 0 -0.55034181247743419 -0.34912612978146917 0 -0.34912612978146917 -0.093125215540844408 0 0 0 0 -84.974696917732217 -101.56224649887827 0 -101.56224649887827 32.44169572467365 0 0 0 0 32.22584776113672 -91.240286796686775 0 -91.240286796686775 -125.80262261826374 0 0 0 0 -40.748542500776239 -117.66072256608822 0 -117.66072256608822 -92.962337248804943 0 0 0 0 -113.794587477405 -57.431899365003574 0 -57.431899365003574 -87.803481524319068 0 0 0 0 -0.75017879134568943 0.56809922570580262 0 0.56809922570580262 -0.20580231965152507 0 0 0 0 -66.643358993045695 -104.9431741508829 0 -104.9431741508829 -133.40597439045359 0 0 0 0 -127.28005346101054 -97.758358502636838 0 -97.758358502636838 -78.714867679935594 0 0 0 0 -37.361257139378722 -10.138603232832111 0 -10.138603232832111 -1.1716417897496285 0 0 0 0 24.721636493595724 24.353951128304288 0 24.353951128304288 80.912148551445171 0 0 0 0 -3.2363358502957524 -1.2229202607086656 0 -1.2229202607086656 0.68668177268318598 0 0 0 0 -3.6210110508800426 -25.807252558627624 0 -25.807252558627624 -36.656099317599001 0 0 0 0 1.2612135853050859 -6.4230660939915651 0 -6.4230660939915651 1.7888905068384702 0 0 0 0 4.3485933588623666 -3.7664431452021674 0 -3.7664431452021674 -2.0403843565763005 0 0 0 0 -0.25331986016173502 -3.003551825994041 0 -3.003551825994041 0.92097416313160707 0 0 0 0 22.693098613272014 -9.4748084969523916 0 -9.4748084969523916 -13.765429378039698 0 0 0 0 6.3266520702305868 -6.1131870062779718 0 -6.1131870062779718 -1.090525208563164 0 0 0 0 40.322789251436916 11.875372806351152 0 11.875372806351152 17.580251017721821 0 0 0 0 -22.064872657886553 11.373603687169634 0 11.373603687169634 31.139580467493943 0 0 0 0 -231.19487931383628 -21.589364794177982 0 -21.589364794177982 -3.7594598811160722 0 0 0 0 -213.42066031986906 -139.89593412073236 0 -139.89593412073236 -21.204436802115879 0 0 0 0 0.28429223363491474 -19.650611496706347 0 -19.650611496706347 -73.975511322120838 0 0 0 0 -0.45986095338677302 -1.3030924623123532 0 -1.3030924623123532 -1.4519446794736126 0 0 0 0 -89.404094536971684 -112.80581655158073 0 -112.80581655158073 -15.574798078374442 0 0 0 0 -104.38063205318031 -91.178496537747378 0 -91.178496537747378 -42.847470285913687 0 0 0 0 0.56888168311230913 -0.34472312088642587 0 -0.34472312088642587 -0.35363908505948061 0 0 0 0 -66.566446124212234 -11.814138366781663 0 -11.814138366781663 22.356568207217606 0 0 0 0 -30.235722873083432 -52.245684077650139 0 -52.245684077650139 -36.105185624375736 0 0 0 0 -81.628474737706711 -188.75364202836636 0 -188.75364202836636 -93.461850633859967 0 0 0 0 4.2239058734376158 -71.239073364018623 0 -71.239073364018623 -139.56226584256001 0 0 0 0 41.375213883892229 -79.097593198221489 0 -79.097593198221489 -69.3546952903489 0 0 0 0 32.551471863180723 -113.71684320697238 0 -113.71684320697238 -87.552835296908597 0 0 0 0 -22.035580816097308 -134.01208647250957 0 -134.01208647250957 -50.22331415680128 0 0 0 0 -26.943679483648339 -180.00571644361975 0 -180.00571644361975 -111.24498051982118 0 0 0 0 -31.087261783070062 -15.753837142070324 0 -15.753837142070324 24.62160733845667 0 0 0 0 -189.81518891567794 -91.411221624585096 0 -91.411221624585096 36.569772364236997 0 0 0 0 -14.13480395755596 -6.6168644092285831 0 -6.6168644092285831 -24.887895290426059 0 0 0 0 -0.81723760261047573 -18.50323404043047 0 -18.50323404043047 -26.472537762903812 0 0 0 0 -2.2696973611746216 -20.930305930816758 0 -20.930305930816758 -27.629148060030275 0 0 0 0 18.217005517881717 -26.089695463775115 0 -26.089695463775115 -24.230770678690533 0 0 0 0 -14.511958564940869 -13.635673444946406 0 -13.635673444946406 -22.13639125208465 0 0 0 0 -191.83066682943354 -274.91539641985491 0 -274.91539641985491 -373.69644834787323 0 0 0 0 -18.48041312830901 0.27132467849150999 0 0.27132467849150999 -32.752928476051181 0 0 0 0 -41.268439513093199 -2.8628898945562469 0 -2.8628898945562469 -17.044257879815632 0 0 0 0 -9.6005834686907043 -22.98762810381097 0 -22.98762810381097 -12.782363878800773 0 0 0 0 -154.4242091332635 -154.73763200690701 0 -154.73763200690701 11.552525626083479 0 0 0 0 14.096480051186518 30.77354094118391 0 30.77354094118391 94.494966889692023 0 0 0 0 -29.897374597064754 -18.723519287845193 0 -18.723519287845193 -17.98495950096185 0 0 0 0 -16.082671407237285 -19.063796036440181 0 -19.063796036440181 -20.888492258332235 0 0 0 0 -17.260799489375131 -20.919411638413294 0 -20.919411638413294 -21.26782599308217 0 0 0 0 -13.551707795424136 -16.166308639289127 0 -16.166308639289127 -25.785679314791196 0 0 0 0 -5.2639815468032793 -22.28968147724845 0 -22.28968147724845 -23.003764841339944 0 0 0 0 -16.625399299534593 -24.314484220441955 0 -24.314484220441955 -15.983167273401705 0 0 0 0 -16.340241829570516 -20.945181430868388 0 -20.945181430868388 -19.738407329667098 0 0 0 0 -24.177822451646534 -20.179701205512174 0 -20.179701205512174 -13.778319578073933 0 0 0 0 -10.275068965597711 -26.613338482438849 0 -26.613338482438849 -15.194090519900783 0 0 0 0 -6.7346066887712368 -21.400951743828045 0 -21.400951743828045 -16.533979079053097 0 0 0 0 101.41443931403865 -0.85230400076102342 0 -0.85230400076102342 -19.214765564184745 0 0 0 0 -6.6244278047210869 -24.344526271505821 0 -24.344526271505821 -13.868221996438194 0 0 0 0 20.265847799312724 -26.490834076634201 0 -26.490834076634201 6.217195998857278 0 0 0 0 0.068901003858627519 -19.472587362839477 0 -19.472587362839477 4.3756100731388869 0 0 0 0 15.229321357325802 -15.307127717848305 0 -15.307127717848305 -5.7311230668029545 0 0 0 0 -2.0607883213209277 -12.799008989318322 0 -12.799008989318322 -1.1011058963961418 0 0 0 0 6.2881415534138796 -15.165949017938601 0 -15.165949017938601 -9.3582291203156274 0 0 0 0 5.8035992865843582 -15.790410250468085 0 -15.790410250468085 5.2021037210674876 0 0 0 0 -2.0704908888565114 -21.213844387424615 0 -21.213844387424615 18.081754615993304 0 0 0 0 -10.247025483729406 -14.317358347293649 0 -14.317358347293649 4.0557870036167474 0 0 0 0 2.5970311235716963 -16.330024322837573 0 -16.330024322837573 11.312804504525957 0 0 0 0 -5.5242000921958176 -10.997671738649496 0 -10.997671738649496 8.0497463794777495 0 0 0 0 18.651947435272405 -12.613501415087512 0 -12.613501415087512 -10.51141041871233 0 0 0 0 1.689950859856534 -3.2704137615459015 0 -3.2704137615459015 -0.60034705416886425 0 0 0 0 -6.4911511939681992 -12.026695038633017 0 -12.026695038633017 -1.5633803261392742 0 0 0 0 7.9636353389269061 -26.257208107203496 0 -26.257208107203496 -3.9347503097588969 0 0 0 0 12.553953775739501 -20.421038756912367 0 -20.421038756912367 -5.4917510655704973 0 0 0 0 -12.411260676351958 -13.45087369516898 0 -13.45087369516898 2.510602353793729 0 0 0 0 4.894380391921004 -3.5944179718512714 0 -3.5944179718512714 1.894839162265157 0 0 0 0 -7.3115956517968641 -8.8725875601165534 0 -8.8725875601165534 0.21198223052503451 0 0 0 0 -14.339417997893179 -80.405331819802996 0 -80.405331819802996 -67.088602075789822 0 0 0 0 18.672704998852169 9.1253711278723131 0 9.1253711278723131 117.14835936254349 0 0 0 0 -0.26079372179810889 33.434462267343406 0 33.434462267343406 143.49998224009869 0 0 0 0 -0.63951412992773271 0.20113102630305413 0 0.20113102630305413 -0.033669386780173394 0 0 0 0 -11.696653957802482 -83.667008047379568 0 -83.667008047379568 -147.86983579700109 0 0 0 0 7.9666198631057341 49.348867860433984 0 49.348867860433984 113.31416923923371 0 0 0 0 -27.344865563922212 -29.225355698256408 0 -29.225355698256408 -16.940993351709949 0 0 0 0 -26.031700132795777 -23.818061632861316 0 -23.818061632861316 -36.652619011681963 0 0 0 0 -32.215712045614055 -44.996631452630027 0 -44.996631452630027 -24.990992519062956 0 0 0 0 -85.447829182452551 -96.318528759255514 0 -96.318528759255514 33.823844641684445 0 0 0 0 0.5392961543839192 8.388027303698891 0 8.388027303698891 17.444060172299714 0 0 0 0 -42.047722035787956 -34.933343600308262 0 -34.933343600308262 2.3293852402175617 0 0 0 0 -23.322708353342023 -17.254402774647133 0 -17.254402774647133 7.0959355276293081 0 0 0 0 -29.242023918573977 -37.528096736724592 0 -37.528096736724592 -7.3778402442758306 0 0 0 0 -26.144706514874997 -26.653218257837352 0 -26.653218257837352 -17.618764248608841 0 0 0 0 -14.710645744896141 -37.25135729717919 0 -37.25135729717919 -7.8550549504416267 0 0 0 0 8.5171198785865272 -48.587959506002335 0 -48.587959506002335 -34.245986719619395 0 0 0 0 5.6693837332941257 -7.1979779315634005 0 -7.1979779315634005 -104.15026196702729 0 0 0 0 -5.9254576586208714 -10.397061876312819 0 -10.397061876312819 -23.763331063056739 0 0 0 0 5.715292798649898 -17.265513375092723 0 -17.265513375092723 -27.672371738270158 0 0 0 0 15.110317183716688 4.0201120771439491 0 4.0201120771439491 -20.078770679450827 0 0 0 0 0.40423106076650583 -23.300669579620546 0 -23.300669579620546 10.410410082972248 0 0 0 0 9.6305279200660152 -28.498511804065402 0 -28.498511804065402 -3.6848574574731856 0 0 0 0 -4.9431439210490993 -13.970384195850942 0 -13.970384195850942 -7.1783934729288248 0 0 0 0 -8.1450084950820134 -11.86984229331668 0 -11.86984229331668 -6.7970609323167288 0 0 0 0 15.564903059822882 -27.281729927184756 0 -27.281729927184756 -14.921722843777388 0 0 0 0 -2.4689204269761831 -5.7303526038618884 0 -5.7303526038618884 2.5877014320922171 0 0 0 0 -4.7944358037040349 -12.259533799243499 0 -12.259533799243499 -4.699014203382557 0 0 0 0 53.534598229618496 -39.953532612323784 0 -39.953532612323784 -8.9700596062075419 0 0 0 0 -8.7407697500112569 -10.290398745560069 0 -10.290398745560069 -4.0339779447357138 0 0 0 0 28.287649215286365 7.7317074654506541 0 7.7317074654506541 5.3941852361068641 0 0 0 0 0.38724375624251905 -0.50405112902024918 0 -0.50405112902024918 0.16568586704230137 0 0 0 0 -4.1058651778112107 0.21551128367900674 0 0.21551128367900674 4.7730192705512309 0 0 0 0 15.399531102815672 0.31082109771750766 0 0.31082109771750766 -4.0258117451530779 0 0 0 0 26.509290867703385 6.8053333201596615 0 6.8053333201596615 -2.3659897816723969 0 0 0 0 7.9400415904456167 3.583992353767826 0 3.583992353767826 4.6298244548306684 0 0 0 0 -19.016254533569736 -40.588709496129241 0 -40.588709496129241 79.419996561701282 0 0 0 0 27.525924447196303 -9.110927300408548 0 -9.110927300408548 -9.1626673855139416 0 0 0 0 45.475689644397789 -13.072331661406906 0 -13.072331661406906 -13.097235710974019 0 0 0 0 34.457951421568396 -32.160739783987651 0 -32.160739783987651 -14.742685496501508 0 0 0 0 63.33438820811989 -29.131646233882947 0 -29.131646233882947 -14.922409558196705 0 0 0 0 60.202525590975711 -0.98243660532534705 0 -0.98243660532534705 -7.7433399070937412 0 0 0 0 53.952673297575529 -60.40829495664434 0 -60.40829495664434 -0.17951751127156967 0 0 0 0 10.255799759567026 -18.971054432937706 0 -18.971054432937706 -1.6619154205400264 0 0 0 0 34.27898391936651 -25.098630483944817 0 -25.098630483944817 -22.681996234210601 0 0 0 0 7.484498325871769 -2.9833022737459149 0 -2.9833022737459149 -2.6456103871331087 0 0 0 0 11.607627694626643 -23.145625651311526 0 -23.145625651311526 -13.343214994755115 0 0 0 0 -96.723567080758585 55.082427405382759 0 55.082427405382759 25.719004976224824 0 0 0 0 49.725667881422851 -94.444913368206016 0 -94.444913368206016 -28.774807097622443 0 0 0 0 60.346094843037463 23.120013890091457 0 23.120013890091457 -8.0117943835757615 0 0 0 0 2.9826374449916457 0.020274416467532141 0 0.020274416467532141 0.12872789395619444 0 0 0 0 -7.0511100656076451 -109.72921705793533 0 -109.72921705793533 147.94855152870605 0 0 0 0 15.583418027388689 -8.0236454876051084 0 -8.0236454876051084 -58.928277962272659 0 0 0 0 0.8246738103118787 -0.22436435360879714 0 -0.22436435360879714 0.020927900211934913 0 0 0 0 -45.347670749335521 -92.190747652849268 0 -92.190747652849268 240.61975625331797 0 0 0 0 -69.860026301092148 -72.368206764245315 0 -72.368206764245315 -7.4447084102841341 0 0 0 0 30.517929020244992 36.486927026627086 0 36.486927026627086 -153.58156692982811 0 0 0 0 0.70661402949977514 -0.16710813419745385 0 -0.16710813419745385 -0.093616977791840306 0 0 0 0 -7.4445303847605828 -0.84552896300738212 0 -0.84552896300738212 -0.9383430503148702 0 0 0 0 89.853613278060948 -83.182707215848041 0 -83.182707215848041 -162.88673357024982 0 0 0 0 -4.4346879132608592 -1.4155652561970555 0 -1.4155652561970555 -2.8034111875804228 0 0 0 0 -0.37526472302124603 5.5873281552903791 0 5.5873281552903791 -19.529996342868571 0 0 0 0 -12.610896514102933 -25.561612841033821 0 -25.561612841033821 54.044733617583915 0 0 0 0 -1.9873260162740323 -3.4581604732312501 0 -3.4581604732312501 -2.0821967882279724 0 0 0 0 -4.5242715170388692 2.476894305735641 0 2.476894305735641 -3.6089976360735818 0 0 0 0 -5.4509668624559708 -6.7927060723186514 0 -6.7927060723186514 -5.1650416354789286 0 0 0 0 -3.0319555564128677 -3.2850337143800061 0 -3.2850337143800061 -14.497585866995905 0 0 0 0 0.53498863598770185 4.9294580536753756 0 4.9294580536753756 -11.103831993929361 0 0 0 0 0.44406439740342307 -2.8603239183621172 0 -2.8603239183621172 -1.6730573484292806 0 0 0 0 -0.28602401989232362 -0.11640607290239835 0 -0.11640607290239835 0.10556087048797869 0 0 0 0 -4.1081681368814316 -12.182515137178598 0 -12.182515137178598 55.595927411367256 0 0 0 0 22.825061941577587 -20.739326576258463 0 -20.739326576258463 52.49811332686204 0 0 0 0 13.208215695325634 -56.827096875501866 0 -56.827096875501866 85.106443512488795 0 0 0 0 39.888043698181718 -55.014943027823165 0 -55.014943027823165 33.268294309247267 0 0 0 0 21.904327103362448 -80.422844733533339 0 -80.422844733533339 -46.763358362970536 0 0 0 0 27.054026331718433 -38.207762047760781 0 -38.207762047760781 33.232975163803076 0 0 0 0 30.378931489682145 -51.878505783096642 0 -51.878505783096642 7.3906793713363186 0 0 0 0 30.514086573526583 -26.460782855682965 0 -26.460782855682965 -18.424701903458754 0 0 0 0 18.715926326006411 -22.622062007022919 0 -22.622062007022919 6.9026477398087991 0 0 0 0 14.693893917919922 -20.025383994061713 0 -20.025383994061713 51.914965588410041 0 0 0 0 14.890454656997463 -31.612985758883042 0 -31.612985758883042 7.0136520612768116 0 0 0 0 -0.11303396951944933 -0.067426716307324774 0 -0.067426716307324774 0.047619268619492505 0 0 0 0 12.162853593410546 -26.466792127686858 0 -26.466792127686858 4.8048673499258712 0 0 0 0 53.013746632437687 44.650491261036223 0 44.650491261036223 81.780267825939518 0 0 0 0 10.533229662329177 -29.140494813634518 0 -29.140494813634518 5.4543065160769402 0 0 0 0 -10.574434791724343 -28.149796968419651 0 -28.149796968419651 9.1951103392871119 0 0 0 0 -9.1676971221750136 6.2843014446398229 0 6.2843014446398229 -7.5919789309164116 0 0 0 0 -9.1764205512710255 -8.7221654706954084 0 -8.7221654706954084 -7.7173793542351632 0 0 0 0 16.179706284492568 -3.1985735811767881 0 -3.1985735811767881 -8.7248176523080474 0 0 0 0 -0.13429475648263178 -0.7035650876323416 0 -0.7035650876323416 -3.9389688053433929 0 0 0 0 3.484592952660023 1.30368236835875 0 1.30368236835875 -8.7676273080787723 0 0 0 0 31.343997791373113 -28.01810527741236 0 -28.01810527741236 -9.97254546986278 0 0 0 0 18.210308610113316 -16.114513846360296 0 -16.114513846360296 -12.459854128870575 0 0 0 0 21.949060038656171 -14.239387243698729 0 -14.239387243698729 -13.117981581616391 0 0 0 0 14.959246984231868 -12.299228665412556 0 -12.299228665412556 -13.195864536089175 0 0 0 0 8.5455249307851773 -14.66254103929441 0 -14.66254103929441 -13.226127395366575 0 0 0 0 13.252509539481252 -23.871630692456165 0 -23.871630692456165 -9.8714980777676828 0 0 0 0 16.54506910561031 -18.909169903003885 0 -18.909169903003885 -5.6225081452994345 0 0 0 0 -42.115315470116911 -70.435805453992089 0 -70.435805453992089 -5.2771820791331265 0 0 0 0 12.886674669760396 -11.394806955488093 0 -11.394806955488093 -14.071833989125821 0 0 0 0 -8.4026049631174828 -15.197937073509593 0 -15.197937073509593 20.303678868408497 0 0 0 0 -3.2568481081301712 -6.5330467632319387 0 -6.5330467632319387 -1.0558980583378137 0 0 0 0 6.4905403827360715 -10.41985234009644 0 -10.41985234009644 -8.6567951757670016 0 0 0 0 -13.820126232080838 -20.605029848919457 0 -20.605029848919457 14.908242562802116 0 0 0 0 -4.4155723760236469 -10.700465574947685 0 -10.700465574947685 17.131701793674893 0 0 0 0 2.5831002489103412 -27.403672028668836 0 -27.403672028668836 -19.080948185166335 0 0 0 0 9.8860258236666105 -8.9241569327977288 0 -8.9241569327977288 2.5210712551744274 0 0 0 0 -3.7387913127495267 -13.299064816270402 0 -13.299064816270402 12.535384288164494 0 0 0 0 2.745940714759854 -10.762537752183107 0 -10.762537752183107 -22.512531490520814 0 0 0 0 -0.75918150066354428 -17.454462359550348 0 -17.454462359550348 -0.93288642820220957 0 0 0 0 3.7752236683954834 -23.857974330904881 0 -23.857974330904881 -3.7303692783552833 0 0 0 0 9.5153665787453967 -6.9968539417380704 0 -6.9968539417380704 2.9718615571896088 0 0 0 0 0.67967216819415199 -0.37596722532063431 0 -0.37596722532063431 0.25960389481022728 0 0 0 0 19.312257619476441 -3.4602759623921884 0 -3.4602759623921884 -8.6774064831425903 0 0 0 0 -16.506120703241322 -42.16388316512689 0 -42.16388316512689 18.607223638645564 0 0 0 0 -13.812876115483959 0.94414253912759705 0 0.94414253912759705 57.287976227631361 0 0 0 0 1.8206685984077922 -2.8359217781440975 0 -2.8359217781440975 -17.084096198414272 0 0 0 0 18.262429049431375 -6.8474273305665747 0 -6.8474273305665747 -21.826660090126666 0 0 0 0 -5.3425853024400567 -6.5147079716734311 0 -6.5147079716734311 -9.9148457912474441 0 0 0 0 1.3052678360878005 -2.0273095650672648 0 -2.0273095650672648 1.0237866064627434 0 0 0 0 -14.355001744517722 -6.5373090716491333 0 -6.5373090716491333 9.1357372759066493 0 0 0 0 -2.0349847948709794 -14.534648788877689 0 -14.534648788877689 -15.697488197986331 0 0 0 0 2.7913793709521997 -13.299879900959809 0 -13.299879900959809 -6.7331840811889379 0 0 0 0 10.429242247717411 -7.6035798955557539 0 -7.6035798955557539 -14.724996762059163 0 0 0 0 3.3321212073115021 -8.1775951563608942 0 -8.1775951563608942 -7.9960904612867409 0 0 0 0 1.5168636429243634 -9.8827440380313192 0 -9.8827440380313192 -8.5031565671765748 0 0 0 0 13.906897119974111 -4.8947199581674923 0 -4.8947199581674923 0.84879215840933719 0 0 0 0 38.356110879623884 15.529526561032867 0 15.529526561032867 -16.557350371326152 0 0 0 0 14.834819248781059 -30.047928057810509 0 -30.047928057810509 20.572636884855456 0 0 0 0 -3.2125581162943035 -17.908661034050546 0 -17.908661034050546 -5.1632581533863231 0 0 0 0 -1.9955543248761387 -8.5866434315989864 0 -8.5866434315989864 -9.830074767022893 0 0 0 0 2.0439148479111253 0.2973020055529183 0 0.2973020055529183 -0.36621822265388593 0 0 0 0 10.793751033746965 -5.3189396957958337 0 -5.3189396957958337 1.0901421307217065 0 0 0 0 14.474220247768244 -12.101675609186714 0 -12.101675609186714 -9.8526158061263232 0 0 0 0 16.400285723724664 -9.254541478137071 0 -9.254541478137071 -5.7986227737205809 0 0 0 0 16.360001681456197 -10.309107152684419 0 -10.309107152684419 -6.7817752055173059 0 0 0 0 15.51534999730211 -9.546444822481817 0 -9.546444822481817 -4.5020127901077558 0 0 0 0 16.147629205729345 -8.0886484601348485 0 -8.0886484601348485 -3.5291038068778562 0 0 0 0 15.575823786246474 -11.277249704250949 0 -11.277249704250949 -9.6165578950539157 0 0 0 0 32.906918975857707 -18.570033727882745 0 -18.570033727882745 -13.210705190960653 0 0 0 0 34.081531428309972 -7.8375006673074807 0 -7.8375006673074807 -54.884010439537406 0 0 0 0 -0.34625814554278556 -0.31196387946735626 0 -0.31196387946735626 -1.5514892239814353 0 0 0 0 -8.8825927676898573 -14.808026845317954 0 -14.808026845317954 -17.347432908503379 0 0 0 0 -68.96655666326842 -57.498242512326328 0 -57.498242512326328 -33.825960715228121 0 0 0 0 9.7576052727563365 -27.404398508296708 0 -27.404398508296708 -87.403887009580558 0 0 0 0 -23.948702448098629 -26.310091271871443 0 -26.310091271871443 -15.091397801197104 0 0 0 0 30.336450626335136 9.1995610404280797 0 9.1995610404280797 -14.999291512770696 0 0 0 0 2.2812247579558749 -0.3804348755364515 0 -0.3804348755364515 -4.3514239422217651 0 0 0 0 0.28723649501534965 -16.550423448863036 0 -16.550423448863036 -19.214057052392263 0 0 0 0 -5.7417192279208393 -16.31923322751328 0 -16.31923322751328 -14.84154496750773 0 0 0 0 1.6200879976222495 -4.779583897472472 0 -4.779583897472472 -6.1145234029691355 0 0 0 0 13.250112909903692 -17.996328847497125 0 -17.996328847497125 -20.322670936042869 0 0 0 0 13.958898454468368 -4.5283073926389932 0 -4.5283073926389932 -0.36281762989916011 0 0 0 0 25.589125356802469 -4.4319562051217645 0 -4.4319562051217645 -8.2885004536526594 0 0 0 0 -13.083145872483328 -31.663945937790352 0 -31.663945937790352 -31.23907283440667 0 0 0 0 -12.681185129129517 -33.528578891635959 0 -33.528578891635959 -25.968599966045929 0 0 0 0 11.538282104120299 -17.944888445157126 0 -17.944888445157126 -44.948783115362829 0 0 0 0 -10.788754343640903 -31.976921567799764 0 -31.976921567799764 -24.930981538026799 0 0 0 0 -13.361796504357699 -33.927063231965747 0 -33.927063231965747 -24.1542423519968 0 0 0 0 -11.802884091201122 -30.771165809930153 0 -30.771165809930153 -25.312505164029801 0 0 0 0 -14.595698207673195 -35.049764804322422 0 -35.049764804322422 -24.192059768132594 0 0 0 0 -16.85637619080444 -38.711534798979415 0 -38.711534798979415 -27.947964583760495 0 0 0 0 -15.551979379476506 -34.04911514166227 0 -34.04911514166227 -21.909627963555749 0 0 0 0 -7.2332445885040215 -14.896833752397697 0 -14.896833752397697 -26.557463009987941 0 0 0 0 -11.920172926213127 -32.368008522270088 0 -32.368008522270088 -36.247574312859456 0 0 0 0 -14.449831899197306 -30.778825229066797 0 -30.778825229066797 -18.996003430285782 0 0 0 0 -19.437788691144306 -28.850321978992497 0 -28.850321978992497 -18.994896250317424 0 0 0 0 -25.402407777321059 -32.635296536934902 0 -32.635296536934902 -1.6008413045703946 0 0 0 0 -21.208289982549104 -27.040150198144488 0 -27.040150198144488 -11.052954820350351 0 0 0 0 -25.483993906152364 -36.244628500903801 0 -36.244628500903801 -13.707395781694231 0 0 0 0 -32.400299438526417 -41.067685000349684 0 -41.067685000349684 -10.286470257453857 0 0 0 0 -23.901795331690664 -42.718177506004849 0 -42.718177506004849 -10.574150510888558 0 0 0 0 -23.665759904242805 -43.270690307965424 0 -43.270690307965424 -20.596549084846629 0 0 0 0 -42.229609797199373 -33.464904028505316 0 -33.464904028505316 21.788847481296671 0 0 0 0 -26.339455443885527 -69.923443855702999 0 -69.923443855702999 -72.857978548620849 0 0 0 0 -41.419140910897113 -103.57782084662404 0 -103.57782084662404 64.327518903707869 0 0 0 0 -29.983621461738949 -61.180090334757097 0 -61.180090334757097 0.059471022960678965 0 0 0 0 -31.456646438587995 -35.976095048922275 0 -35.976095048922275 9.3320100827804708 0 0 0 0 -27.238432042657223 -9.1538734568634936 0 -9.1538734568634936 58.692528833409597 0 0 0 0 -15.23376987757365 -6.1451247105030689 0 -6.1451247105030689 12.067917029063665 0 0 0 0 -22.88748070276597 -22.767605899464456 0 -22.767605899464456 -11.81836462345882 0 0 0 0 9.007398378693324 -27.480856204389056 0 -27.480856204389056 44.946833008549675 0 0 0 0 -5.481969361375377 17.458880289815625 0 17.458880289815625 38.985486733362904 0 0 0 0 -6.4603444121130451 -9.5774706943050205 0 -9.5774706943050205 -20.590895649628237 0 0 0 0 -22.906664432339312 32.014086670831148 0 32.014086670831148 -20.780863984699863 0 0 0 0 -72.560666746198876 -55.112537227813789 0 -55.112537227813789 58.802352212820097 0 0 0 0 8.1329180944085238 -49.009621352640806 0 -49.009621352640806 58.809937543739011 0 0 0 0 6.4173784702434205 -16.761229208867007 0 -16.761229208867007 50.880427374375358 0 0 0 0 -18.989423927498137 -67.85733290575422 0 -67.85733290575422 164.34269712029572 0 0 0 0 -0.19110759456936677 0.15553146391482731 0 0.15553146391482731 0.96115102048144907 0 0 0 0 -11.202545166357595 -20.081747738198374 0 -20.081747738198374 137.16196076856431 0 0 0 0 -14.933364905402414 -66.850436677805874 0 -66.850436677805874 123.71359264154034 0 0 0 0 30.456757893298345 -54.052112055073849 0 -54.052112055073849 126.97186697768302 0 0 0 0 -0.052080670750918046 -0.70115456564504441 0 -0.70115456564504441 -3.1157231239963954 0 0 0 0 26.393917817098554 -69.860797098315743 0 -69.860797098315743 178.65559495081902 0 0 0 0 -0.51935868979694533 -0.08901975776933968 0 -0.08901975776933968 0.032685896118029412 0 0 0 0 -15.546207950130338 -32.396820890656727 0 -32.396820890656727 87.417868781816196 0 0 0 0 22.239562684808334 -0.25508902398178179 0 -0.25508902398178179 76.364401507666116 0 0 0 0 70.875433858134784 -49.264347861485021 0 -49.264347861485021 106.8614693798595 0 0 0 0 -0.32669901046102723 0.55377406978333621 0 0.55377406978333621 0.011531899341425955 0 0 0 0 17.714070719459414 8.939638322422752 0 8.939638322422752 127.76166127355646 0 0 0 0 -31.498147838363366 66.577212013956341 0 66.577212013956341 -133.66202431794409 0 0 0 0 30.914040970441874 -33.385132502787243 0 -33.385132502787243 286.53950543997962 0 0 0 0 0.10275191021258934 -0.006293575265322815 0 -0.006293575265322815 -0.24027224535921166 0 0 0 0 -40.254384533014672 -73.829157533283251 0 -73.829157533283251 185.64463126082387 0 0 0 0 -11.788052535626775 -39.877216502944407 0 -39.877216502944407 -221.18857229454261 0 0 0 0 10.93874499235244 -2.3497290024197355 0 -2.3497290024197355 -212.49949991275662 0 0 0 0 -13.66270098672976 -34.437120938238081 0 -34.437120938238081 -121.03664501520052 0 0 0 0 -11.077330078114755 7.2360148795260102 0 7.2360148795260102 -193.64004539914413 0 0 0 0 -24.59317770412963 -0.36239346565116648 0 -0.36239346565116648 -82.120779576026507 0 0 0 0 -0.75038453842126529 0.87949498181090924 0 0.87949498181090924 -1.2055083612585324 0 0 0 0 -7.3253908007936843 -0.047903113121265051 0 -0.047903113121265051 -41.992733682883227 0 0 0 0 35.653143906434707 -27.044233487224119 0 -27.044233487224119 -184.46958385966536 0 0 0 0 -29.700130128578166 -11.858734300832793 0 -11.858734300832793 -127.25614796278933 0 0 0 0 -19.396106654588948 -32.104711950282763 0 -32.104711950282763 -127.51906513304039 0 0 0 0 7.3266692417528247 -14.144975328474629 0 -14.144975328474629 -127.46209476372817 0 0 0 0 5.822501949944126 -35.621113123865598 0 -35.621113123865598 -127.25993723563471 0 0 0 0 -19.997189343530408 -4.328640869101946 0 -4.328640869101946 10.803480073040191 0 0 0 0 64.254678621644416 -48.893690760247864 0 -48.893690760247864 -37.735443777074039 0 0 0 0 -29.976255124274758 -60.774954301137541 0 -60.774954301137541 39.020677159807747 0 0 0 0 -52.380381652516007 -20.243032188844381 0 -20.243032188844381 -24.490125317332968 0 0 0 0 -27.151370850158855 -40.911639492757331 0 -40.911639492757331 -63.8996913804408 0 0 0 0 -33.749766598080896 -42.355943114703223 0 -42.355943114703223 -14.23352862538286 0 0 0 0 -39.679276881035094 -20.87412329425598 0 -20.87412329425598 -21.387880460660199 0 0 0 0 -38.013884258900362 -31.633075636944795 0 -31.633075636944795 -29.806104697350747 0 0 0 0 -26.92940980358253 -20.344101244115564 0 -20.344101244115564 -42.438183210323587 0 0 0 0 -23.100069543681457 -27.698304821502461 0 -27.698304821502461 -24.463974311506718 0 0 0 0 -21.80966643973079 -25.884330267273185 0 -25.884330267273185 -25.687096782071421 0 0 0 0 -23.76092623275872 -25.307103803467726 0 -25.307103803467726 -25.854012282743497 0 0 0 0 -25.202934502744029 -27.165570287719675 0 -27.165570287719675 -24.598935293798149 0 0 0 0 -21.011986299406999 -34.073514490512252 0 -34.073514490512252 -36.072604222400514 0 0 0 0 -19.367367669708983 -35.329766765594513 0 -35.329766765594513 -35.727052437542625 0 0 0 0 -22.893030418254057 -53.740841183418524 0 -53.740841183418524 -38.939934557418383 0 0 0 0 -36.587753336109017 -27.157271225981731 0 -27.157271225981731 -55.962058574793446 0 0 0 0 -68.370869071844936 -63.686114473435964 0 -63.686114473435964 -75.59828669392482 0 0 0 0 -31.604916224609042 -20.875433464035268 0 -20.875433464035268 -68.122196344736949 0 0 0 0 -24.59921431283874 -40.901876705955829 0 -40.901876705955829 -48.329622476830082 0 0 0 0 -15.375596650479565 -42.252086575405428 0 -42.252086575405428 -18.979122063495993 0 0 0 0 -18.751633093410419 -40.691180602187956 0 -40.691180602187956 -19.464238274493255 0 0 0 0 -20.436636318576348 -38.958498695949402 0 -38.958498695949402 -19.23716507482527 0 0 0 0 -19.882919217798189 -38.152562595598738 0 -38.152562595598738 -26.708885297112374 0 0 0 0 -20.619926812039921 -34.940344303931397 0 -34.940344303931397 -23.447295374731766 0 0 0 0 -22.648844848725275 -36.374702635743233 0 -36.374702635743233 -21.03303279969964 0 0 0 0 -21.044948362230571 -35.461436058831168 0 -35.461436058831168 -21.566688170019916 0 0 0 0 -23.913278792701021 -26.140019467347429 0 -26.140019467347429 -15.85070692085867 0 0 0 0 -27.530854942400765 -30.547988093187541 0 -30.547988093187541 -21.129859166146161 0 0 0 0 -24.636013109407941 -34.917209466071881 0 -34.917209466071881 -14.551024246357883 0 0 0 0 -28.461599430873321 -38.943025713320822 0 -38.943025713320822 -18.138089765930999 0 0 0 0 -19.56542762450772 -40.905172147658618 0 -40.905172147658618 -18.260522203708206 0 0 0 0 -24.096119621652178 -41.497600922316906 0 -41.497600922316906 -17.181992537734459 0 0 0 0 -10.297925097589541 -45.759323313071491 0 -45.759323313071491 -22.077213413635036 0 0 0 0 -10.25663664123212 -47.990079769959337 0 -47.990079769959337 -22.99726345954241 0 0 0 0 -1.4293290473087836 -46.242477123570779 0 -46.242477123570779 -23.849898866373223 0 0 0 0 -9.4002198811904236 -43.336036373035995 0 -43.336036373035995 -21.82178704551643 0 0 0 0 -12.617570729242289 -47.041648146650004 0 -47.041648146650004 -21.109786765386957 0 0 0 0 -10.477658438956951 -40.858910472171942 0 -40.858910472171942 -19.738446851249591 0 0 0 0 -10.613145750116473 -41.326289619161003 0 -41.326289619161003 -19.803765147204103 0 0 0 0 -3.8194173036463326 -43.994335611482484 0 -43.994335611482484 -22.167649078808665 0 0 0 0 -4.4707918214244273 -39.362088235096564 0 -39.362088235096564 -19.948881979247744 0 0 0 0 -10.90456934465692 -41.252835359160144 0 -41.252835359160144 -19.588133955229523 0 0 0 0 -5.1020224840594892 -40.425946946955605 0 -40.425946946955605 -20.639648711313157 0 0 0 0 -10.298810691337167 -39.299489509964076 0 -39.299489509964076 -18.548292572212631 0 0 0 0 -15.206721041282435 -37.227958529104853 0 -37.227958529104853 -16.063388028013648 0 0 0 0 -15.422881156930089 -38.245987352326551 0 -38.245987352326551 -17.943799074208528 0 0 0 0 -14.997254388847068 -40.753235432079236 0 -40.753235432079236 -18.908537257114403 0 0 0 0 -19.21699545935553 -38.094867136580319 0 -38.094867136580319 -16.121331920810462 0 0 0 0 -14.812242699845228 -40.3831626673541 0 -40.3831626673541 -18.50244866681669 0 0 0 0 -19.004914850650493 -39.571894894718525 0 -39.571894894718525 -18.225452173775011 0 0 0 0 -22.123898181878758 -40.090375931067456 0 -40.090375931067456 -17.010432197681439 0 0 0 0 -22.279222407816633 -38.507567942773449 0 -38.507567942773449 -12.203578152769751 0 0 0 0 -18.586363293505201 -39.071167146927564 0 -39.071167146927564 -19.637897623471872 0 0 0 0 -18.458533400207671 -32.23403839375851 0 -32.23403839375851 -11.648745535011813 0 0 0 0 -19.082110401044702 -34.892173744278793 0 -34.892173744278793 -17.071358838811648 0 0 0 0 -13.787735059227998 -34.98791593732949 0 -34.98791593732949 -17.270084820647753 0 0 0 0 -13.098749570563086 -35.044882824622107 0 -35.044882824622107 -20.595010800205046 0 0 0 0 -11.792944495156917 -34.331852428932308 0 -34.331852428932308 -23.533952643871316 0 0 0 0 -10.096579493407262 -36.489879615640803 0 -36.489879615640803 -21.054492066730745 0 0 0 0 -15.275749530316716 -32.566380033723306 0 -32.566380033723306 -21.067193968914353 0 0 0 0 -12.558609520245227 -35.203163435310898 0 -35.203163435310898 -22.265718038103103 0 0 0 0 -12.68819807123873 -35.796838428290158 0 -35.796838428290158 -24.987942636509317 0 0 0 0 -12.604982063661737 -35.137966436741209 0 -35.137966436741209 -23.318381767336646 0 0 0 0 -11.412746312959825 -38.204882242567315 0 -38.204882242567315 -30.322644502865842 0 0 0 0 -10.758087824844097 -35.411501526637259 0 -35.411501526637259 -24.394780717587537 0 0 0 0 -4.6591418820316903 -33.016265475722719 0 -33.016265475722719 -25.995918101949712 0 0 0 0 6.3137448434608814 -36.389860594468928 0 -36.389860594468928 -29.631356712455514 0 0 0 0 -5.0413775633351179 -36.152774658665749 0 -36.152774658665749 -30.445710615704925 0 0 0 0 -2.5870261645522987 -36.559065162331422 0 -36.559065162331422 -24.903985274571085 0 0 0 0 -2.4415943379199234 -36.408319043416796 0 -36.408319043416796 -25.338683570622266 0 0 0 0 11.988181497315963 -36.922828099646608 0 -36.922828099646608 -27.086069086114151 0 0 0 0 -3.9055580529316103 -38.923935127215685 0 -38.923935127215685 -22.832043919185253 0 0 0 0 5.8809825920143339 -39.10257405336904 0 -39.10257405336904 -25.048226285595206 0 0 0 0 -9.2786117581454164 -35.659933336339463 0 -35.659933336339463 -22.584920556477869 0 0 0 0 -4.128103238197582 -37.394685200526396 0 -37.394685200526396 -22.176187379788871 0 0 0 0 -10.515573451013552 -37.724589667072337 0 -37.724589667072337 -19.270371584025497 0 0 0 0 -10.239556928121601 -37.804002773204672 0 -37.804002773204672 -19.252351090793809 0 0 0 0 2.8426662783531356 -42.226117688856107 0 -42.226117688856107 -21.470971700552184 0 0 0 0 3.0440811470889457 -42.227888368642425 0 -42.227888368642425 -24.493248132539975 0 0 0 0 5.7199083671243898 -53.555937479934315 0 -53.555937479934315 24.398695560883425 0 0 0 0 6.6612344722107082 -46.538860102652166 0 -46.538860102652166 -19.436776197932826 0 0 0 0 6.7287107357551577 -43.370929273808599 0 -43.370929273808599 -24.403481447198317 0 0 0 0 10.691357639749185 -42.810355376097647 0 -42.810355376097647 -26.525563389159686 0 0 0 0 8.3831014302190852 -43.370423667433784 0 -43.370423667433784 -25.516202089567514 0 0 0 0 16.311934510158608 -53.330185432319837 0 -53.330185432319837 -23.503883036267098 0 0 0 0 8.0452630647869228 -53.214641505214452 0 -53.214641505214452 -22.207824451953115 0 0 0 0 17.781922126710469 -56.866293062150987 0 -56.866293062150987 -17.513287130517128 0 0 0 0 23.108573857101874 -43.774660217283405 0 -43.774660217283405 -29.893220167291815 0 0 0 0 31.032313927775249 -49.109571962406648 0 -49.109571962406648 -27.388985831251034 0 0 0 0 3.5690471441230329 -65.331579293526815 0 -65.331579293526815 3.9098022980785174 0 0 0 0 0.020375557349325391 -61.576119578350898 0 -61.576119578350898 0.19807940022670323 0 0 0 0 14.000092071988547 -68.590474707492064 0 -68.590474707492064 -3.9698136563609978 0 0 0 0 11.350890661897211 -58.416524921654116 0 -58.416524921654116 -22.277870508882756 0 0 0 0 11.152885136289115 -56.659462791335898 0 -56.659462791335898 0.91557656820884858 0 0 0 0 0.024880382241462939 -53.317911717476875 0 -53.317911717476875 1.4021676856699514 0 0 0 0 0.94872847240276315 -42.065813142444568 0 -42.065813142444568 29.793135889113501 0 0 0 0 -0.12137069225120456 0.2571436219359835 0 0.2571436219359835 0.073887782493854637 0 0 0 0 13.355487549995814 -40.281522257309064 0 -40.281522257309064 -64.787605237328421 0 0 0 0 7.111570008628405 -42.177842273309693 0 -42.177842273309693 -6.6553482809742945 0 0 0 0 11.583126104578696 -36.333562057691154 0 -36.333562057691154 -42.278422251890106 0 0 0 0 9.1558034856625454 -33.279361085386881 0 -33.279361085386881 -8.6043312095089277 0 0 0 0 11.937392069463385 -41.791576254853908 0 -41.791576254853908 -63.136684059132563 0 0 0 0 -0.13007404794004884 0.28455671954052697 0 0.28455671954052697 0.081896609608494653 0 0 0 0 -1.1984050126284274 -43.596733199310506 0 -43.596733199310506 -21.92887809973422 0 0 0 0 0.0020869109284831211 -49.029632177232088 0 -49.029632177232088 -38.483814218157249 0 0 0 0 3.559102515282575e-05 -47.363119503333223 0 -47.363119503333223 -22.25713422284457 0 0 0 0 5.0876964493145351 -47.926754055379774 0 -47.926754055379774 -24.136820445322201 0 0 0 0 7.2355581425481432 -46.062821342301959 0 -46.062821342301959 -24.864569166947604 0 0 0 0 12.364132415141285 -44.809951034808705 0 -44.809951034808705 -27.259391916474215 0 0 0 0 5.1725361913668166 -38.154914961989903 0 -38.154914961989903 -19.168986023281107 0 0 0 0 2.2913790041930042 -42.444954997510081 0 -42.444954997510081 -22.923408956933599 0 0 0 0 -2.6649849567020283 -41.857434039358083 0 -41.857434039358083 -22.651723670549472 0 0 0 0 4.9377623336567922 -44.405069875507934 0 -44.405069875507934 -24.884434785348503 0 0 0 0 6.4934193189365033 -44.991029880222413 0 -44.991029880222413 -25.896015020074401 0 0 0 0 5.7155283330557722 -44.981618869720933 0 -44.981618869720933 -24.465735195081379 0 0 0 0 4.9432573088633944 -44.270640103339247 0 -44.270640103339247 -24.536307489745923 0 0 0 0 -1.2767445858500537 -43.830325979669723 0 -43.830325979669723 -24.014321660143651 0 0 0 0 5.778793185523682 -45.794213825149654 0 -45.794213825149654 -25.872662525060036 0 0 0 0 6.0608931313288394 -42.4430796661917 0 -42.4430796661917 -23.882516142671648 0 0 0 0 4.5759621885736124 -43.091046022831279 0 -43.091046022831279 -20.691192655581276 0 0 0 0 4.8717979217872198 -42.59144609451846 0 -42.59144609451846 -21.209993867153344 0 0 0 0 0.0059855370855075307 -43.329823137498238 0 -43.329823137498238 -15.483874754664043 0 0 0 0 3.473563886289412 -45.097202499253285 0 -45.097202499253285 -21.177052092622716 0 0 0 0 5.6742741643647605 -45.130796828095754 0 -45.130796828095754 -24.988629329213495 0 0 0 0 67.317947177674796 -34.325846621512937 0 -34.325846621512937 -44.016594832712144 0 0 0 0 21.69611081488847 -80.076938166981563 0 -80.076938166981563 111.44542334612561 0 0 0 0 33.993393907025165 -18.906422478636159 0 -18.906422478636159 7.4717282894057462 0 0 0 0 116.82850901836628 -123.54024172553727 0 -123.54024172553727 75.229359605684294 0 0 0 0 72.33047155950544 -60.40852846396001 0 -60.40852846396001 26.653674073191723 0 0 0 0 -0.10772954573648513 -1.4060825038442841 0 -1.4060825038442841 6.0871187716499975 0 0 0 0 52.243290396383372 -55.147729197479748 0 -55.147729197479748 62.737872350250655 0 0 0 0 -79.720197986302765 -26.250413512631894 0 -26.250413512631894 52.155077601398261 0 0 0 0 83.615845415353306 -70.332052018317881 0 -70.332052018317881 -25.721666646055382 0 0 0 0 -0.16007618971729531 -0.65741299427530997 0 -0.65741299427530997 -1.038704026088098 0 0 0 0 71.329967789273269 -30.508117021798171 0 -30.508117021798171 -76.898479726000005 0 0 0 0 143.15950717109763 81.412947202237774 0 81.412947202237774 268.01754135965712 0 0 0 0 401.9112677365506 -240.23609046538968 0 -240.23609046538968 19.749931439850116 0 0 0 0 447.04024218683611 65.219745265258666 0 65.219745265258666 -61.46286533287639 0 0 0 0 225.15408756110082 -123.36618619193723 0 -123.36618619193723 -1.3910651850001159 0 0 0 0 -0.81308586258078952 -2.029786355315256 0 -2.029786355315256 -3.6564701235972024 0 0 0 0 170.70554347033175 -121.04046198447918 0 -121.04046198447918 26.094533611387305 0 0 0 0 183.87632351198999 -147.63063926446102 0 -147.63063926446102 -15.653574699203091 0 0 0 0 187.67049342760731 -93.704820021172509 0 -93.704820021172509 41.638535550437155 0 0 0 0 189.79589133457944 -98.857687930018983 0 -98.857687930018983 -1.3717465725967486 0 0 0 0 198.67907669432088 -75.558508075297595 0 -75.558508075297595 -6.5428458172300452 0 0 0 0 194.70084144228395 -72.018987759822267 0 -72.018987759822267 -5.5874138219876386 0 0 0 0 197.20304242770658 -71.885011345874773 0 -71.885011345874773 14.609750615500161 0 0 0 0 160.36615761340181 -44.007458111643246 0 -44.007458111643246 -17.542597743828082 0 0 0 0 178.25380862274278 -50.397686205809805 0 -50.397686205809805 -16.043536931042581 0 0 0 0 272.11986432683489 -53.023082460534624 0 -53.023082460534624 -57.487195020461513 0 0 0 0 141.10727171095641 -72.609542632283592 0 -72.609542632283592 25.540928974962299 0 0 0 0 192.17955802488314 -75.086249988947202 0 -75.086249988947202 -7.7623794578630623 0 0 0 0 170.40508355880775 -58.206843961887898 0 -58.206843961887898 -11.52907104439646 0 0 0 0 210.89905325383415 -66.356465979721179 0 -66.356465979721179 -9.8367503880335789 0 0 0 0 189.9873299592075 -81.824012192663758 0 -81.824012192663758 -1.8105982653287356 0 0 0 0 203.60402543873784 -59.695812544075125 0 -59.695812544075125 -7.5701561120840779 0 0 0 0 217.01343467810966 -64.655505372120388 0 -64.655505372120388 -6.5168910954002968 0 0 0 0 183.91393185231664 -56.841833839647734 0 -56.841833839647734 -3.4719727156198132 0 0 0 0 191.33608389006486 -51.73140359957506 0 -51.73140359957506 -3.745383253992145 0 0 0 0 184.1375664317311 -55.024947524947493 0 -55.024947524947493 -27.824525078405713 0 0 0 0 152.6326809510183 -40.274779682340522 0 -40.274779682340522 1.7460629957440688 0 0 0 0 -1.2751095960477818 -2.4745667110810885 0 -2.4745667110810885 0.25575733577119664 0 0 0 0 176.63117380907488 -64.260640065497682 0 -64.260640065497682 22.986506135843229 0 0 0 0 198.99079850222324 -62.943394294933569 0 -62.943394294933569 6.6521326533402316 0 0 0 0 0.17157389121763345 5.7755815749934527 0 5.7755815749934527 -3.6702432008896722 0 0 0 0 -0.72704728523605588 -3.441570766136131 0 -3.441570766136131 -6.3456216197824702 0 0 0 0 195.46431382214064 -72.229823448766183 0 -72.229823448766183 10.579983502257164 0 0 0 0 -32.3075894664359 -28.013324195750783 0 -28.013324195750783 34.422154014664557 0 0 0 0 -1.0840786668029225 -2.1549993509680565 0 -2.1549993509680565 7.3571182894407983 0 0 0 0 196.27836195701138 -68.640033484047308 0 -68.640033484047308 3.5147306662011033 0 0 0 0 6.8675394736417275 10.653033913746185 0 10.653033913746185 -12.41182793610642 0 0 0 0 0.78614599829779763 14.239574806289056 0 14.239574806289056 20.173126363152733 0 0 0 0 6.7451724569873477 0.349017432448818 0 0.349017432448818 -22.863318737550799 0 0 0 0 0.48301882841155397 -3.0772387278067059 0 -3.0772387278067059 4.2080575313198665 0 0 0 0 -35.030093165102471 -49.357434887452655 0 -49.357434887452655 -7.3652846504228364 0 0 0 0 -8.3253811009258243 -17.808044282542141 0 -17.808044282542141 -8.7363803303969689 0 0 0 0 -8.3444733807714329 -13.197382814958473 0 -13.197382814958473 9.7922715742611217 0 0 0 0 7.1947074355166478 3.0814967183896442 0 3.0814967183896442 -16.113064326276799 0 0 0 0 34.925130347201048 -134.88995013520298 0 -134.88995013520298 -49.329762065769501 0 0 0 0 -36.455329596829415 -52.157266314519347 0 -52.157266314519347 -12.547116971334958 0 0 0 0 -33.336030889462563 -181.34821903967986 0 -181.34821903967986 -44.587705185610218 0 0 0 0 33.431991341416506 -168.42230275765041 0 -168.42230275765041 -45.963250599119419 0 0 0 0 18.683883332225378 -155.40004532333387 0 -155.40004532333387 -49.037289215615601 0 0 0 0 147.06268040305645 -144.21826499388226 0 -144.21826499388226 1.3635989480344506 0 0 0 0 81.072680349190421 -96.523741701271206 0 -96.523741701271206 -28.149947474019427 0 0 0 0 87.212677516793889 -151.79748841032188 0 -151.79748841032188 -114.48479184390089 0 0 0 0 0.85929108931014397 -1.067683610276934 0 -1.067683610276934 1.4068499536762964 0 0 0 0 201.17758424905242 -26.147058642761294 0 -26.147058642761294 -24.22198444283697 0 0 0 0 -1.2725331597004841 -1.464196004320339 0 -1.464196004320339 -1.3657708907535877 0 0 0 0 -103.8327736978822 -257.12200648219368 0 -257.12200648219368 -54.054439148576421 0 0 0 0 -84.19913840727645 -160.76684135191772 0 -160.76684135191772 65.63815190054504 0 0 0 0 36.042269980383438 -56.218340193663749 0 -56.218340193663749 -175.170229430365 0 0 0 0 -98.095885079636901 -232.87702810489191 0 -232.87702810489191 0.95424819205436506 0 0 0 0 1.4501874459228929 -185.75717240938411 0 -185.75717240938411 -95.878541978516296 0 0 0 0 2.9178077744609254 -193.19448185439569 0 -193.19448185439569 -58.608351118331484 0 0 0 0 -21.194111895788865 -166.08823343201493 0 -166.08823343201493 -25.323770206794507 0 0 0 0 -160.53920471467745 -34.343396010940523 0 -34.343396010940523 -143.60065444891552 0 0 0 0 -24.660081076602637 -240.93841444717236 0 -240.93841444717236 -203.29192948426135 0 0 0 0 -54.170675527393996 -182.55047203164941 0 -182.55047203164941 -228.28297208433969 0 0 0 0 -235.88789860814518 -175.06092523163738 0 -175.06092523163738 -78.047723622525154 0 0 0 0 -97.578322213479169 -156.26551723383363 0 -156.26551723383363 -88.937465518565659 0 0 0 0 -93.722001546429965 -120.10074973193787 0 -120.10074973193787 -65.168484686743341 0 0 0 0 -187.36925667777246 -75.977925774589494 0 -75.977925774589494 -9.432109206007226 0 0 0 0 -0.56588688262704778 -0.24399699991322521 0 -0.24399699991322521 0.5890209632407668 0 0 0 0 78.559058384176296 -111.83083941553286 0 -111.83083941553286 -13.196409425234606 0 0 0 0 -4.0491754608767678 -28.206756646959093 0 -28.206756646959093 -4.539128728300966 0 0 0 0 -35.99330249683544 -11.656465101740196 0 -11.656465101740196 13.160411443825069 0 0 0 0 -87.912683850320605 -75.725913594134681 0 -75.725913594134681 -25.067780501434754 0 0 0 0 -22.965617836188244 -17.921414853586157 0 -17.921414853586157 52.648994358654818 0 0 0 0 51.763712040792257 -92.951864287824264 0 -92.951864287824264 123.39262906841032 0 0 0 0 80.510759688889721 -12.66010738000432 0 -12.66010738000432 97.191665106020309 0 0 0 0 -0.72401253639059959 -0.22644600896712674 0 -0.22644600896712674 1.055373081923527 0 0 0 0 155.52298538485593 -92.384319615628101 0 -92.384319615628101 32.500377267346266 0 0 0 0 62.251725916909436 -60.733094167925628 0 -60.733094167925628 31.365414997824701 0 0 0 0 -0.76096529543639768 -0.044811898057021793 0 -0.044811898057021793 1.4267205052246972 0 0 0 0 9.7999546171837579 -1.9473712067247959 0 -1.9473712067247959 -1.3713007641981676 0 0 0 0 2.2902801605514469 1.5160301195119246 0 1.5160301195119246 2.0785731279829633 0 0 0 0 4.6948155161544491 -1.5665315634505532 0 -1.5665315634505532 1.4834329114164575 0 0 0 0 10.280073328669062 -8.4421600763738809 0 -8.4421600763738809 6.3141286178379232 0 0 0 0 7.7196739366549991 -29.183605172760508 0 -29.183605172760508 -34.267983802758863 0 0 0 0 -40.716183247357264 -43.46524781581445 0 -43.46524781581445 -5.8533950470337004 0 0 0 0 4.3908849577678666 1.7270275341252272 0 1.7270275341252272 -1.9396986941898149 0 0 0 0 -6.4045490574530959 -9.2618802600718482 0 -9.2618802600718482 -3.7518220677011413 0 0 0 0 12.627555389860845 0.39465265187664045 0 0.39465265187664045 -1.107369335561998 0 0 0 0 22.284062784386606 -7.0799975637710304 0 -7.0799975637710304 -15.491630267413711 0 0 0 0 6.4544834564890152 -11.548226296412395 0 -11.548226296412395 13.052490702471914 0 0 0 0 20.29798203840528 -14.02984836157566 0 -14.02984836157566 14.460751895207068 0 0 0 0 17.947817790236513 -17.51423704885201 0 -17.51423704885201 9.6117490937249386 0 0 0 0 22.890124909725728 -25.231976355398729 0 -25.231976355398729 20.876208100778967 0 0 0 0 13.177133069850697 3.692509962929762 0 3.692509962929762 -5.776324182679673 0 0 0 0 30.916097889672074 -7.0807299243015223 0 -7.0807299243015223 -1.4152098744734758 0 0 0 0 6.7160456073832506 4.9760378739791804 0 4.9760378739791804 2.0476501179036859 0 0 0 0 7.5908878063232805 -0.71478164144809853 0 -0.71478164144809853 3.9372030655977142 0 0 0 0 7.7403264767847331 -2.5551209449667116 0 -2.5551209449667116 0.76469479405695573 0 0 0 0 0.50494202148762923 0.26682304881280672 0 0.26682304881280672 -0.022656002510316853 0 0 0 0 20.229433391701114 -47.618434601605074 0 -47.618434601605074 -6.8979748736601323 0 0 0 0 0.58747089385204276 -31.24770551207439 0 -31.24770551207439 -47.239993531520668 0 0 0 0 21.715681177600345 3.6892707550650812 0 3.6892707550650812 -42.743169258295893 0 0 0 0 5.878480502884031 -7.2157542983204621 0 -7.2157542983204621 44.405134882785205 0 0 0 0 17.741584439273467 28.422738957726807 0 28.422738957726807 -6.5558993860977353 0 0 0 0 -2.3721954403282552 6.0304426603042884 0 6.0304426603042884 -18.541286985735496 0 0 0 0 1.4994004922052362 -5.738610363484753 0 -5.738610363484753 -8.396257228385366 0 0 0 0 5.8189645090646991 4.4587959628097451 0 4.4587959628097451 4.8576058858116085 0 0 0 0 5.2797927620717928 -4.882507958754104 0 -4.882507958754104 -4.8442505061811971 0 0 0 0 7.6020594955962224 -2.418515145773199 0 -2.418515145773199 -2.5850578267418314 0 0 0 0 6.009582991559455 -0.44154393360167887 0 -0.44154393360167887 0.65790876460596337 0 0 0 0 -1.7657699886412956 2.9048202744561422 0 2.9048202744561422 2.2946448088111993 0 0 0 0 -3.6469590602855533 -3.9609952722839807 0 -3.9609952722839807 0.012201752660985221 0 0 0 0 -6.6567020851916823 18.409851398882893 0 18.409851398882893 30.702189504842522 0 0 0 0 -5.1988020302715086 -25.925853184644438 0 -25.925853184644438 2.9858585496477872 0 0 0 0 -7.0444463932886094 -27.637767323569278 0 -27.637767323569278 -46.447000299904175 0 0 0 0 5.840176308351289 -21.151174524901762 0 -21.151174524901762 -72.215841231534796 0 0 0 0 -7.0984047807732171 -20.625450101179503 0 -20.625450101179503 -55.957191123383382 0 0 0 0 1.5148132760183159 -29.66912930701892 0 -29.66912930701892 -53.988048718936625 0 0 0 0 10.812365389564036 -33.954772212875469 0 -33.954772212875469 -63.512782219002474 0 0 0 0 7.6889037608629653 -1.8571820577293678 0 -1.8571820577293678 0.42154299592578148 0 0 0 0 11.63176798640734 -27.836216693413007 0 -27.836216693413007 -74.955841387606597 0 0 0 0 1.5371027146148553 -0.89154713682684061 0 -0.89154713682684061 0.41616641620175798 0 0 0 0 0.62149696599414028 -16.664294710151808 0 -16.664294710151808 -79.853001526640583 0 0 0 0 9.3336867007615751 -29.449928623529559 0 -29.449928623529559 -61.588558638924496 0 0 0 0 21.343790273660886 -32.607273026961593 0 -32.607273026961593 -75.765260233107256 0 0 0 0 15.22625041548747 -12.20007915410315 0 -12.20007915410315 -89.777617125311735 0 0 0 0 16.20113493096369 -20.339296537737027 0 -20.339296537737027 -95.983332853695174 0 0 0 0 33.472332228467593 -4.9103634224652524 0 -4.9103634224652524 -72.635376371497841 0 0 0 0 16.43905229880869 -12.480282035827258 0 -12.480282035827258 -90.204474144539745 0 0 0 0 14.767634313299254 0.65004192551714368 0 0.65004192551714368 -192.08582758573539 0 0 0 0 2.1318608916477482 -0.74648249557331603 0 -0.74648249557331603 -0.40451223234478562 0 0 0 0 -9.7969698024987792 -48.046907252775782 0 -48.046907252775782 -105.97882496218153 0 0 0 0 54.466051167522636 -0.44032073470816613 0 -0.44032073470816613 -77.900331802989967 0 0 0 0 -36.829353406870382 -27.506199825773365 0 -27.506199825773365 -79.691286324038629 0 0 0 0 2.4225154772236692 24.870039639628885 0 24.870039639628885 -89.521334855007808 0 0 0 0 38.644595506387191 -25.779927935054729 0 -25.779927935054729 -135.77821273265909 0 0 0 0 -0.74276701895178121 6.4021182337746723 0 6.4021182337746723 7.8828840241549187 0 0 0 0 -0.62451873537774283 0.4471351876756664 0 0.4471351876756664 0.087117452694160491 0 0 0 0 91.583775834005792 -105.11338578220239 0 -105.11338578220239 22.441641339217313 0 0 0 0 65.499314203054382 -5.6538999192175652 0 -5.6538999192175652 -7.1229245867125428 0 0 0 0 7.6887506799607381 -0.9022910330031948 0 -0.9022910330031948 -0.18132392844419876 0 0 0 0 -23.086530107266299 -49.542781193338669 0 -49.542781193338669 164.7887055931169 0 0 0 0 139.8924065520248 93.999345039421087 0 93.999345039421087 185.25632768903597 0 0 0 0 0.78063789682983042 -230.44565080358689 0 -230.44565080358689 163.44536762616917 0 0 0 0 -26.025674002934466 -1.3707592043401746 0 -1.3707592043401746 124.91978498548451 0 0 0 0 7.4074096916237409 -5.4549069753491892 0 -5.4549069753491892 1.2022886566846864 0 0 0 0 2.849756868359691 -0.3620697944497806 0 -0.3620697944497806 -2.074655153492813 0 0 0 0 5.7820018339939772 -0.94846483276508664 0 -0.94846483276508664 0.072809207878084536 0 0 0 0 -0.3204898944355774 -0.37821371184887909 0 -0.37821371184887909 1.2838593025484961 0 0 0 0 4.2500958751694213 -0.35642403211083362 0 -0.35642403211083362 0.088005650470382335 0 0 0 0 8.2124883800045758 -1.3891909508117664 0 -1.3891909508117664 -0.24625483485783306 0 0 0 0 125.04894974877016 -57.899978631558042 0 -57.899978631558042 35.319360127677101 0 0 0 0 -15.440752894751313 -191.94897990003392 0 -191.94897990003392 176.56379076097801 0 0 0 0 -0.014551636258398504 -0.59623846236615918 0 -0.59623846236615918 2.5092675060023311 0 0 0 0 67.683784110384295 -188.55336257226281 0 -188.55336257226281 238.18003173169086 0 0 0 0 319.28056881492898 -176.62034924948284 0 -176.62034924948284 35.589993735540702 0 0 0 0 -217.54654554898849 -15.322729859271931 0 -15.322729859271931 139.17152141959377 0 0 0 0 190.38464998216978 -71.71189090593316 0 -71.71189090593316 27.50217639281982 0 0 0 0 96.603801271027805 -126.15084975383706 0 -126.15084975383706 67.325957805277085 0 0 0 0 276.14652901622549 20.438863206267342 0 20.438863206267342 -78.714892650635818 0 0 0 0 491.66172847486041 -161.00164185120002 0 -161.00164185120002 -86.151639080504538 0 0 0 0 -3.4184848625563973 55.122367090521948 0 55.122367090521948 -59.878334292228828 0 0 0 0 13.346953039209893 1.5420853020068535 0 1.5420853020068535 35.806462471296072 0 0 0 0 -21.224678160099472 -133.74169082110495 0 -133.74169082110495 149.96109328458624 0 0 0 0 160.58424264952555 -0.034528857341683761 0 -0.034528857341683761 32.067621543638779 0 0 0 0 161.14830270281254 -23.673464604265973 0 -23.673464604265973 17.854499218610727 0 0 0 0 198.26118603437908 -32.908925341318536 0 -32.908925341318536 59.822613735159393 0 0 0 0 176.21766550547488 25.896455364917983 0 25.896455364917983 7.561795813660865 0 0 0 0 244.427257254913 -2.6200810370064573 0 -2.6200810370064573 19.483757748734206 0 0 0 0 259.21060826989174 17.034573473060846 0 17.034573473060846 30.053663944527216 0 0 0 0 192.4391237210823 58.515983565929673 0 58.515983565929673 191.76281885719436 0 0 0 0 482.01952791568965 -16.503722143188497 0 -16.503722143188497 52.771437716237415 0 0 0 0 62.078221321407909 -174.07054405308918 0 -174.07054405308918 345.89470955673448 0 0 0 0 2.8979224779426023 -0.58613832891078488 0 -0.58613832891078488 0.17015392216107283 0 0 0 0 114.01965672941219 -140.96808145798332 0 -140.96808145798332 149.7969801046238 0 0 0 0 49.225919929093834 -213.19629376682133 0 -213.19629376682133 118.83263763078867 0 0 0 0 244.45997390394768 -243.16868696064739 0 -243.16868696064739 210.98222817153328 0 0 0 0 181.95499584358572 132.0092791881907 0 132.0092791881907 -26.307011926411974 0 0 0 0 5.3384345115866836 10.442114362143457 0 10.442114362143457 -51.201561072433833 0 0 0 0 92.238664136435887 79.870979755323788 0 79.870979755323788 -42.615986825450818 0 0 0 0 429.15140815660362 16.27098968969085 0 16.27098968969085 -125.82535393397848 0 0 0 0 263.38933241024534 -157.53260861591662 0 -157.53260861591662 71.827284055771088 0 0 0 0 151.82853188910667 -43.824674784749732 0 -43.824674784749732 -41.603315385093993 0 0 0 0 151.31984138000803 -98.325310940763885 0 -98.325310940763885 -122.37483281267305 0 0 0 0 81.88274507629751 -53.158129564743831 0 -53.158129564743831 98.658475936364994 0 0 0 0 194.39037422826868 31.707808359373303 0 31.707808359373303 113.035515218603 0 0 0 0 -7.8484748614076807 -44.266147400201589 0 -44.266147400201589 78.387417103331245 0 0 0 0 101.00070294253533 -51.981521304591297 0 -51.981521304591297 77.273063218905463 0 0 0 0 95.544409998628083 -40.90990184695238 0 -40.90990184695238 19.916637978284598 0 0 0 0 -84.408402028667638 -107.74406431362331 0 -107.74406431362331 17.77334836152022 0 0 0 0 59.469744539707904 -30.560481467437057 0 -30.560481467437057 -245.24168594648836 0 0 0 0 -7.7968282717691721 -21.946209889070815 0 -21.946209889070815 -24.536923768149791 0 0 0 0 28.749008393134247 -85.481090097341621 0 -85.481090097341621 7.4832570221069545 0 0 0 0 23.307461026242748 -69.756324491819328 0 -69.756324491819328 52.344097048362528 0 0 0 0 20.222470465734233 -75.484721951174834 0 -75.484721951174834 69.835561205633894 0 0 0 0 -21.199819381040925 -128.81245264579138 0 -128.81245264579138 22.049290079991806 0 0 0 0 7.7865220251547953 -79.196910671986188 0 -79.196910671986188 79.046851044648065 0 0 0 0 35.984237270901076 -56.07405734013264 0 -56.07405734013264 59.188047091929093 0 0 0 0 8.565314771825669 -36.664649051730066 0 -36.664649051730066 46.635071942440845 0 0 0 0 -2.4098726492886726 -10.612941044450054 0 -10.612941044450054 2.8521116702308973 0 0 0 0 -1.917671637290628 -5.6831533540099972 0 -5.6831533540099972 -1.9196172310695649 0 0 0 0 -4.2781447163172333 -5.1618563518183853 0 -5.1618563518183853 1.7312124961361803 0 0 0 0 -1.9989296451258225 -5.486114366608092 0 -5.486114366608092 -1.8148727218925185 0 0 0 0 13.965351251641323 -25.086928214232103 0 -25.086928214232103 70.332087134754147 0 0 0 0 -4.6123263376092893 -47.459298894749736 0 -47.459298894749736 112.55953853722713 0 0 0 0 110.20269014526434 -92.165716078777223 0 -92.165716078777223 116.06257235837984 0 0 0 0 0.43551226061325377 -1.6005354314056177 0 -1.6005354314056177 -2.0433415025331882 0 0 0 0 135.88474855757715 -48.339995406409344 0 -48.339995406409344 2.9458139797170588 0 0 0 0 -20.412608610618008 -23.386152704324559 0 -23.386152704324559 193.57307670999035 0 0 0 0 21.028058532204113 -169.52858012281922 0 -169.52858012281922 206.81208924391467 0 0 0 0 65.816244792713405 -74.097618486815918 0 -74.097618486815918 64.527405393237132 0 0 0 0 370.96376936218257 -302.11404109251089 0 -302.11404109251089 179.69845457912015 0 0 0 0 204.09694848603795 -130.3488798242015 0 -130.3488798242015 41.437744230965109 0 0 0 0 308.27342675218091 -82.162903972838421 0 -82.162903972838421 46.90366770291439 0 0 0 0 204.02331652658904 -136.66963473232863 0 -136.66963473232863 196.68093976949604 0 0 0 0 214.01938860184964 -22.826154382412824 0 -22.826154382412824 80.66153635239607 0 0 0 0 119.42910984023479 -47.231887575833753 0 -47.231887575833753 109.82760568394042 0 0 0 0 224.74606806597239 -22.206362571414502 0 -22.206362571414502 13.97654095766211 0 0 0 0 90.714775846699695 -29.599627464478544 0 -29.599627464478544 84.151820281897017 0 0 0 0 10.48693901362374 -52.887885420141117 0 -52.887885420141117 117.49480837455849 0 0 0 0 -6.7265973872345057 -25.432016648370336 0 -25.432016648370336 -22.670245266916027 0 0 0 0 -6.023358676036878 -24.338800284132503 0 -24.338800284132503 -25.206931801567407 0 0 0 0 -14.728542997961085 -29.79387007524565 0 -29.79387007524565 -20.286236158151041 0 0 0 0 -6.7957542063768415 -24.504598786754286 0 -24.504598786754286 -20.479746135395544 0 0 0 0 -2.3840030681030839 -32.800793610403161 0 -32.800793610403161 -30.530937734842155 0 0 0 0 -4.4739879501119049 -32.237736861551184 0 -32.237736861551184 -21.297835349010711 0 0 0 0 3.5644689559712788 -24.122968207997474 0 -24.122968207997474 -27.180001927354169 0 0 0 0 17.452946056382416 -30.889130257868146 0 -30.889130257868146 -30.475587316450401 0 0 0 0 11.088840477397753 -18.103435298258773 0 -18.103435298258773 -28.64252043149645 0 0 0 0 18.796670109855313 -32.090284916243036 0 -32.090284916243036 -25.550179732696051 0 0 0 0 5.9132206252152173 -42.058040696527314 0 -42.058040696527314 -31.601073346297198 0 0 0 0 -10.379587540414832 -45.762369793115795 0 -45.762369793115795 -16.598850218826556 0 0 0 0 -7.7875276058921372 -41.039498243117123 0 -41.039498243117123 -23.520173275364868 0 0 0 0 5.9274667005552146 -63.358448264887556 0 -63.358448264887556 -30.832452454633312 0 0 0 0 -51.882671441064758 -60.644444107685558 0 -60.644444107685558 -18.415813920458277 0 0 0 0 -35.239881873908303 -26.702200321110467 0 -26.702200321110467 -10.215473170504993 0 0 0 0 -22.980466816744411 -44.073090653440886 0 -44.073090653440886 -16.703627045655594 0 0 0 0 -10.822171123766566 -38.621499560829761 0 -38.621499560829761 -21.374639787084561 0 0 0 0 -13.588297774658713 -36.629363503582681 0 -36.629363503582681 -14.962257911724009 0 0 0 0 -17.95150514724719 -35.435673533920635 0 -35.435673533920635 -15.005457535878065 0 0 0 0 -15.035105116009618 -31.696147428079712 0 -31.696147428079712 -10.799109036146547 0 0 0 0 -10.603593204285971 -25.013118935563398 0 -25.013118935563398 -10.156942886750016 0 0 0 0 -20.095277060959688 -35.126976276204005 0 -35.126976276204005 -10.344665110758797 0 0 0 0 -25.242718300155957 -20.42000304208932 0 -20.42000304208932 -10.126580761487276 0 0 0 0 -47.326132082230743 -10.579718866147232 0 -10.579718866147232 -0.48073308184029884 0 0 0 0 -184.73252406914469 -35.511434498525887 0 -35.511434498525887 20.70930286453131 0 0 0 0 0.047727663295785927 -0.15417134041084246 0 -0.15417134041084246 -0.33427881570925422 0 0 0 0 -49.359628485795916 -19.815804944143935 0 -19.815804944143935 -10.047490555325567 0 0 0 0 222.52502599127843 -115.79290122716611 0 -115.79290122716611 2.1311202909996609 0 0 0 0 61.553703663308397 -49.256671651949546 0 -49.256671651949546 39.126325578079559 0 0 0 0 123.19033930959728 -106.24399207454826 0 -106.24399207454826 25.997623706237846 0 0 0 0 -0.22920824989074062 -0.57323275547655062 0 -0.57323275547655062 -0.41717476146413901 0 0 0 0 -1.2316768883339639 -1.9922271673950522 0 -1.9922271673950522 0.92063011276579942 0 0 0 0 -7.280608088810709 -9.9185365133844243 0 -9.9185365133844243 6.2111203564527386 0 0 0 0 -2.4231004728267695 -6.7583166087939333 0 -6.7583166087939333 -4.4165401219077083 0 0 0 0 0.15141114402376843 -9.8147358605110639 0 -9.8147358605110639 4.0749356130850174 0 0 0 0 13.731398742244892 -11.595517863661371 0 -11.595517863661371 13.561265596751127 0 0 0 0 -1.7191044169714687 -6.0632607056118735 0 -6.0632607056118735 -7.0366699340690104 0 0 0 0 -5.2867707578295722 -34.85629855530874 0 -34.85629855530874 32.875963245765888 0 0 0 0 -2.542499698548454 -11.756061513528039 0 -11.756061513528039 4.9739600173520557 0 0 0 0 -3.8149479586298281 -6.9552890779133918 0 -6.9552890779133918 -2.0505990297141263 0 0 0 0 -11.091884521428256 -29.465243042669044 0 -29.465243042669044 29.00817848494944 0 0 0 0 -2.6026936836547065 -15.7563894859436 0 -15.7563894859436 16.223693845271555 0 0 0 0 -12.327210141691467 -7.3018173427881266 0 -7.3018173427881266 13.622484059590079 0 0 0 0 -15.941599378520095 -0.36577001628756989 0 -0.36577001628756989 1.6607307127924287 0 0 0 0 0.7432882709998907 -15.761135516323208 0 -15.761135516323208 9.0762519110285211 0 0 0 0 0.6603889980098927 -19.550457290041379 0 -19.550457290041379 40.213124617912399 0 0 0 0 -4.2992152312238536 -4.6719213402255662 0 -4.6719213402255662 3.4387949654418506 0 0 0 0 1.8323466800584356 -8.7309121955950104 0 -8.7309121955950104 2.4781274292163289 0 0 0 0 -26.456716558215021 -19.379841458988722 0 -19.379841458988722 -1.5270983136178984 0 0 0 0 -7.1400228909124053 -15.501194581051095 0 -15.501194581051095 7.3083114742476027 0 0 0 0 -7.7197155959001975 -30.065700711193131 0 -30.065700711193131 -9.0721839558937063 0 0 0 0 -4.3722640026335284 -31.950702723996073 0 -31.950702723996073 -8.544108616788435 0 0 0 0 -36.034325483441535 -26.162370165248831 0 -26.162370165248831 -10.582585636660951 0 0 0 0 -23.49628823898729 -38.985393725553877 0 -38.985393725553877 -3.192925733699667 0 0 0 0 -0.62941020216539201 1.0801838984425629 0 1.0801838984425629 4.2209121566863743 0 0 0 0 -54.894063787186496 -18.176371200344875 0 -18.176371200344875 23.843361795261444 0 0 0 0 -4.772886632635986 -8.5153119867249529 0 -8.5153119867249529 -0.73428008709592163 0 0 0 0 -1.4984376096435881 -4.2896491239444003 0 -4.2896491239444003 12.941473386923462 0 0 0 0 -2.950489763741805 -6.4593481106947461 0 -6.4593481106947461 -3.7723647097460313 0 0 0 0 -0.7532899354833047 -0.2851931315720293 0 -0.2851931315720293 2.5806571082244325 0 0 0 0 -2.5875158673379701 -34.748070306424779 0 -34.748070306424779 -4.2164142275692029 0 0 0 0 1.8940097825270641 2.4011383855831809 0 2.4011383855831809 11.107798896227905 0 0 0 0 9.0710118051638347 -5.4978642413443595 0 -5.4978642413443595 8.9024765421968368 0 0 0 0 12.175303283025642 -18.173324381576094 0 -18.173324381576094 1.7543706835822377 0 0 0 0 -13.191111638094299 -13.033190705976267 0 -13.033190705976267 21.039429043117252 0 0 0 0 -12.741991998313097 -17.297092866741878 0 -17.297092866741878 18.457154787207401 0 0 0 0 -19.733673267413906 -7.6774407314144355 0 -7.6774407314144355 17.206416353438726 0 0 0 0 -12.707222422508039 -12.723444049429418 0 -12.723444049429418 17.503459658492829 0 0 0 0 -6.8627273249021528 -10.10663202390333 0 -10.10663202390333 7.0265728961830973 0 0 0 0 0.30816530784431961 -4.7343846618714451 0 -4.7343846618714451 10.48342975846208 0 0 0 0 -8.7363595579467983 -1.1535878802592379 0 -1.1535878802592379 19.434323159568066 0 0 0 0 -5.0360766614207932 -16.698738713107559 0 -16.698738713107559 -7.7727520813386946 0 0 0 0 -8.2583617622590317 -11.061154728489889 0 -11.061154728489889 1.4373598239418053 0 0 0 0 -22.055697746569422 -15.631719593140588 0 -15.631719593140588 16.243454861959435 0 0 0 0 -11.512325708680692 -15.207407892965421 0 -15.207407892965421 12.263070847846393 0 0 0 0 -10.343973361363169 -33.911740098956216 0 -33.911740098956216 -0.72561118498560973 0 0 0 0 -5.3686183800782601 -22.792934955912642 0 -22.792934955912642 -19.511014870418876 0 0 0 0 -4.0200896933483818 -31.398213867780214 0 -31.398213867780214 -30.100469686934957 0 0 0 0 -17.419122155223704 -13.180206246901434 0 -13.180206246901434 -24.566629760782234 0 0 0 0 -10.838777598077286 -24.770877830129393 0 -24.770877830129393 -19.712394501664676 0 0 0 0 -8.5430984793210882 -22.699152194956696 0 -22.699152194956696 -19.084843110947986 0 0 0 0 -6.4542879211370519 -27.420672534592768 0 -27.420672534592768 -12.098502051165269 0 0 0 0 2.7656597628119926 -8.4956074093815914 0 -8.4956074093815914 -0.64264109120449575 0 0 0 0 1.3193618874195181 -17.365065321416296 0 -17.365065321416296 -49.700465711176548 0 0 0 0 -0.21482881147129795 -0.25524871397195703 0 -0.25524871397195703 -0.43955374280915827 0 0 0 0 -30.377627647306326 -20.589764475745142 0 -20.589764475745142 19.955869157296775 0 0 0 0 -26.103681555039657 -3.9240462263892368 0 -3.9240462263892368 23.552770157678424 0 0 0 0 -31.07687228821851 -25.820473642756497 0 -25.820473642756497 -6.3484179870110893 0 0 0 0 -3.7595419264885095 -16.669003208801769 0 -16.669003208801769 -11.192268237063217 0 0 0 0 -24.611541067818962 2.494615048248761 0 2.494615048248761 -28.374034291952739 0 0 0 0 -5.0483972109859678 -25.309866701501051 0 -25.309866701501051 -32.629036713139612 0 0 0 0 -5.9631125499154223 -23.577617175615046 0 -23.577617175615046 6.4372958482890681 0 0 0 0 1.8244488121958966 -7.0145916056917486 0 -7.0145916056917486 -27.247732348871978 0 0 0 0 7.2730546607117503 -10.502157305480978 0 -10.502157305480978 12.710393865962942 0 0 0 0 -6.1498653416578009 -30.729961687474542 0 -30.729961687474542 -8.4514947998322896 0 0 0 0 -3.2788541826016626 -20.931924468549369 0 -20.931924468549369 -2.9609045998877264 0 0 0 0 -2.5453534949169807 -11.740961980653992 0 -11.740961980653992 -28.884940689773202 0 0 0 0 -8.3977133000244066 -9.5912174641989623 0 -9.5912174641989623 4.3917622670546734 0 0 0 0 4.1008897205100538 -12.852371293714782 0 -12.852371293714782 -5.3009366205560582 0 0 0 0 3.7528198592531368 -13.265221988833673 0 -13.265221988833673 -1.3596323694091552 0 0 0 0 4.0858210767582932 -7.3918401816472397 0 -7.3918401816472397 3.4340495571118481 0 0 0 0 5.3559354194395397 -6.1442730381777642 0 -6.1442730381777642 7.362184370644405 0 0 0 0 -5.3356560791980883 -13.312217875335591 0 -13.312217875335591 4.2379924036622469 0 0 0 0 -4.4399892369453937 -16.990691550213228 0 -16.990691550213228 -0.8691064937693227 0 0 0 0 -18.871778151987201 -10.018374116164978 0 -10.018374116164978 -4.2368985067473659 0 0 0 0 -9.1117366200260221 -24.352753489731185 0 -24.352753489731185 -6.2618841757343944 0 0 0 0 -9.5551978706375849 -19.994420912264104 0 -19.994420912264104 1.0121824501165975 0 0 0 0 -3.9837156290759594 -12.993467278908611 0 -12.993467278908611 1.5826061049237978 0 0 0 0 -5.7856394856989937 -21.386596852664297 0 -21.386596852664297 -1.0594370646349489 0 0 0 0 -7.1354556920805408 -21.303146758958064 0 -21.303146758958064 -0.094963431130963727 0 0 0 0 -5.7320770072906271 -19.817047244786409 0 -19.817047244786409 -0.28617920590932044 0 0 0 0 6.8842471459975059 -1.5987220327360774 0 -1.5987220327360774 -29.210748092252288 0 0 0 0 -14.990523995839169 1.5678581445222335 0 1.5678581445222335 1.6370015080101439 0 0 0 0 0.73415788769316759 -1.0208725073082263 0 -1.0208725073082263 -1.0700543394979967 0 0 0 0 196.43860458585095 0.85355535387861892 0 0.85355535387861892 -59.982971723879245 0 0 0 0 204.91371953514226 -35.773593727359184 0 -35.773593727359184 -56.346333746372579 0 0 0 0 39.643402100143248 25.762156691763721 0 25.762156691763721 -53.259987465206905 0 0 0 0 -33.286791546705672 -33.26397521649551 0 -33.26397521649551 41.746623586499481 0 0 0 0 174.95344573524176 -265.28561358621482 0 -265.28561358621482 373.42296919531327 0 0 0 0 22.161783282621172 -28.490804988440232 0 -28.490804988440232 1.2609439530742748 0 0 0 0 0.2807683386801445 -5.4552974998009045 0 -5.4552974998009045 -8.0579601194728667 0 0 0 0 141.64446127978408 101.13706422584983 0 101.13706422584983 36.335901208428368 0 0 0 0 3.3838061947176357 40.374776463724629 0 40.374776463724629 81.933661079834565 0 0 0 0 4.0680330618512368 0.07531391215777461 0 0.07531391215777461 -1.7192329708020679 0 0 0 0 0.32754603523843012 -1.7333672600464101 0 -1.7333672600464101 0.19953902130431089 0 0 0 0 -1.3325950430742068 -8.0061847451997892 0 -8.0061847451997892 -2.7672562844927597 0 0 0 0 1.7575637991378699 -12.769108526842047 0 -12.769108526842047 -0.37002940708225651 0 0 0 0 0.76892175015146957 -6.2386925448668773 0 -6.2386925448668773 -3.1593671437345936 0 0 0 0 2.1378256925895585 -4.9358913775877227 0 -4.9358913775877227 -5.3039833497132349 0 0 0 0 1.6441999768449875 -8.2629366132005089 0 -8.2629366132005089 -2.8408556914146175 0 0 0 0 5.3483195517216018 -11.146234816790866 0 -11.146234816790866 -1.6574654083524365 0 0 0 0 6.3660582828713359 -6.8970576021629313 0 -6.8970576021629313 -4.751384001239785 0 0 0 0 -0.74644388246494486 -12.06318460893516 0 -12.06318460893516 -0.51534325076863752 0 0 0 0 1.9521998259011515 -4.5638026588900251 0 -4.5638026588900251 -0.57994154128985542 0 0 0 0 -0.16148344680766513 -7.8363853775208554 0 -7.8363853775208554 -3.1054715959585337 0 0 0 0 -0.63356301992462249 -7.7051204639253683 0 -7.7051204639253683 0.39700018587063823 0 0 0 0 6.4488468625963833 -25.150370937593834 0 -25.150370937593834 -3.1718932981348189 0 0 0 0 -3.4238422797543837 -7.5589657258197223 0 -7.5589657258197223 -5.7343474626388975 0 0 0 0 12.35005416305512 -22.757827862143017 0 -22.757827862143017 -18.591285663776944 0 0 0 0 2.6001560475144316 -1.7370646682410982 0 -1.7370646682410982 -0.84400873947613242 0 0 0 0 -1.1051266332835326 -14.489697372281285 0 -14.489697372281285 4.4267583148384801 0 0 0 0 13.475906875997225 -31.401938755579977 0 -31.401938755579977 -27.8789262059463 0 0 0 0 10.23997795768355 -2.0017207121227329 0 -2.0017207121227329 -37.308286191101388 0 0 0 0 4.4262935938492092 -5.7641337323391326 0 -5.7641337323391326 -8.2424865236271216 0 0 0 0 5.8392627092755562 -3.0850116328597457 0 -3.0850116328597457 -5.007396156915469 0 0 0 0 8.3042057548082084 -6.5583364355957201 0 -6.5583364355957201 -6.6414036317585214 0 0 0 0 5.4274932603991601 -13.923462342072526 0 -13.923462342072526 -7.1093187938234905 0 0 0 0 7.1783773179318473 -17.300416113639756 0 -17.300416113639756 13.432365052867681 0 0 0 0 3.1332651056078382 -5.7188363041281214 0 -5.7188363041281214 -6.8115926259385358 0 0 0 0 6.3967509436845376 -6.1324094909612086 0 -6.1324094909612086 2.9281563851736792 0 0 0 0 9.7831372963906915 -11.500645772202006 0 -11.500645772202006 3.3665409298801023 0 0 0 0 5.9960854887222554 -7.7677235866212824 0 -7.7677235866212824 6.0420482918388991 0 0 0 0 2.9617786796254677 -9.4418845645500369 0 -9.4418845645500369 2.5617869144298311 0 0 0 0 4.7325750945531126 -7.4516148776642694 0 -7.4516148776642694 4.7054568215082782 0 0 0 0 2.6677892148554747 -8.4866583422572148 0 -8.4866583422572148 10.866487091061572 0 0 0 0 12.648993736424018 -9.0633408033772866 0 -9.0633408033772866 -4.6355402496474198 0 0 0 0 7.1120308886660268 -9.4635475284694621 0 -9.4635475284694621 -0.2157642238526023 0 0 0 0 9.7794378617998063 -25.541901205964223 0 -25.541901205964223 -4.0692330333090467 0 0 0 0 5.5396260295128954 -1.8638821419766298 0 -1.8638821419766298 -6.1604559900073586 0 0 0 0 13.386666844093611 -4.6972806353969645 0 -4.6972806353969645 3.8891001419756321 0 0 0 0 1.4908667065402597 -7.5654427779923026 0 -7.5654427779923026 6.2057740267300687 0 0 0 0 7.4944600333647031 -17.271061756251584 0 -17.271061756251584 -17.307760707655689 0 0 0 0 2.7901219538822488 -15.939490552793814 0 -15.939490552793814 -2.5773051327960275 0 0 0 0 7.5205766843316724 -7.7513426253219677 0 -7.7513426253219677 -6.9430223235194717 0 0 0 0 -0.64447831922210597 -4.4319603609453733 0 -4.4319603609453733 -4.7211830533046424 0 0 0 0 106.52579499890589 -8.5912252621592415 0 -8.5912252621592415 -9.9187408971602053 0 0 0 0 0.14889096284288494 -5.1077954730385784 0 -5.1077954730385784 -1.2860397115281543 0 0 0 0 76.984137157223358 -39.210548834217207 0 -39.210548834217207 16.114152841329087 0 0 0 0 29.715925055224034 26.32758792227196 0 26.32758792227196 -113.04873813696577 0 0 0 0 1.836109797937677 -1.4096808371602956 0 -1.4096808371602956 -1.5654874091569724 0 0 0 0 1.4075163574138347 -1.2254706301088749 0 -1.2254706301088749 -1.368041812131235 0 0 0 0 57.729711886763653 -13.172936623683199 0 -13.172936623683199 -154.55228987288865 0 0 0 0 50.452898348652525 -364.40544047862932 0 -364.40544047862932 -30.181852847455957 0 0 0 0 -20.884525965265993 -39.408194539728925 0 -39.408194539728925 -174.99526846208028 0 0 0 0 -7.2344395470906306 373.25538544751242 0 373.25538544751242 -30.812273480318254 0 0 0 0 215.65872883164542 -49.152317449252166 0 -49.152317449252166 -71.478764486186265 0 0 0 0 -109.91321258871767 -34.127562745557043 0 -34.127562745557043 9.9283115469406766 0 0 0 0 0.18820541795480861 0.14542666356207956 0 0.14542666356207956 3.3309465389218573 0 0 0 0 29.006150057555715 -64.582347239897899 0 -64.582347239897899 75.808078840494773 0 0 0 0 -43.00121715988098 -87.75405007396148 0 -87.75405007396148 -3.9263754484064748 0 0 0 0 -4.7439316216964471 -27.629401860394864 0 -27.629401860394864 -42.817742466404979 0 0 0 0 -7.0868591254516105 -21.814848506463022 0 -21.814848506463022 -27.304540850956073 0 0 0 0 -37.088904657754881 -33.78303001261952 0 -33.78303001261952 -32.063635254191468 0 0 0 0 8.4409349552483945 -25.987242298393085 0 -25.987242298393085 -43.416839822806651 0 0 0 0 17.620975080873222 -5.6162503786360958 0 -5.6162503786360958 -20.682043525167501 0 0 0 0 -1.450619777526299 -41.816831356230068 0 -41.816831356230068 -48.126825806983106 0 0 0 0 4.9875908007638827 -22.577985524736505 0 -22.577985524736505 -21.624785919151691 0 0 0 0 1.3710839619924116 -10.818127981041243 0 -10.818127981041243 0.54198394432751229 0 0 0 0 5.4486143987687683 -26.791647065208963 0 -26.791647065208963 -19.516190790430301 0 0 0 0 5.8004504141884752 -11.405004816304654 0 -11.405004816304654 3.64005286565407 0 0 0 0 5.3152621293647826 -9.6829479725201963 0 -9.6829479725201963 -1.0960501003992249 0 0 0 0 6.1511649693370316 -3.4457237048427487 0 -3.4457237048427487 12.813070943443563 0 0 0 0 28.528574277907772 -32.264216402338434 0 -32.264216402338434 -114.14846592234244 0 0 0 0 -53.670317114923932 -143.24859533466588 0 -143.24859533466588 -107.95314237863477 0 0 0 0 -0.16264818703653461 -0.73542857764769742 0 -0.73542857764769742 -0.23735086207612266 0 0 0 0 -7.0279432555438888 -19.369044782840774 0 -19.369044782840774 35.931790491117681 0 0 0 0 2.4307528859321792 -42.263418754458144 0 -42.263418754458144 -55.659331543976805 0 0 0 0 -10.520394344349825 -34.967375310989155 0 -34.967375310989155 1.937383788110651 0 0 0 0 10.629762101228607 -12.776854194268708 0 -12.776854194268708 -60.03762467883962 0 0 0 0 9.9135146305497983 -44.369779420004306 0 -44.369779420004306 22.639874495503136 0 0 0 0 -2.8463894496265838 -3.3142007045337287 0 -3.3142007045337287 -4.0208171733464972 0 0 0 0 16.966733532400895 -14.266904380686697 0 -14.266904380686697 1.8747979935797048 0 0 0 0 -4.4012162158724095 1.6296138027742018 0 1.6296138027742018 10.631378318903444 0 0 0 0 -0.7403143073425994 -1.2358684208696218 0 -1.2358684208696218 -1.6338136774785177 0 0 0 0 -56.15970167142325 -5.7299573986074392 0 -5.7299573986074392 -7.3346698768709757 0 0 0 0 3.7362174772431302 -7.8094062496629704 0 -7.8094062496629704 9.4619305161668308 0 0 0 0 -8.0950577740576932 7.1290498985317754 0 7.1290498985317754 -4.439157704750869 0 0 0 0 -4.7407004319623667 -17.387049234424012 0 -17.387049234424012 40.533455965313806 0 0 0 0 -1.0915384136778676 -10.512724310388933 0 -10.512724310388933 -6.9562910473218267 0 0 0 0 -9.8319655791397622 1.6131684094498269 0 1.6131684094498269 28.587468458208605 0 0 0 0 8.7737284555236386 -17.683062868995876 0 -17.683062868995876 8.4053270175725174 0 0 0 0 3.1999191054760585 -3.3847418306083057 0 -3.3847418306083057 11.773424687371516 0 0 0 0 -8.1728912782482439 -27.442849948035473 0 -27.442849948035473 25.419263695585698 0 0 0 0 -5.2232805023342408 -6.7644778549226245 0 -6.7644778549226245 -1.8212434760271421 0 0 0 0 -8.8695657657508491 -9.4814620738834492 0 -9.4814620738834492 25.922629106510499 0 0 0 0 -14.16798157806943 -19.34056223817197 0 -19.34056223817197 8.4247784515118838 0 0 0 0 -5.2501323577685071 -14.101028367751496 0 -14.101028367751496 10.657953488163912 0 0 0 0 57.540008638763538 -11.064408794805786 0 -11.064408794805786 -16.883990350129068 0 0 0 0 57.54000863874171 -11.064408794805786 0 -11.064408794805786 -16.883990350130262 0 0 0 0 71.869975987608996 -47.921651266449771 0 -47.921651266449771 8.7040710342798775 0 0 0 0 -25.946864229055791 -4.8395961490195987 0 -4.8395961490195987 15.454696136305756 0 0 0 0 61.482662566017098 -48.606395846298994 0 -48.606395846298994 44.300469549822083 0 0 0 0 -1.5271484527193955 -0.25723293538816083 0 -0.25723293538816083 10.314301498205253 0 0 0 0 -30.979323691933814 -9.6216815240869096 0 -9.6216815240869096 11.741305458772331 0 0 0 0 -41.538918886396459 4.8812168897820811 0 4.8812168897820811 -5.1987128415512416 0 0 0 0 -37.997795714507362 -24.383855062408827 0 -24.383855062408827 -4.186802819784134 0 0 0 0 7.4604912772531407 -9.2677623732226948 0 -9.2677623732226948 -15.277391690391596 0 0 0 0 -8.60748740577219 -27.081473713074047 0 -27.081473713074047 -3.1984671273703498 0 0 0 0 -11.600825702576913 -6.9965094240214967 0 -6.9965094240214967 5.367455565938144 0 0 0 0 -0.73777897246887036 -10.730156307775573 0 -10.730156307775573 -5.9674814695251808 0 0 0 0 7.5956731358401157 -17.914037844803488 0 -17.914037844803488 -3.1820723911514506 0 0 0 0 18.594770594241709 -18.929269035113066 0 -18.929269035113066 -1.026447192489286 0 0 0 0 -8.4551648510281474 -9.8873579257876862 0 -9.8873579257876862 0.99694458118950635 0 0 0 0 1.2861985332710901 -16.8646545834672 0 -16.8646545834672 4.6145057038620507 0 0 0 0 4.3138652633169841 -16.668822689472108 0 -16.668822689472108 -2.9243666617185227 0 0 0 0 -4.9654798974161167 -19.092220898976848 0 -19.092220898976848 -7.884406614868567 0 0 0 0 -3.7217442064521613 -11.457110885690669 0 -11.457110885690669 -2.9871268799045536 0 0 0 0 -3.2447603644084211 -14.874733827447244 0 -14.874733827447244 2.4462915982312552 0 0 0 0 -2.3087112922289634 -16.360369532423647 0 -16.360369532423647 4.6745882097566209 0 0 0 0 -6.6824112343283559 -16.346907429710427 0 -16.346907429710427 -9.0732986410248486 0 0 0 0 8.4258408458404084 -4.1555348587433727 0 -4.1555348587433727 -4.6328920178227655 0 0 0 0 -2.0509979639752469 -9.5822001571183435 0 -9.5822001571183435 -2.1162274169257564 0 0 0 0 -2.4602356012760538 -10.73043058085932 0 -10.73043058085932 -5.1896529789028136 0 0 0 0 4.3267225238141691 -17.14348570878883 0 -17.14348570878883 -14.45525304531111 0 0 0 0 22.842683714787199 -14.412227950433589 0 -14.412227950433589 -27.137589167848319 0 0 0 0 22.734542606238392 -12.08819870543357 0 -12.08819870543357 -21.557130017262807 0 0 0 0 24.053248419628744 -19.83189312200011 0 -19.83189312200011 -25.940514702084329 0 0 0 0 20.84332451882824 -14.082275950260737 0 -14.082275950260737 -22.752177976479288 0 0 0 0 3.8951392244164253 -8.5669714386935993 0 -8.5669714386935993 4.4007678367370318 0 0 0 0 -2.9479106596513702 -14.060808622358309 0 -14.060808622358309 7.0763097012959406 0 0 0 0 5.23036897025648 -6.6124323891888803 0 -6.6124323891888803 4.8539125827638046 0 0 0 0 -1.3223966582179667 -7.7762083860990288 0 -7.7762083860990288 4.4032831856256962 0 0 0 0 8.2803640654743305 -10.25809477733219 0 -10.25809477733219 4.1022743222256395 0 0 0 0 1.5545256334588524 -2.346668257568135 0 -2.346668257568135 -0.67094631950628036 0 0 0 0 0.60088028661739656 -13.659116185826861 0 -13.659116185826861 6.2927738642174518 0 0 0 0 113.56760477937803 234.04376665273594 0 234.04376665273594 -186.4970474939837 0 0 0 0 -15.0943711681482 41.272979810801189 0 41.272979810801189 43.220797854878128 0 0 0 0 32.763889159434484 -7.3269552775236662 0 -7.3269552775236662 -32.790334678249565 0 0 0 0 22.037529625478783 -57.511478810418339 0 -57.511478810418339 -192.00514999354414 0 0 0 0 -78.675758235578883 -74.707295624396693 0 -74.707295624396693 -45.323353511674213 0 0 0 0 -10.718002158086847 -26.12180505985998 0 -26.12180505985998 -13.693085987686572 0 0 0 0 -18.412434809625239 -47.692545345181543 0 -47.692545345181543 -16.05305457356917 0 0 0 0 -42.902761315735461 -29.83901052477313 0 -29.83901052477313 10.802957979371058 0 0 0 0 11.802359377671451 -20.226912715036633 0 -20.226912715036633 12.237135810542895 0 0 0 0 -1.3018821705991739 -10.338620118784615 0 -10.338620118784615 -6.8751931635399934 0 0 0 0 -14.946385354653046 -42.793758395292571 0 -42.793758395292571 37.543972943292829 0 0 0 0 23.461765570167927 0.6411103890418417 0 0.6411103890418417 2.4747894538991204 0 0 0 0 1.8087159366282322 -42.662082353585561 0 -42.662082353585561 37.161398764600563 0 0 0 0 17.974106177292697 -25.158244645790546 0 -25.158244645790546 -19.920803564713424 0 0 0 0 7.7696057764851503 -15.802149656507027 0 -15.802149656507027 10.628260545082412 0 0 0 0 26.773786304636019 -23.319072416714334 0 -23.319072416714334 -50.502014446098656 0 0 0 0 19.779909377508034 -20.641296185349347 0 -20.641296185349347 -20.372908716404709 0 0 0 0 0.52267699463747075 -13.695342963523872 0 -13.695342963523872 -5.9476588434070337 0 0 0 0 7.3279300999208772 -31.234225775534924 0 -31.234225775534924 -3.5506565712421434 0 0 0 0 -6.6011047253102788 -23.587876689633049 0 -23.587876689633049 -6.9012407632480972 0 0 0 0 13.729159321608222 -14.681083692635184 0 -14.681083692635184 -20.871993595933191 0 0 0 0 0.82692293135551154 -23.779929471692412 0 -23.779929471692412 -10.555992672901994 0 0 0 0 8.7754850977352614 -7.5022965158911932 0 -7.5022965158911932 -4.3883623004708241 0 0 0 0 12.262841562562244 -20.672553181888816 0 -20.672553181888816 16.421279367864827 0 0 0 0 15.689081997872108 -21.975782221323016 0 -21.975782221323016 8.2135234929400838 0 0 0 0 16.089851973418718 -23.80945872787629 0 -23.80945872787629 8.3855610156763305 0 0 0 0 -2.8208540026325855 -11.407697467837004 0 -11.407697467837004 4.4326653863015562 0 0 0 0 16.468152863643581 -24.926027607732294 0 -24.926027607732294 10.416051685089769 0 0 0 0 -2.5228575139617533 -15.359898291889749 0 -15.359898291889749 0.6275527613788654 0 0 0 0 5.9305985363207583 -14.130090889198073 0 -14.130090889198073 5.2284871117481089 0 0 0 0 7.0506703514838591 -19.721328023999149 0 -19.721328023999149 3.0385648205381131 0 0 0 0 -0.30840901285720612 -12.192980493191158 0 -12.192980493191158 0.86829101108871676 0 0 0 0 -14.597192164884774 -15.673453833261092 0 -15.673453833261092 2.4720886795768831 0 0 0 0 6.6791422789194925 -13.863022568220703 0 -13.863022568220703 -1.469749033432691 0 0 0 0 3.8068521329478244 -14.516047689383754 0 -14.516047689383754 -9.2758378181920875 0 0 0 0 1.1801232619599844 -14.856442807071602 0 -14.856442807071602 1.4143359318213395 0 0 0 0 1.0493128172529396 -19.178099715157714 0 -19.178099715157714 4.9664679279057964 0 0 0 0 -2.1222339233555232 -16.014137547829858 0 -16.014137547829858 2.8530386213483627 0 0 0 0 4.9127920873652329 -21.198739870997088 0 -21.198739870997088 2.0963843293493483 0 0 0 0 10.850499427920113 -32.351450868335291 0 -32.351450868335291 15.861329786330316 0 0 0 0 2.9902084561254014 -12.999501734498153 0 -12.999501734498153 3.6111948293619207 0 0 0 0 1.1766493633453825 -12.111906987284193 0 -12.111906987284193 0.72029461495445091 0 0 0 0 3.1967095715244795 -13.503723829485807 0 -13.503723829485807 -0.36996568424729048 0 0 0 0 -5.3098487764746665 -25.033152934692609 0 -25.033152934692609 0.53434057603073626 0 0 0 0 4.6429834322771057 -15.06326563922994 0 -15.06326563922994 -2.4147328104918415 0 0 0 0 6.9967411083495765 -16.837593326832295 0 -16.837593326832295 -4.9656148209432276 0 0 0 0 3.8425439248745548 -13.323590609548054 0 -13.323590609548054 0.90364427808740899 0 0 0 0 16.355117481727653 -19.005032579022522 0 -19.005032579022522 -8.1396514329188463 0 0 0 0 2.0503332539635579 -10.017257679741885 0 -10.017257679741885 -7.4288896691926105 0 0 0 0 2.7307427339783317 -16.41478748182999 0 -16.41478748182999 -7.2997207027701734 0 0 0 0 25.15235983218372 -16.487888598460813 0 -16.487888598460813 0.85989239113041549 0 0 0 0 8.5021652911409547 -22.834736916912334 0 -22.834736916912334 -9.0421870153641066 0 0 0 0 23.36162502292791 -29.161143998430362 0 -29.161143998430362 -18.95388766380438 0 0 0 0 -7.7759293096871094 -11.123977211440824 0 -11.123977211440824 -0.54054219513077051 0 0 0 0 25.159539122811111 -32.483764855345726 0 -32.483764855345726 -13.03205958594117 0 0 0 0 5.0896504862424123 -7.3434451403083809 0 -7.3434451403083809 -2.3386039055351446 0 0 0 0 -11.22603845924823 -51.658574847363866 0 -51.658574847363866 92.249350481879901 0 0 0 0 49.239110997838907 7.1796518550241899 0 7.1796518550241899 -44.651926874583069 0 0 0 0 25.155311341204651 -48.843904826103994 0 -48.843904826103994 34.643098422905297 0 0 0 0 -4.4248129496984347 -10.782561671721174 0 -10.782561671721174 -1.8543267790437379 0 0 0 0 -11.28611514107979 1.4297982286651632 0 1.4297982286651632 -15.548951274553247 0 0 0 0 -9.3842351386180791 -10.179836240108155 0 -10.179836240108155 -0.50993252770770869 0 0 0 0 0.53473117026896944 -16.142039256655721 0 -16.142039256655721 0.56142700410163116 0 0 0 0 2.443800529572695 -2.936871080219809 0 -2.936871080219809 -0.2054059428290369 0 0 0 0 0.19434626936254062 -15.078032047719262 0 -15.078032047719262 -0.83079212961956728 0 0 0 0 20.40371355107817 -21.888418568207555 0 -21.888418568207555 -15.470059003102506 0 0 0 0 -4.2855915359924976 -10.119388438264773 0 -10.119388438264773 -1.8147851426302619 0 0 0 0 -7.7126505917658505 -10.356509221223064 0 -10.356509221223064 2.5400826790537963 0 0 0 0 -31.70383005002077 -8.6620817705232298 0 -8.6620817705232298 25.282163653901534 0 0 0 0 0.81453161197805457 -8.9181227124596489 0 -8.9181227124596489 -4.0813880237853937 0 0 0 0 4.6926545198357417 -37.812379271672626 0 -37.812379271672626 -0.59147147761586893 0 0 0 0 22.449507757183227 -4.748957607862792 0 -4.748957607862792 -74.300565374375765 0 0 0 0 -11.31992408331098 -61.247221550624772 0 -61.247221550624772 79.537641441825372 0 0 0 0 0.052510799356341398 0.22471717099046806 0 0.22471717099046806 0.017979388708338151 0 0 0 0 22.126702002820593 -36.0264600979649 0 -36.0264600979649 -25.350264511874911 0 0 0 0 3.4833276700234137 -40.045146599924465 0 -40.045146599924465 10.968170741724407 0 0 0 0 17.233314860924366 -24.465700925473186 0 -24.465700925473186 -11.788480979621454 0 0 0 0 78.723719105786301 -65.120902328167517 0 -65.120902328167517 10.253852951743283 0 0 0 0 52.516257134074351 -39.867320684081847 0 -39.867320684081847 -7.1039918714313899 0 0 0 0 -5.0685259092422257 -37.142550332943301 0 -37.142550332943301 11.562116766002418 0 0 0 0 8.8613198087595038 -55.255747153326865 0 -55.255747153326865 30.792131984598655 0 0 0 0 -13.444089269962546 -49.147444451565775 0 -49.147444451565775 6.5997633164620311 0 0 0 0 -9.5615915894254613 -39.392664459050138 0 -39.392664459050138 31.062110262758544 0 0 0 0 18.649143992006202 -67.054078105769349 0 -67.054078105769349 56.984244374354603 0 0 0 0 -24.383461489684578 4.9377132994395652 0 4.9377132994395652 29.516555933142172 0 0 0 0 28.44482916806939 -105.20014870047021 0 -105.20014870047021 112.18266299404786 0 0 0 0 -23.009614830135433 -48.066223219662788 0 -48.066223219662788 185.71685513747161 0 0 0 0 3.1189360060211584 -1.4588510407772901 0 -1.4588510407772901 -47.076837236320443 0 0 0 0 -71.672241887747987 79.917879178214207 0 79.917879178214207 153.44334802454182 0 0 0 0 -7.3812030521639826 -4.6575594039477437 0 -4.6575594039477437 -0.9001937299178735 0 0 0 0 -8.2517283363776635 -1.4391175991620493 0 -1.4391175991620493 1.3114927710652213 0 0 0 0 -7.3812030521639826 -4.6575594039483121 0 -4.6575594039483121 -0.90019372991673663 0 0 0 0 -24.829255785633904 1.0297239241396596 0 1.0297239241396596 2.477208279604838 0 0 0 0 -20.6922074668297 -8.7075240856236178 0 -8.7075240856236178 19.660669857272865 0 0 0 0 -4.1929335478746879 -6.0577904898222812 0 -6.0577904898222812 2.3191584288939051 0 0 0 0 -11.206083891964681 -12.656578558721378 0 -12.656578558721378 -3.9255020232378683 0 0 0 0 -6.6812509808829379 -9.3324738293710663 0 -9.3324738293710663 -3.9784677108274424 0 0 0 0 -8.6079323222725481 -10.361139996888809 0 -10.361139996888809 -0.70419437758277237 0 0 0 0 -1.4643174235333163 -26.560847836050129 0 -26.560847836050129 35.134376862053614 0 0 0 0 0.070209497576001922 -29.487567798849341 0 -29.487567798849341 11.575150127703864 0 0 0 0 -5.8441691293547251 -2.3994190704042655 0 -2.3994190704042655 1.062297491059137 0 0 0 0 -2.4937879570165933 -13.650907697586092 0 -13.650907697586092 -2.6514776533122131 0 0 0 0 5.2333501066932513 -20.061283221675069 0 -20.061283221675069 -10.426834117734984 0 0 0 0 -3.2809655243495914 -10.857561227199014 0 -10.857561227199014 -1.8542884770223136 0 0 0 0 -11.694316996432462 -10.432094294429135 0 -10.432094294429135 -0.042068500960965594 0 0 0 0 8.148567974359139 -16.025805531309061 0 -16.025805531309061 -5.2042337748524687 0 0 0 0 9.8856015480996575 -12.844888192476333 0 -12.844888192476333 -13.800507886892774 0 0 0 0 17.969532414750574 -14.303846781594984 0 -14.303846781594984 -20.041662677398335 0 0 0 0 18.75531603645868 -22.366311390382748 0 -22.366311390382748 -13.161538487678627 0 0 0 0 29.464627100936923 -19.269993088483147 0 -19.269993088483147 -18.039905093567086 0 0 0 0 -6.3184711660215385 -20.035525857905441 0 -20.035525857905441 -41.754187305463574 0 0 0 0 1.4963043753595433 -3.1980258057783084 0 -3.1980258057783084 -0.93744362563694139 0 0 0 0 -9.2051159797920263 -20.604435236478594 0 -20.604435236478594 -15.675371260727388 0 0 0 0 -3.3346603414079254 -18.100809767107876 0 -18.100809767107876 -12.068440470782548 0 0 0 0 -3.7890085109897882 6.633804196144979 0 6.633804196144979 -18.973494797021885 0 0 0 0 1.0092583105150652 -6.6603706387552961 0 -6.6603706387552961 -18.069311915985963 0 0 0 0 1.9138225185149622 -5.3719570590490093 0 -5.3719570590490093 -40.802253914976973 0 0 0 0 -0.19955618371386663 1.1315675758321504 0 1.1315675758321504 -21.829761640323682 0 0 0 0 1.7130658958044478 -3.8403289815936432 0 -3.8403289815936432 -9.93105562663726 0 0 0 0 -2.5370543521397302 -2.2438933764513043 0 -2.2438933764513043 0.13988122716399953 0 0 0 0 3.5679151260993649 -2.9536201582128569 0 -2.9536201582128569 -17.294692839413074 0 0 0 0 6.2400213959572284 -12.752824860957844 0 -12.752824860957844 -5.86862686139375 0 0 0 0 2.4189972074600519 -9.1001226723665241 0 -9.1001226723665241 3.6972414024112368 0 0 0 0 1.4235645454002839 -5.259068037991792 0 -5.259068037991792 -8.1274919156656491 0 0 0 0 -3.1095403531129731 -6.6909621561775632 0 -6.6909621561775632 -3.1422357317799836 0 0 0 0 1.3026715118212451 -6.1012353701739812 0 -6.1012353701739812 -17.223962862185545 0 0 0 0 1.5394673352393511 -8.3850045938766016 0 -8.3850045938766016 -6.6077795231371965 0 0 0 0 2.754841805966862 -8.2112047629707376 0 -8.2112047629707376 -7.1918692272301996 0 0 0 0 3.4541526461803187 -16.277301869465418 0 -16.277301869465418 -5.0501827581890666 0 0 0 0 2.0535263942115307 -11.425908086956269 0 -11.425908086956269 -3.9051376672359766 0 0 0 0 -2.6532497780726771 -8.1484151516469865 0 -8.1484151516469865 1.813424265190406 0 0 0 0 -2.9883553170475352 -7.7878454406024957 0 -7.7878454406024957 2.1834647338382638 0 0 0 0 -0.54881477373815168 -5.443563425972 0 -5.443563425972 2.6136302077992752 0 0 0 0 -14.009776913576161 14.573727097273888 0 14.573727097273888 26.610945831836943 0 0 0 0 -2.3063663445483242 -6.3174967410274157 0 -6.3174967410274157 -3.1840175178228201 0 0 0 0 -3.281440807869612 -6.4134933629891675 0 -6.4134933629891675 4.3751591211222784 0 0 0 0 5.1722204670122665 -9.5578938060843939 0 -9.5578938060843939 1.2366014793842623 0 0 0 0 1.2899228577705326 -4.9480200640857177 0 -4.9480200640857177 -4.4134861027379575 0 0 0 0 -3.8133853375926776 -5.1128630405813862 0 -5.1128630405813862 7.5709634141000102 0 0 0 0 4.9552140528879818 -15.538837595064251 0 -15.538837595064251 15.332534663968545 0 0 0 0 -2.2200137647223008 -16.912911544720657 0 -16.912911544720657 -8.8762068673117085 0 0 0 0 -1.3561324676037931 -6.4909956214675963 0 -6.4909956214675963 -3.7989481997736934 0 0 0 0 -8.2246215559667917 -16.186449792350118 0 -16.186449792350118 -1.2609354244286806 0 0 0 0 -7.2854122023322816 -14.49428209656071 0 -14.49428209656071 1.4515330818258008 0 0 0 0 -0.82543630343752739 -6.8767627702136451 0 -6.8767627702136451 2.1731966082224972 0 0 0 0 -0.83363723116611244 -11.372193142671426 0 -11.372193142671426 -5.1581132260496023 0 0 0 0 -10.033802956797217 -5.4327896286702071 0 -5.4327896286702071 -16.756948123913162 0 0 0 0 -1.2182743770569431 -17.568417020079778 0 -17.568417020079778 20.687116818085087 0 0 0 0 -10.692562599534995 -4.4627690984855235 0 -4.4627690984855235 -7.328901104113811 0 0 0 0 20.716056245042751 4.9740108276155297 0 4.9740108276155297 -18.649145773193595 0 0 0 0 16.718377556857831 -0.14883747611065701 0 -0.14883747611065701 -24.999698652180086 0 0 0 0 -0.38538182673357824 -12.569615342122916 0 -12.569615342122916 -16.021843925296025 0 0 0 0 5.7725371488210158 -2.373447573956696 0 -2.373447573956696 0.85854937373233042 0 0 0 0 4.241277870199383 -1.9584117243766741 0 -1.9584117243766741 -9.1438273715552896 0 0 0 0 26.090824690741783 -16.76202935464994 0 -16.76202935464994 -10.227437243693544 0 0 0 0 -11.116161999990368 -12.218420392746111 0 -12.218420392746111 -13.486540989998957 0 0 0 0 -10.685936400618459 -14.110156363902888 0 -14.110156363902888 -5.1795771843281386 0 0 0 0 -4.2638358563865495 10.954350457993769 0 10.954350457993769 -55.57175523137505 0 0 0 0 -48.746303416136868 36.481895137556762 0 36.481895137556762 3.0428519170918662 0 0 0 0 -86.641979063340912 -31.535300310126217 0 -31.535300310126217 112.47710745796348 0 0 0 0 77.25354162832474 -113.80039363269634 0 -113.80039363269634 72.394565519250705 0 0 0 0 102.77779584010358 -125.48820655555028 0 -125.48820655555028 37.730812467302712 0 0 0 0 0.58353109357121635 -0.61555797107785359 0 -0.61555797107785359 1.3858159625139184 0 0 0 0 60.411156006466989 -7.424418151226547 0 -7.424418151226547 -8.6980777829387534 0 0 0 0 -26.616338404059022 -72.971869360778811 0 -72.971869360778811 19.317524846226206 0 0 0 0 -1.0669582272892435 -1.403037595729133 0 -1.403037595729133 0.035129781440552676 0 0 0 0 -7.3812030521646648 -4.6575594039451289 0 -4.6575594039451289 -0.90019372992151148 0 0 0 0 114.94415157607108 21.191623076233554 0 21.191623076233554 2.233471964448654 0 0 0 0 148.47896629552153 -43.99838813443057 0 -43.99838813443057 -4.4947725229403659 0 0 0 0 50.869980930980887 -33.65829546110831 0 -33.65829546110831 -5.1748290545651798 0 0 0 0 61.513287586394696 -27.536712507905349 0 -27.536712507905349 -7.8630768994207756 0 0 0 0 44.157314845953323 17.076925850011776 0 17.076925850011776 6.477732203783944 0 0 0 0 0.97094215613287815 -35.165504977908427 0 -35.165504977908427 33.237922003422227 0 0 0 0 -8.329562045709423 -46.346602899827531 0 -46.346602899827531 32.327870233433714 0 0 0 0 26.69370550580868 -55.809133682341326 0 -55.809133682341326 30.771559457038052 0 0 0 0 63.801297176264484 -51.712265488943672 0 -51.712265488943672 0.26767823152886194 0 0 0 0 5.8674920909899129 -34.916721523172896 0 -34.916721523172896 17.055044047436695 0 0 0 0 5.4404383367116225 -33.536833789446064 0 -33.536833789446064 22.740823608075743 0 0 0 0 -6.4083940889508995 -22.321581330090339 0 -22.321581330090339 20.089045087329396 0 0 0 0 -2.3968787615308429 -23.001436243777789 0 -23.001436243777789 16.842516992227047 0 0 0 0 -10.201093023762496 -14.84766420884057 0 -14.84766420884057 18.669931857554957 0 0 0 0 -7.0646244696374652 -17.514841334733092 0 -17.514841334733092 15.539313241460377 0 0 0 0 -10.542966468866325 -25.884280743622185 0 -25.884280743622185 25.844265157323434 0 0 0 0 -24.442095055466098 -12.290586791309806 0 -12.290586791309806 51.838015328673919 0 0 0 0 -16.633563134982296 2.5610301712306409 0 2.5610301712306409 2.7552552092049609 0 0 0 0 -5.5154096646423341 4.1865162661410977 0 4.1865162661410977 -9.0278233239332621 0 0 0 0 -3.773087703072223 -4.0852448121255964 0 -4.0852448121255964 -4.4545051905779474 0 0 0 0 -3.7527310210962987 -5.0123231829992569 0 -5.0123231829992569 -17.157521336007449 0 0 0 0 2.3712323479686575 -3.2637766560653176 0 -3.2637766560653176 -16.68287210396943 0 0 0 0 -13.071408978691125 -18.577733518650803 0 -18.577733518650803 -5.5712765175628647 0 0 0 0 -21.891709363545374 -9.6695870227941896 0 -9.6695870227941896 7.220557749708405 0 0 0 0 -6.8645720114636788 -8.2675334413788732 0 -8.2675334413788732 7.3510072057188154 0 0 0 0 -14.324510896546713 -11.261492488731392 0 -11.261492488731392 12.197560226720725 0 0 0 0 -11.187025836259551 -8.7701927531611261 0 -8.7701927531611261 6.4618719751783829 0 0 0 0 -10.564943189783207 -17.955658620486702 0 -17.955658620486702 12.315782392554411 0 0 0 0 -7.9668475837268034 -18.913261078477944 0 -18.913261078477944 16.389945172838225 0 0 0 0 -6.8126019244335367 -16.105056746085751 0 -16.105056746085751 13.1288575587987 0 0 0 0 -4.676368735544429 -14.509890998118181 0 -14.509890998118181 12.298055714834753 0 0 0 0 -1.4008178932067494 -11.112583017717952 0 -11.112583017717952 8.3706512549640593 0 0 0 0 -6.3187300493693783 -8.8367408397207328 0 -8.8367408397207328 7.7283723390410159 0 0 0 0 -4.8518630648586623 -6.2263895279616008 0 -6.2263895279616008 3.5553551093141778 0 0 0 0 9.8401144932795432 -8.1173925120451713 0 -8.1173925120451713 -1.1171521451419721 0 0 0 0 0.59441593564997675 -6.1813550379406479 0 -6.1813550379406479 3.280071306311811 0 0 0 0 1.2565577101348708 -8.3411563270433362 0 -8.3411563270433362 3.5434121765010786 0 0 0 0 2.6910284529481032 -9.6871651650051263 0 -9.6871651650051263 4.1333033781766062 0 0 0 0 -1.4988884461931775 -10.747335089073431 0 -10.747335089073431 7.0511550040187103 0 0 0 0 4.8389957283052354 -11.784673726612027 0 -11.784673726612027 2.5569802649855546 0 0 0 0 7.5390617880802893 -12.016771321674241 0 -12.016771321674241 1.7789272440738841 0 0 0 0 38.556973056336886 -84.967043601490303 0 -84.967043601490303 -92.491754518438029 0 0 0 0 4.1556324752818909 -11.792080980563696 0 -11.792080980563696 4.5341420948722089 0 0 0 0 -3.8542185590891949 -4.9863369178171695 0 -4.9863369178171695 -6.2620319735914833 0 0 0 0 29.464669243872379 -63.939806120700609 0 -63.939806120700609 30.016407794948464 0 0 0 0 14.400585631059585 48.212245115872065 0 48.212245115872065 63.784231807530887 0 0 0 0 -0.78884944427451664 -0.35410342778835613 0 -0.35410342778835613 0.10323688973480039 0 0 0 0 54.312762252688117 -40.193393025201658 0 -40.193393025201658 32.781412435867878 0 0 0 0 9.1612179538460623 -42.881476883730102 0 -42.881476883730102 -36.022814883910542 0 0 0 0 -10.140600781459838 -22.760374336292202 0 -22.760374336292202 -10.745791382694961 0 0 0 0 -9.7039046922564012 0.66435989480555691 0 0.66435989480555691 1.7402235566069066 0 0 0 0 -3.0228409669975917 0.49236614967912828 0 0.49236614967912828 -2.2537039945214019 0 0 0 0 5.1949850230953416 -1.6227962846699029 0 -1.6227962846699029 -2.4015547930794128 0 0 0 0 -5.0835732121890942 -26.535232913479376 0 -26.535232913479376 51.974541656707515 0 0 0 0 -5.9151233587445518 -48.642768170237844 0 -48.642768170237844 71.675297061066885 0 0 0 0 0.088818930523302697 -30.609682326643451 0 -30.609682326643451 39.932390075715375 0 0 0 0 -3.4729247935911189 -42.041774617462579 0 -42.041774617462579 38.340091558242818 0 0 0 0 4.8455142412990426 -19.303190324052593 0 -19.303190324052593 60.538856548796048 0 0 0 0 43.866237727601572 24.445810949170507 0 24.445810949170507 8.6873988381184972 0 0 0 0 29.239101018279143 -53.29551810041994 0 -53.29551810041994 -36.242499293842457 0 0 0 0 19.426864605364699 -89.582029449315542 0 -89.582029449315542 32.380522967380784 0 0 0 0 26.526559572713495 -80.874566159467463 0 -80.874566159467463 9.7896281157900376 0 0 0 0 40.095522125445314 -69.119403203938873 0 -69.119403203938873 16.132756275109386 0 0 0 0 27.979171077922842 -55.355609027184585 0 -55.355609027184585 36.077022009864777 0 0 0 0 -7.165657094326491 -78.067626433562765 0 -78.067626433562765 71.791350461995535 0 0 0 0 -6.480627233688665 -76.481043347814193 0 -76.481043347814193 30.738834219654677 0 0 0 0 -31.088131884925815 -91.104960584067101 0 -91.104960584067101 65.023777859470101 0 0 0 0 -16.795046294891108 -136.84104930297144 0 -136.84104930297144 54.739985919032733 0 0 0 0 53.149010408491904 -99.395012677469822 0 -99.395012677469822 0.48885642242476024 0 0 0 0 48.304347636797047 -102.70040111626804 0 -102.70040111626804 30.083870144483853 0 0 0 0 66.231121421714761 -180.36494902407935 0 -180.36494902407935 13.929977045990199 0 0 0 0 167.75431544395406 -85.049023433701223 0 -85.049023433701223 -0.34927249430154461 0 0 0 0 -68.336978412386088 -142.48788388035473 0 -142.48788388035473 54.304709142234969 0 0 0 0 -72.372035360958478 -96.479348905315504 0 -96.479348905315504 64.44239686536821 0 0 0 0 0.31716191370976077 -1.3306134597528523 0 -1.3306134597528523 -3.0129405758803003 0 0 0 0 -4.518189927734845 -5.7179696351212961 0 -5.7179696351212961 -6.5776027375478572 0 0 0 0 38.027591298815423 -23.338599353235168 0 -23.338599353235168 -9.9859684578977976 0 0 0 0 0.54525611178375577 -1.0150385703583744 0 -1.0150385703583744 -0.74608208252260333 0 0 0 0 7.7839815490739284 1.1067884892554787 0 1.1067884892554787 -13.836597816803987 0 0 0 0 38.216794361131463 -21.163620905433788 0 -21.163620905433788 11.476782660707613 0 0 0 0 37.327917166380303 -62.488886234073107 0 -62.488886234073107 4.1716107037500478 0 0 0 0 97.621971524984474 -68.755057284680333 0 -68.755057284680333 4.0622796390096809 0 0 0 0 79.16504041136659 -31.92705093901759 0 -31.92705093901759 -20.631773206492653 0 0 0 0 126.41252843606117 -42.445161207805995 0 -42.445161207805995 2.2761270890005108 0 0 0 0 56.972483116364856 -50.61920648368141 0 -50.61920648368141 1.9301327602115634 0 0 0 0 106.98689096313797 -46.845553419581847 0 -46.845553419581847 68.128240785389607 0 0 0 0 11.31298185025662 -23.844591978274366 0 -23.844591978274366 28.533832822928161 0 0 0 0 53.481706320993908 -31.017393641070612 0 -31.017393641070612 2.4699452856857533 0 0 0 0 53.909180788240519 -7.3117802649194346 0 -7.3117802649194346 -9.3559666757432751 0 0 0 0 57.545091913841134 -17.708290282137568 0 -17.708290282137568 34.830483778034932 0 0 0 0 87.883503993492013 -55.102920213419566 0 -55.102920213419566 43.308402314859222 0 0 0 0 81.201423867169069 -2.4022344020868331 0 -2.4022344020868331 8.0132284267747309 0 0 0 0 58.253974410367078 -28.305347130948803 0 -28.305347130948803 47.840877571456076 0 0 0 0 57.540008638748986 -11.064408794802148 0 -11.064408794802148 -16.883990350135718 0 0 0 0 171.74041540814051 -45.622004806104997 0 -45.622004806104997 15.535184145365747 0 0 0 0 80.437831562964675 -39.402213405883231 0 -39.402213405883231 72.448604354776762 0 0 0 0 71.950097570139405 -59.63105030400493 0 -59.63105030400493 26.494701721714137 0 0 0 0 74.41592491803749 -44.163191634247596 0 -44.163191634247596 38.206011098349336 0 0 0 0 70.861306625349243 -28.39994438415988 0 -28.39994438415988 10.447954386935635 0 0 0 0 144.89187346134258 -76.66801042482939 0 -76.66801042482939 41.915407327318462 0 0 0 0 220.50480424150192 -101.92201762337754 0 -101.92201762337754 -12.152608064622427 0 0 0 0 161.09464774001208 -23.084798984099962 0 -23.084798984099962 17.286245599228778 0 0 0 0 403.60287822119835 -138.34061124111668 0 -138.34061124111668 13.171734228528749 0 0 0 0 134.07298407616383 -126.38821592567444 0 -126.38821592567444 120.21184959990387 0 0 0 0 -273.0038742148422 -159.15023975603253 0 -159.15023975603253 10.842638605534376 0 0 0 0 1.4701766699633367 -1.7272736679799656 0 -1.7272736679799656 0.60382828308087255 0 0 0 0 -142.93841867532609 -72.429827497335623 0 -72.429827497335623 41.188005074855937 0 0 0 0 -111.90747219179184 -205.19801227474591 0 -205.19801227474591 10.516353584661715 0 0 0 0 -180.42479675299273 -165.68550476341125 0 -165.68550476341125 -44.448656390365159 0 0 0 0 234.23553932456116 13.101801567323946 0 13.101801567323946 11.399523072628881 0 0 0 0 536.53092705587312 73.476277365660053 0 73.476277365660053 -36.080504603424743 0 0 0 0 203.89755901088324 -21.16954815264944 0 -21.16954815264944 -1.5272318886209177 0 0 0 0 0.37804553660232809 -2.1076518186574678 0 -2.1076518186574678 0.027218059167903874 0 0 0 0 -304.86490309539204 -63.442707104152305 0 -63.442707104152305 4.9749358956032665 0 0 0 0 1.7809829523688649 -4.6901563903520724 0 -4.6901563903520724 2.7016095956630792 0 0 0 0 -35.025220606340099 -85.910830154315136 0 -85.910830154315136 -152.3484722283165 0 0 0 0 -161.09981405608869 -31.519435858685938 0 -31.519435858685938 10.01806979500725 0 0 0 0 -1.3488174462989253 -5.4443884252124288 0 -5.4443884252124288 -0.99658784140817858 0 0 0 0 35.742251240145777 -34.913611920215203 0 -34.913611920215203 14.313471479475993 0 0 0 0 219.94593052056234 -70.339810632643093 0 -70.339810632643093 8.8512804905458324 0 0 0 0 185.28721968488389 -15.732547347409309 0 -15.732547347409309 -0.10307598869803769 0 0 0 0 96.065496994605837 6.4183380589201988 0 6.4183380589201988 8.235612168426087 0 0 0 0 142.44039427639177 -69.014420936242459 0 -69.014420936242459 0.42480037039058516 0 0 0 0 201.80575935201341 -46.429805748649414 0 -46.429805748649414 -11.503213626256183 0 0 0 0 221.74424332268609 -65.774984546651467 0 -65.774984546651467 -10.567622531416418 0 0 0 0 182.58576130915571 -36.417620483171049 0 -36.417620483171049 -3.0176660243555489 0 0 0 0 277.90031696840833 -220.18146897647466 0 -220.18146897647466 127.9165495022803 0 0 0 0 215.46951890303899 -69.271263461166654 0 -69.271263461166654 16.100869256362785 0 0 0 0 327.23060692565969 -112.09389457158704 0 -112.09389457158704 -7.7076062136770815 0 0 0 0 226.32976667540061 -58.301991180706864 0 -58.301991180706864 -3.3282946381586953 0 0 0 0 241.73733551634177 -95.679230936620343 0 -95.679230936620343 1.8352109631887288 0 0 0 0 110.97520278599677 -49.268638343512976 0 -49.268638343512976 23.530437237459637 0 0 0 0 144.88053797940347 -108.71733126071558 0 -108.71733126071558 68.917572868687785 0 0 0 0 -0.087636180854630652 -0.0069701529889680813 0 -0.0069701529889680813 0.12482639645346261 0 0 0 0 187.94408992287254 -36.568940131044201 0 -36.568940131044201 -135.50934020804561 0 0 0 0 -0.72328710640988447 136.76151388973324 0 136.76151388973324 -166.2075335003683 0 0 0 0 80.861779160446531 -61.839789780850879 0 -61.839789780850879 -97.080387547680402 0 0 0 0 276.36053769278033 -17.281786070431735 0 -17.281786070431735 -44.780790755583439 0 0 0 0 253.07546105302936 -43.65392625939171 0 -43.65392625939171 -33.196843711497422 0 0 0 0 20.865885735839811 -103.42328416906003 0 -103.42328416906003 -20.165429201254028 0 0 0 0 43.433253914850411 -57.727950634607623 0 -57.727950634607623 52.873200382741061 0 0 0 0 -3.394898739115888 -121.83401313320519 0 -121.83401313320519 30.187277759820063 0 0 0 0 98.467230388863868 -23.042524808614189 0 -23.042524808614189 90.425754526318997 0 0 0 0 2.6412467095461807 -131.54778719235742 0 -131.54778719235742 7.1219141064848372 0 0 0 0 -30.414517058527963 -157.33023375170796 0 -157.33023375170796 45.436539685319076 0 0 0 0 -15.663423558538625 -132.52961250908425 0 -132.52961250908425 -11.930869671392429 0 0 0 0 -16.381048457672023 -136.12254119816498 0 -136.12254119816498 14.154200013460468 0 0 0 0 -41.730738954708841 -184.89853710590705 0 -184.89853710590705 -13.037481341352759 0 0 0 0 3.3950359674142874 -139.27905511892232 0 -139.27905511892232 -34.780341555083396 0 0 0 0 -75.765701053910561 -138.90344084573326 0 -138.90344084573326 -28.65296776108903 0 0 0 0 -71.907865960102072 -140.61017698860724 0 -140.61017698860724 -64.864529642209163 0 0 0 0 -210.49986416104457 -178.18521637474487 0 -178.18521637474487 -71.077865814869256 0 0 0 0 -75.742719755748567 -83.179215604041929 0 -83.179215604041929 -178.42351697226513 0 0 0 0 -29.200141147704471 -76.640297383079542 0 -76.640297383079542 -55.848709453509684 0 0 0 0 -23.424602691886321 -153.41436685174881 0 -153.41436685174881 -64.716645754298952 0 0 0 0 -24.54991313370374 -76.532760915408289 0 -76.532760915408289 -63.225136814986854 0 0 0 0 -20.741962886208853 -57.144671351820364 0 -57.144671351820364 7.077242485829629 0 0 0 0 -74.177735936403224 -98.510895538063323 0 -98.510895538063323 -31.709376693841477 0 0 0 0 -195.48721677013529 -63.723077398368559 0 -63.723077398368559 -29.535475615668474 0 0 0 0 -82.764654545366284 -80.854579743836894 0 -80.854579743836894 -30.181483393338112 0 0 0 0 -88.212272479300253 -49.652137714949873 0 -49.652137714949873 16.453987348939336 0 0 0 0 27.37442759113992 -69.11023696015377 0 -69.11023696015377 -4.8125607188021604 0 0 0 0 32.045580311782032 -50.184604018268601 0 -50.184604018268601 19.895636896247197 0 0 0 0 12.728969816203517 -71.721685805164157 0 -71.721685805164157 14.373584506975931 0 0 0 0 -1.0849071730688138 -102.68000523707929 0 -102.68000523707929 -44.370395366775483 0 0 0 0 70.242958835595573 -59.47106704323096 0 -59.47106704323096 18.83866674006299 0 0 0 0 63.992867951529888 -76.105037448751773 0 -76.105037448751773 -12.628632937518887 0 0 0 0 69.260931330635003 -71.316275937210776 0 -71.316275937210776 28.652719977515517 0 0 0 0 45.027291509133192 -46.369207999259743 0 -46.369207999259743 47.803477220745208 0 0 0 0 21.292598324509413 -71.826542816720348 0 -71.826542816720348 67.085041982044459 0 0 0 0 22.302176065550839 -70.291421403073514 0 -70.291421403073514 50.766546351032957 0 0 0 0 49.536841348841108 -66.972894584233245 0 -66.972894584233245 80.879221556844186 0 0 0 0 17.129872880543871 -54.488050062660591 0 -54.488050062660591 78.173767559163934 0 0 0 0 17.44707411913339 -54.113044299392243 0 -54.113044299392243 56.076973476539024 0 0 0 0 72.830273201235968 -69.641423364276363 0 -69.641423364276363 67.195288831168 0 0 0 0 50.390776000951519 -43.851271585833047 0 -43.851271585833047 105.45153736344218 0 0 0 0 -63.770659048452671 -99.217400975951023 0 -99.217400975951023 49.521939151933111 0 0 0 0 -70.604432374170813 -73.199039866414978 0 -73.199039866414978 73.622276364507343 0 0 0 0 -22.192309632489469 -63.005557936166042 0 -63.005557936166042 17.233442087479261 0 0 0 0 -27.055721345780739 -53.120137335395384 0 -53.120137335395384 47.020490136501849 0 0 0 0 -22.75493161835152 -59.079109655810953 0 -59.079109655810953 94.208721790246727 0 0 0 0 -22.781922631249472 -77.22935411524395 0 -77.22935411524395 80.657486164396232 0 0 0 0 -38.18916748121319 -64.606334511516252 0 -64.606334511516252 71.562417864882832 0 0 0 0 -36.566998760161823 -91.142039151867266 0 -91.142039151867266 68.541035214677322 0 0 0 0 -29.851921190574942 -59.915226935888242 0 -59.915226935888242 97.642912608977895 0 0 0 0 -29.445200432248384 -64.954344618690811 0 -64.954344618690811 64.870008087253154 0 0 0 0 -25.404673084670321 -46.212882574963714 0 -46.212882574963714 82.560669590652196 0 0 0 0 18.407520506959827 -70.689221728052871 0 -70.689221728052871 91.832486899218566 0 0 0 0 -23.131808447501953 -58.130072631984831 0 -58.130072631984831 134.93247398665517 0 0 0 0 -21.609126542719878 -18.846205356916244 0 -18.846205356916244 101.77849264472502 0 0 0 0 -16.295002826056589 -29.801072343751457 0 -29.801072343751457 70.391718715770367 0 0 0 0 -27.530435875950843 -36.615195207612032 0 -36.615195207612032 92.425375056560142 0 0 0 0 -26.866568339103651 -31.017471500438205 0 -31.017471500438205 57.192083498265674 0 0 0 0 50.516248850208541 -52.187848278441777 0 -52.187848278441777 115.6424418544384 0 0 0 0 15.958238668986269 -58.633928386172329 0 -58.633928386172329 115.10258624568041 0 0 0 0 -11.181684986814616 -55.436272510302842 0 -55.436272510302842 199.10401180143117 0 0 0 0 85.632687072243243 -65.801909601341322 0 -65.801909601341322 108.7717519259852 0 0 0 0 58.73126503225194 -18.620350380473383 0 -18.620350380473383 165.33794306375739 0 0 0 0 32.238177707924024 -57.622271085164812 0 -57.622271085164812 188.54655135074631 0 0 0 0 59.364846836874676 -61.461872637210263 0 -61.461872637210263 84.57242733135763 0 0 0 0 57.753699498960486 -89.724816986558835 0 -89.724816986558835 118.44852947104937 0 0 0 0 6.6558660137404235 -1.0983643600796609 0 -1.0983643600796609 0.52566619653094082 0 0 0 0 -4.6159016189994873 10.974820557252315 0 10.974820557252315 5.5741435803865897 0 0 0 0 2.7320005384505919 -4.2036497572823492 0 -4.2036497572823492 -5.4157292931790835 0 0 0 0 0.91479820027246728 -0.50292099356251674 0 -0.50292099356251674 0.88937114835828446 0 0 0 0 10.778197432315636 43.08374772748806 0 43.08374772748806 94.275909179185874 0 0 0 0 8.2764578553224055 -13.824968885691533 0 -13.824968885691533 -1.524477199636749 0 0 0 0 3.4422795875423704 -2.159584223157863 0 -2.159584223157863 1.676104820126314 0 0 0 0 -0.50874828974089414 -0.71599687821116387 0 -0.71599687821116387 1.2786130093828005 0 0 0 0 3.2382965282185978 -11.227000420130253 0 -11.227000420130253 17.237034936204509 0 0 0 0 1.4303803110804014 -3.8656234144548849 0 -3.8656234144548849 3.0034119041593854 0 0 0 0 7.3330815428034839 -11.477511944386379 0 -11.477511944386379 13.245397622952169 0 0 0 0 0.010614350521139349 -2.2490293250803606 0 -2.2490293250803606 3.0384443926907689 0 0 0 0 -0.487944215598759 4.6055589532929559 0 4.6055589532929559 1.1306432649671478 0 0 0 0 6.5683434547779598 -14.099022027997876 0 -14.099022027997876 -13.020801345533073 0 0 0 0 2.6118262335457985 -7.9041006539018781 0 -7.9041006539018781 1.149128223609523 0 0 0 0 -14.940202008029701 -27.50974506604075 0 -27.50974506604075 1.5329096371578999 0 0 0 0 -16.879570938762896 -9.5389978479324355 0 -9.5389978479324355 49.864269744338799 0 0 0 0 -16.923047789625343 10.806997374479806 0 10.806997374479806 70.250709359818956 0 0 0 0 -0.048954505042589247 0.38687307638167479 0 0.38687307638167479 -0.064566355164546563 0 0 0 0 -19.145999407294767 -2.758653471995558 0 -2.758653471995558 47.206682416270155 0 0 0 0 0.11079670154504129 -15.695547062657397 0 -15.695547062657397 13.61730293128403 0 0 0 0 1.5559316698277144 -12.773900837318251 0 -12.773900837318251 15.846343718066237 0 0 0 0 -10.888440793335803 -11.7916249374166 0 -11.7916249374166 11.758809644765734 0 0 0 0 3.7598976441490777 6.7280975202545505 0 6.7280975202545505 -32.85169580297611 0 0 0 0 32.43109212980653 33.378067462729177 0 33.378067462729177 -65.093312653217026 0 0 0 0 -66.834554490390985 13.956751640410289 0 13.956751640410289 17.904379199737832 0 0 0 0 -29.879626539019341 11.179184902318042 0 11.179184902318042 6.5917127778679969 0 0 0 0 -0.67459269144501732 -0.72054847572685077 0 -0.72054847572685077 -0.88640296476380165 0 0 0 0 -25.475568403837315 -16.747158539088105 0 -16.747158539088105 14.781579647104508 0 0 0 0 -20.31393242217348 -28.84854711330803 0 -28.84854711330803 13.951751081361181 0 0 0 0 3.5132408981371555 -16.343120851641288 0 -16.343120851641288 13.45269949578676 0 0 0 0 4.5191046989712724 -10.06590519708249 0 -10.06590519708249 3.4210838425375716 0 0 0 0 14.045559347845028 -38.448917617563097 0 -38.448917617563097 4.0360628272883332 0 0 0 0 -59.31420523891893 31.573570523932176 0 31.573570523932176 47.155347883080594 0 0 0 0 13.351649204123532 -7.6221105325521421 0 -7.6221105325521421 -28.366822100124182 0 0 0 0 -113.57079531343879 145.31032427012087 0 145.31032427012087 -107.97660336235458 0 0 0 0 -54.940949489322065 -39.433103811128603 0 -39.433103811128603 15.137525393445685 0 0 0 0 117.99028471786323 -34.867965413797492 0 -34.867965413797492 -127.24951270345991 0 0 0 0 65.848490324413433 -62.08121981885779 0 -62.08121981885779 -9.7093476989266492 0 0 0 0 -4.5890026676097477 -4.5031493455375866 0 -4.5031493455375866 8.4494816386672724 0 0 0 0 -3.250285866389504 -9.0837905608053973 0 -9.0837905608053973 16.972013241220566 0 0 0 0 -3.2469201317856005 -7.0835155964112175 0 -7.0835155964112175 1.9306433872664002 0 0 0 0 -2.7008476967116621 -11.558105379081525 0 -11.558105379081525 6.251127753188527 0 0 0 0 1.1520792556030504 -4.9536668630977694 0 -4.9536668630977694 6.2307919977854205 0 0 0 0 0.05614704930748815 -3.9318281021607726 0 -3.9318281021607726 1.9316713820384956 0 0 0 0 53.965998082649094 -19.302185666053674 0 -19.302185666053674 -5.2344879797296926 0 0 0 0 5.3611651043688653 -14.217511413859711 0 -14.217511413859711 9.7274130148744007 0 0 0 0 3.8458303996114864 -16.859579453181766 0 -16.859579453181766 8.8656569248942105 0 0 0 0 1.9862115764944974 -0.91464357264811724 0 -0.91464357264811724 -3.4021154726830503 0 0 0 0 -0.28135603477903715 -4.8435804457999012 0 -4.8435804457999012 0.90951731601603569 0 0 0 0 1.5570887421424473 -4.1693497975489127 0 -4.1693497975489127 0.59034620893426082 0 0 0 0 -1.4094135843563471 0.066345020973721525 0 0.066345020973721525 0.11353419701175967 0 0 0 0 -2.7832547406787853 -4.4227993868553455 0 -4.4227993868553455 5.7798614106498576 0 0 0 0 -24.754047422884469 -62.350003348855175 0 -62.350003348855175 -71.559971716663483 0 0 0 0 -82.002383964907494 -69.773392535126675 0 -69.773392535126675 -52.499840293345983 0 0 0 0 -53.923909340730688 -78.948814347386076 0 -78.948814347386076 -50.377015630938331 0 0 0 0 -90.392592131410311 -61.654822839350118 0 -61.654822839350118 -26.121964385907631 0 0 0 0 -44.061397657480484 -101.97314635163099 0 -101.97314635163099 -15.415321129862377 0 0 0 0 -61.537070646953687 -67.310629114753041 0 -67.310629114753041 -15.854188767628784 0 0 0 0 -61.500589691537229 -70.050881092939093 0 -70.050881092939093 -33.235990447490167 0 0 0 0 -131.25065220980014 -94.710911988965734 0 -94.710911988965734 6.7799033066135053 0 0 0 0 -0.085744752695238624 -0.52591791170549662 0 -0.52591791170549662 -3.6866672232423348 0 0 0 0 -192.90215126979911 -56.301708114292751 0 -56.301708114292751 10.812714803578046 0 0 0 0 23.135467186802089 1.1660087908528567 0 1.1660087908528567 -6.7031277423220672 0 0 0 0 -86.625483282173263 -50.790182282590536 0 -50.790182282590536 -3.2434773078196031 0 0 0 0 0.084987558657405038 -1.1623137113860595 0 -1.1623137113860595 -0.23022244387623081 0 0 0 0 11.414705688179083 -9.6996980973302129 0 -9.6996980973302129 -18.673410051386782 0 0 0 0 1.7097447573193703 -2.213968843674289 0 -2.213968843674289 -6.951601513883249 0 0 0 0 -27.190767128519838 -49.483889536489244 0 -49.483889536489244 -47.450802010019743 0 0 0 0 13.857026941885124 -10.2460827562536 0 -10.2460827562536 -24.589123318853126 0 0 0 0 6.4270613687767764 -2.3700853159762119 0 -2.3700853159762119 -24.207655778239314 0 0 0 0 12.407725977976042 -6.2616530145264733 0 -6.2616530145264733 -21.874319745052162 0 0 0 0 5.9724509050083725 -7.6805802175776989 0 -7.6805802175776989 -15.250047292478484 0 0 0 0 9.8471018076224937 -8.3607997128731313 0 -8.3607997128731313 -6.6310329293264658 0 0 0 0 11.989929160240536 -4.8066517274924081 0 -4.8066517274924081 -17.015859480117342 0 0 0 0 -5.792847635163298 -14.170258291949096 0 -14.170258291949096 -20.55815115338828 0 0 0 0 0.59241798228413245 -2.9309470461262208 0 -2.9309470461262208 -19.428511200560934 0 0 0 0 9.0434672167788221 -6.2122407353112976 0 -6.2122407353112976 -23.511697056970206 0 0 0 0 8.9586984570505592 5.5684685164681014 0 5.5684685164681014 -4.8137661390824178 0 0 0 0 9.8202821922077419 5.3240384144978634 0 5.3240384144978634 -1.4963318529541993 0 0 0 0 4.6087176135988557 1.752720085285091 0 1.752720085285091 -9.7314452685930064 0 0 0 0 10.446210542970221 -4.0591805031524473 0 -4.0591805031524473 -4.2277047931597735 0 0 0 0 5.0435131551976156 0.5610423804828315 0 0.5610423804828315 -1.492701126736165 0 0 0 0 10.675569568308674 -3.9856357949175845 0 -3.9856357949175845 -0.59687387038138695 0 0 0 0 4.3941743041953885 -4.5379939791675099 0 -4.5379939791675099 7.7356056585344959 0 0 0 0 9.145329399416795 -11.724991647280461 0 -11.724991647280461 17.015580249949835 0 0 0 0 11.912903894997271 -29.488031894678898 0 -29.488031894678898 -55.271683565175636 0 0 0 0 21.657760199017957 2.6839040840682173 0 2.6839040840682173 -6.3652741985267767 0 0 0 0 -0.049059326442361328 -0.50725588610593242 0 -0.50725588610593242 -1.1823830047879786 0 0 0 0 -80.599617610503174 -62.71623823447942 0 -62.71623823447942 -80.968047907655318 0 0 0 0 -287.18036556275547 -71.149400886923218 0 -71.149400886923218 11.749821080998345 0 0 0 0 -90.982651102933801 -19.775541141695129 0 -19.775541141695129 31.454216565287425 0 0 0 0 -95.488796572673095 -71.560784052524298 0 -71.560784052524298 48.632880488016781 0 0 0 0 -100.51206590719903 -51.206029247857032 0 -51.206029247857032 -33.80819585405925 0 0 0 0 12.018483665615122 -11.673373935265658 0 -11.673373935265658 13.179225112049608 0 0 0 0 -17.494266126582261 -13.798512639999217 0 -13.798512639999217 14.728602137071107 0 0 0 0 -5.3958727196175005 -25.504796735479431 0 -25.504796735479431 9.5174738271084607 0 0 0 0 -3.4936088594668036 -23.908362208655717 0 -23.908362208655717 9.7971560184760165 0 0 0 0 -6.3272146495366997 -22.251894762584811 0 -22.251894762584811 15.979087874492507 0 0 0 0 24.464768587384015 -25.92195242806082 0 -25.92195242806082 14.181299191744074 0 0 0 0 -0.53160648200898919 -0.89075701576500332 0 -0.89075701576500332 -1.0433234876506265 0 0 0 0 33.447068612889325 -4.9596055139369355 0 -4.9596055139369355 -0.81628148027630232 0 0 0 0 47.312141113558482 -36.732096444586318 0 -36.732096444586318 16.286412514982942 0 0 0 0 27.122446534206574 1.505499036177298 0 1.505499036177298 11.011934751472694 0 0 0 0 20.691729543520523 -16.140201252098223 0 -16.140201252098223 -17.517760902166174 0 0 0 0 -7.0172431417486223 -1.3736991450398364 0 -1.3736991450398364 -23.169194763003134 0 0 0 0 16.332215845426163 -13.719972032300916 0 -13.719972032300916 -51.796935457068912 0 0 0 0 4.8309154898581879 -10.501980810060584 0 -10.501980810060584 3.5080317054600241 0 0 0 0 5.9967950569082351 -11.046460273417377 0 -11.046460273417377 3.5983964908805572 0 0 0 0 30.090849188923357 -42.2764532639913 0 -42.2764532639913 -41.309193444367793 0 0 0 0 -9.6108650721253071 -46.475811061385684 0 -46.475811061385684 -35.979276859551192 0 0 0 0 6.723901627689429 -16.333223437314246 0 -16.333223437314246 -1.6659009390879191 0 0 0 0 -0.19369660454833237 -0.36421041847174784 0 -0.36421041847174784 -0.468148165497281 0 0 0 0 -25.761448873213794 -22.687935076347912 0 -22.687935076347912 7.0052285537785792 0 0 0 0 51.611158903949445 -31.287225987018246 0 -31.287225987018246 -35.922483002411354 0 0 0 0 -5.202378063849892 -27.648707089825734 0 -27.648707089825734 -3.1639334756737298 0 0 0 0 -22.728851915997609 -41.583046766551917 0 -41.583046766551917 -13.4546230272922 0 0 0 0 0.95816023570750986 -25.337400027119429 0 -25.337400027119429 -14.173434491357966 0 0 0 0 8.30188698527013 -16.496446364549683 0 -16.496446364549683 -13.971044972466416 0 0 0 0 7.4724884741589248 -10.969492696599426 0 -10.969492696599426 3.7610595428484936 0 0 0 0 39.821582911192309 2.7485786170520896 0 2.7485786170520896 -90.249661896684302 0 0 0 0 4.8992043542075407 -12.449042074156296 0 -12.449042074156296 -8.7007106747041689 0 0 0 0 4.9897711455944318 -15.425073222414994 0 -15.425073222414994 -5.5187052191181465 0 0 0 0 4.2965893137165949 -15.663368195994963 0 -15.663368195994963 -1.9486235385861619 0 0 0 0 4.0699248142741453 -18.156734716062147 0 -18.156734716062147 0.69845356322502994 0 0 0 0 5.8154276392283464 -17.0904068156525 0 -17.0904068156525 -4.4265709014207459 0 0 0 0 4.1296616431122857 -14.456370916944309 0 -14.456370916944309 -2.0596937743466697 0 0 0 0 6.2574675018477137 -16.319631501983849 0 -16.319631501983849 0.3837880257146935 0 0 0 0 5.1040083230436721 -17.646241464373816 0 -17.646241464373816 -1.0265143143270734 0 0 0 0 4.5102063301296766 -17.688088505861742 0 -17.688088505861742 2.1072957747583132 0 0 0 0 6.806381778166724 -15.922794077358958 0 -15.922794077358958 3.2686460333702598 0 0 0 0 3.875602799671924 -16.716443325575256 0 -16.716443325575256 4.9664372230436129 0 0 0 0 2.7436076433482413 -17.726158908664274 0 -17.726158908664274 5.3834180024596208 0 0 0 0 3.7728002064291104 -17.778799837367615 0 -17.778799837367615 3.4198890141128686 0 0 0 0 2.7115394812438325 -18.080560415998065 0 -18.080560415998065 6.6545248813781654 0 0 0 0 4.1355036314649496 -16.948365563859205 0 -16.948365563859205 1.3026100737602064 0 0 0 0 4.2372255871119648 -16.629461451811437 0 -16.629461451811437 2.786613649188439 0 0 0 0 7.8760902190028901 -15.221407908338961 0 -15.221407908338961 7.459888931070509 0 0 0 0 9.2500481046349705 -39.41981369850464 0 -39.41981369850464 51.435795977873681 0 0 0 0 8.4759907596865105 -15.414586201551629 0 -15.414586201551629 1.2832771184575904 0 0 0 0 8.659434319443335 -15.643960007245369 0 -15.643960007245369 -1.4913368427132809 0 0 0 0 6.4721717567893506 -17.291730625501714 0 -17.291730625501714 1.4636960525385803 0 0 0 0 8.3111723193537728 -16.620240066305996 0 -16.620240066305996 1.4414877786198304 0 0 0 0 6.9255520156843886 -16.727611860996603 0 -16.727611860996603 1.8727331873781168 0 0 0 0 9.2786467933717631 -18.543792959974212 0 -18.543792959974212 2.7834382804776396 0 0 0 0 9.242967598098403 -19.645767098983924 0 -19.645767098983924 -0.36346942696678752 0 0 0 0 7.32436716667101 -19.903390169022316 0 -19.903390169022316 2.4315549198308872 0 0 0 0 -6.2395082381490283 -17.956709129671367 0 -17.956709129671367 15.191327404584626 0 0 0 0 -1.9151590745524265 -2.287562348977441 0 -2.287562348977441 -2.6540276110456897 0 0 0 0 12.005400754471566 -16.873842662374955 0 -16.873842662374955 -0.58130310765051263 0 0 0 0 11.280244385616129 -13.82391875440058 0 -13.82391875440058 3.7163604147758633 0 0 0 0 6.2217326730701643 -13.71241215641362 0 -13.71241215641362 7.5699524560068312 0 0 0 0 5.1854477425449659 -15.127013805132492 0 -15.127013805132492 8.011827289757548 0 0 0 0 7.447024769003292 -16.376000276711011 0 -16.376000276711011 6.427712404808517 0 0 0 0 18.911464707217874 -38.193435174690421 0 -38.193435174690421 50.331907820407196 0 0 0 0 -3.1588360741213881 -3.8568545968601171 0 -3.8568545968601171 -4.4857275621565353 0 0 0 0 6.2353183597379029 -16.584426346200871 0 -16.584426346200871 15.342237802428031 0 0 0 0 1.5632951574743856 -17.340237084209548 0 -17.340237084209548 9.1657924508194242 0 0 0 0 0.041568532868495822 -16.259470150208926 0 -16.259470150208926 9.2909504069727404 0 0 0 0 1.2118023477762563 -18.39255845030857 0 -18.39255845030857 7.1385701388408052 0 0 0 0 2.7431062796681545 -16.882019278839607 0 -16.882019278839607 7.0982246666289939 0 0 0 0 1.7681825779216069 -16.535151922119667 0 -16.535151922119667 7.0806587296201542 0 0 0 0 3.9406082063872248 -16.363219586658118 0 -16.363219586658118 5.2534829444284696 0 0 0 0 5.5426834595532455 -15.274523763407615 0 -15.274523763407615 5.7379970019590019 0 0 0 0 2.7843926217487933 -15.327765607647507 0 -15.327765607647507 7.1968064281923034 0 0 0 0 2.8116766202952022 -15.635547618387136 0 -15.635547618387136 7.8275110955828495 0 0 0 0 2.6666822919383435 -13.922687881459936 0 -13.922687881459936 7.2273780538489518 0 0 0 0 2.6673637795120158 -13.936706691797326 0 -13.936706691797326 6.7238765914153191 0 0 0 0 5.2027087266278613 -15.043261357633128 0 -15.043261357633128 6.9562633218704377 0 0 0 0 6.4708862836523622 -13.593574767811333 0 -13.593574767811333 3.3979836869565361 0 0 0 0 4.2965928406647436 -14.260924178997357 0 -14.260924178997357 6.2834368241547054 0 0 0 0 3.132294062776964 -12.595890068648259 0 -12.595890068648259 4.4775722405349541 0 0 0 0 -1.3409506300131397 -13.134052164098421 0 -13.134052164098421 8.456058292920261 0 0 0 0 1.0586119017943929 -12.991303164528745 0 -12.991303164528745 6.8890580341867462 0 0 0 0 0.7308623979999993 -12.549604045805381 0 -12.549604045805381 8.0964039689706624 0 0 0 0 0.5922343797474241 -14.552327158911112 0 -14.552327158911112 8.8648413408172928 0 0 0 0 1.325350529446041 -15.444985383358471 0 -15.444985383358471 8.4807151473487465 0 0 0 0 -0.54496272291805781 -16.554034970425164 0 -16.554034970425164 10.387702758496289 0 0 0 0 -5.9889263243408095 -12.698910815870931 0 -12.698910815870931 10.682690751557402 0 0 0 0 -1.8968307312999855 -15.215926682580545 0 -15.215926682580545 12.003956387699873 0 0 0 0 -1.8574890173433687 -19.404521036646884 0 -19.404521036646884 13.733441175344751 0 0 0 0 0.20834762457269562 -21.678915139041464 0 -21.678915139041464 14.731501850601489 0 0 0 0 -1.9913684286524358 -18.117252536220235 0 -18.117252536220235 11.003587798395529 0 0 0 0 1.9095497100593093 -20.094286839467941 0 -20.094286839467941 10.791380602565795 0 0 0 0 3.4825793519872832 -20.212479072298834 0 -20.212479072298834 6.3569451005023438 0 0 0 0 13.390221528248844 -24.216743770099583 0 -24.216743770099583 7.4859799552693858 0 0 0 0 11.860643933064125 -21.821850943963454 0 -21.821850943963454 3.9690146387088134 0 0 0 0 5.1563323449054792 -23.047355451818703 0 -23.047355451818703 10.704855534796934 0 0 0 0 4.9713522912584267 -21.581771238440979 0 -21.581771238440979 10.230319545001407 0 0 0 0 21.480214279425468 -23.33968126790819 0 -23.33968126790819 7.1249028058873591 0 0 0 0 9.0740456577159421 -27.11234695279245 0 -27.11234695279245 13.703761413261873 0 0 0 0 0.842977869776945 -26.852264546984088 0 -26.852264546984088 18.246221979944494 0 0 0 0 10.071499109857768 -25.294708432701782 0 -25.294708432701782 13.220204621217817 0 0 0 0 29.423094469564262 -31.542770069829658 0 -31.542770069829658 3.2531479811204917 0 0 0 0 20.92094062239812 -37.391312576719429 0 -37.391312576719429 15.658362580740459 0 0 0 0 40.986420832447493 -39.442156979284391 0 -39.442156979284391 1.7070056591635421 0 0 0 0 43.470756440691844 -25.222890442061995 0 -25.222890442061995 6.0773321408546508 0 0 0 0 44.890624728268378 -35.328721118259551 0 -35.328721118259551 -4.8445712274369725 0 0 0 0 78.66471145197275 -16.097889159641227 0 -16.097889159641227 -7.9594313105490073 0 0 0 0 -0.065118604150897541 0.21049942135962346 0 0.21049942135962346 -0.10113709343758082 0 0 0 0 19.734057721182339 -5.8679523021660316 0 -5.8679523021660316 -5.9024547090407395 0 0 0 0 -1.9965776648914124 -4.5487568645864274 0 -4.5487568645864274 -2.863510338916198 0 0 0 0 -52.407837064125232 -16.705213318213509 0 -16.705213318213509 26.63289084908547 0 0 0 0 27.838340974010372 -29.99848994707213 0 -29.99848994707213 -38.42055450212456 0 0 0 0 43.267378549125056 -41.475232187761321 0 -41.475232187761321 -5.9042622642837159 0 0 0 0 30.378077853541527 -15.662281431177689 0 -15.662281431177689 -10.179527244195924 0 0 0 0 -2.5537221441947824 -0.81540374566213791 0 -0.81540374566213791 -0.55050378359514518 0 0 0 0 -2.4045739727828277 -6.6985592352921799 0 -6.6985592352921799 -3.2742525802073033 0 0 0 0 24.499281677266396 -13.359116106467809 0 -13.359116106467809 -1.8952026281322105 0 0 0 0 -1.4961678435037715 -4.7809505483645713 0 -4.7809505483645713 -4.4152793048437342 0 0 0 0 -15.922660221331228 -6.5032644505854478 0 -6.5032644505854478 -12.440872367448719 0 0 0 0 23.451770889947511 -26.56083982428845 0 -26.56083982428845 8.9993798988978142 0 0 0 0 40.068704176125266 -7.2449065656492166 0 -7.2449065656492166 3.142841564702394 0 0 0 0 40.982383455876402 -20.378537943498031 0 -20.378537943498031 2.2196084144534325 0 0 0 0 25.681996672226319 -21.479111068940711 0 -21.479111068940711 2.2845184162494263 0 0 0 0 28.586811904525462 -8.8415588365319309 0 -8.8415588365319309 2.9875728392901806 0 0 0 0 23.600609654479854 -19.219285425371481 0 -19.219285425371481 -0.015183772391537786 0 0 0 0 14.82464709813047 -19.455619395504755 0 -19.455619395504755 0.0060491814670058375 0 0 0 0 23.163513092039352 -10.45787642909022 0 -10.45787642909022 -5.2130328418425051 0 0 0 0 -3.3317632369466157 -6.8055774285643453 0 -6.8055774285643453 -4.4872807136713764 0 0 0 0 9.0059563892295955 -12.507490827399579 0 -12.507490827399579 -5.1377645535823149 0 0 0 0 0.17448034526336187 -5.9491937532811647 0 -5.9491937532811647 -5.7138108331164403 0 0 0 0 -7.5253032827780553 -5.0075097944451246 0 -5.0075097944451246 -2.0453697640814896 0 0 0 0 -2.2410254332413055 -4.0169286951643359 0 -4.0169286951643359 -4.7443681425578985 0 0 0 0 -1.0385464489055982 -7.2725769780748077 0 -7.2725769780748077 -4.6382323222063704 0 0 0 0 11.348500920958486 -5.9440346638331789 0 -5.9440346638331789 -5.1116490348646835 0 0 0 0 -7.4881281642537942 -11.624813439458649 0 -11.624813439458649 -4.033276260509524 0 0 0 0 6.499292516942603 -4.635804641618904 0 -4.635804641618904 -4.3960460423741097 0 0 0 0 3.6495531459220825 -0.61720087559461256 0 -0.61720087559461256 -4.8233096831840072 0 0 0 0 14.803924213325672 -13.709647310394075 0 -13.709647310394075 -9.1889103110620454 0 0 0 0 10.026838066001687 -18.552324612554912 0 -18.552324612554912 -7.7588198310018441 0 0 0 0 7.9236331987921176 -17.231914961894972 0 -17.231914961894972 -3.294166415941163 0 0 0 0 5.7034402039173528 -19.070064204701566 0 -19.070064204701566 -3.0726485695222436 0 0 0 0 5.4037121107900106 -17.63045197552438 0 -17.63045197552438 -0.64913541289979548 0 0 0 0 7.9720270787315712 -20.119446793342149 0 -20.119446793342149 -0.47952291989258811 0 0 0 0 4.0354087555740534 -19.254841290088962 0 -19.254841290088962 2.41152647988838 0 0 0 0 4.1680767025377463 -19.975088732508539 0 -19.975088732508539 6.3163247173916375 0 0 0 0 8.0353590365464242 -21.067518414330152 0 -21.067518414330152 3.8566771455643902 0 0 0 0 15.425658373757869 -18.669431702752945 0 -18.669431702752945 -3.4361412789130554 0 0 0 0 -10.913972458967692 -19.269555230858742 0 -19.269555230858742 -7.29013584937411 0 0 0 0 -5.2013656916128639 -31.314968655051047 0 -31.314968655051047 -12.261000602377749 0 0 0 0 6.886503590651742 -5.4562997453650546 0 -5.4562997453650546 4.7971979531927769 0 0 0 0 3.6526284588217095 -10.393799375550032 0 -10.393799375550032 -1.9586102447185567 0 0 0 0 3.8367772454121223 -10.16566311694541 0 -10.16566311694541 -2.1050306878969423 0 0 0 0 -7.9272221863320738 -16.253686207431826 0 -16.253686207431826 -10.13080721601051 0 0 0 0 3.1207779310195143 -6.9994337084177634 0 -6.9994337084177634 3.4404891584310291 0 0 0 0 -0.10154328749044872 -9.7062396771611823 0 -9.7062396771611823 -5.9674230275641538 0 0 0 0 -3.7606551973646543 -10.773925356133944 0 -10.773925356133944 -0.52150442395071539 0 0 0 0 -2.6081931962453382 -11.731167475325812 0 -11.731167475325812 -11.141049354480344 0 0 0 0 -11.642737182683049 -12.135528421196653 0 -12.135528421196653 -5.8940546063429906 0 0 0 0 -23.146902273566866 4.5136966971487453 0 4.5136966971487453 -6.6176169868047054 0 0 0 0 -3.4861142084120402 -2.3956097624791219 0 -2.3956097624791219 -0.38612744037390256 0 0 0 0 3.0646381454644143 -9.9581161225532924 0 -9.9581161225532924 -2.8843977433418502 0 0 0 0 -2.2238006485936843 -5.6940040377192309 0 -5.6940040377192309 1.5752327148203582 0 0 0 0 -7.4317287926483004 -7.9476060789206606 0 -7.9476060789206606 -1.0461436069587826 0 0 0 0 -10.054168079127521 -13.847236592568152 0 -13.847236592568152 -3.7474312199329631 0 0 0 0 -4.362857026362235 -5.1815079285979664 0 -5.1815079285979664 -3.8402558885775306 0 0 0 0 -7.3812030521653469 -4.6575594039462658 0 -4.6575594039462658 -0.90019372991810087 0 0 0 0 -7.3812030521658016 -4.6575594039486532 0 -4.6575594039486532 -0.90019372991764612 0 0 0 0 -5.8292611351197259 -5.9999409653406426 0 -5.9999409653406426 -2.5074000860498531 0 0 0 0 -0.46182117623646946 -14.195186322062545 0 -14.195186322062545 0.07429971811041014 0 0 0 0 -4.1500909383912585 -9.7152178603397061 0 -9.7152178603397061 0.17259557833125427 0 0 0 0 -5.5858390526045696 -6.4426414041237194 0 -6.4426414041237194 -3.0625772812712739 0 0 0 0 -1.0561413514133164 -10.134868178776628 0 -10.134868178776628 -6.9029716174734972 0 0 0 0 -51.558132538031714 14.732340167026393 0 14.732340167026393 24.610270389296147 0 0 0 0 5.5132468147230611 -15.194355347738679 0 -15.194355347738679 -4.5573546360379851 0 0 0 0 -4.494312210784674 -10.299776097203059 0 -10.299776097203059 0.96833326541849818 0 0 0 0 7.9921830352341203 -6.5923193468353247 0 -6.5923193468353247 -16.551779063317099 0 0 0 0 9.8973694626631641 -17.969094270890647 0 -17.969094270890647 -1.9650011253454522 0 0 0 0 8.3336140907740628 -2.8984448777505918 0 -2.8984448777505918 -21.929588749875961 0 0 0 0 -21.746895880616648 -22.206263117984463 0 -22.206263117984463 14.725787266605948 0 0 0 0 22.01180824339599 -37.226913162560209 0 -37.226913162560209 55.955800515224155 0 0 0 0 25.696712348264555 -3.0560757723593497 0 -3.0560757723593497 -3.7912687480881004 0 0 0 0 34.059623145189107 -3.4546977740810121 0 -3.4546977740810121 3.8408598674428731 0 0 0 0 -104.67142911253904 21.185938266285007 0 21.185938266285007 76.526906287903344 0 0 0 0 40.731280673204083 -49.12471140702614 0 -49.12471140702614 12.795721341332637 0 0 0 0 -37.801248371575639 -48.21113361740862 0 -48.21113361740862 74.794146034184124 0 0 0 0 -2.1669445849565818 -26.571934345890156 0 -26.571934345890156 1.5539390751894189 0 0 0 0 11.943208837322345 -23.612786586925864 0 -23.612786586925864 -13.739096991189285 0 0 0 0 -25.626836657127569 2.3765816488868268 0 2.3765816488868268 2.2698659303812292 0 0 0 0 -99.444322733099398 -26.446965964232504 0 -26.446965964232504 10.466752971202027 0 0 0 0 -12.526062467380143 2.9485867362870977 0 2.9485867362870977 -14.183442866667633 0 0 0 0 -11.352228391421427 -3.5427882956498058 0 -3.5427882956498058 -0.51178939687254754 0 0 0 0 -2.5778531287695188 -0.15233001610830499 0 -0.15233001610830499 1.3170554922779694 0 0 0 0 76.559180513548199 -55.611455171836695 0 -55.611455171836695 -59.526888722071988 0 0 0 0 93.57610571890109 -10.461512751558303 0 -10.461512751558303 -4.5344970701200964 0 0 0 0 1.3548967204281297 -2.2941564282392806 0 -2.2941564282392806 -1.2530316515386852 0 0 0 0 65.256469634306995 -52.356906372810727 0 -52.356906372810727 18.454764482867745 0 0 0 0 56.609826486319434 -54.458233369611918 0 -54.458233369611918 47.619775727943306 0 0 0 0 6.0334703485023056 -18.408088363992704 0 -18.408088363992704 38.189187071342985 0 0 0 0 73.649268358085465 -1.0309913921462908 0 -1.0309913921462908 7.6164236169431661 0 0 0 0 2.2433323895893409 -24.476722729440837 0 -24.476722729440837 7.6461804790753831 0 0 0 0 30.148238626388775 -58.769361840184501 0 -58.769361840184501 31.099989240626883 0 0 0 0 -6.2922536756859202 -7.2873151038648345 0 -7.2873151038648345 -2.1894150665304015 0 0 0 0 48.633202741442801 -27.594497694317283 0 -27.594497694317283 -3.5407134972397216 0 0 0 0 48.895996853839733 -30.250925850847786 0 -30.250925850847786 -3.8615009010854919 0 0 0 0 -22.344363164103697 -25.651376866324085 0 -25.651376866324085 32.584478623646191 0 0 0 0 4.0181244576197059 1.022537531824014 0 1.022537531824014 -4.2353059568422253 0 0 0 0 -47.460334256786155 -13.548024502448868 0 -13.548024502448868 28.503742515278873 0 0 0 0 -4.4806522509252442 -10.391414591895366 0 -10.391414591895366 1.8505469507555627 0 0 0 0 -22.085207137754878 -49.662349001388066 0 -49.662349001388066 16.009181442650743 0 0 0 0 15.766082284385448 6.9331079015501018 0 6.9331079015501018 -35.269363094264918 0 0 0 0 4.1798672577961042 -9.8686075157469588 0 -9.8686075157469588 -7.1534435693865817 0 0 0 0 13.272400979515623 -19.856555215289973 0 -19.856555215289973 -5.9907660790578348 0 0 0 0 1.9281602676292096 -15.179483934991026 0 -15.179483934991026 -2.4354135370101631 0 0 0 0 -0.27850015381522653 -1.7217405389354665 0 -1.7217405389354665 -1.197107847504661 0 0 0 0 10.478238028992678 -6.5922018193072915 0 -6.5922018193072915 -12.4092986876135 0 0 0 0 24.113049423934172 0.85862397675055036 0 0.85862397675055036 -13.270385288019042 0 0 0 0 -6.7959053328409027 -52.15984204874303 0 -52.15984204874303 48.102546143873042 0 0 0 0 -50.365790000629204 -12.343697258778434 0 -12.343697258778434 -9.5577265898524502 0 0 0 0 -4.473634152107965 -10.430580799384257 0 -10.430580799384257 1.6014067484255126 0 0 0 0 40.673460476641424 -20.861435987860915 0 -20.861435987860915 -4.3854077635669455 0 0 0 0 -73.446184480334693 8.9622035024659539 0 8.9622035024659539 12.593613076515794 0 0 0 0 -0.09088606150029177 -0.46815142666901721 0 -0.46815142666901721 -0.16241142375859141 0 0 0 0 22.585388053346833 -21.688176104403965 0 -21.688176104403965 0.33777778030435002 0 0 0 0 16.373493431843599 -14.037741012914694 0 -14.037741012914694 14.646215619624854 0 0 0 0 16.786004237412271 -15.336581575302716 0 -15.336581575302716 -6.5165419239028779 0 0 0 0 13.539853037509602 -1.8715678697446947 0 -1.8715678697446947 5.7286966108360957 0 0 0 0 -1.8311057245307438 -8.200114843593056 0 -8.200114843593056 -2.8303418266160794 0 0 0 0 33.45311411943112 -26.006635152696617 0 -26.006635152696617 23.03365339080483 0 0 0 0 17.320587612422969 -38.123400512369471 0 -38.123400512369471 0.28248741844694791 0 0 0 0 31.787602964028338 -18.816321407925216 0 -18.816321407925216 1.1111160671744074 0 0 0 0 -10.471965716173145 -6.6356671544500614 0 -6.6356671544500614 13.258418788253948 0 0 0 0 -1.1381065179921279 -28.798438333636568 0 -28.798438333636568 11.992159324501699 0 0 0 0 35.994540362848056 -33.033592006677509 0 -33.033592006677509 -4.6175824564179493 0 0 0 0 4.2411140024887573 -32.947228362544365 0 -32.947228362544365 4.3082222036309759 0 0 0 0 -23.858128560232217 -2.9199959261364938 0 -2.9199959261364938 -2.9600896672764065 0 0 0 0 -4.6163979697575996 -7.9575102688765504 0 -7.9575102688765504 -2.4541815110164098 0 0 0 0 -23.559386950265434 -3.5391101146336723 0 -3.5391101146336723 -3.0486209873852204 0 0 0 0 -22.925719998507702 -3.5639867789814161 0 -3.5639867789814161 -3.0666097332502886 0 0 0 0 -21.141278233801131 -4.7195691935888817 0 -4.7195691935888817 -4.6055078953877455 0 0 0 0 -23.006949829235964 -2.9264983173447945 0 -2.9264983173447945 -2.593112770476182 0 0 0 0 -31.395970272791601 -1.3905335188177332 0 -1.3905335188177332 13.99964411331166 0 0 0 0 -15.437373333086725 -6.4775960732633848 0 -6.4775960732633848 -3.9780531702045892 0 0 0 0 8.735615074594838 -12.665317457062159 0 -12.665317457062159 2.6833389268635388 0 0 0 0 10.036019715812017 -20.608862105827711 0 -20.608862105827711 4.6372381442164965 0 0 0 0 2.5520176065579108 -25.551433785469044 0 -25.551433785469044 -14.604532522867657 0 0 0 0 4.4996905406053429 -17.849306511551504 0 -17.849306511551504 7.7392348816279082 0 0 0 0 4.8794268574210946 -15.365003451455095 0 -15.365003451455095 -7.8482998833706645 0 0 0 0 6.3991397163832744 -18.772852548968103 0 -18.772852548968103 -9.2434668754251561 0 0 0 0 9.9471538938118442 -17.195004133296379 0 -17.195004133296379 -16.916798839973353 0 0 0 0 -1.8041553519699272 -8.685417703788362 0 -8.685417703788362 -8.3272274128082735 0 0 0 0 -1.9406258593039638 -17.613347767371465 0 -17.613347767371465 -9.5633450045556287 0 0 0 0 5.2664447323172112 -14.536419788203148 0 -14.536419788203148 -9.2580387036436491 0 0 0 0 -7.147842670459454 -13.468318504234423 0 -13.468318504234423 10.534523442225805 0 0 0 0 -1.7871959602862262 -10.732909064842147 0 -10.732909064842147 -4.8954003486740021 0 0 0 0 -0.11404184778139514 -6.8965536619790608 0 -6.8965536619790608 -5.0564868728114289 0 0 0 0 -5.5278456973464927 -17.177673003854807 0 -17.177673003854807 -11.76921160409087 0 0 0 0 -4.4053879251615058 -14.009631419768089 0 -14.009631419768089 -2.8408790524133565 0 0 0 0 9.9543409645289103 -5.1943158052759415 0 -5.1943158052759415 -3.98442958377737 0 0 0 0 -2.1486896811846234 -2.3093690413817178 0 -2.3093690413817178 0.93901609113362505 0 0 0 0 -13.196690703793374 -4.1464427620376494 0 -4.1464427620376494 2.5154931997886991 0 0 0 0 -5.275779280765164 -25.607338077315944 0 -25.607338077315944 30.68286340067425 0 0 0 0 -16.410715469430215 -5.1997880374547094 0 -5.1997880374547094 1.2948284982583118 0 0 0 0 5.1572730488405796 -30.842476961036027 0 -30.842476961036027 63.406473213774348 0 0 0 0 -1.7964646006976017 -1.5934538236893196 0 -1.5934538236893196 -0.19648724567370923 0 0 0 0 -0.96900193183364536 -15.485305466262957 0 -15.485305466262957 3.8395676436458075 0 0 0 0 -10.320425583666282 -6.5993793856235392 0 -6.5993793856235392 0.50345553415361088 0 0 0 0 -6.6161518642659454 -8.9942152758516283 0 -8.9942152758516283 4.5868190152023205 0 0 0 0 1.3176459591975807 -9.6339814462454676 0 -9.6339814462454676 -2.0236729691531705 0 0 0 0 -0.14916208385079699 -13.212256387698858 0 -13.212256387698858 5.5828644035964317 0 0 0 0 7.5880790015562525 -18.966477143837665 0 -18.966477143837665 7.3016571453517827 0 0 0 0 -6.4309499046921701 -13.088036013870806 0 -13.088036013870806 14.466002601910532 0 0 0 0 7.2357977984229365 -21.002809515618765 0 -21.002809515618765 8.0613670519772995 0 0 0 0 14.415854851603171 -32.403191723235182 0 -32.403191723235182 11.416415532780775 0 0 0 0 13.960597938421415 -36.436665869923445 0 -36.436665869923445 -0.701814134803044 0 0 0 0 9.5542926442358294 -25.913231134300077 0 -25.913231134300077 6.5770870415205991 0 0 0 0 24.121119936515242 -30.59415541012504 0 -30.59415541012504 0.031713887023386178 0 0 0 0 19.713451625892048 -21.279729893970398 0 -21.279729893970398 4.8369483698415934 0 0 0 0 30.241619143779644 -9.8067205959107469 0 -9.8067205959107469 0.47067227261322842 0 0 0 0 17.40304190867937 -21.791111088149137 0 -21.791111088149137 5.4587672877760269 0 0 0 0 11.553279432755517 -16.160913342152298 0 -16.160913342152298 7.5802338017633701 0 0 0 0 9.7341281221360987 -18.344115468573136 0 -18.344115468573136 6.7922339602455395 0 0 0 0 5.8712033112869904 -15.959154689015804 0 -15.959154689015804 5.7885943496326036 0 0 0 0 17.732919323731039 -6.6860810275622953 0 -6.6860810275622953 3.412197687729531 0 0 0 0 3.6297814039089644 -19.097631880141194 0 -19.097631880141194 8.7419328283449431 0 0 0 0 5.0134605469811504 -19.867966151118026 0 -19.867966151118026 7.0540284815019731 0 0 0 0 3.6655455901801872 -19.851776614084137 0 -19.851776614084137 7.0450236848778331 0 0 0 0 -11.130107851654516 -7.1443643860799124 0 -7.1443643860799124 2.0714442329729845 0 0 0 0 -6.2142146195943981 -7.7389080448635523 0 -7.7389080448635523 0.50335207687869055 0 0 0 0 9.3257106130995453 -15.438876542045364 0 -15.438876542045364 6.0718467175447586 0 0 0 0 -1.1385153004312087 -24.291080020799996 0 -24.291080020799996 8.0924998390969449 0 0 0 0 -3.0455223561748426 -23.362529909755949 0 -23.362529909755949 10.190340091319754 0 0 0 0 -11.198874000337129 -7.4687395293134351 0 -7.4687395293134351 1.8668176047088547 0 0 0 0 -6.3934217273536351 -7.891905893525669 0 -7.891905893525669 -0.25558568876039089 0 0 0 0 8.3199170009106638 -18.182327463304773 0 -18.182327463304773 6.7184200607571256 0 0 0 0 -4.8067960384109938 -16.762248743008968 0 -16.762248743008968 9.5680988229057249 0 0 0 0 0.98717476450178765 -11.760248278211975 0 -11.760248278211975 4.3815631392531031 0 0 0 0 -7.459105959318304 -9.4004130222919766 0 -9.4004130222919766 2.4632979516430158 0 0 0 0 24.245125438218565 -40.543522182268475 0 -40.543522182268475 -26.029617724489071 0 0 0 0 -8.9111801906528854 -16.558069270645774 0 -16.558069270645774 18.902549834027923 0 0 0 0 -15.956310626068444 -23.426908500171066 0 -23.426908500171066 18.40239049749357 0 0 0 0 -6.0382914443871414 -21.663949891413722 0 -21.663949891413722 16.820289957399609 0 0 0 0 -2.9079115236645521 -14.65861706805515 0 -14.65861706805515 16.897728292183274 0 0 0 0 1.6014539793732183 -23.960731005977664 0 -23.960731005977664 13.049929892687032 0 0 0 0 0.53797379678235302 -21.304784891912959 0 -21.304784891912959 7.5276575960864989 0 0 0 0 1.832055856635634 -19.598405463033941 0 -19.598405463033941 9.7565334431665178 0 0 0 0 1.0859097817919974 -17.908616275067061 0 -17.908616275067061 6.1161695698274343 0 0 0 0 3.3667230675646351 -15.815143870924771 0 -15.815143870924771 3.5139127781485513 0 0 0 0 -4.3236630589508422 -9.2832892637684381 0 -9.2832892637684381 5.5884666149831901 0 0 0 0 4.3394646239958092 -6.6138028684708843 0 -6.6138028684708843 3.4821941651639463 0 0 0 0 3.8034726227579085 -17.173219907379462 0 -17.173219907379462 5.0868911985735394 0 0 0 0 -1.4901443217022461 -14.323565329459143 0 -14.323565329459143 6.0465558588807653 0 0 0 0 -1.0723028085340047 -8.0859795338215008 0 -8.0859795338215008 0.99594339117038544 0 0 0 0 -4.4055475301946672 -4.7423879816222865 0 -4.7423879816222865 -5.5043093447329738 0 0 0 0 -4.7400273698690967 -10.339841458858373 0 -10.339841458858373 0.4413730206888431 0 0 0 0 -7.615147775614787 -9.3830604659738128 0 -9.3830604659738128 5.6082973779930398 0 0 0 0 -9.357694988777439 -3.2153517968267806 0 -3.2153517968267806 -2.2487813205934799 0 0 0 0 -10.999684027910916 -3.3054601748458481 0 -3.3054601748458481 0.07771494256272149 0 0 0 0 -11.317215088791386 2.503839263185867 0 2.503839263185867 -6.00681258021541 0 0 0 0 -0.043362707423511893 -14.768986973304891 0 -14.768986973304891 8.6971577291571975 0 0 0 0 -0.79633187846047804 -14.020854891995327 0 -14.020854891995327 11.907149982646843 0 0 0 0 -2.2968744956106093 -9.615856832346708 0 -9.615856832346708 1.2381653943784841 0 0 0 0 0.4100564105920057 -1.8655033848476705 0 -1.8655033848476705 6.7793569889599894 0 0 0 0 -1.9034297992952816 -6.9886688142702269 0 -6.9886688142702269 -2.709724064873626 0 0 0 0 -17.656236739127053 -43.439995735859156 0 -43.439995735859156 -7.0192368759871897 0 0 0 0 10.276798627326798 28.070526601714391 0 28.070526601714391 -50.620456193465543 0 0 0 0 -11.691267293284909 -6.8309277749108333 0 -6.8309277749108333 -2.6634385345520286 0 0 0 0 -3.3433167279604596 -1.589398633103607 0 -1.589398633103607 -1.3148166868932831 0 0 0 0 -19.879308431409299 -5.9004631772997982 0 -5.9004631772997982 3.0570039688423094 0 0 0 0 -22.732313857774898 -0.94597394268862445 0 -0.94597394268862445 2.8642751245915861 0 0 0 0 -5.1687475105354679 -33.415961482801322 0 -33.415961482801322 -29.902606386643129 0 0 0 0 -11.845648521673866 -3.3484908100035682 0 -3.3484908100035682 1.2511073492573814 0 0 0 0 -13.813480320519375 -8.1874795470367872 0 -8.1874795470367872 -1.1677373363754668 0 0 0 0 -15.947415263050061 -1.7296469947559672 0 -1.7296469947559672 -8.223875758021677 0 0 0 0 -17.178151492742472 -20.896211021216459 0 -20.896211021216459 -0.55907216225523371 0 0 0 0 -3.1652668374682946 -6.8556772608228691 0 -6.8556772608228691 1.0986350192048731 0 0 0 0 -47.589182092167903 2.6780207248020815 0 2.6780207248020815 -5.6194618608492419 0 0 0 0 -2.3119900223773584 -9.6721598497269952 0 -9.6721598497269952 0.41632177019573646 0 0 0 0 -0.39947724327430478 -10.364493341677644 0 -10.364493341677644 -0.51487488624252364 0 0 0 0 -1.2737836186679488 -1.8565751438604821 0 -1.8565751438604821 -29.629425120901033 0 0 0 0 -3.5378173141934894 -8.7750453173043752 0 -8.7750453173043752 -0.11586237973824609 0 0 0 0 4.8561271736791198 -4.2233526332675959 0 -4.2233526332675959 1.5325416658308093 0 0 0 0 -3.7711935189945507 -10.134938396780399 0 -10.134938396780399 -7.7793700327420083 0 0 0 0 -1.8808704654064634 -5.4401315065948186 0 -5.4401315065948186 3.2153121011009129 0 0 0 0 -4.066909897285143 -18.041389582081791 0 -18.041389582081791 -6.5821966762277953 0 0 0 0 -3.6856768629913859 -15.348266911743394 0 -15.348266911743394 -4.5793693384703147 0 0 0 0 -1.4640734711965706 -16.570157362672944 0 -16.570157362672944 -9.4215051430373933 0 0 0 0 1.2956684113807473 -1.7733257709066392 0 -1.7733257709066392 -4.1726329416725418 0 0 0 0 34.325232358671656 -5.8617805402850536 0 -5.8617805402850536 10.657219069387793 0 0 0 0 31.869195439940086 -24.908861576331674 0 -24.908861576331674 -15.047298740606493 0 0 0 0 2.253327924550188 -10.532458344428653 0 -10.532458344428653 1.5453879920377025 0 0 0 0 -1.6463575164652866 24.418119990948298 0 24.418119990948298 40.700520068980495 0 0 0 0 -29.062059232219326 -2.3349242135745953 0 -2.3349242135745953 19.65937114846156 0 0 0 0 5.3179724567598896 -39.837728107577277 0 -39.837728107577277 -70.007842538324894 0 0 0 0 -5.6525692803334096 -3.9024307875180284 0 -3.9024307875180284 27.893963174021337 0 0 0 0 -0.20883643866341828 0.59209340420088274 0 0.59209340420088274 -0.11911407108759775 0 0 0 0 -28.005992586125785 -56.45303577852161 0 -56.45303577852161 -9.3186462224921343 0 0 0 0 -23.49635549809409 -34.112974618080898 0 -34.112974618080898 22.212756740706027 0 0 0 0 -22.080627615172489 -20.418882439313393 0 -20.418882439313393 20.639551193349234 0 0 0 0 -26.407614160259982 -24.22814482477952 0 -24.22814482477952 17.66564252453918 0 0 0 0 -24.246256039030413 -14.359528524193138 0 -14.359528524193138 4.4636256542557931 0 0 0 0 -20.753585838245272 -30.795829722444751 0 -30.795829722444751 -1.8043018024422963 0 0 0 0 -6.9217910162897169 -19.643397778343115 0 -19.643397778343115 5.7823091765003483 0 0 0 0 -3.6590320793315563 -7.7880087279658206 0 -7.7880087279658206 -2.744856315726496 0 0 0 0 -0.4117431027583649 -0.60989666455388658 0 -0.60989666455388658 0.056473292155899912 0 0 0 0 50.298878037039685 -42.764180540722919 0 -42.764180540722919 -61.59064120241419 0 0 0 0 -1.3032518966228963 -21.11833002940989 0 -21.11833002940989 -1.5703275077971739 0 0 0 0 -29.291851883521304 -4.97395913093942 0 -4.97395913093942 8.2389449902111664 0 0 0 0 51.985760117793689 -8.3599169543831522 0 -8.3599169543831522 50.257957932977661 0 0 0 0 2.1665818648944182 -1.0382172617454124 0 -1.0382172617454124 -0.98594786424880354 0 0 0 0 67.967007714083593 -29.657349232826618 0 -29.657349232826618 -20.992065390601056 0 0 0 0 -4.942145661850903 -7.5746006753658399 0 -7.5746006753658399 -1.722169940030188 0 0 0 0 -18.95884826449219 -11.516820055110657 0 -11.516820055110657 5.9398261113415174 0 0 0 0 7.8722616226641549 -21.24862012381891 0 -21.24862012381891 5.1362441531696277 0 0 0 0 16.106255089540355 -10.293000780430702 0 -10.293000780430702 6.9170628970987309 0 0 0 0 -4.6537731509116442 -10.490699266075362 0 -10.490699266075362 0.86671260064529854 0 0 0 0 -58.36449535884276 -8.9432869854883847 0 -8.9432869854883847 -7.1872039144379869 0 0 0 0 -3.1855800861039825 -8.4812280830537929 0 -8.4812280830537929 2.2311678276228122 0 0 0 0 -64.912435605702285 8.0067793100957942 0 8.0067793100957942 5.8547905228078889 0 0 0 0 10.152088549831205 -25.969474131108996 0 -25.969474131108996 1.6905784310329182 0 0 0 0 0.19788509673417609 -0.69518520180990073 0 -0.69518520180990073 -0.62738223281257355 0 0 0 0 -64.397461301607109 -3.2386775673608099 0 -3.2386775673608099 -4.6537995776493517 0 0 0 0 -26.468083446960804 -41.089704270126333 0 -41.089704270126333 18.949495017489426 0 0 0 0 13.647455524464021 26.816642104359744 0 26.816642104359744 -57.012811373865134 0 0 0 0 5.7263696366699151 -14.227350425256873 0 -14.227350425256873 0.2169408585484689 0 0 0 0 -3.4106434123989184 -1.0214109741960673 0 -1.0214109741960673 -1.292935975354359 0 0 0 0 18.97985842299704 -5.0659632544692954 0 -5.0659632544692954 6.4350648442464262 0 0 0 0 -2.954612905153807 -10.483527331849171 0 -10.483527331849171 0.43949002218635336 0 0 0 0 -8.8483094168846073 -13.408657621039213 0 -13.408657621039213 -1.3502448933237723 0 0 0 0 -6.3802103262820538 -19.776396062368036 0 -19.776396062368036 -18.892973846312088 0 0 0 0 -29.09492384580517 -11.996665263544855 0 -11.996665263544855 -2.190438109661045 0 0 0 0 8.5169379674335914 -11.76140650804895 0 -11.76140650804895 -3.3473577907416256 0 0 0 0 -27.490081886826374 -5.4749625701697369 0 -5.4749625701697369 6.9112892862713124 0 0 0 0 -3.2944232009565795 -9.2886197868848459 0 -9.2886197868848459 0.36386081304775342 0 0 0 0 -6.6776919273615931 -5.3382752185607387 0 -5.3382752185607387 1.4951312682242133 0 0 0 0 -2.4283203434075791 -8.4000447780145198 0 -8.4000447780145198 -4.3750853695312166 0 0 0 0 -7.1903977306286526 -7.8753697548501886 0 -7.8753697548501886 -2.8410589819518712 0 0 0 0 -13.515949873218091 -13.009280005590888 0 -13.009280005590888 1.2060826796456832 0 0 0 0 -1.3561839973105947 -3.2353094734182921 0 -3.2353094734182921 -0.022031005244789625 0 0 0 0 10.472303993487259 -5.9420060990987897 0 -5.9420060990987897 -0.38276130547651555 0 0 0 0 9.1255173075624043 -9.3810293331553112 0 -9.3810293331553112 -2.3314293146522687 0 0 0 0 10.16085096149618 -15.800825645457735 0 -15.800825645457735 -15.512633587681194 0 0 0 0 21.507124345163902 -31.698989078239265 0 -31.698989078239265 0.013191255602578167 0 0 0 0 -0.28745202089424993 -3.5951692556732233 0 -3.5951692556732233 -1.2016623451025525 0 0 0 0 -9.1037455524492543 -3.7340673246071674 0 -3.7340673246071674 -1.0334461887432553 0 0 0 0 1.3275192047876772 -1.9974971713381819 0 -1.9974971713381819 -2.929861129305209 0 0 0 0 -0.26951989628833672 -5.9266951743718543 0 -5.9266951743718543 1.3497103515025906 0 0 0 0 0.44695672145984133 -2.4208101958913808 0 -2.4208101958913808 -0.33325379938830357 0 0 0 0 17.212784960975114 -15.504700254147792 0 -15.504700254147792 -10.738094026799899 0 0 0 0 2.9939108760081581 -14.062407330078599 0 -14.062407330078599 0.63774222926349466 0 0 0 0 -2.0194114150039368 -8.8701997834230681 0 -8.8701997834230681 -2.9094841687762258 0 0 0 0 -6.0684000907276641 -24.226049913679162 0 -24.226049913679162 -3.2379126594123591 0 0 0 0 -2.5470139530025335 -23.765949713503005 0 -23.765949713503005 -11.83889893470041 0 0 0 0 -0.065160388929143664 -19.38660590365248 0 -19.38660590365248 -24.629119685550904 0 0 0 0 -1.0502699895550904 -17.770973153607883 0 -17.770973153607883 -8.7593322981733763 0 0 0 0 3.1501355681775749 -14.563234128626391 0 -14.563234128626391 -31.09291391534498 0 0 0 0 0.54812326287820667 0.15519169542509248 0 0.15519169542509248 -1.5751470703623109 0 0 0 0 0.97742455150954299 -1.2736374073668912 0 -1.2736374073668912 1.5901158092885783 0 0 0 0 9.2048609203964133 -10.691870860957394 0 -10.691870860957394 -23.873380560760779 0 0 0 0 -0.43261421555871493 -5.7277166537069206 0 -5.7277166537069206 8.1772356936744472 0 0 0 0 4.1656595877866494 -8.0887700111161394 0 -8.0887700111161394 -1.5322913064039767 0 0 0 0 2.5453900056395184 -3.5301038178171931 0 -3.5301038178171931 -1.5142244893516645 0 0 0 0 -4.0697482075593143 -21.863138671300931 0 -21.863138671300931 -26.035063405277469 0 0 0 0 33.430950387155463 -41.287412817526274 0 -41.287412817526274 42.482340916589465 0 0 0 0 2.3894021505411658 -2.5661223336776171 0 -2.5661223336776171 -0.11843755048758897 0 0 0 0 -3.9404736807136942 -20.627999911360575 0 -20.627999911360575 -30.208184416426775 0 0 0 0 -6.353236173397363 -35.122734414965237 0 -35.122734414965237 -37.788596056176175 0 0 0 0 -5.7141495721480169 -31.134682396116659 0 -31.134682396116659 -14.201544064710106 0 0 0 0 31.637667920910189 -68.517193179776768 0 -68.517193179776768 44.182767680493271 0 0 0 0 30.377897024183767 -81.226452291813985 0 -81.226452291813985 65.567987044085385 0 0 0 0 30.449100763467868 -75.21823741206299 0 -75.21823741206299 36.598273581234935 0 0 0 0 20.286947946582586 -63.617473149488205 0 -63.617473149488205 71.664033864759404 0 0 0 0 22.464781744388347 -57.767975999546252 0 -57.767975999546252 87.02180547577882 0 0 0 0 3.6540391233702394 -22.121059644752677 0 -22.121059644752677 88.058041025224156 0 0 0 0 34.556516721593653 -38.453964533888666 0 -38.453964533888666 93.312614171519272 0 0 0 0 22.239982005423371 -58.150612608702431 0 -58.150612608702431 80.52120839429881 0 0 0 0 1.976379721887497 -28.875377307019335 0 -28.875377307019335 114.05076698477205 0 0 0 0 2.318099343196991 -15.601591683845186 0 -15.601591683845186 56.550634545979847 0 0 0 0 -8.0314645712678612 -23.804397152543061 0 -23.804397152543061 72.370478338743851 0 0 0 0 16.032751593238572 -46.89670056752675 0 -46.89670056752675 61.761640979995718 0 0 0 0 10.656440323631614 -50.703771116172902 0 -50.703771116172902 63.918935497502389 0 0 0 0 21.585201140667778 -64.785111592294015 0 -64.785111592294015 54.860019876545039 0 0 0 0 26.074359866721352 -58.362838883405857 0 -58.362838883405857 55.095238487921961 0 0 0 0 19.895004724825412 -57.258272809166556 0 -57.258272809166556 33.37908777645498 0 0 0 0 15.334340316266207 -48.577083316169819 0 -48.577083316169819 26.531114808110942 0 0 0 0 19.924052529117034 -50.954189134308763 0 -50.954189134308763 27.346842839735473 0 0 0 0 17.104501454006822 -54.525513919978039 0 -54.525513919978039 45.197475199938708 0 0 0 0 5.5237519512229483 -40.986576947778303 0 -40.986576947778303 45.577899652722778 0 0 0 0 10.019363887735381 -27.216638577425329 0 -27.216638577425329 20.447944887929339 0 0 0 0 -7.1649110565026533 -5.5044879875389157 0 -5.5044879875389157 -2.5021611403527544 0 0 0 0 4.597732910733157 -23.779338181263995 0 -23.779338181263995 38.79069876954236 0 0 0 0 12.328731045290624 -39.987115811240528 0 -39.987115811240528 33.55547056688556 0 0 0 0 4.301302778047102 -27.421933474282014 0 -27.421933474282014 50.691561338475367 0 0 0 0 31.189412387750053 -24.176104943289829 0 -24.176104943289829 5.1454133798833936 0 0 0 0 16.235679923712723 -1.0270453481656432 0 -1.0270453481656432 23.250681782010361 0 0 0 0 1.5467863023554287 -1.1536236576394465 0 -1.1536236576394465 -0.17384585948572351 0 0 0 0 -27.131309497881375 1.9901139472740397 0 1.9901139472740397 20.398058763180643 0 0 0 0 -2.5574949691296083 -0.23035755288044513 0 -0.23035755288044513 0.066221873477054771 0 0 0 0 90.917391150807816 73.722342200007006 0 73.722342200007006 80.75814574425749 0 0 0 0 8.6948571001112214 -50.867732979657148 0 -50.867732979657148 -22.3261229862037 0 0 0 0 19.155891554815753 -12.740148513152235 0 -12.740148513152235 22.891101976005302 0 0 0 0 -76.57012636098807 -84.822148446670326 0 -84.822148446670326 -25.003856929038193 0 0 0 0 16.169329922059887 -41.022227879429693 0 -41.022227879429693 21.542071444102476 0 0 0 0 -7.4317079098979946 -8.9066924005770254 0 -8.9066924005770254 -3.9521654063677953 0 0 0 0 15.833935087983264 -42.031434878505934 0 -42.031434878505934 34.745270422258727 0 0 0 0 18.737717344294651 -47.718636237344072 0 -47.718636237344072 18.663951165872277 0 0 0 0 20.063113953990978 -41.369256393860269 0 -41.369256393860269 21.495061407681078 0 0 0 0 19.891484885129103 -46.996781165013999 0 -46.996781165013999 17.740774931276974 0 0 0 0 20.840412639812712 -47.353421265591351 0 -47.353421265591351 17.821750573279132 0 0 0 0 19.754705293731604 -48.225252937517325 0 -48.225252937517325 18.90815646608462 0 0 0 0 24.095325859288096 -53.357850968598541 0 -53.357850968598541 17.214919905341958 0 0 0 0 24.346471735101659 -52.145329189779659 0 -52.145329189779659 14.684505785102374 0 0 0 0 27.759144804138487 -51.996582538678922 0 -51.996582538678922 13.893714190367973 0 0 0 0 23.709756793739871 -45.065798162933788 0 -45.065798162933788 6.1722460436430993 0 0 0 0 36.143318452857784 -47.145751996815306 0 -47.145751996815306 6.3651894010740762 0 0 0 0 34.392531022729599 -50.724108267093015 0 -50.724108267093015 -0.94578209304381744 0 0 0 0 36.227068962685735 -54.996869556883212 0 -54.996869556883212 6.8810383101699699 0 0 0 0 27.981319668835567 -53.328528616222684 0 -53.328528616222684 7.6125545881550352 0 0 0 0 35.52157195721793 -58.564710471276612 0 -58.564710471276612 -4.9876109337947128 0 0 0 0 36.101188165202984 -62.658714427092491 0 -62.658714427092491 6.3142956007177418 0 0 0 0 31.975781775194264 -63.307674478374793 0 -63.307674478374793 6.2526180240383837 0 0 0 0 28.833285479140613 -60.369153940402612 0 -60.369153940402612 18.864014938724722 0 0 0 0 28.17107429711541 -57.449568201562215 0 -57.449568201562215 13.739462467243357 0 0 0 0 23.959420646187937 -56.184253486804664 0 -56.184253486804664 21.77367758022956 0 0 0 0 23.081761474732048 -62.711252092990435 0 -62.711252092990435 34.694400245487941 0 0 0 0 22.506800937573644 -58.62986647535854 0 -58.62986647535854 18.822441350457666 0 0 0 0 31.117051060904487 -68.787613058356328 0 -68.787613058356328 20.299377091958377 0 0 0 0 31.725563064747803 -68.193659311424881 0 -68.193659311424881 12.896879332123717 0 0 0 0 29.859276153192695 -72.151150332633733 0 -72.151150332633733 34.521698703212678 0 0 0 0 40.715885219753545 -64.016010484363505 0 -64.016010484363505 -9.1239574949649977 0 0 0 0 37.440484509892485 -64.52014648363911 0 -64.52014648363911 -9.0218328404444037 0 0 0 0 36.162197322286374 -71.898367301092549 0 -71.898367301092549 10.925998795017222 0 0 0 0 39.842217211098614 -70.781447314396246 0 -70.781447314396246 -10.533241657191411 0 0 0 0 39.779516802158469 -69.910397317245952 0 -69.910397317245952 -10.266381104146149 0 0 0 0 44.951918130125705 -74.923092109771915 0 -74.923092109771915 -31.74660181910258 0 0 0 0 35.726028548646703 -80.150138876656939 0 -80.150138876656939 8.1841207518464216 0 0 0 0 34.961317217974283 -72.093909360155521 0 -72.093909360155521 11.499988305073657 0 0 0 0 33.329498277251332 -80.827545907288822 0 -80.827545907288822 36.646644733460562 0 0 0 0 -5.3527322880900101 -14.566678208615485 0 -14.566678208615485 4.5557310836647957 0 0 0 0 -3.6096988012554903 -16.475286394875184 0 -16.475286394875184 -1.2905779622842601 0 0 0 0 -3.3679130340533447 -13.790854711986412 0 -13.790854711986412 -1.4453097827508827 0 0 0 0 -4.419678449001367 -9.853544656854865 0 -9.853544656854865 -4.7266888175132635 0 0 0 0 2.5967918311179297 -6.3516184440693007 0 -6.3516184440693007 4.7479775583921526 0 0 0 0 -8.9961525714379604 -12.949486889685886 0 -12.949486889685886 0.70253067585076678 0 0 0 0 -1.6253045350949833 -9.4673788092554787 0 -9.4673788092554787 -1.0470590361774157 0 0 0 0 -4.4474819433930275 -6.7111501745485995 0 -6.7111501745485995 1.6950693506673531 0 0 0 0 -50.957633369803034 0.61888456605964848 0 0.61888456605964848 15.290946924724267 0 0 0 0 0.35663543286784716 -13.229586195722391 0 -13.229586195722391 1.1922291358287112 0 0 0 0 -13.535144210901308 -39.260748773564046 0 -39.260748773564046 -10.044834061967777 0 0 0 0 -1.6017791110669339 -8.2326652114500547 0 -8.2326652114500547 2.4176351108886358 0 0 0 0 35.187452387246594 -2.9667260775440809 0 -2.9667260775440809 16.746476019954571 0 0 0 0 -4.0012507994751001 -9.6180154127069528 0 -9.6180154127069528 2.742062926370668 0 0 0 0 -0.87547208842261171 -7.5695774529958726 0 -7.5695774529958726 2.3078735069793765 0 0 0 0 -15.548457616063626 -17.182561334188115 0 -17.182561334188115 3.7243558011946263 0 0 0 0 -4.0699767601278865 -17.820307267216457 0 -17.820307267216457 4.8398567909023456 0 0 0 0 -32.355387214651273 -9.2070905489454162 0 -9.2070905489454162 4.1955989292109734 0 0 0 0 -7.4480040466964326 -2.090552214110291 0 -2.090552214110291 2.7988080282424868 0 0 0 0 -5.7110456874797819 -19.781509342471509 0 -19.781509342471509 1.2767623412264584 0 0 0 0 0.79323223967214673 -4.9312257126243857 0 -4.9312257126243857 -1.7091052772117905 0 0 0 0 29.154264162159052 -15.905747784614505 0 -15.905747784614505 -1.3610196923646072 0 0 0 0 2.7765481883961911 -19.789000248335014 0 -19.789000248335014 4.1510456882067501 0 0 0 0 17.989053936032178 -38.502923029938074 0 -38.502923029938074 11.256893791200127 0 0 0 0 -9.5262368020797155 -16.178374423525106 0 -16.178374423525106 3.181565275293444 0 0 0 0 21.766251963483228 -44.5467632710006 0 -44.5467632710006 14.377875770670471 0 0 0 0 11.062237543083029 -37.823533223472623 0 -37.823533223472623 10.296273785636004 0 0 0 0 32.595356231688129 -36.606941498117521 0 -36.606941498117521 6.8109505042993987 0 0 0 0 8.5084582324179792 -15.125546135721834 0 -15.125546135721834 13.471232255433279 0 0 0 0 -6.7153988325726459 -10.972461697928793 0 -10.972461697928793 11.327830481963247 0 0 0 0 12.208168313854003 1.2497434411216091 0 1.2497434411216091 -7.9598501805112392 0 0 0 0 -2.339983135044605 -1.305602914978202 0 -1.305602914978202 -1.2285693768619304 0 0 0 0 -3.6764872419835228 -11.375521175610629 0 -11.375521175610629 5.1429492071108598 0 0 0 0 0.20985238016601215 -6.9792335332580819 0 -6.9792335332580819 10.115630187801798 0 0 0 0 -9.4694816304186133 -11.157019151239638 0 -11.157019151239638 11.923834931739293 0 0 0 0 -6.7245916428959127 -9.8074743172565526 0 -9.8074743172565526 12.571214373442672 0 0 0 0 25.624297040021247 -39.121230920372682 0 -39.121230920372682 -6.2757894354699602 0 0 0 0 -7.5205624029685403 -9.8072038562073161 0 -9.8072038562073161 -7.2280391039184835 0 0 0 0 -16.227786492902169 -20.33492102995865 0 -20.33492102995865 9.2787116128192793 0 0 0 0 5.1981501739965097 -23.171020056041016 0 -23.171020056041016 8.0489367793825295 0 0 0 0 -7.5162513220579417 -9.6661898628608345 0 -9.6661898628608345 -7.4606562159369751 0 0 0 0 -1.90825696113383 -12.980213408135512 0 -12.980213408135512 -5.5333669630226723 0 0 0 0 -1.8907112754636444 -13.130071555671407 0 -13.130071555671407 -4.9852610129219102 0 0 0 0 -2.2772985505980614 -12.398694101384081 0 -12.398694101384081 -5.0971545863185383 0 0 0 0 -2.2868928849434269 -12.520634336794501 0 -12.520634336794501 -4.56036605737836 0 0 0 0 9.4811896356304715 -24.569604298322247 0 -24.569604298322247 1.3942487889685395 0 0 0 0 -9.3773768618127136 -8.7511142078858928 0 -8.7511142078858928 -6.5037096015417255 0 0 0 0 10.646147567880234 -23.627399752687438 0 -23.627399752687438 -5.320905054720015 0 0 0 0 -10.082840121795865 -9.3809216571485461 0 -9.3809216571485461 -7.1244733024161668 0 0 0 0 -4.6174906464245851 -11.439624333638221 0 -11.439624333638221 -6.681830786390492 0 0 0 0 -4.629743793360376 -11.591722194756585 0 -11.591722194756585 -5.0404268941674673 0 0 0 0 1.9483479631510363 -29.403772486985076 0 -29.403772486985076 1.5260154093796245 0 0 0 0 -9.5977486406004608 -10.271781724206422 0 -10.271781724206422 -7.89995933871867 0 0 0 0 -8.2387993844336052 -11.217938264109307 0 -11.217938264109307 -5.5698773951889962 0 0 0 0 -8.2143844728766737 -11.190732510569944 0 -11.190732510569944 -7.4186389518099531 0 0 0 0 -1.5814884101134794 -12.851337515493015 0 -12.851337515493015 -7.5695628535513606 0 0 0 0 -2.8264458559793866 -10.013591653353842 0 -10.013591653353842 -7.7292590524048137 0 0 0 0 0.63049596771938021 -5.2843410677511624 0 -5.2843410677511624 -2.2917599678799974 0 0 0 0 -13.345902715051125 -16.074367803613768 0 -16.074367803613768 -8.0444763897020266 0 0 0 0 -9.8020434153982023 -10.974009279270376 0 -10.974009279270376 -4.8876073568662832 0 0 0 0 -14.296802725707494 -10.372792325307501 0 -10.372792325307501 -9.9032104048105793 0 0 0 0 -18.165003969390852 -19.027563820123305 0 -19.027563820123305 -11.006570944159648 0 0 0 0 -4.4224305540804627 -7.5778043825164243 0 -7.5778043825164243 -7.9277318117362103 0 0 0 0 -9.0916911777330824 -8.4431459082809397 0 -8.4431459082809397 -8.3515005448368527 0 0 0 0 -12.585172455500469 -15.617279932839665 0 -15.617279932839665 1.0274245372288533 0 0 0 0 -1.6746369466965634 -1.5318469809233424 0 -1.5318469809233424 -0.63143702274057745 0 0 0 0 -13.014605090940677 -16.63270124638143 0 -16.63270124638143 7.4913422182448812 0 0 0 0 -3.2361620740002648 -2.3761489328250009 0 -2.3761489328250009 -1.6489480550804174 0 0 0 0 -5.7059337502837479 -1.6471197512921663 0 -1.6471197512921663 -5.1009503642603704 0 0 0 0 -10.79293917724226 -4.1738037120799163 0 -4.1738037120799163 -6.01787486533226 0 0 0 0 -6.8540166994325773 -4.7472853813112579 0 -4.7472853813112579 -8.3745098567846981 0 0 0 0 -8.8777578751285375 -5.6098780347993511 0 -5.6098780347993511 -6.0175631896399864 0 0 0 0 -8.9933905047187181 -5.6608288302077199 0 -5.6608288302077199 -5.9813906559934367 0 0 0 0 -7.2403005693925024 0.76975628903301185 0 0.76975628903301185 -1.493610649848506 0 0 0 0 -2.6199272250701142 -1.4684269690019391 0 -1.4684269690019391 -6.3758907090247874 0 0 0 0 -15.292350120455708 -5.9220078588921936 0 -5.9220078588921936 -0.053179875453679415 0 0 0 0 -0.090957118621183497 0.12471857664520414 0 0.12471857664520414 0.62644653802423278 0 0 0 0 -14.991766360912152 -11.960641124597714 0 -11.960641124597714 -7.2761742817401114 0 0 0 0 -6.0093009408606122 13.040935365402902 0 13.040935365402902 24.884479748587182 0 0 0 0 -20.649994446421715 -8.7308355932702852 0 -8.7308355932702852 20.293372453791449 0 0 0 0 -32.246972447402186 5.4737790493309149 0 5.4737790493309149 31.009632481733888 0 0 0 0 -0.10890129511976454 -0.023611543592707562 0 -0.023611543592707562 0.082629023116721712 0 0 0 0 -31.245100454095791 -24.290773213775083 0 -24.290773213775083 -8.9974212743009048 0 0 0 0 -18.275735339937455 -15.807827217536101 0 -15.807827217536101 18.698102404881411 0 0 0 0 -18.260703279463087 -17.936999528212255 0 -17.936999528212255 7.2146838622817882 0 0 0 0 -17.941594399164387 -9.2712323161190398 0 -9.2712323161190398 0.7687593234013832 0 0 0 0 -28.596782708381255 -17.863841968981944 0 -17.863841968981944 18.67795174021694 0 0 0 0 -64.345355033191481 -19.645005227065894 0 -19.645005227065894 24.008006313828105 0 0 0 0 -23.68707938475427 -53.53809877818253 0 -53.53809877818253 -11.292223277134326 0 0 0 0 -36.482283512434833 4.8194257629080539 0 4.8194257629080539 9.3825063912922815 0 0 0 0 -77.051747592711308 -55.45401775985215 0 -55.45401775985215 2.3015007148910627 0 0 0 0 -93.972265819288168 -32.578248074899989 0 -32.578248074899989 32.650183820596567 0 0 0 0 46.544203873201695 -39.226915466545393 0 -39.226915466545393 -14.621614800419366 0 0 0 0 -0.3721762890833622 -0.47746891016896909 0 -0.47746891016896909 -0.40374386476240609 0 0 0 0 -11.03932156298265 4.6071415303820231 0 4.6071415303820231 29.793307541740319 0 0 0 0 11.303425275741461 41.629483468556941 0 41.629483468556941 46.506145252679289 0 0 0 0 -43.479069095314571 -14.314813113703792 0 -14.314813113703792 32.125983400071846 0 0 0 0 -44.781039813188499 -12.922307216400213 0 -12.922307216400213 36.007636934645234 0 0 0 0 -68.467809308361495 2.5283471161735314 0 2.5283471161735314 36.288333921427693 0 0 0 0 -68.129171886142913 -32.610005463440338 0 -32.610005463440338 22.286283704866946 0 0 0 0 -135.14966430606819 -7.0342531396109962 0 -7.0342531396109962 14.545715159064457 0 0 0 0 5.9885119728578502 -8.2351835016123687 0 -8.2351835016123687 -8.7991902232986376 0 0 0 0 -13.214482130457782 -18.38116798384749 0 -18.38116798384749 27.590345028261197 0 0 0 0 -100.39203401172199 -81.931540297561185 0 -81.931540297561185 -1.6906683674906162 0 0 0 0 30.304018489827058 -34.41600930521281 0 -34.41600930521281 20.509957339184439 0 0 0 0 35.664919531952137 -57.67421690422924 0 -57.67421690422924 -7.2646918305533745 0 0 0 0 -0.63898506916895492 -0.98664306174706073 0 -0.98664306174706073 -1.0238071334054535 0 0 0 0 22.754847781961644 -16.535002551283242 0 -16.535002551283242 11.187511491808891 0 0 0 0 8.2248918177210726 -19.015936043644842 0 -19.015936043644842 18.936381122651255 0 0 0 0 7.2880281327516059 -15.086420969151504 0 -15.086420969151504 13.89439248905569 0 0 0 0 -2.4672431017420422 -20.660860498896739 0 -20.660860498896739 12.7915128662803 0 0 0 0 -7.1800227974558766 -6.0937515020443698 0 -6.0937515020443698 9.3641491937420938 0 0 0 0 -9.7408341417443332 -7.3842307877399511 0 -7.3842307877399511 -0.54496252079415441 0 0 0 0 3.3768620947898853 -20.676434616345659 0 -20.676434616345659 20.526418953380926 0 0 0 0 -0.66608359545141127 -1.681121906639838 0 -1.681121906639838 -0.88051087140825368 0 0 0 0 9.0594132114222248 -12.403407316356493 0 -12.403407316356493 -14.271231545079218 0 0 0 0 -1.3573166129135643 -17.750314807494533 0 -17.750314807494533 3.5229640845718677 0 0 0 0 -1.1386884823946124 -11.019553162772716 0 -11.019553162772716 -1.7010399322056529 0 0 0 0 -1.662362735480464 -16.85148458587804 0 -16.85148458587804 0.058598695602086082 0 0 0 0 -1.2087171271523403 -17.844984559956629 0 -17.844984559956629 -4.508404533537032 0 0 0 0 -6.7041792152194599 -11.114842006586477 0 -11.114842006586477 -6.2526586114616514 0 0 0 0 -9.2292719702402692 -8.2702692853705386 0 -8.2702692853705386 -5.2644279569336305 0 0 0 0 -1.4865267349126867 -14.222762930914286 0 -14.222762930914286 -2.4332045932133042 0 0 0 0 16.119273448672175 -20.445763028115607 0 -20.445763028115607 -6.3762860366292671 0 0 0 0 21.078892056284303 -12.320290982940492 0 -12.320290982940492 6.6796757854563111 0 0 0 0 -9.2361091418315482 -61.86623007198807 0 -61.86623007198807 10.121675005129077 0 0 0 0 -4.453522761052227 -43.96508011069875 0 -43.96508011069875 23.658759387453301 0 0 0 0 -0.0089436818980175303 -48.870384081530688 0 -48.870384081530688 10.197125680839008 0 0 0 0 -6.8462458773174149 -49.478151132636185 0 -49.478151132636185 18.083556926876554 0 0 0 0 0.82207936590020836 -43.974890136916201 0 -43.974890136916201 18.232504180597189 0 0 0 0 -3.4370292031853751 -43.443814876286979 0 -43.443814876286979 21.071854469355827 0 0 0 0 6.34714513502513 -35.400116354246848 0 -35.400116354246848 21.786936633028944 0 0 0 0 -0.5671665401763768 -0.8300996956764024 0 -0.8300996956764024 -0.772453606547856 0 0 0 0 56.280581075951432 -71.236334075776355 0 -71.236334075776355 10.37894238035733 0 0 0 0 54.953805227163684 -26.170044083218727 0 -26.170044083218727 13.039858764886048 0 0 0 0 18.644641114137812 -6.9172349729713574 0 -6.9172349729713574 1.6748580798616786 0 0 0 0 -0.49299868625427834 -0.44468099669593997 0 -0.44468099669593997 -0.089414178935315114 0 0 0 0 9.983994762022121 -22.046747901650178 0 -22.046747901650178 41.775979961947542 0 0 0 0 -13.163651475419101 -47.096550640092801 0 -47.096550640092801 35.854702886517259 0 0 0 0 18.406606392090907 -4.9363103368862085 0 -4.9363103368862085 -14.469042274652111 0 0 0 0 15.119615075462207 -32.235205479115621 0 -32.235205479115621 -37.363948878175734 0 0 0 0 19.677984620620009 -17.523612790010247 0 -17.523612790010247 9.8802403767535907 0 0 0 0 12.335883203124467 -26.026520314031586 0 -26.026520314031586 7.9748353424481593 0 0 0 0 -1.4796022169752803 -1.777125482480276 0 -1.777125482480276 -0.49236887646616978 0 0 0 0 17.642326818841866 -38.671695099770574 0 -38.671695099770574 -9.2892183148624099 0 0 0 0 -32.881287352853178 -31.907106508460402 0 -31.907106508460402 32.257446773874562 0 0 0 0 -40.281250854089649 -22.369443048046918 0 -22.369443048046918 5.5008382551980048 0 0 0 0 -26.037536935458775 -56.44970175306662 0 -56.44970175306662 -15.855571511377093 0 0 0 0 -21.429533444974368 -35.753586764790725 0 -35.753586764790725 11.744527707748716 0 0 0 0 -17.619572684716331 -43.142512029084401 0 -43.142512029084401 25.854494870141707 0 0 0 0 -2.7666056890302571 -46.204035999897428 0 -46.204035999897428 -16.767978761714858 0 0 0 0 -2.2938627171179178 -52.081263367582856 0 -52.081263367582856 7.8562108229602927 0 0 0 0 0.017354597503072 -50.02328518904153 0 -50.02328518904153 4.6684227598973393 0 0 0 0 -13.674248057219302 -42.334575565567775 0 -42.334575565567775 25.800787587047154 0 0 0 0 -46.654986597370225 -52.345027536247187 0 -52.345027536247187 105.69448108276367 0 0 0 0 -9.1411103248101426 -121.5059053843936 0 -121.5059053843936 122.07883463695566 0 0 0 0 -0.037936362061373075 -63.653537587230971 0 -63.653537587230971 54.683341301698874 0 0 0 0 -15.723821351763036 -75.463722201015003 0 -75.463722201015003 47.956391531638758 0 0 0 0 -0.0030815705213171896 -71.273939927505268 0 -71.273939927505268 37.703612916919326 0 0 0 0 24.389399098599824 -104.25075154994448 0 -104.25075154994448 18.590305808543349 0 0 0 0 -11.173125551168141 -99.939822900704002 0 -99.939822900704002 82.86507410032732 0 0 0 0 13.947260928439391 -77.380920031867817 0 -77.380920031867817 1.410097425539675 0 0 0 0 16.552981109479788 -84.024565673964872 0 -84.024565673964872 13.569693874167697 0 0 0 0 72.270484617511102 -73.69869416585999 0 -73.69869416585999 -26.529923275371573 0 0 0 0 27.852500256956773 -54.338440721494209 0 -54.338440721494209 -32.998061323879938 0 0 0 0 36.465393835895156 -30.642561999108096 0 -30.642561999108096 -49.457497507748371 0 0 0 0 41.818142838939821 -71.062432127740863 0 -71.062432127740863 -17.093752340654998 0 0 0 0 32.93735929304146 -85.653208214612675 0 -85.653208214612675 -21.476342918163027 0 0 0 0 32.991892591613578 -98.568055294035389 0 -98.568055294035389 20.531990935860676 0 0 0 0 38.860758756669384 -141.4624767015124 0 -141.4624767015124 70.934630382838122 0 0 0 0 96.641216318017541 -121.2140693786655 0 -121.2140693786655 -3.9023865494263532 0 0 0 0 130.9032375445704 -58.889791066687224 0 -58.889791066687224 -55.127986791674061 0 0 0 0 282.26862239647016 -287.84767923675804 0 -287.84767923675804 45.912418449012421 0 0 0 0 208.83689110576597 -55.21087286464379 0 -55.21087286464379 -108.63974788166138 0 0 0 0 36.521791895862407 -156.37754439324613 0 -156.37754439324613 -24.158728023306708 0 0 0 0 -74.456408457961516 -7.7488907094137858 0 -7.7488907094137858 36.86250024101173 0 0 0 0 -0.61613656277127404 -0.68503729133042057 0 -0.68503729133042057 0.6425943161012313 0 0 0 0 293.04638774843988 -38.780934040397824 0 -38.780934040397824 459.77610841043952 0 0 0 0 190.5624435686841 -366.44001173834005 0 -366.44001173834005 267.50180820918695 0 0 0 0 137.23523868670236 -159.17508577685726 0 -159.17508577685726 5.0224331165386502 0 0 0 0 -19.053673772275943 -38.275731600919926 0 -38.275731600919926 257.22890145034319 0 0 0 0 96.985394434308546 -192.17307397646232 0 -192.17307397646232 186.42444857383032 0 0 0 0 0.75182304500140162 -24.948189286335605 0 -24.948189286335605 91.955203924546822 0 0 0 0 6.3744150742877537 -90.63722383881327 0 -90.63722383881327 142.17026522086906 0 0 0 0 7.649846044400455 -4.5047882219240458 0 -4.5047882219240458 2.3045780805882772 0 0 0 0 0.54366072913398966 -72.550539602343065 0 -72.550539602343065 39.706401139364175 0 0 0 0 -31.384339413640191 -103.68457786306499 0 -103.68457786306499 520.02163296377125 0 0 0 0 2.8810819490914312 -1.6820696726270334 0 -1.6820696726270334 1.0951019241922766 0 0 0 0 -36.758319153714183 -42.024142964556333 0 -42.024142964556333 -35.068856991188738 0 0 0 0 24.901219579023746 -0.77174906704010482 0 -0.77174906704010482 -69.404768586233274 0 0 0 0 -13.148002360756436 -63.625371432585155 0 -63.625371432585155 -82.307610435763536 0 0 0 0 -15.0439893157012 -27.957046572277449 0 -27.957046572277449 -28.547470555120697 0 0 0 0 -15.072972199614014 -42.126725478586451 0 -42.126725478586451 -30.927651605915951 0 0 0 0 10.031599820224073 -26.448022822519505 0 -26.448022822519505 -43.035088709144468 0 0 0 0 14.508213665750191 -29.847344438456055 0 -29.847344438456055 -32.446138329040735 0 0 0 0 22.537684091143092 -39.705360677476335 0 -39.705360677476335 -36.128522007527835 0 0 0 0 -5.0445258892923448 -37.480665674126257 0 -37.480665674126257 -35.432630933146413 0 0 0 0 -10.539435332990024 -43.010691252672444 0 -43.010691252672444 -40.78444400891027 0 0 0 0 -2.3855636595617398 -33.330255217880577 0 -33.330255217880577 -35.605856850506029 0 0 0 0 -12.191795137538065 -34.486946760637039 0 -34.486946760637039 -47.019947206865595 0 0 0 0 7.0791083001458901 -42.938333263122558 0 -42.938333263122558 -40.491033066959403 0 0 0 0 11.102068737605748 -6.1458041656798263 0 -6.1458041656798263 3.1399749589962842 0 0 0 0 78.064788595544087 -30.922384389607373 0 -30.922384389607373 -38.487558091481787 0 0 0 0 -7.1351259567504712 -16.319769518976095 0 -16.319769518976095 64.706373627331459 0 0 0 0 1.8420159738652728 -61.954271692927023 0 -61.954271692927023 97.484589928287733 0 0 0 0 61.935121439106297 -47.019780799705586 0 -47.019780799705586 66.395836184037194 0 0 0 0 63.195633779983837 -85.159011942908819 0 -85.159011942908819 102.6172373255672 0 0 0 0 61.287642264984243 -99.834023990427795 0 -99.834023990427795 139.72119097807354 0 0 0 0 65.463517132815468 -92.672084662963584 0 -92.672084662963584 101.17966854523274 0 0 0 0 40.566234562274985 -86.170945782094122 0 -86.170945782094122 149.91859364467678 0 0 0 0 42.382618601675858 -79.38095807464515 0 -79.38095807464515 109.1690844155969 0 0 0 0 56.231280058933407 -78.507446040272725 0 -78.507446040272725 98.420422059418343 0 0 0 0 27.385003054901972 -101.04728824888377 0 -101.04728824888377 100.78508544286797 0 0 0 0 21.309048487466043 -112.97611207192369 0 -112.97611207192369 115.32049312582831 0 0 0 0 22.128678292383483 -110.71402775509409 0 -110.71402775509409 115.05586012089384 0 0 0 0 102.56303369941088 -90.936927974937589 0 -90.936927974937589 20.869380135099448 0 0 0 0 170.83023223021883 -68.427577010829964 0 -68.427577010829964 16.617639504556337 0 0 0 0 102.35588861210272 -98.402517775887645 0 -98.402517775887645 97.361341423353679 0 0 0 0 -29.400102167859586 -77.573957231060604 0 -77.573957231060604 96.574365357297154 0 0 0 0 -117.79508958711813 -87.955414216994541 0 -87.955414216994541 60.450707047312392 0 0 0 0 111.1309697826 49.968205635660979 0 49.968205635660979 5.6013206894276664 0 0 0 0 29.726565947064955 -3.7002989370419073 0 -3.7002989370419073 -2.349892838488131 0 0 0 0 -1.1337370128891919 -0.58317774392887856 0 -0.58317774392887856 -0.11629177673840063 0 0 0 0 33.32931692013517 -6.1814296476829895 0 -6.1814296476829895 15.057318786788528 0 0 0 0 31.596482864491009 -100.76234815297204 0 -100.76234815297204 68.750230112739928 0 0 0 0 23.614478673212943 -7.5591231909146472 0 -7.5591231909146472 21.007670733748682 0 0 0 0 -2.4692374663754393 -2.9126095746971323 0 -2.9126095746971323 -1.8234573730716948 0 0 0 0 30.249420594222556 -6.985448069594753 0 -6.985448069594753 2.9970352548502888 0 0 0 0 55.618958671853761 -68.799904645282822 0 -68.799904645282822 21.070566427573794 0 0 0 0 34.110530708450824 -21.199243736335916 0 -21.199243736335916 10.401267386520772 0 0 0 0 35.911331030918518 -15.498971696918034 0 -15.498971696918034 -9.6611040351049269 0 0 0 0 19.427595019076762 -26.584018296434238 0 -26.584018296434238 17.682667956966924 0 0 0 0 9.2287834968665265 0.57474113064665744 0 0.57474113064665744 13.84388667693247 0 0 0 0 -2.8807222197989084 -3.3518612856259722 0 -3.3518612856259722 -2.2953919460487864 0 0 0 0 12.497702469536307 -11.585945901554965 0 -11.585945901554965 6.6359472315982657 0 0 0 0 -4.38159099634413 -5.8515250461679216 0 -5.8515250461679216 7.837656051359545 0 0 0 0 -0.6846668204634625 -11.524106709993475 0 -11.524106709993475 15.412236769306674 0 0 0 0 -3.9507583275061222 -1.2031756010115302 0 -1.2031756010115302 -0.12690539366759257 0 0 0 0 67.498042928719769 -97.689235481468188 0 -97.689235481468188 139.81252759911195 0 0 0 0 52.726312513727862 -113.10656339990175 0 -113.10656339990175 165.53602539300368 0 0 0 0 -1.5607438028619072 -22.222454190208964 0 -22.222454190208964 17.45042337845689 0 0 0 0 0.47802245405000576 -1.5785500228894307 0 -1.5785500228894307 9.8481730892528958 0 0 0 0 104.79462756850262 -153.62637226477636 0 -153.62637226477636 223.67699490334661 0 0 0 0 91.271900009636738 -125.96799286418104 0 -125.96799286418104 177.17997241731791 0 0 0 0 113.02731998463423 -156.43552546919454 0 -156.43552546919454 209.74609875701844 0 0 0 0 108.74669887299024 -125.35730204431911 0 -125.35730204431911 207.66119489767925 0 0 0 0 149.569125164875 -152.39985794336121 0 -152.39985794336121 182.14428303603654 0 0 0 0 117.20300868782533 -103.71156368948272 0 -103.71156368948272 151.61522625999714 0 0 0 0 125.69504330810742 -147.17267447683298 0 -147.17267447683298 172.71896295065744 0 0 0 0 97.788070133610745 -115.57008333635804 0 -115.57008333635804 155.29591905500024 0 0 0 0 93.069274328418032 -107.29792543357803 0 -107.29792543357803 152.83540902837376 0 0 0 0 109.13537973830717 -128.99719814237608 0 -128.99719814237608 116.29642048066489 0 0 0 0 76.796850558075676 -122.50192932280152 0 -122.50192932280152 135.66916325524903 0 0 0 0 106.26767138860396 -141.50347884224573 0 -141.50347884224573 141.87900561300739 0 0 0 0 72.734415407727283 -112.73600014017973 0 -112.73600014017973 150.83454215420761 0 0 0 0 73.175498692071415 -163.56316190750545 0 -163.56316190750545 240.72282858586183 0 0 0 0 63.592162384245967 -125.74913622882377 0 -125.74913622882377 237.13961224802443 0 0 0 0 82.537357418885222 -149.66174132733209 0 -149.66174132733209 224.803134925216 0 0 0 0 -5.8513475093527703 -2.7315703973199295 0 -2.7315703973199295 0.45170109442361595 0 0 0 0 -7.365355353034829 -9.4237892634749869 0 -9.4237892634749869 4.3115103644800001 0 0 0 0 113.87265401614604 -131.82351860080166 0 -131.82351860080166 248.65620864200719 0 0 0 0 99.863811061016349 -111.61360734400137 0 -111.61360734400137 318.52994917514297 0 0 0 0 109.32666666060322 -173.37205268255593 0 -173.37205268255593 271.68144161946748 0 0 0 0 2.3081271413529123 -0.66203436304545704 0 -0.66203436304545704 -0.11541032352778302 0 0 0 0 94.689632671968866 -256.6606094577071 0 -256.6606094577071 427.13842590154343 0 0 0 0 247.69574222474876 -256.94979661716206 0 -256.94979661716206 221.96228290702487 0 0 0 0 210.18973165292482 -100.5284634502982 0 -100.5284634502982 105.32941685889136 0 0 0 0 99.229959141899599 -105.28285269385196 0 -105.28285269385196 143.96769181589866 0 0 0 0 95.553345168966189 -36.014823419215951 0 -36.014823419215951 64.045915152846646 0 0 0 0 24.883320316541358 -23.204456736349584 0 -23.204456736349584 104.13980475390213 0 0 0 0 76.076964860960288 22.289647092839118 0 22.289647092839118 -18.604587679438282 0 0 0 0 123.18392272194978 -31.85184490864799 0 -31.85184490864799 68.766295134704023 0 0 0 0 112.0070848310861 -104.22875734611762 0 -104.22875734611762 197.5675110709301 0 0 0 0 126.30544761814235 -129.31728042815416 0 -129.31728042815416 148.06365387102733 0 0 0 0 67.863378458601801 -62.705651714993564 0 -62.705651714993564 112.6899072661422 0 0 0 0 112.44883907310214 -104.11358099201846 0 -104.11358099201846 92.575459697609858 0 0 0 0 69.606216635689634 -81.356296332410011 0 -81.356296332410011 39.487516347014207 0 0 0 0 72.397382312265108 -59.715453014570357 0 -59.715453014570357 74.304854930243437 0 0 0 0 51.221771525699296 -32.268124904069168 0 -32.268124904069168 18.901892909271737 0 0 0 0 67.591057609322888 -79.08241628446558 0 -79.08241628446558 64.814832018778361 0 0 0 0 30.942015945689491 -26.236977595597182 0 -26.236977595597182 13.448854256505911 0 0 0 0 -26.158957230784381 84.392005763888534 0 84.392005763888534 -28.291572171146299 0 0 0 0 41.209904978550185 -66.704568150843897 0 -66.704568150843897 -16.976122544670488 0 0 0 0 -0.52369393075173321 -1.5486146392851285 0 -1.5486146392851285 -1.1418398397105625 0 0 0 0 8.8205906091205293 -2.0995435627423014 0 -2.0995435627423014 -2.1547149865587016 0 0 0 0 8.7907866090919242 -3.487310333741128 0 -3.487310333741128 2.4757344711060796 0 0 0 0 5.8539708643311315 -4.1648733741192245 0 -4.1648733741192245 8.1462265475129243 0 0 0 0 9.6151728229597211 -5.7565879555672836 0 -5.7565879555672836 0.93022944662766349 0 0 0 0 73.41495511346875 14.261629849310566 0 14.261629849310566 -94.923935841570028 0 0 0 0 73.197311770214583 -41.594194807096756 0 -41.594194807096756 -84.379653910960769 0 0 0 0 -44.571390324163076 55.61421310606147 0 55.61421310606147 -105.84122632326148 0 0 0 0 1.6408770207411081 0.3621124483943241 0 0.3621124483943241 -0.71997193891358879 0 0 0 0 4.2223163132985064 0.28571530535555212 0 0.28571530535555212 -7.2369149640221622 0 0 0 0 11.300906887416204 -2.806317202656146 0 -2.806317202656146 -7.6053136101330097 0 0 0 0 25.153515034766315 -64.68194302661459 0 -64.68194302661459 62.246430463451361 0 0 0 0 70.88788348635353 -77.568083446642277 0 -77.568083446642277 18.046382454817831 0 0 0 0 70.982745695404446 -62.20493439069628 0 -62.20493439069628 50.968161562059322 0 0 0 0 87.691966776693789 -99.857650076821358 0 -99.857650076821358 26.111052470216237 0 0 0 0 91.789686380165222 -94.625014876890418 0 -94.625014876890418 101.79573860255459 0 0 0 0 89.003664322587611 -109.81677425646211 0 -109.81677425646211 80.854628290436267 0 0 0 0 91.303139986272072 -111.75846849600578 0 -111.75846849600578 82.909082292268977 0 0 0 0 74.451053069349655 -92.481700113527268 0 -92.481700113527268 96.068467941491576 0 0 0 0 101.47701771150241 -132.87418787179286 0 -132.87418787179286 104.9520456356554 0 0 0 0 82.847807399716658 -75.255342460994086 0 -75.255342460994086 54.943636832577795 0 0 0 0 80.875629931481853 -62.041990063243986 0 -62.041990063243986 64.143977586463279 0 0 0 0 76.537302346948309 -74.276784316225985 0 -74.276784316225985 34.621377001538804 0 0 0 0 5.9396262794798531 12.221944125331675 0 12.221944125331675 10.766355737300501 0 0 0 0 0.8363848269875902 0.032219758605833704 0 0.032219758605833704 -0.035686139140478357 0 0 0 0 -0.47958011366063147 2.0735221304522611 0 2.0735221304522611 -1.7849117668602048 0 0 0 0 10.805299536135863 9.6273187031328007 0 9.6273187031328007 -0.45741432648992486 0 0 0 0 15.953295818380866 9.8655869331805661 0 9.8655869331805661 -17.323311328492082 0 0 0 0 31.297047125593963 25.682243280281682 0 25.682243280281682 -1.155293987482537 0 0 0 0 42.732807760984542 4.8744277585651616 0 4.8744277585651616 -42.416029649020857 0 0 0 0 20.513076520619506 6.8680088237415475 0 6.8680088237415475 -16.491236387816343 0 0 0 0 12.474814023571525 -4.4230423730120947 0 -4.4230423730120947 -29.769654767133488 0 0 0 0 1.4455283899666398 -1.8387030534580386 0 -1.8387030534580386 1.2172824521155363 0 0 0 0 27.828904022228016 -9.395824355162631 0 -9.395824355162631 -47.011198508758412 0 0 0 0 -9.1051288201579155 -26.567478595074697 0 -26.567478595074697 -1.0596993843000249 0 0 0 0 14.464047865440989 -7.0372535046247178 0 -7.0372535046247178 2.3853348860690513 0 0 0 0 5.2436982213239487 -3.5732030568266495 0 -3.5732030568266495 -5.3527324112522798 0 0 0 0 2.5790458032224706 -6.3891240692753399 0 -6.3891240692753399 0.31061291469268326 0 0 0 0 7.9627400196459348 -6.5135165081100013 0 -6.5135165081100013 -8.6116830158866833 0 0 0 0 9.0228197904848244 -2.0773039534735567 0 -2.0773039534735567 -1.8577874079782712 0 0 0 0 9.086175850382773 -3.5991892670713543 0 -3.5991892670713543 -4.8755592339264302 0 0 0 0 10.164905700297822 -3.8782520129386668 0 -3.8782520129386668 -4.5909496803400138 0 0 0 0 12.848561141869368 -0.85619593055631071 0 -0.85619593055631071 -14.938314098214505 0 0 0 0 8.9082770070017432 -0.979540694723255 0 -0.979540694723255 -14.236741766932937 0 0 0 0 5.0980200545109184 -1.9159360315478029 0 -1.9159360315478029 -5.3706167116570604 0 0 0 0 7.5132612934603458 -3.9855752386000063 0 -3.9855752386000063 -0.39451858895972691 0 0 0 0 10.156584812961228 -0.33823096590856494 0 -0.33823096590856494 -13.149714895301258 0 0 0 0 8.1976354872176671 -1.5985392993022742 0 -1.5985392993022742 -27.425651177391728 0 0 0 0 1.6256558889234829 -2.0202482147914296 0 -2.0202482147914296 -6.9407934158642011 0 0 0 0 15.454661757246868 4.3159743414085483 0 4.3159743414085483 -6.3465357399638833 0 0 0 0 -13.625709476516931 -8.5128851096478684 0 -8.5128851096478684 21.670099910651061 0 0 0 0 7.09710895403623 2.7428553581451069 0 2.7428553581451069 -11.615071392653363 0 0 0 0 7.6297468903615027 -0.99264582485758979 0 -0.99264582485758979 -10.786794229688894 0 0 0 0 5.8635259372858854 -0.35133971857885626 0 -0.35133971857885626 -3.1859029724400898 0 0 0 0 4.4935457901083282 -0.65510439505487739 0 -0.65510439505487739 -3.2475825915034875 0 0 0 0 5.7643933391409519 0.83099879158083922 0 0.83099879158083922 -3.0510810854466399 0 0 0 0 4.3863172466299147 0.88646445788572237 0 0.88646445788572237 -2.9988130814078886 0 0 0 0 2.6462670386918035 -0.99353949435169397 0 -0.99353949435169397 -6.1929858505536686 0 0 0 0 0.010958735633022521 -1.1322387232672959 0 -1.1322387232672959 -4.3673294356822367 0 0 0 0 3.8753035352451661 0.1381201994921355 0 0.1381201994921355 -6.1327865822213425 0 0 0 0 3.3745380845211912 0.52558711262418001 0 0.52558711262418001 -3.0768987115702657 0 0 0 0 3.4439460922658327 -0.44953911292941484 0 -0.44953911292941484 -3.1742598093665038 0 0 0 0 11.171816941117868 -3.878367788644141 0 -3.878367788644141 -0.83368542084474484 0 0 0 0 10.872344860393241 -4.8088165735570669 0 -4.8088165735570669 -1.834503392273291 0 0 0 0 7.3624614451655361 -6.5740113377459011 0 -6.5740113377459011 -2.562557236923567 0 0 0 0 -0.33785764744500568 0.28911057307659682 0 0.28911057307659682 0.15912538112170638 0 0 0 0 14.498912475220095 -11.658493631701418 0 -11.658493631701418 -20.855356596434831 0 0 0 0 10.694641997313738 -5.1228707719931208 0 -5.1228707719931208 -2.3893927517769953 0 0 0 0 9.1538357765439287 -6.9575987275990769 0 -6.9575987275990769 -2.140839362042243 0 0 0 0 -0.68964527180469304 -2.9584022932858716 0 -2.9584022932858716 0.061905736952212465 0 0 0 0 4.250227869466471 -1.9083478725257237 0 -1.9083478725257237 -13.211987263297658 0 0 0 0 4.8598372284177458 0.32800842909978201 0 0.32800842909978201 -20.046698243351329 0 0 0 0 -6.8417077419690031 4.4723499425224418 0 4.4723499425224418 -8.3627716604718216 0 0 0 0 0.093131344940047711 -4.5429715041761938 0 -4.5429715041761938 -4.7400321207965135 0 0 0 0 -0.56451482615128867 -0.15353128455315357 0 -0.15353128455315357 -0.24300556749834068 0 0 0 0 -0.57754030588186822 -0.44158499411668473 0 -0.44158499411668473 -0.43595848264060288 0 0 0 0 2.9261169369637585 -4.4997338486514202 0 -4.4997338486514202 -3.4976331700982142 0 0 0 0 -1.6085443017473153 -4.0749502934945667 0 -4.0749502934945667 -2.3907735151868792 0 0 0 0 2.087669667251248 4.1229721335544127 0 4.1229721335544127 -10.919268662383161 0 0 0 0 3.0911281756704128 -2.5816935181473131 0 -2.5816935181473131 -3.7746275515682859 0 0 0 0 9.3475828684713633 -8.3483767900335124 0 -8.3483767900335124 -6.9424099595828466 0 0 0 0 7.9039742620807374 -9.9447885260350404 0 -9.9447885260350404 -3.5181091576109793 0 0 0 0 7.9056849772521218 -9.7721692371651727 0 -9.7721692371651727 0.10492819718479041 0 0 0 0 3.7399225086373917 -12.70713254537668 0 -12.70713254537668 -1.7491020499562637 0 0 0 0 9.4214356616712394 -20.407523774138809 0 -20.407523774138809 -4.7694705730557416 0 0 0 0 3.4163415694056312 -11.185084268143385 0 -11.185084268143385 -3.3069392314132529 0 0 0 0 24.088158971706434 -10.356670047994726 0 -10.356670047994726 -8.2475802713581743 0 0 0 0 13.59750317578073 1.1380538765556594 0 1.1380538765556594 -1.0397665982744684 0 0 0 0 4.6117468973388895 -9.0456940265548837 0 -9.0456940265548837 -2.4134291374386123 0 0 0 0 -0.49128687426582474 -10.591648054287646 0 -10.591648054287646 -2.6940238819302067 0 0 0 0 3.5122517840663932 -7.743508483532878 0 -7.743508483532878 -0.17211402903370754 0 0 0 0 3.0539631072351767 -10.103342912235348 0 -10.103342912235348 1.273113485606018 0 0 0 0 -13.771889810493121 -19.739736271359362 0 -19.739736271359362 7.3665703034554895 0 0 0 0 -6.4566156454711745 -18.445429854432859 0 -18.445429854432859 -13.021300975515135 0 0 0 0 6.5786509221404685 -6.7719662461915391 0 -6.7719662461915391 4.2594453570872233 0 0 0 0 5.7805874118039355 -8.3717907052018745 0 -8.3717907052018745 2.2004981095958556 0 0 0 0 5.4273578163538332 -11.307450972430615 0 -11.307450972430615 4.2676867478880922 0 0 0 0 4.4530821484495391 -3.54981706642468 0 -3.54981706642468 1.6929845324565349 0 0 0 0 -5.1265329816706071 -37.668919056818481 0 -37.668919056818481 5.7115782638679491 0 0 0 0 -6.9405232586372989 -2.1514057589903794 0 -2.1514057589903794 -0.7504992766270403 0 0 0 0 2.5253320806434445 -2.3310357949168115 0 -2.3310357949168115 -2.2179379464136919 0 0 0 0 -0.33878532055905453 -2.6746518228128444 0 -2.6746518228128444 -0.0011715059265766659 0 0 0 0 -14.397722602057911 -9.0094020878512424 0 -9.0094020878512424 4.3948957920194118 0 0 0 0 -31.334876043651775 1.0295685594313078 0 1.0295685594313078 4.4242207654720005 0 0 0 0 31.112123580835032 61.700720760468698 0 61.700720760468698 14.540306137616426 0 0 0 0 -0.6386885209518951 -0.28402583819582361 0 -0.28402583819582361 -0.10421838661012017 0 0 0 0 -54.291147495634505 54.363758302800306 0 54.363758302800306 -8.8002215454483803 0 0 0 0 -13.417125325004235 5.4889377876198751 0 5.4889377876198751 3.064584021308292 0 0 0 0 -6.3103968322266155 -6.2416442817482221 0 -6.2416442817482221 -10.190942451141382 0 0 0 0 1.4819133003366005 6.4159580058214942 0 6.4159580058214942 2.9631459552526849 0 0 0 0 13.634288390228903 -6.5556842736548333 0 -6.5556842736548333 2.1719850589405496 0 0 0 0 -3.074014675044964 -18.643618464901465 0 -18.643618464901465 27.595589143005782 0 0 0 0 -7.0630098536603327 -3.9102694044104283 0 -3.9102694044104283 4.5467363824448057 0 0 0 0 -0.78437194015279488 -6.8790585984212758 0 -6.8790585984212758 0.67869396575224528 0 0 0 0 0.83127061588311335 3.7244309224240624 0 3.7244309224240624 -23.605615194615098 0 0 0 0 -0.94995252056469326 3.7525572206554898 0 3.7525572206554898 -10.794986427954882 0 0 0 0 -0.10179105350835016 -4.8167371131449954 0 -4.8167371131449954 -18.820195183556962 0 0 0 0 -6.1050644604692934 9.0941880099069294 0 9.0941880099069294 -12.722518252292275 0 0 0 0 12.527297816241116 -2.8459392213271713 0 -2.8459392213271713 -1.1066482844980783 0 0 0 0 -8.9004180572155747 -7.6047520665384809 0 -7.6047520665384809 -28.573092936199828 0 0 0 0 -12.51800121171118 -12.324701454842909 0 -12.324701454842909 -4.3615311488406405 0 0 0 0 3.6223944171597395 -16.516989682726489 0 -16.516989682726489 11.860861597549501 0 0 0 0 8.8805233217190107 -17.895254614909163 0 -17.895254614909163 1.0193666257487166 0 0 0 0 6.698399251778028 -5.0864669501609114 0 -5.0864669501609114 -6.5302959734183332 0 0 0 0 5.139842424860035 -7.8765882466395851 0 -7.8765882466395851 4.0065640604134387 0 0 0 0 7.1495204837083293 -34.546702129415053 0 -34.546702129415053 -13.67360373626093 0 0 0 0 -0.51243912065797304 -0.56966719882949768 0 -0.56966719882949768 -0.46704531854228781 0 0 0 0 -0.33510289453149511 -0.027955170256801054 0 -0.027955170256801054 -0.0026429406156656121 0 0 0 0 -6.7950086607143021 2.4627265370324949 0 2.4627265370324949 17.350596769073945 0 0 0 0 -27.088436928627971 56.107153234607466 0 56.107153234607466 -26.386185099211616 0 0 0 0 -0.19990806604405975 0.52858544657549089 0 0.52858544657549089 0.57324871970165248 0 0 0 0 -0.00045567819263681031 0.27039378218802312 0 0.27039378218802312 0.27449396238028889 0 0 0 0 33.047883001063383 -76.932290797971746 0 -76.932290797971746 38.612379303641774 0 0 0 0 125.5264107926796 -118.21264681843422 0 -118.21264681843422 94.927285929931372 0 0 0 0 -42.683558929794344 2.5934457833233182 0 2.5934457833233182 71.966713207470548 0 0 0 0 57.818496502717608 -45.644438709709448 0 -45.644438709709448 62.572224216186385 0 0 0 0 10.259686604909803 37.770177280285907 0 37.770177280285907 1.6754839012637603 0 0 0 0 12.486226700479165 -12.944432550087186 0 -12.944432550087186 19.808884799059797 0 0 0 0 5.6330100922350539 -1.9544080736022806 0 -1.9544080736022806 61.931746795439722 0 0 0 0 -31.687783952309246 1.3999984305631301 0 1.3999984305631301 -10.831441509535807 0 0 0 0 -0.41024102605121016 0.40077151086476803 0 0.40077151086476803 0.54497809299445965 0 0 0 0 -17.161124793629824 -6.7969409828082519 0 -6.7969409828082519 22.062757535833043 0 0 0 0 -18.032837956545336 33.340167889883787 0 33.340167889883787 -22.350386438576038 0 0 0 0 -0.36719592494794995 0.24150094277427314 0 0.24150094277427314 0.26925100892688736 0 0 0 0 -2.9054796569089376 -13.670675552121338 0 -13.670675552121338 -10.303863269364683 0 0 0 0 -28.40929683745162 -67.5904294982397 0 -67.5904294982397 38.581210297523398 0 0 0 0 -23.842630618502881 -18.077296967877828 0 -18.077296967877828 46.626489036260182 0 0 0 0 -24.069206750762532 -54.359692443559197 0 -54.359692443559197 -6.7116643711096913 0 0 0 0 -37.786129128144239 -24.023211895124746 0 -24.023211895124746 54.912594926309339 0 0 0 0 -23.481458252834273 -16.589233049778159 0 -16.589233049778159 50.943232228402849 0 0 0 0 -17.060944026528887 -4.412316872008887 0 -4.412316872008887 66.405755740269797 0 0 0 0 -21.430658257795585 -24.206715091157321 0 -24.206715091157321 58.414385570198192 0 0 0 0 3.1504639746917746 14.825033467999219 0 14.825033467999219 99.851254606958719 0 0 0 0 86.17963437032995 -18.322483763776972 0 -18.322483763776972 54.249338171479053 0 0 0 0 67.409897626128441 -38.325096673634562 0 -38.325096673634562 67.033894416363637 0 0 0 0 69.12097305622774 -60.792865504090287 0 -60.792865504090287 83.369837533015016 0 0 0 0 274.10423780774181 -26.90994942644943 0 -26.90994942644943 60.771892128197578 0 0 0 0 33.533161767276397 -10.730813275697983 0 -10.730813275697983 188.00552406149836 0 0 0 0 6.0219981982809259 -77.98609792551315 0 -77.98609792551315 84.150047339066077 0 0 0 0 292.71501672984027 -87.456961942707494 0 -87.456961942707494 -34.262028287511384 0 0 0 0 235.74391421080509 -235.13119515036396 0 -235.13119515036396 -45.272466294868082 0 0 0 0 49.125396533967432 -151.88802105380955 0 -151.88802105380955 399.88994739255793 0 0 0 0 142.29023419197347 -36.284193249831105 0 -36.284193249831105 -353.07657885021763 0 0 0 0 0.98186922404540411 -0.31204541726853918 0 -0.31204541726853918 0.0058255748403690522 0 0 0 0 -56.010673109381969 -39.506804664675883 0 -39.506804664675883 -13.858964235391795 0 0 0 0 -41.334862480269749 -84.497240542465249 0 -84.497240542465249 -40.804469239975333 0 0 0 0 -12.898043796460115 -29.576500301080841 0 -29.576500301080841 -14.731041095479668 0 0 0 0 -24.69114210319276 -36.040535870195527 0 -36.040535870195527 -21.794136040432477 0 0 0 0 5.5730186457112723 -59.164205651788507 0 -59.164205651788507 181.27478030342809 0 0 0 0 1.5415982337999594 -38.252081319624722 0 -38.252081319624722 -132.21675670674085 0 0 0 0 2.2341574935126189 -1.7156385810762078 0 -1.7156385810762078 -0.31393473962475182 0 0 0 0 -1.6353654917143103 -32.411221181370365 0 -32.411221181370365 135.73242161623057 0 0 0 0 22.929325312808942 -56.115634049055188 0 -56.115634049055188 128.99016608628608 0 0 0 0 17.62975598722187 -67.930992718494963 0 -67.930992718494963 109.21134640308628 0 0 0 0 39.471847816494574 -61.878570390666596 0 -61.878570390666596 173.308567284741 0 0 0 0 36.527687767404132 -71.902034380991154 0 -71.902034380991154 141.1493205826855 0 0 0 0 91.32540415153926 -120.26749086593009 0 -120.26749086593009 136.91891416353974 0 0 0 0 45.773891918041727 -67.59580121780408 0 -67.59580121780408 80.353296204373692 0 0 0 0 39.632499792380258 -69.245081912161595 0 -69.245081912161595 48.107270589342988 0 0 0 0 41.659079665711033 -92.165066365326766 0 -92.165066365326766 91.086151376893213 0 0 0 0 29.979734416170686 -82.843313475077593 0 -82.843313475077593 47.67176741447463 0 0 0 0 39.592375673561037 -78.892628142810281 0 -78.892628142810281 11.373343638855658 0 0 0 0 58.952187813891214 -71.239956936380167 0 -71.239956936380167 3.5554528811471755 0 0 0 0 27.93491119565897 -55.498736649090915 0 -55.498736649090915 29.150591245454052 0 0 0 0 30.841537039223113 -74.09281742264011 0 -74.09281742264011 -29.551650392688316 0 0 0 0 18.142188267922393 -69.338076592723155 0 -69.338076592723155 3.4802667394815217 0 0 0 0 44.054350084239559 -73.639407893434509 0 -73.639407893434509 -28.841610593119867 0 0 0 0 39.262537431743112 -68.442477469983714 0 -68.442477469983714 -23.240706500830129 0 0 0 0 35.765101911634197 -71.340661554788056 0 -71.340661554788056 7.6378911728879757 0 0 0 0 38.906962651180947 -87.45844918124385 0 -87.45844918124385 -10.362507552556508 0 0 0 0 2.1598160075409396 -4.6852988974978871 0 -4.6852988974978871 1.3741391265793936 0 0 0 0 47.373601069317374 -9.0846083683381949 0 -9.0846083683381949 -7.401932158242289 0 0 0 0 29.832884237595408 -9.318999748769329 0 -9.318999748769329 -6.431701178133153 0 0 0 0 4.6740336957464024 -38.101269974892602 0 -38.101269974892602 -2.6256573627638318 0 0 0 0 60.531492648156927 -51.511592320773161 0 -51.511592320773161 0.39441861238992715 0 0 0 0 50.82802557665309 -22.863736924871773 0 -22.863736924871773 15.932873393857335 0 0 0 0 39.792379623888792 -9.3835338673300157 0 -9.3835338673300157 9.4195174591204704 0 0 0 0 89.712224067687202 -14.304155886992703 0 -14.304155886992703 12.614503252804752 0 0 0 0 131.28689852984644 -51.316334484354229 0 -51.316334484354229 30.02888414262452 0 0 0 0 93.218591315398953 -75.230910813453193 0 -75.230910813453193 33.276685529177257 0 0 0 0 65.592886254871246 -63.814686024526281 0 -63.814686024526281 59.249041821734863 0 0 0 0 120.74753847360807 -72.378206721449715 0 -72.378206721449715 60.207397678030588 0 0 0 0 199.72279386126502 -192.50337539104157 0 -192.50337539104157 149.05495368430729 0 0 0 0 97.915029150000919 -65.830066480810274 0 -65.830066480810274 99.132357118487562 0 0 0 0 212.09473438614793 -71.678437255121651 0 -71.678437255121651 11.777783206491222 0 0 0 0 62.931641253299858 16.195417460182853 0 16.195417460182853 40.50693450433937 0 0 0 0 0.3408376829847839 6.8306527936683779 0 6.8306527936683779 3.0706142289344989 0 0 0 0 -24.717567077352214 -80.239415809316142 0 -80.239415809316142 2.4269813309395616 0 0 0 0 -11.144756525998673 -3.408179840502271 0 -3.408179840502271 15.230384661921562 0 0 0 0 -43.5176782107892 -9.8598898764953447 0 -9.8598898764953447 22.13653616423835 0 0 0 0 16.957529714920383 9.8038576482458666 0 9.8038576482458666 24.275538491853695 0 0 0 0 28.748130210296949 -20.187174782480724 0 -20.187174782480724 18.114730877502552 0 0 0 0 31.965741676267498 5.554004447647003 0 5.554004447647003 4.7355217288641143 0 0 0 0 60.468157118759336 1.6031529505025901 0 1.6031529505025901 4.0821943118007766 0 0 0 0 2.4075995576858986 -9.5568118232863526 0 -9.5568118232863526 8.836253957295412 0 0 0 0 -8.1567123912464012 -5.6038845254333864 0 -5.6038845254333864 11.742458687472663 0 0 0 0 19.641479051033457 1.7584671892109327 0 1.7584671892109327 3.3983388913197814 0 0 0 0 -7.7235717052781183 -5.6010276864660682 0 -5.6010276864660682 4.5020549272467179 0 0 0 0 -9.9859676884684632 -8.8573677215390489 0 -8.8573677215390489 2.6867235066292778 0 0 0 0 19.569416970183738 -3.2116595092475109 0 -3.2116595092475109 0.041188400555256521 0 0 0 0 33.647345241733547 0.10320054623070973 0 0.10320054623070973 -6.7905293940166302 0 0 0 0 7.034631621049833 -12.635860912385283 0 -12.635860912385283 11.538760725509221 0 0 0 0 6.2284445561672328 -25.97137603840747 0 -25.97137603840747 5.2131434636175982 0 0 0 0 2.0353891407053197 -14.442142200422836 0 -14.442142200422836 10.688024722239788 0 0 0 0 -3.6651536618301179 -30.235303080454742 0 -30.235303080454742 11.541718717393451 0 0 0 0 -5.6043775181610371 -7.9745488289976976 0 -7.9745488289976976 -2.8013764217995636 0 0 0 0 -8.4101089910830069 -4.1658580526350306 0 -4.1658580526350306 1.4422235367101166 0 0 0 0 -1.9783163836709718 -24.279522047636419 0 -24.279522047636419 16.970410018118855 0 0 0 0 1.3291485631452815 -8.5601267448164435 0 -8.5601267448164435 3.9127504587449948 0 0 0 0 -23.39609389956604 -8.1891662121361151 0 -8.1891662121361151 2.5471735139717566 0 0 0 0 -1.9813387675447061 -10.235325623900579 0 -10.235325623900579 2.9893884444087604 0 0 0 0 -26.580448245054868 -17.689837798796361 0 -17.689837798796361 -1.7332587825567316 0 0 0 0 -2.2389195564916662 -0.63784986547287126 0 -0.63784986547287126 0.17293236803124401 0 0 0 0 -36.110316162823437 -24.035010031009733 0 -24.035010031009733 6.6023461212980692 0 0 0 0 -36.691540582760354 -13.304558090922001 0 -13.304558090922001 11.814349292583756 0 0 0 0 -12.739060960112511 0.1288408624341173 0 0.1288408624341173 8.1612466808746831 0 0 0 0 -3.0716154923461332 -7.7727156588418538 0 -7.7727156588418538 2.945508152214618 0 0 0 0 1.1048468931805573 -9.8695522073841637 0 -9.8695522073841637 3.2307721089200854 0 0 0 0 -3.6946152044147311 -11.515174622535596 0 -11.515174622535596 4.8516810147780234 0 0 0 0 -3.8264884454511048 -9.533535899969138 0 -9.533535899969138 4.5755930237573921 0 0 0 0 -5.7391694276375347 -5.9919201889297256 0 -5.9919201889297256 9.2608451833245908 0 0 0 0 -1.4620944476282602 -12.008687003836258 0 -12.008687003836258 4.9390664804086555 0 0 0 0 -6.2112076903195828 -7.8265038305438068 0 -7.8265038305438068 3.9966545753514033 0 0 0 0 -10.151028401123767 -13.278195715454103 0 -13.278195715454103 41.392674242157227 0 0 0 0 14.426350913134229 -36.936689981212112 0 -36.936689981212112 19.41543282683233 0 0 0 0 -1.2979627448552691 -0.36840984615789196 0 -0.36840984615789196 0.61601358830818853 0 0 0 0 6.9661596905707484 -5.2222480068411414 0 -5.2222480068411414 -14.175059283861629 0 0 0 0 -8.1303281670170691 -14.139222914371317 0 -14.139222914371317 -1.7261825746745671 0 0 0 0 6.0981297383477795 -21.091765911434777 0 -21.091765911434777 7.2462831254724733 0 0 0 0 8.3149662410924066 -18.735423462403332 0 -18.735423462403332 -9.3486843578612024 0 0 0 0 6.3476855291701213 -9.2497905706310917 0 -9.2497905706310917 2.1828595386850793 0 0 0 0 23.846842783532338 -27.087718220969236 0 -27.087718220969236 -2.0385769083873129 0 0 0 0 -7.3388949664158503 -12.217933999539696 0 -12.217933999539696 -1.372907844610161 0 0 0 0 17.099079030407665 -9.2188769941251394 0 -9.2188769941251394 -8.1098655068381049 0 0 0 0 2.9460031660969257 -6.6445366328942175 0 -6.6445366328942175 4.8771782168128048 0 0 0 0 -33.881560189116499 -35.013173572403048 0 -35.013173572403048 1.3831657971877576 0 0 0 0 -7.8150502267217234 -14.795513631630456 0 -14.795513631630456 -4.5823483447384206 0 0 0 0 -6.4579168692798703 -11.367384081790078 0 -11.367384081790078 -5.8277309929250123 0 0 0 0 -6.4120971164556977 -10.381627812217175 0 -10.381627812217175 -2.4364968657876034 0 0 0 0 -5.824434162259422 -11.653323029971489 0 -11.653323029971489 0.026446299396411632 0 0 0 0 -20.021221167017757 -11.23262917288821 0 -11.23262917288821 0.013986494162963936 0 0 0 0 -6.4999314341330319 2.6620972389696362 0 2.6620972389696362 7.4194479574819638 0 0 0 0 -5.4781391230096688 -11.549309718293216 0 -11.549309718293216 -6.8102993519651136 0 0 0 0 7.1965824624662673 -6.7280961623135909 0 -6.7280961623135909 -10.320228097147265 0 0 0 0 -5.991165892442325 -20.922655776702165 0 -20.922655776702165 -12.043363226177917 0 0 0 0 4.8064898904884288 -3.9798629773526617 0 -3.9798629773526617 3.4905526666040565 0 0 0 0 39.78001101990867 28.018950503913402 0 28.018950503913402 -6.7597510245650483 0 0 0 0 2.223458755095379 -1.7156775475931632 0 -1.7156775475931632 1.0159312854095077 0 0 0 0 -3.731173761170794 -92.031029609825055 0 -92.031029609825055 165.85095893857942 0 0 0 0 3.5228231254054663 -15.449201448059796 0 -15.449201448059796 -13.934053202624 0 0 0 0 25.025178298950777 8.8269918476455587 0 8.8269918476455587 9.1159580371154334 0 0 0 0 6.6687688697275007 -42.99380507882438 0 -42.99380507882438 79.237078989455313 0 0 0 0 191.71932096639375 -184.26218725749897 0 -184.26218725749897 82.666183741627265 0 0 0 0 126.32979167851045 -171.2348336628977 0 -171.2348336628977 107.42981819643251 0 0 0 0 121.61157834377718 -110.20351437090596 0 -110.20351437090596 146.9202739051193 0 0 0 0 161.06633451283142 -77.057586354244052 0 -77.057586354244052 -25.41423360215731 0 0 0 0 4.155508625148812 -6.647381929438108 0 -6.647381929438108 1.7280134403159835 0 0 0 0 35.232022270587549 -0.88869730603687458 0 -0.88869730603687458 -70.749018458306637 0 0 0 0 -17.783385574502063 -41.363961834397855 0 -41.363961834397855 5.7525322780625174 0 0 0 0 -11.781372547338833 -11.358325316146193 0 -11.358325316146193 8.4158296899724974 0 0 0 0 -8.3543394575108323 -6.3658839755258327 0 -6.3658839755258327 1.5374292046180926 0 0 0 0 -32.937496961771103 -23.139493832519975 0 -23.139493832519975 10.786150741842278 0 0 0 0 5.2645141393418697 -6.8895361059015858 0 -6.8895361059015858 2.6767880949783276 0 0 0 0 -9.9253432396571952 -17.746397473984644 0 -17.746397473984644 2.8048868951323129 0 0 0 0 0.26333142955741096 -6.3415109326094807 0 -6.3415109326094807 -4.5877427106961477 0 0 0 0 -2.1514616697168094 5.631286112015232 0 5.631286112015232 31.483474537814345 0 0 0 0 -3.4420212171962028 -3.8025615885941058 0 -3.8025615885941058 -3.0141771319538453 0 0 0 0 12.795848947542254 -17.599811603060743 0 -17.599811603060743 3.1722076447522909 0 0 0 0 -0.60099314380750002 -7.2749112769400881 0 -7.2749112769400881 2.635225659777916 0 0 0 0 0.073093672999675618 -13.397334876123296 0 -13.397334876123296 6.7807809362785747 0 0 0 0 2.9222513785198316 -9.3140952969342834 0 -9.3140952969342834 7.1052167827335779 0 0 0 0 48.437171512206987 -40.705622742857258 0 -40.705622742857258 -6.3847588650769467 0 0 0 0 -0.56781330338857927 -0.88804000016223483 0 -0.88804000016223483 -0.94963666229044108 0 0 0 0 73.821280014696299 -15.772343284052113 0 -15.772343284052113 16.26527327810436 0 0 0 0 73.206626233465045 -23.165724808234856 0 -23.165724808234856 7.6686720320894892 0 0 0 0 49.91633665574409 -34.882128485868179 0 -34.882128485868179 12.599637693189266 0 0 0 0 29.495430492218929 -9.7677428911003119 0 -9.7677428911003119 8.636819527753687 0 0 0 0 28.493446449658222 -15.636064125118082 0 -15.636064125118082 17.321505730476929 0 0 0 0 89.340058258005229 -29.068429069139711 0 -29.068429069139711 4.1867531408443028 0 0 0 0 74.186590531927322 -11.416561684431827 0 -11.416561684431827 3.7147097338265667 0 0 0 0 80.317758009819954 -18.242833680815693 0 -18.242833680815693 -4.5651131622298635 0 0 0 0 -0.13738822053286626 -1.0434917615122679 0 -1.0434917615122679 -0.49429096033273012 0 0 0 0 55.349847346169554 -17.127998751008363 0 -17.127998751008363 12.064611273595801 0 0 0 0 72.179717766593967 -21.696309038529762 0 -21.696309038529762 2.2081884717454159 0 0 0 0 55.371642840066784 -16.955760611600169 0 -16.955760611600169 2.1411487142322585 0 0 0 0 38.110524326399172 -14.028227681092176 0 -14.028227681092176 7.7419149863862913 0 0 0 0 38.083775451024849 -12.873540477160077 0 -12.873540477160077 -1.6770197413634378 0 0 0 0 9.1992155039952195 -8.3146273281540743 0 -8.3146273281540743 6.8791324454978167 0 0 0 0 9.4256050249932741 -3.2259340169171082 0 -3.2259340169171082 -1.8974039419772453 0 0 0 0 20.063389871073014 -18.803913887601084 0 -18.803913887601084 9.6074454727904595 0 0 0 0 -0.65122141071314843 -0.79482073900484096 0 -0.79482073900484096 -0.60935293632118004 0 0 0 0 44.945189148753343 -54.287736235009106 0 -54.287736235009106 -10.137499123092311 0 0 0 0 4.8488632169164703 0.8488295249062503 0 0.8488295249062503 39.031954904341546 0 0 0 0 1.7149850954594648 -8.2136639253939521 0 -8.2136639253939521 3.0235604822743554 0 0 0 0 -2.6600701625780694 -5.1394062501316142 0 -5.1394062501316142 -3.9856055727626334 0 0 0 0 0.43717941915383562 -16.07176066218949 0 -16.07176066218949 0.83426690342639631 0 0 0 0 36.554580419186095 -46.561749687074553 0 -46.561749687074553 -6.9970100546488538 0 0 0 0 -0.57643428600065505 -0.44599954244453599 0 -0.44599954244453599 0.079668484545500462 0 0 0 0 -3.5727110421075352 -1.6338412232652573 0 -1.6338412232652573 -0.57053555172186776 0 0 0 0 -4.2331554211996263 -29.336862335586375 0 -29.336862335586375 32.312047062232523 0 0 0 0 -8.7560380519254366 -10.808801968951975 0 -10.808801968951975 -1.6209567360234942 0 0 0 0 10.104796630173951 -5.1797822342427935 0 -5.1797822342427935 -15.444764080677487 0 0 0 0 28.206125389304361 -35.101194337164998 0 -35.101194337164998 31.413784067233792 0 0 0 0 9.2833479877172067 -27.357669450616186 0 -27.357669450616186 -34.962301716157526 0 0 0 0 -19.374577571135887 -36.06861333688903 0 -36.06861333688903 -7.5454168731148457 0 0 0 0 -25.928244950155204 -20.435836013370135 0 -20.435836013370135 0.47609367754967025 0 0 0 0 13.869100095049362 -71.205231164278302 0 -71.205231164278302 -19.309795630229928 0 0 0 0 -2.3909456039873476 -5.8228954179739958 0 -5.8228954179739958 -3.0776693398174757 0 0 0 0 24.43313517628485 -14.422700333750072 0 -14.422700333750072 -6.293064628749562 0 0 0 0 24.402001371860933 -13.344874126353716 0 -13.344874126353716 2.6937419857840723 0 0 0 0 18.689443641269463 -11.679318682719895 0 -11.679318682719895 -3.7327146388579422 0 0 0 0 18.501449292423786 -14.987876328755192 0 -14.987876328755192 -20.933431532574104 0 0 0 0 11.053475941365832 -20.294567809131422 0 -20.294567809131422 -10.414858282550995 0 0 0 0 15.921488603475154 -20.613690548359955 0 -20.613690548359955 -14.283391860920801 0 0 0 0 15.969950692360499 -19.777715082073598 0 -19.777715082073598 -5.4495426862667955 0 0 0 0 23.97090430287426 -20.053128820804886 0 -20.053128820804886 -12.071705515118992 0 0 0 0 24.012377832073298 -19.19951553876021 0 -19.19951553876021 0.091416479301187792 0 0 0 0 24.201269499706541 -22.430477704712757 0 -22.430477704712757 -3.3195270811584123 0 0 0 0 14.470232922511059 -27.43841301394059 0 -27.43841301394059 -4.9654683480107451 0 0 0 0 14.305861817425466 -28.539794841269213 0 -28.539794841269213 -12.283440156007828 0 0 0 0 16.642404387661372 -28.354201903866851 0 -28.354201903866851 1.225481347857567 0 0 0 0 12.526596814052027 -22.804800224227165 0 -22.804800224227165 0.83098536325996974 0 0 0 0 22.416868702061038 -23.08598848719339 0 -23.08598848719339 4.3711649942706572 0 0 0 0 1.0838760800070304 -17.37251385876516 0 -17.37251385876516 1.2235931181949127 0 0 0 0 -7.8054696826002328 -14.129712954430943 0 -14.129712954430943 1.800324961572187 0 0 0 0 1.6842536506337638 -23.765444223902705 0 -23.765444223902705 -0.87721791138210392 0 0 0 0 7.8664418211119482 -26.106571865659134 0 -26.106571865659134 -0.48549163521079208 0 0 0 0 -5.9855143263921491 -30.662451838510606 0 -30.662451838510606 -6.3940924907315093 0 0 0 0 -0.8033146302550449 -18.835986448118547 0 -18.835986448118547 0.027463987504233955 0 0 0 0 0.3090201399900252 -17.203531224075959 0 -17.203531224075959 1.2962331104863551 0 0 0 0 26.878020208976523 -12.098001732782905 0 -12.098001732782905 4.7971017307118018 0 0 0 0 10.915228495729025 -34.843656451123707 0 -34.843656451123707 16.976594732212106 0 0 0 0 0.82332253080955553 -0.7597065586759193 0 -0.7597065586759193 0.31777111825091708 0 0 0 0 7.0232142168315477 -19.204115831335912 0 -19.204115831335912 31.303399137332235 0 0 0 0 5.8240999543668295 -23.727401502402017 0 -23.727401502402017 14.863829906722458 0 0 0 0 12.007844452433346 -24.695761876870165 0 -24.695761876870165 -4.2762930504391079 0 0 0 0 9.7929066127771875 -29.616203091411649 0 -29.616203091411649 6.6347438750362926 0 0 0 0 12.555407165189536 -24.662354512010097 0 -24.662354512010097 10.71915778796847 0 0 0 0 21.154010235362875 -25.486543988416088 0 -25.486543988416088 3.8920365557178229 0 0 0 0 17.120904875617271 -20.774686467472748 0 -20.774686467472748 10.283228674496058 0 0 0 0 14.30662446190945 -22.14369654253187 0 -22.14369654253187 9.6954570113321097 0 0 0 0 12.074882305403662 -17.056164748642459 0 -17.056164748642459 7.77270316969134 0 0 0 0 15.125040794278902 -18.177383277956324 0 -18.177383277956324 7.117765367706852 0 0 0 0 16.013740911232162 -13.014292095695055 0 -13.014292095695055 1.7665803320251143 0 0 0 0 -0.82010213946341537 -14.895551670463647 0 -14.895551670463647 9.2466649604079976 0 0 0 0 18.328689243767258 -11.854083973339471 0 -11.854083973339471 17.987800461774896 0 0 0 0 11.857480943381233 -19.098951177758863 0 -19.098951177758863 10.584425173483396 0 0 0 0 9.4303466136734642 -15.521176609582653 0 -15.521176609582653 18.328384213816662 0 0 0 0 76.234110075496574 -1.9298432644361583 0 -1.9298432644361583 207.67829124464788 0 0 0 0 -0.26651335342338811 -1.0094752434941618 0 -1.0094752434941618 -2.0188532664093444 0 0 0 0 36.266272294686132 -17.034992314851024 0 -17.034992314851024 1.4540696268768443 0 0 0 0 22.319437780306544 -17.923817142155258 0 -17.923817142155258 4.6506801706391343 0 0 0 0 23.63788850016681 -7.8866086671732774 0 -7.8866086671732774 0.2875473928907013 0 0 0 0 29.553056617358379 -19.269817586631689 0 -19.269817586631689 4.6022169419538841 0 0 0 0 28.566459691779528 -16.402916072236167 0 -16.402916072236167 5.9625581350528591 0 0 0 0 17.930027041929407 -17.784858151342632 0 -17.784858151342632 6.1218721390923747 0 0 0 0 57.731432112881521 -20.880350946469662 0 -20.880350946469662 -1.577413608907591 0 0 0 0 149.61786581337492 -6.8240317323878799 0 -6.8240317323878799 -74.69516830698376 0 0 0 0 -0.12385421811927522 -1.0570642940511448 0 -1.0570642940511448 -0.93834804549702611 0 0 0 0 42.02162307601975 -12.334859598580806 0 -12.334859598580806 2.0384930200125382 0 0 0 0 35.465922667015548 -24.544652864798536 0 -24.544652864798536 -1.1085784107835934 0 0 0 0 25.077545148018544 -25.159542399807606 0 -25.159542399807606 1.0320290014897182 0 0 0 0 35.458695465953497 -18.051815208164953 0 -18.051815208164953 -2.9684253954478663 0 0 0 0 41.274028300214923 -22.682192929002667 0 -22.682192929002667 -1.1664584564759934 0 0 0 0 51.275446763905165 -16.089939829958553 0 -16.089939829958553 -1.3199878382638417 0 0 0 0 37.032402095865109 -15.329944929986596 0 -15.329944929986596 4.0089873679103221 0 0 0 0 35.263394895799138 -19.164715161186905 0 -19.164715161186905 -3.9746651986943107 0 0 0 0 125.01745426431899 -13.456855305316367 0 -13.456855305316367 123.71435975760687 0 0 0 0 48.615926323348504 -13.157427679615012 0 -13.157427679615012 5.5396162633678614 0 0 0 0 51.708294993226446 -14.368886809932519 0 -14.368886809932519 3.6376040999657562 0 0 0 0 71.096824727272178 -8.5669222455421732 0 -8.5669222455421732 -0.39268685850947804 0 0 0 0 1.2108294803288615 -0.43185878085148577 0 -0.43185878085148577 -0.057739934865495002 0 0 0 0 180.01062684595445 -54.584693512547119 0 -54.584693512547119 -121.75773390148152 0 0 0 0 20.315797770228528 -97.497691991113243 0 -97.497691991113243 105.78849358866501 0 0 0 0 184.35948775117504 -71.761248768388214 0 -71.761248768388214 -53.923221962679236 0 0 0 0 -18.636893489994691 -41.75389806739156 0 -41.75389806739156 49.048878169704949 0 0 0 0 -11.069655515861086 -21.202175641649774 0 -21.202175641649774 1.3193804247257503 0 0 0 0 26.824282301122366 6.1756675500291749 0 6.1756675500291749 -54.347254248284571 0 0 0 0 0.043883444867560684 -148.18186419221465 0 -148.18186419221465 -22.608212075996562 0 0 0 0 176.77811138387187 -10.749389636680462 0 -10.749389636680462 -129.89665335086386 0 0 0 0 178.6145977349297 -21.663177311579602 0 -21.663177311579602 -78.441216692560374 0 0 0 0 291.37675730635237 9.0450830530044186 0 9.0450830530044186 -16.267681080600141 0 0 0 0 179.83719964587362 41.467923326412347 0 41.467923326412347 -23.321699962859384 0 0 0 0 326.96548584384072 -125.75655006450961 0 -125.75655006450961 5.2717570977409878 0 0 0 0 174.70296722067059 -97.44573138543646 0 -97.44573138543646 3.7111550702538807 0 0 0 0 -7.4862254346971895 -109.69755522393905 0 -109.69755522393905 153.40034764868142 0 0 0 0 4.3502303263437625 -199.99774383581189 0 -199.99774383581189 331.17284855649086 0 0 0 0 -45.055815459258156 -1.2340065691632844 0 -1.2340065691632844 222.72018861035349 0 0 0 0 -59.722217215599812 -46.984768651231207 0 -46.984768651231207 206.80242876693228 0 0 0 0 -21.450066730227263 -86.980867904098886 0 -86.980867904098886 49.167562708596051 0 0 0 0 -0.075137814676054404 -145.64110717082258 0 -145.64110717082258 139.53568156939491 0 0 0 0 -55.328651344832906 -110.08911244495448 0 -110.08911244495448 160.94496746578034 0 0 0 0 -56.740958828560906 -62.929332714972134 0 -62.929332714972134 51.084961190774266 0 0 0 0 -59.927956023597289 -51.754583685497437 0 -51.754583685497437 90.138177976321003 0 0 0 0 -80.118101927284442 -71.886845159724999 0 -71.886845159724999 176.66664271931631 0 0 0 0 -82.92903312915405 -86.620966516016324 0 -86.620966516016324 285.26678446575806 0 0 0 0 0.7959736861358877 -0.44281047473980406 0 -0.44281047473980406 0.25689270245712059 0 0 0 0 -0.0160065951586148 -33.311984692210899 0 -33.311984692210899 -48.43020083694455 0 0 0 0 1.6826708986277339 -1.0585364681360492 0 -1.0585364681360492 0.43146033844310239 0 0 0 0 -12.498449498874834 -41.563210902339506 0 -41.563210902339506 -27.395478310890667 0 0 0 0 -11.682228443994347 -19.88178463947623 0 -19.88178463947623 -20.10125137363957 0 0 0 0 -0.01314401428498968 -41.397633183523567 0 -41.397633183523567 1.5000750781612169 0 0 0 0 -8.8004684419192927 -38.695134914475375 0 -38.695134914475375 12.488659796305001 0 0 0 0 -0.0058265827628929401 -47.706996522522786 0 -47.706996522522786 19.978017558737974 0 0 0 0 -7.6653614699915806 -53.862760075829826 0 -53.862760075829826 34.526397572642054 0 0 0 0 45.047575365815646 -87.937941520593995 0 -87.937941520593995 39.396418352778937 0 0 0 0 162.24106772357936 -83.523229724590237 0 -83.523229724590237 -4.6286589232267943 0 0 0 0 67.233236207513983 -45.167881569078418 0 -45.167881569078418 -18.541353717704624 0 0 0 0 50.113391180970211 -37.869802770651177 0 -37.869802770651177 -3.4928882909912318 0 0 0 0 -0.16063736855537059 -0.95076964712616174 0 -0.95076964712616174 -0.2027303095496098 0 0 0 0 8.8438825720913883 -50.616247089988747 0 -50.616247089988747 16.712043335066937 0 0 0 0 9.4900734383591043 -53.403179909485971 0 -53.403179909485971 16.008304922667378 0 0 0 0 25.373971245981011 -27.981043121263042 0 -27.981043121263042 4.7038311922801768 0 0 0 0 -31.16645537733848 -37.880196208366556 0 -37.880196208366556 12.187669994180396 0 0 0 0 113.57115375736612 -50.456006057935838 0 -50.456006057935838 17.328114068628111 0 0 0 0 -0.12297051515767343 -0.62010872496653846 0 -0.62010872496653846 0.001221077546546212 0 0 0 0 11.71884616083662 -48.08815958847299 0 -48.08815958847299 1.9607482280300701 0 0 0 0 0.75821613493280893 -42.601443375183635 0 -42.601443375183635 12.895551591688672 0 0 0 0 0.0029638140531460522 -45.872122356991895 0 -45.872122356991895 15.099266935313608 0 0 0 0 2.5446616690246628 -48.385064365042581 0 -48.385064365042581 17.288168566602053 0 0 0 0 3.009099426024477 -47.338170285447177 0 -47.338170285447177 11.361887580027542 0 0 0 0 90.52705990506729 -199.93162815956566 0 -199.93162815956566 364.34027302184859 0 0 0 0 171.32205470035115 -107.86996399723466 0 -107.86996399723466 218.13942993239789 0 0 0 0 71.380003834223317 -139.79077828378831 0 -139.79077828378831 261.29826959206093 0 0 0 0 0.0043691745031537721 -191.80142111885971 0 -191.80142111885971 225.7634600691822 0 0 0 0 105.51867660909375 -162.4997732321126 0 -162.4997732321126 109.00321419068405 0 0 0 0 36.436690298996837 -180.81146931463627 0 -180.81146931463627 106.88622571407416 0 0 0 0 93.758445791092527 -181.30364015648433 0 -181.30364015648433 177.29525822747928 0 0 0 0 158.27864171808869 -176.18602031594401 0 -176.18602031594401 134.65257034607015 0 0 0 0 177.80501973540231 -179.87477635452115 0 -179.87477635452115 56.958289229124603 0 0 0 0 108.98634421550196 -127.15863597021325 0 -127.15863597021325 132.35472966007126 0 0 0 0 141.5803468718932 -140.33090313401999 0 -140.33090313401999 59.663078020112152 0 0 0 0 40.4206366014987 -84.325535097190823 0 -84.325535097190823 125.13415061673732 0 0 0 0 89.358833227173818 -183.04367426122371 0 -183.04367426122371 282.89385387946459 0 0 0 0 203.48077141795511 -179.79767311153773 0 -179.79767311153773 134.60777488672096 0 0 0 0 -98.342642779918606 -11.171438943660633 0 -11.171438943660633 263.13638387761421 0 0 0 0 -169.45775103947926 85.831525347891784 0 85.831525347891784 130.82204454912244 0 0 0 0 -0.10453119962382296 -0.29977521371213101 0 -0.29977521371213101 2.3519142860424296 0 0 0 0 53.215006369646289 3.8300910778662001 0 3.8300910778662001 94.069748488307596 0 0 0 0 49.986517569768694 12.333831661563636 0 12.333831661563636 72.815108228658573 0 0 0 0 78.263959164964035 45.50947187813199 0 45.50947187813199 23.516096935711175 0 0 0 0 -12.047851349620032 17.616952241246508 0 17.616952241246508 72.878845652335258 0 0 0 0 -15.698421614220933 38.956377149494983 0 38.956377149494983 -39.168609148055111 0 0 0 0 -97.900243506352126 -52.358807112066643 0 -52.358807112066643 8.3641355473550902 0 0 0 0 152.93956929768683 -182.50348553777167 0 -182.50348553777167 139.5385682047604 0 0 0 0 1.8126965910651052 19.023520739661762 0 19.023520739661762 54.674670455146725 0 0 0 0 226.39566994101051 -285.74091734968022 0 -285.74091734968022 280.97868203523103 0 0 0 0 0.076658326030155877 -107.95897222433723 0 -107.95897222433723 230.55861965982422 0 0 0 0 134.50781782576269 -209.01828699767339 0 -209.01828699767339 292.35174224174807 0 0 0 0 67.831557879790125 -148.70359516985718 0 -148.70359516985718 201.30077749857719 0 0 0 0 0.063821990637734416 -57.685171412270847 0 -57.685171412270847 80.519864461575708 0 0 0 0 -0.11613178331199769 -1.2051694898278456 0 -1.2051694898278456 5.1200663699325304 0 0 0 0 0.10207174929260532 -0.36186281849156643 0 -0.36186281849156643 1.1988072862521406 0 0 0 0 137.95472630606127 -62.887069190185457 0 -62.887069190185457 30.421046382157328 0 0 0 0 -1.3490966351187126 -2.2227407034135922 0 -2.2227407034135922 3.1973800429914263 0 0 0 0 -10.326065371000368 -4.9115988055664275 0 -4.9115988055664275 12.076462163859105 0 0 0 0 -0.25362422644677451 -2.0198140981549138 0 -2.0198140981549138 3.1231595019012026 0 0 0 0 50.028726566481055 7.9764427677523599 0 7.9764427677523599 -8.4584504956824276 0 0 0 0 47.399084323344141 -58.371772156814586 0 -58.371772156814586 43.895735334659548 0 0 0 0 0.026961860314258956 -16.91743157212386 0 -16.91743157212386 7.6433406156584169 0 0 0 0 -0.72327026577804787 -0.17569371543357448 0 -0.17569371543357448 0.25992019993860715 0 0 0 0 21.770292650311603 -40.102706194208622 0 -40.102706194208622 -157.16792572143049 0 0 0 0 20.059406606276752 -5.8236266378580694 0 -5.8236266378580694 3.2434659871987606 0 0 0 0 -0.14062147654354984 -1.0101682701908956 0 -1.0101682701908956 0.10465161024978542 0 0 0 0 18.120451483036959 -1.9490865015229701 0 -1.9490865015229701 -55.221199380122926 0 0 0 0 -39.325655290457235 -26.095847663337508 0 -26.095847663337508 -65.437566765045631 0 0 0 0 -17.781697010881544 -67.304047103080393 0 -67.304047103080393 -89.628400117811907 0 0 0 0 -0.03681706892530201 -50.132442891998835 0 -50.132442891998835 -69.312147165068382 0 0 0 0 -41.853618942855974 -55.582663446670267 0 -55.582663446670267 54.009137815033682 0 0 0 0 0.0092850860987614588 -120.01003041235289 0 -120.01003041235289 -75.254729992371722 0 0 0 0 -30.673908065960859 -78.392920959864568 0 -78.392920959864568 52.58367907582965 0 0 0 0 1.1615892741522025 -1.6391364519084952 0 -1.6391364519084952 2.2417426456624838 0 0 0 0 387.94592096400902 -169.97538536588854 0 -169.97538536588854 -2.0540108965888066 0 0 0 0 24.073005503559216 -83.741019486400091 0 -83.741019486400091 -0.59263137375182851 0 0 0 0 -16.6884862250281 4.3497243810484179 0 4.3497243810484179 16.869767091184258 0 0 0 0 0.57748060215817532 -44.379262040065441 0 -44.379262040065441 -17.303094666027391 0 0 0 0 33.552149040873701 -62.773759582738876 0 -62.773759582738876 45.237219708262273 0 0 0 0 -13.284820989720174 -28.349180925833934 0 -28.349180925833934 -31.375875098865436 0 0 0 0 1.6362237994480999 -4.3779599208452993 0 -4.3779599208452993 6.1742329119309929 0 0 0 0 0.5294962231621696 -3.1178943843643125 0 -3.1178943843643125 2.7794029345634588 0 0 0 0 -5.774874622684365 -11.305935144271189 0 -11.305935144271189 6.170572822660688 0 0 0 0 -1.2963904968871844 -0.97084998000879352 0 -0.97084998000879352 2.1712341769747709 0 0 0 0 -132.09097930819189 23.582164210075462 0 23.582164210075462 2.2996718602153123 0 0 0 0 217.52608877467355 -162.8645579348813 0 -162.8645579348813 22.266920774169193 0 0 0 0 -122.71631132330731 -156.10540276922438 0 -156.10540276922438 63.689049390114633 0 0 0 0 163.25614979217562 -164.55799785821034 0 -164.55799785821034 -106.23217728188683 0 0 0 0 97.18151279333506 -51.560079282857259 0 -51.560079282857259 136.18270615310394 0 0 0 0 46.938925868020306 71.18834786323896 0 71.18834786323896 -80.853057500023624 0 0 0 0 -6.3425901230693853 18.634613824622647 0 18.634613824622647 64.056344916889202 0 0 0 0 -188.06883233335793 -52.396529601423936 0 -52.396529601423936 67.820599390772259 0 0 0 0 0.16283693869522509 -2.1318447192243806 0 -2.1318447192243806 4.8144459704938463 0 0 0 0 -60.26959383789017 -55.547235009872111 0 -55.547235009872111 -3.3529024198251136 0 0 0 0 -83.132472220826457 -105.00420302606472 0 -105.00420302606472 -110.23625476110965 0 0 0 0 -164.02173463888948 -14.046002250169067 0 -14.046002250169067 48.443592280123994 0 0 0 0 -97.570339301324566 -36.088318254557635 0 -36.088318254557635 -12.206057176477771 0 0 0 0 -102.28734437678122 -35.728465084966047 0 -35.728465084966047 70.200251429712807 0 0 0 0 35.063389739474587 -25.541895492064214 0 -25.541895492064214 57.213955988900125 0 0 0 0 15.447758536141919 -10.155411665768952 0 -10.155411665768952 39.700108889046987 0 0 0 0 -10.411544611468344 25.620188303144459 0 25.620188303144459 29.97950774230776 0 0 0 0 91.844083987518388 56.341963616515386 0 56.341963616515386 63.500892811116501 0 0 0 0 113.08250726762344 -0.22325626440760971 0 -0.22325626440760971 66.368216000118991 0 0 0 0 214.20500205559256 -45.416992948994448 0 -45.416992948994448 42.896533796189033 0 0 0 0 368.74741755230934 -15.656460880509258 0 -15.656460880509258 46.337419238912844 0 0 0 0 254.38063995453558 8.7197666137781198 0 8.7197666137781198 37.618231300513798 0 0 0 0 88.351866510256514 42.696735565932613 0 42.696735565932613 109.63255975263019 0 0 0 0 0.57648002760710781 -0.78675045955411349 0 -0.78675045955411349 -0.53042707936724298 0 0 0 0 218.83624768233312 -177.55680114700408 0 -177.55680114700408 99.629024253856187 0 0 0 0 58.522957259099712 43.303327771411659 0 43.303327771411659 36.977386225645205 0 0 0 0 475.71759600767109 -278.91282162628522 0 -278.91282162628522 150.65836503475111 0 0 0 0 212.39166193944766 -171.53910143028406 0 -171.53910143028406 107.4806012660174 0 0 0 0 0.24986752650118937 -1.4841010581619116 0 -1.4841010581619116 4.0648166833024462 0 0 0 0 747.20617737482462 -303.56879967023542 0 -303.56879967023542 62.907836043217685 0 0 0 0 -30.340773980746235 15.898421860045346 0 15.898421860045346 77.281347253232525 0 0 0 0 69.515995853249592 -127.21580538119764 0 -127.21580538119764 174.67757795436046 0 0 0 0 73.898272934607462 -263.58138035301732 0 -263.58138035301732 444.2367134889937 0 0 0 0 291.00380719118039 29.454977656680057 0 29.454977656680057 360.36774103969583 0 0 0 0 -15.181047156940622 -44.459235338286817 0 -44.459235338286817 270.4879409657733 0 0 0 0 37.37623436949616 4.2607145903830315 0 4.2607145903830315 60.732983237379813 0 0 0 0 2.5365664009914326 -52.514286164532678 0 -52.514286164532678 239.04605638513385 0 0 0 0 228.9749348703408 -16.01894341226398 0 -16.01894341226398 34.593678347980131 0 0 0 0 202.81936697809215 -44.829814139246992 0 -44.829814139246992 255.85981647394692 0 0 0 0 378.11001623778429 -297.62716124777762 0 -297.62716124777762 411.46538000719465 0 0 0 0 661.9862725583298 -351.6816209845183 0 -351.6816209845183 157.67190043157461 0 0 0 0 418.64884211463459 -95.389673518997824 0 -95.389673518997824 78.486612271339254 0 0 0 0 320.76734602620854 -87.718668029787295 0 -87.718668029787295 -19.645450948737562 0 0 0 0 366.60748982989753 -199.57250697808558 0 -199.57250697808558 141.83643227357334 0 0 0 0 367.15645230074733 -198.84157222771864 0 -198.84157222771864 8.0884314448303485 0 0 0 0 161.54698830750044 -140.62701347378243 0 -140.62701347378243 97.892790385238186 0 0 0 0 293.61861454469908 -256.67399213623867 0 -256.67399213623867 64.309965628141981 0 0 0 0 305.16755672541694 -204.90002917270976 0 -204.90002917270976 97.266841375838339 0 0 0 0 0.67088131430430309 -0.59091649623691822 0 -0.59091649623691822 -0.18446494960277526 0 0 0 0 680.11766218932098 -274.24673950573879 0 -274.24673950573879 203.60734104797302 0 0 0 0 392.05686382429576 -117.19724502260124 0 -117.19724502260124 124.39225827463815 0 0 0 0 703.45285766135567 -186.56605150925498 0 -186.56605150925498 20.272902525164682 0 0 0 0 480.13447849397926 -133.5929679406654 0 -133.5929679406654 82.110535858588264 0 0 0 0 46.014794240278206 2.306782384483995 0 2.306782384483995 -61.527796063077403 0 0 0 0 5.3482562448686437 -6.1105106869381842 0 -6.1105106869381842 -2.3675788459120612 0 0 0 0 13.789707852469292 -7.8026938248012812 0 -7.8026938248012812 -7.2028963824868697 0 0 0 0 7.1663949702051468 -43.213405118971423 0 -43.213405118971423 29.910680601577042 0 0 0 0 14.903440499604585 -9.8092561509311054 0 -9.8092561509311054 -0.046022031407119357 0 0 0 0 16.170475514198188 -11.032782274440251 0 -11.032782274440251 -3.3669481358774647 0 0 0 0 13.969783312040818 -13.567609488090056 0 -13.567609488090056 1.7033609781683481 0 0 0 0 317.20847948984067 -2.1497778503788822 0 -2.1497778503788822 -1.7228229105239734 0 0 0 0 0.87306157289247999 -2.3035560285345547 0 -2.3035560285345547 -4.3057069448995691 0 0 0 0 290.83251779866987 -218.86114235505374 0 -218.86114235505374 49.598965251589561 0 0 0 0 319.79748581853676 -225.07565604465 0 -225.07565604465 14.091720289721707 0 0 0 0 11.696317630967314 -16.124965820623061 0 -16.124965820623061 -0.44362119301695202 0 0 0 0 11.303553271217424 -13.507528915818284 0 -13.507528915818284 0.031258152240297932 0 0 0 0 10.987851588739431 -13.713405164333835 0 -13.713405164333835 3.3336382243978733 0 0 0 0 14.039045453613653 -16.707594128954042 0 -16.707594128954042 2.2928313704146603 0 0 0 0 14.479322260809568 -13.259469128675846 0 -13.259469128675846 -0.11025052843979211 0 0 0 0 10.831642590241245 -14.58785177257505 0 -14.58785177257505 0.89191532231416204 0 0 0 0 9.7867883001890732 -14.521122169428963 0 -14.521122169428963 4.1804919703672567 0 0 0 0 9.9820663030285743 -6.4429162093041654 0 -6.4429162093041654 -1.5636679067217854 0 0 0 0 15.491530822728237 28.362790309920456 0 28.362790309920456 -25.782508867950128 0 0 0 0 10.462194956100575 -10.984668709415928 0 -10.984668709415928 -0.80628821878849521 0 0 0 0 11.712100961547549 -13.87152920747576 0 -13.87152920747576 1.3595052755390498 0 0 0 0 -1.7439958495069945 -2.6916850364714371 0 -2.6916850364714371 1.3885179193200745 0 0 0 0 9.4490036789230345 -10.189052347015902 0 -10.189052347015902 9.2231597360108601 0 0 0 0 8.5024228377496911 -17.012111458933646 0 -17.012111458933646 1.1791400777174204 0 0 0 0 4.4810875061702973 -19.238215520953418 0 -19.238215520953418 13.029373325250845 0 0 0 0 19.265846457888983 -15.84519366700988 0 -15.84519366700988 -46.802654765320767 0 0 0 0 8.1768525092484197 -10.254773284867042 0 -10.254773284867042 3.6515171097435086 0 0 0 0 -13.729121625536209 -17.085787811593036 0 -17.085787811593036 1.584495633993356 0 0 0 0 2.7598638515172702 -1.0695274094327374 0 -1.0695274094327374 -2.7052555226965076 0 0 0 0 16.498616769786167 -56.649568719245508 0 -56.649568719245508 41.370741900962457 0 0 0 0 -4.8851696952115162 -37.652763539374973 0 -37.652763539374973 44.743608505976226 0 0 0 0 -22.717868343697774 22.851696694317525 0 22.851696694317525 52.581087373764603 0 0 0 0 23.049075190130679 -34.374857558237636 0 -34.374857558237636 64.340320097805488 0 0 0 0 14.035100454613712 -39.909605380331413 0 -39.909605380331413 6.3619823231465489 0 0 0 0 -20.994812271172123 -17.954908065967174 0 -17.954908065967174 19.822491512062697 0 0 0 0 -13.039374369534926 -73.482299490065998 0 -73.482299490065998 109.30475937640767 0 0 0 0 -22.948934046260547 -23.299011649241038 0 -23.299011649241038 88.711073313916131 0 0 0 0 64.680548198884935 -122.10552752715375 0 -122.10552752715375 100.63713353548246 0 0 0 0 -1.1724567894198117 -45.586374006255028 0 -45.586374006255028 153.09888031294031 0 0 0 0 178.63694100298017 -206.46695151621316 0 -206.46695151621316 151.62632220307751 0 0 0 0 39.666743466164917 -141.8007467116413 0 -141.8007467116413 237.22717208740141 0 0 0 0 26.937055660820988 -112.84846425615524 0 -112.84846425615524 173.78025240393617 0 0 0 0 45.226272140514084 -88.708407042276576 0 -88.708407042276576 79.099704474538157 0 0 0 0 82.38435948800543 -161.48898268064841 0 -161.48898268064841 131.27095961220402 0 0 0 0 95.288340965977113 -134.4422465939133 0 -134.4422465939133 121.54293358961149 0 0 0 0 22.732563572619256 -91.695944902381598 0 -91.695944902381598 57.430717092107443 0 0 0 0 74.717529885547265 -115.1075294410557 0 -115.1075294410557 98.479951856661501 0 0 0 0 4.0264558856524673 -85.22308930318377 0 -85.22308930318377 118.34346585872481 0 0 0 0 125.19352564133442 -120.48996076713229 0 -120.48996076713229 118.09918871636546 0 0 0 0 22.116648144807186 -78.06893051458178 0 -78.06893051458178 102.65323045738114 0 0 0 0 52.994284693906593 -136.47022423730459 0 -136.47022423730459 127.75939737685985 0 0 0 0 56.175203717173645 -153.04178471625801 0 -153.04178471625801 182.03318533741822 0 0 0 0 61.023890797279819 -92.22213280343567 0 -92.22213280343567 156.44629673128111 0 0 0 0 2.0328474199307038 -0.74875078243757542 0 -0.74875078243757542 -1.3999772577884499 0 0 0 0 -0.78632027263834559 -1.4166266632676852 0 -1.4166266632676852 1.1573954182177246 0 0 0 0 8.0181053176056594 -4.3672486198775005 0 -4.3672486198775005 1.0600751815582043 0 0 0 0 168.16761944414247 -128.8650267122448 0 -128.8650267122448 124.48112373430558 0 0 0 0 113.34480467254525 -153.0703543387441 0 -153.0703543387441 132.30625401660836 0 0 0 0 1.137728723704754 -0.16623567293633812 0 -0.16623567293633812 0.1125746905594518 0 0 0 0 167.11002435448972 31.656702725762443 0 31.656702725762443 25.321099441139268 0 0 0 0 179.64999833253023 -49.443569969687815 0 -49.443569969687815 16.282941105955615 0 0 0 0 95.73773618211635 7.550580272232537 0 7.550580272232537 36.492359542253325 0 0 0 0 100.48226292854088 0.58960461993410718 0 0.58960461993410718 38.90626006124694 0 0 0 0 115.29871510553312 -22.583352478139659 0 -22.583352478139659 72.041569671275283 0 0 0 0 93.025388092155481 -56.043749491102972 0 -56.043749491102972 27.849839196292123 0 0 0 0 70.110260867353645 -33.788016326102479 0 -33.788016326102479 48.279975258936247 0 0 0 0 97.637349433561667 -58.383637072625334 0 -58.383637072625334 27.134534981443721 0 0 0 0 83.719905529236712 -51.632368649802629 0 -51.632368649802629 59.311699865969331 0 0 0 0 81.935663646325338 -58.598489333847283 0 -58.598489333847283 136.51279209057202 0 0 0 0 88.933928613769694 -66.642303570612739 0 -66.642303570612739 90.304711654105631 0 0 0 0 96.166687703027492 -92.89012486784577 0 -92.89012486784577 88.355215492199932 0 0 0 0 96.855658774318727 -92.910254227619589 0 -92.910254227619589 87.463852471390851 0 0 0 0 96.19628841080339 -100.13343164308753 0 -100.13343164308753 78.004931508509799 0 0 0 0 -0.87845946763719596 -1.2421709906369429 0 -1.2421709906369429 0.38580397856958371 0 0 0 0 8.5065703795817171 -6.2739977658286534 0 -6.2739977658286534 -2.1502642676878168 0 0 0 0 132.57737097436802 -98.407149773760466 0 -98.407149773760466 64.111747670556724 0 0 0 0 0.9034650220801268 9.5010306032702374 0 9.5010306032702374 -0.25790520163354813 0 0 0 0 -19.309816714564477 -1.5850416815014796 0 -1.5850416815014796 5.8951252632218711 0 0 0 0 2.4838451758141673 -2.7784437791553955 0 -2.7784437791553955 3.3000238573276874 0 0 0 0 0.2757985041901847 -0.79776801770757899 0 -0.79776801770757899 -0.9819112419885343 0 0 0 0 2.338164017467534 -2.8167426908435118 0 -2.8167426908435118 5.4699709400701977 0 0 0 0 -75.304545867487832 -72.105655407669474 0 -72.105655407669474 168.52939351597797 0 0 0 0 -85.294079426101234 -123.49006331509145 0 -123.49006331509145 74.840346719976878 0 0 0 0 -0.078220534191430602 -0.42864552412173396 0 -0.42864552412173396 -0.38546121789672938 0 0 0 0 -25.737177135730235 -69.141330445059793 0 -69.141330445059793 -87.604482773926065 0 0 0 0 -129.45320041326613 -125.67076010065421 0 -125.67076010065421 41.163763352636124 0 0 0 0 -110.31091989121614 -64.829773920653679 0 -64.829773920653679 -19.500165395125805 0 0 0 0 -76.918820185565892 -112.04487407784654 0 -112.04487407784654 -123.28436966006302 0 0 0 0 -104.54161027818918 -79.710556195227582 0 -79.710556195227582 70.101317069731977 0 0 0 0 -110.16050044743315 -89.758637444528517 0 -89.758637444528517 157.70044936438717 0 0 0 0 -96.729764070037618 -126.18618455391925 0 -126.18618455391925 126.06815166954948 0 0 0 0 -34.447612426566593 -108.83308475426793 0 -108.83308475426793 117.59052879802221 0 0 0 0 -62.693090115549921 -91.91059316561666 0 -91.91059316561666 107.5568329619382 0 0 0 0 -63.010173779124671 -90.064448239058947 0 -90.064448239058947 101.11022854186922 0 0 0 0 -55.661920040583936 -92.30331817476349 0 -92.30331817476349 108.46518836745599 0 0 0 0 -70.459879581658242 -73.811760659370975 0 -73.811760659370975 136.4493694928251 0 0 0 0 62.530557092371964 -93.005810801437292 0 -93.005810801437292 114.41388438223294 0 0 0 0 -32.890428508620971 -62.77282230610308 0 -62.77282230610308 142.97610240600443 0 0 0 0 22.154273182224642 -119.93548956000905 0 -119.93548956000905 137.38965686907704 0 0 0 0 -36.219092447576259 -108.5529330158588 0 -108.5529330158588 87.011461214618976 0 0 0 0 8.1206130821965417 -59.948579713192885 0 -59.948579713192885 10.850200566868807 0 0 0 0 -51.599446164083929 -53.364053528490331 0 -53.364053528490331 101.31952555384123 0 0 0 0 -50.742144836811349 -90.149505359665454 0 -90.149505359665454 26.197687072179178 0 0 0 0 -110.97073324805751 -85.034886679895862 0 -85.034886679895862 26.160446682299153 0 0 0 0 -0.82261632931913198 -0.21387399999163037 0 -0.21387399999163037 -0.20050815925280752 0 0 0 0 -1.7036985909089708 -53.56224316283442 0 -53.56224316283442 -149.90342961849092 0 0 0 0 -14.100352910660149 -40.316190987266964 0 -40.316190987266964 20.193442127881099 0 0 0 0 0.33611709720753424 -50.684887072199672 0 -50.684887072199672 -9.4886746275005862 0 0 0 0 6.9150486543794614 -13.159370121471511 0 -13.159370121471511 -0.11492612422352977 0 0 0 0 -59.050543805961752 -68.418354773676583 0 -68.418354773676583 -10.449445192920393 0 0 0 0 -30.109931296323339 -19.356701953686752 0 -19.356701953686752 53.650173782442835 0 0 0 0 -2.4265766827994639 -23.400293688539023 0 -23.400293688539023 -12.21893602473574 0 0 0 0 -4.5554343683197658 -11.418293282582397 0 -11.418293282582397 9.7352904626841337 0 0 0 0 37.263273809232487 -0.79702326523965894 0 -0.79702326523965894 -8.4762283858690353 0 0 0 0 30.808520577293166 -9.9357604531596735 0 -9.9357604531596735 -2.2433740379246956 0 0 0 0 -4.7354739068591059 -3.693184656016868 0 -3.693184656016868 -3.5418138748194394 0 0 0 0 0.57178448976810614 -10.474479127992709 0 -10.474479127992709 10.502376003120844 0 0 0 0 1.8990583655595401 -41.239797068988992 0 -41.239797068988992 -49.308270065133911 0 0 0 0 6.630386350045228 -92.112754099238373 0 -92.112754099238373 -85.501109993731006 0 0 0 0 11.782570370447502 -83.584822088553665 0 -83.584822088553665 -116.27071246629748 0 0 0 0 23.549298949339573 -32.069753557395416 0 -32.069753557395416 -55.601145706290026 0 0 0 0 -9.1575847895660445 62.99639214449212 0 62.99639214449212 -297.2857084900952 0 0 0 0 22.616513524099219 -103.55710168750443 0 -103.55710168750443 -115.67816765961106 0 0 0 0 26.188930281783541 -125.98301213273953 0 -125.98301213273953 -80.140583378748488 0 0 0 0 45.091200266433589 -194.4951107480756 0 -194.4951107480756 45.37853543657161 0 0 0 0 -19.877728724215558 -93.983242083163077 0 -93.983242083163077 5.1592992662099277 0 0 0 0 -30.475107918508002 -60.800008520921438 0 -60.800008520921438 -85.694814299444062 0 0 0 0 -70.610349337328444 -74.968434718774915 0 -74.968434718774915 92.56193480330785 0 0 0 0 -29.802764986414331 -88.607088766870675 0 -88.607088766870675 3.6064757512758661 0 0 0 0 -4.8997357405414732 -134.07905465930207 0 -134.07905465930207 85.629805114365809 0 0 0 0 41.924184272180355 -99.811250098146957 0 -99.811250098146957 27.989652885906708 0 0 0 0 176.1722496085913 -61.180347546222947 0 -61.180347546222947 112.12912404669669 0 0 0 0 74.595467159600048 -162.24881938702674 0 -162.24881938702674 85.158480618345493 0 0 0 0 1.7563407249051046 0.79263594369368917 0 0.79263594369368917 -1.0434279281444034 0 0 0 0 253.33832632894519 -174.59226385907368 0 -174.59226385907368 19.593418977048714 0 0 0 0 0.40874777479177027 -0.043729222619155905 0 -0.043729222619155905 -0.75933419875151742 0 0 0 0 -160.46218569850316 -45.129850292543779 0 -45.129850292543779 -449.75693325898465 0 0 0 0 -60.968652816263784 107.62031989446859 0 107.62031989446859 -44.41560205971291 0 0 0 0 -70.922806316954848 159.82180870564071 0 159.82180870564071 -237.02768271108653 0 0 0 0 34.085430298666324 55.720852305503286 0 55.720852305503286 -444.9720202554563 0 0 0 0 134.5932862128102 -247.52109830100198 0 -247.52109830100198 24.961417093076761 0 0 0 0 148.26942346612122 -162.83747351387137 0 -162.83747351387137 -256.3993854532946 0 0 0 0 120.16400997553501 -192.07514305199584 0 -192.07514305199584 -183.82810933258042 0 0 0 0 110.01272325985701 63.977506282730246 0 63.977506282730246 -443.7391617641224 0 0 0 0 -46.799315932461468 -98.266524056220078 0 -98.266524056220078 2.2714710395566726 0 0 0 0 -1.6727651883434689 -1.3430002350833945 0 -1.3430002350833945 -1.219351748916214 0 0 0 0 20.409257614395756 -127.83089673518225 0 -127.83089673518225 -421.9544933779332 0 0 0 0 31.124776167453092 66.557964600840251 0 66.557964600840251 -248.53461600294759 0 0 0 0 17.996976570901097 -122.98323345645031 0 -122.98323345645031 -245.42612166213803 0 0 0 0 -80.310780187855016 -162.72705668341496 0 -162.72705668341496 -94.604878957808978 0 0 0 0 -36.7231856094254 -45.277571337954896 0 -45.277571337954896 -22.976274836559242 0 0 0 0 7.9640572061216517 -50.740422369889529 0 -50.740422369889529 -28.390382117109766 0 0 0 0 -18.277256197445695 -101.73378605229891 0 -101.73378605229891 -83.001255895398572 0 0 0 0 -19.396120208792127 -67.750477543515444 0 -67.750477543515444 -81.973226657841224 0 0 0 0 27.586285730879354 5.8006434442463615 0 5.8006434442463615 2.5382400510716252 0 0 0 0 -31.660228878976341 -28.325373910463895 0 -28.325373910463895 29.954721807936949 0 0 0 0 39.926247367791802 -73.126070580789474 0 -73.126070580789474 -81.785217662252762 0 0 0 0 43.96618973731529 -59.157649120868882 0 -59.157649120868882 -61.859039832744202 0 0 0 0 41.73716495005101 -81.168461034333632 0 -81.168461034333632 -50.802640494648585 0 0 0 0 27.754381784630823 -70.865481059622653 0 -70.865481059622653 -29.283303659187823 0 0 0 0 26.79788684772393 -86.53543798299188 0 -86.53543798299188 -70.026819649734534 0 0 0 0 3.4390638239456166 -66.3318702914612 0 -66.3318702914612 -31.739679630573846 0 0 0 0 32.052495626052405 -56.545266361875292 0 -56.545266361875292 -88.843163413665934 0 0 0 0 54.025842837181699 -52.104890978624098 0 -52.104890978624098 -166.12494730983053 0 0 0 0 25.142531369439894 -63.782899940066272 0 -63.782899940066272 -141.92099821003649 0 0 0 0 25.262796668510418 -71.419069509912333 0 -71.419069509912333 -109.73566370353547 0 0 0 0 53.11348842350435 -39.255319031666659 0 -39.255319031666659 -87.264257253138567 0 0 0 0 52.088570249305121 -34.487624423102716 0 -34.487624423102716 -102.48587731346743 0 0 0 0 37.549239736095842 2.6834928433659115 0 2.6834928433659115 -89.097610990578687 0 0 0 0 36.959484310327753 5.6380302003881297 0 5.6380302003881297 -75.123719173294376 0 0 0 0 41.397457267510617 37.610782316367477 0 37.610782316367477 -200.00098155669366 0 0 0 0 34.509730156880323 32.515521074494245 0 32.515521074494245 -139.54562557948634 0 0 0 0 -14.274491037009284 21.23173252804736 0 21.23173252804736 -12.197057553185687 0 0 0 0 -16.296010202511752 26.940951783260971 0 26.940951783260971 -21.80875683936938 0 0 0 0 13.988144455706788 31.347621734925269 0 31.347621734925269 -73.63841630516913 0 0 0 0 22.943604139923082 12.322660293606532 0 12.322660293606532 -34.675555358702695 0 0 0 0 1.985498690996792 13.184592867403808 0 13.184592867403808 -12.461581805517199 0 0 0 0 13.496288426316823 2.1138167234694265 0 2.1138167234694265 -2.448380196807193 0 0 0 0 194.97122098203454 9.6834444112928395 0 9.6834444112928395 -66.200536430553257 0 0 0 0 2.996453983472211 2.3606410022588804 0 2.3606410022588804 0.40223338624940652 0 0 0 0 4.1590304778824247 7.3289215501683884 0 7.3289215501683884 -11.201710822586392 0 0 0 0 314.47193253172918 -149.37740473049053 0 -149.37740473049053 27.146990553274463 0 0 0 0 84.936190024360258 -109.61172092488505 0 -109.61172092488505 90.610010862053855 0 0 0 0 -13.264345894135658 -170.09439999470715 0 -170.09439999470715 122.48292019088512 0 0 0 0 29.22988696014545 -162.53646818121706 0 -162.53646818121706 103.72606753981108 0 0 0 0 23.845826532115098 -237.66421918102697 0 -237.66421918102697 90.20973797704255 0 0 0 0 190.97070453031392 -245.32438286229672 0 -245.32438286229672 78.050758896808475 0 0 0 0 406.58083209463075 -482.40986585470819 0 -482.40986585470819 186.57435141903989 0 0 0 0 -92.052181595117872 -180.11498006621019 0 -180.11498006621019 148.85977874039781 0 0 0 0 -177.74600375004411 -32.64500728962048 0 -32.64500728962048 55.339552144381287 0 0 0 0 3.8457495045333872 -3.7244252798902426 0 -3.7244252798902426 3.019952875178987 0 0 0 0 -235.01810959618342 -270.59090295459555 0 -270.59090295459555 192.6347753271383 0 0 0 0 735.68697048852755 -131.06149821873169 0 -131.06149821873169 -125.41849928439387 0 0 0 0 522.092781902561 -271.17388382539548 0 -271.17388382539548 65.055837416978648 0 0 0 0 -6.1378353434738528 -91.158033487987268 0 -91.158033487987268 31.634658955665145 0 0 0 0 -31.150380799990671 23.758934676906847 0 23.758934676906847 265.12656000639072 0 0 0 0 2.6127482280032233 2.8063475174762083 0 2.8063475174762083 1.1463178876770641 0 0 0 0 14.794078906556024 -0.012508907641858968 0 -0.012508907641858968 -3.3190987311518256 0 0 0 0 607.61697642182844 3.717049633656643 0 3.717049633656643 -90.09129127248525 0 0 0 0 625.51285787824145 -371.04870350769397 0 -371.04870350769397 66.087955380669882 0 0 0 0 33.979614244604591 -36.850648560971649 0 -36.850648560971649 -35.304534113060072 0 0 0 0 77.431659413485249 -303.0515536607636 0 -303.0515536607636 404.63387793403126 0 0 0 0 4.701088543554313 -1.4460749310616592 0 -1.4460749310616592 0.56152716923729074 0 0 0 0 80.410920123427786 -119.30665623574532 0 -119.30665623574532 14.598477490195364 0 0 0 0 756.61318708445106 -357.14288871331792 0 -357.14288871331792 130.07612271059588 0 0 0 0 647.10000627826525 132.73034942528568 0 132.73034942528568 -89.711576815085209 0 0 0 0 269.70570858641804 22.472343133657887 0 22.472343133657887 -151.41590566181162 0 0 0 0 8.1076195592249043 -8.7926568932169928 0 -8.7926568932169928 7.8546956468457942 0 0 0 0 -34.274490988218076 -301.91565336948656 0 -301.91565336948656 66.777508449535162 0 0 0 0 147.57359448387012 2.5149961223775108 0 2.5149961223775108 -54.288439542142441 0 0 0 0 120.50233504874177 114.97703624485621 0 114.97703624485621 217.1115208605629 0 0 0 0 -38.277276870907372 59.233212826720774 0 59.233212826720774 84.650749208367415 0 0 0 0 170.25310768608051 6.9884537084658405 0 6.9884537084658405 17.127575202528533 0 0 0 0 157.06543935409718 -19.366009277685407 0 -19.366009277685407 -5.5871224402708322 0 0 0 0 319.75191605525879 -92.146861406780772 0 -92.146861406780772 -10.808091957449506 0 0 0 0 578.70179445859594 64.205725961665848 0 64.205725961665848 -9.9415950650491141 0 0 0 0 255.37529400071162 -229.84408907775219 0 -229.84408907775219 88.397706723022566 0 0 0 0 271.63457965461748 -192.15606825328086 0 -192.15606825328086 14.369804197616759 0 0 0 0 263.28402011627441 -175.92891565176797 0 -175.92891565176797 21.141309073496359 0 0 0 0 212.07803891114418 -108.06023656844627 0 -108.06023656844627 66.408456362492871 0 0 0 0 241.76473399880024 -167.92584356381622 0 -167.92584356381622 56.908652281417744 0 0 0 0 198.995551536319 -75.414678049564827 0 -75.414678049564827 24.397790369447648 0 0 0 0 187.43155693739664 -57.29892908666784 0 -57.29892908666784 2.1830617243249435 0 0 0 0 0.17532921935195134 -0.21097147498382185 0 -0.21097147498382185 -0.084069202195522053 0 0 0 0 99.796620920300484 -51.593271334609199 0 -51.593271334609199 48.356685952270709 0 0 0 0 201.88343050128174 -118.95589256775679 0 -118.95589256775679 55.975549257243983 0 0 0 0 169.16859096679036 -58.256786312413169 0 -58.256786312413169 30.099789581720415 0 0 0 0 212.1711536795774 -105.00730502910301 0 -105.00730502910301 18.442381934593868 0 0 0 0 154.58836890129805 -77.065519306977876 0 -77.065519306977876 10.176733913271164 0 0 0 0 40.771856609649149 -22.003804182152635 0 -22.003804182152635 21.356777393823222 0 0 0 0 173.60306153904867 -55.868968568149285 0 -55.868968568149285 -81.449627938840422 0 0 0 0 0.27355816522654486 0.075129090731032022 0 0.075129090731032022 -0.16937404703892156 0 0 0 0 231.58794545256933 -48.980825160645509 0 -48.980825160645509 -3.8633602172503743 0 0 0 0 154.01065797776073 -103.11559266385257 0 -103.11559266385257 -0.015862046391703188 0 0 0 0 -8.5906792346058864 -15.789821871430831 0 -15.789821871430831 -19.915208115990936 0 0 0 0 -1.4989303326501613 -2.6742079277737503 0 -2.6742079277737503 -0.045973204341862584 0 0 0 0 -0.7114151617170883 -0.59156930143425157 0 -0.59156930143425157 -0.3386797066902254 0 0 0 0 -16.857012704615045 -22.214754129910943 0 -22.214754129910943 0.070591673515333797 0 0 0 0 -17.00559909642925 -12.975848158279405 0 -12.975848158279405 45.111830614310747 0 0 0 0 96.687964020363324 -39.690724075441722 0 -39.690724075441722 11.367370011394996 0 0 0 0 -13.64342637484333 -5.9615174694326925 0 -5.9615174694326925 14.694608923885426 0 0 0 0 15.02782463713902 24.754540648575812 0 24.754540648575812 -24.472074332914417 0 0 0 0 29.754329881619697 1.06680197208766 0 1.06680197208766 13.259623244748582 0 0 0 0 -6.2081047812207544 5.1199404794333532 0 5.1199404794333532 26.006910043085099 0 0 0 0 26.207401786397895 -8.5439877121370955 0 -8.5439877121370955 18.588447129252017 0 0 0 0 0.18304616411777364 -0.11454142453593619 0 -0.11454142453593619 0.010509458505460145 0 0 0 0 90.108070900082566 -11.555421019699907 0 -11.555421019699907 9.7276378034821391 0 0 0 0 20.974349538823844 -6.8163622927568213 0 -6.8163622927568213 20.938536049459799 0 0 0 0 31.753403631278161 10.515794707732312 0 10.515794707732312 28.598769991378504 0 0 0 0 2.7923684372540265 12.705265573167253 0 12.705265573167253 21.977623632063114 0 0 0 0 -35.387296072733079 1.8490343907315037 0 1.8490343907315037 26.466432095689015 0 0 0 0 -26.049560660427915 -18.647667019794881 0 -18.647667019794881 -0.77093057939782739 0 0 0 0 -5.3821604361810387 -9.4422133744124039 0 -9.4422133744124039 10.654654508907697 0 0 0 0 -17.645714764008517 4.0737009622134792 0 4.0737009622134792 17.219392809437522 0 0 0 0 -6.3676973937672301 8.5969614451641974 0 8.5969614451641974 18.736501503379259 0 0 0 0 -10.158186072062563 14.47478861736812 0 14.47478861736812 9.2955365738926048 0 0 0 0 -2.9783436114674906 -1.0419884884495048 0 -1.0419884884495048 -0.71423645808495095 0 0 0 0 -1.2006578479213204 -4.3146639240294462 0 -4.3146639240294462 2.3268676683901504 0 0 0 0 -0.63366602453788801 -4.1991340447798393 0 -4.1991340447798393 1.0507714242448856 0 0 0 0 -0.53373952737911168 -3.566706748044453 0 -3.566706748044453 0.014600159916881239 0 0 0 0 -1.172659870933785 -3.4281317923505412 0 -3.4281317923505412 1.6946892283003763 0 0 0 0 1.6685726798623364 -5.4601160524598527 0 -5.4601160524598527 -0.0022812186070950702 0 0 0 0 0.95008993390274554 -5.2776500937084165 0 -5.2776500937084165 1.2868298509019951 0 0 0 0 -0.092683193017819576 -5.4927149368174923 0 -5.4927149368174923 2.4880860201610631 0 0 0 0 1.2637509811393102 -7.7532065329723991 0 -7.7532065329723991 4.4995525638742038 0 0 0 0 4.2961743033637951 -5.5558722764811685 0 -5.5558722764811685 4.3307757217788634 0 0 0 0 2.1632469678820598 -6.0574261649489927 0 -6.0574261649489927 1.117923562109354 0 0 0 0 -99.383106708919513 -142.97638566118258 0 -142.97638566118258 19.90621391028435 0 0 0 0 -99.07014980952772 -104.56832347550244 0 -104.56832347550244 -271.68991877894223 0 0 0 0 2.1138793384353249 -3.524112723507038 0 -3.524112723507038 0.98158577467557961 0 0 0 0 -4.0065058817709023 -3.5613113981409015 0 -3.5613113981409015 0.59261645661651485 0 0 0 0 -15.33189035077703 -17.123712957038151 0 -17.123712957038151 11.269822746904538 0 0 0 0 -20.907634543886161 -18.564546137528851 0 -18.564546137528851 12.432533979910204 0 0 0 0 10.075995335272616 -9.6256444758228987 0 -9.6256444758228987 6.287254043061445 0 0 0 0 -21.664694057926681 -9.8167672527451941 0 -9.8167672527451941 11.424188633575341 0 0 0 0 -84.393499676198189 -230.31290635067307 0 -230.31290635067307 -157.08874252776513 0 0 0 0 -15.931379992012808 -229.7363155686844 0 -229.7363155686844 -166.63284313026452 0 0 0 0 -38.034899769229014 -180.58791799761457 0 -180.58791799761457 -179.24964702954458 0 0 0 0 100.76862368328875 -148.80212159137318 0 -148.80212159137318 -183.68531222307138 0 0 0 0 -90.208775951203279 -114.44845928104496 0 -114.44845928104496 -92.643077148167322 0 0 0 0 12.879536894046396 -228.73511597099969 0 -228.73511597099969 22.193511721978211 0 0 0 0 49.155353768805071 -85.756457644539296 0 -85.756457644539296 -35.625015878148588 0 0 0 0 -126.45118392419135 -90.784994139434275 0 -90.784994139434275 -76.369478478807196 0 0 0 0 -195.90536316294128 -232.75714675843233 0 -232.75714675843233 -119.88534983110731 0 0 0 0 10.242918306865224 -10.307177390790752 0 -10.307177390790752 8.7316778238607071 0 0 0 0 -99.271873925670661 -80.599208087861371 0 -80.599208087861371 -7.5872314243392793 0 0 0 0 -67.260153660235119 -53.954256761247962 0 -53.954256761247962 7.4588233918013884 0 0 0 0 -59.315966192305495 -4.5701961108879914 0 -4.5701961108879914 46.872193933884773 0 0 0 0 9.4567533006424895 -10.269489752841276 0 -10.269489752841276 9.5553705378463292 0 0 0 0 -179.46530940796038 -202.91416613492356 0 -202.91416613492356 -144.66848608974124 0 0 0 0 -228.60183703118128 -190.07313285891178 0 -190.07313285891178 -87.948994423861222 0 0 0 0 -177.85591395467071 -105.16345529783817 0 -105.16345529783817 -36.532020024218582 0 0 0 0 -109.94577568599288 -84.63799922447788 0 -84.63799922447788 -29.743934124447151 0 0 0 0 -109.39436372116506 -102.40048489875289 0 -102.40048489875289 -82.517772992577193 0 0 0 0 -78.891070212638624 -87.123947145050579 0 -87.123947145050579 -57.648653496415136 0 0 0 0 -92.693736335831545 -117.06449041505925 0 -117.06449041505925 -10.184170913105845 0 0 0 0 -77.768700205655477 -81.630650588808521 0 -81.630650588808521 -31.022188295635715 0 0 0 0 -94.225847111432813 -124.75055764125568 0 -124.75055764125568 -48.649270535659525 0 0 0 0 180.60702897008741 -172.49415084144812 0 -172.49415084144812 -20.393913762149168 0 0 0 0 186.93175187508314 -160.1213551879091 0 -160.1213551879091 3.0754881381035375 0 0 0 0 -0.22757275308429925 -0.6295571576960306 0 -0.6295571576960306 -0.054730556052135171 0 0 0 0 -97.653758236801878 -59.879134776999763 0 -59.879134776999763 -29.033224825768912 0 0 0 0 259.37771560661258 -153.33336925050071 0 -153.33336925050071 -10.64819094757695 0 0 0 0 152.23181954608663 -89.575529739885496 0 -89.575529739885496 77.471161255908555 0 0 0 0 89.120714893680997 -125.50498136919668 0 -125.50498136919668 68.166216073194846 0 0 0 0 128.8832358516047 -88.984266308732003 0 -88.984266308732003 58.966018048826299 0 0 0 0 70.169670775296709 -88.482730492984729 0 -88.482730492984729 87.877619697988848 0 0 0 0 139.9188145130579 -100.73230084465365 0 -100.73230084465365 44.573058286443484 0 0 0 0 132.86755711988008 -67.86864576530661 0 -67.86864576530661 19.955591969355737 0 0 0 0 -2.1104410569532774 -139.0683328852092 0 -139.0683328852092 66.587954705949187 0 0 0 0 46.853628265049338 -64.539067493974471 0 -64.539067493974471 51.763944683723366 0 0 0 0 -13.30529017733852 -29.006989793144157 0 -29.006989793144157 -56.25688862421157 0 0 0 0 132.84119286038367 -39.39341181992495 0 -39.39341181992495 28.267783787146982 0 0 0 0 51.278560211412696 -107.8789316323755 0 -107.8789316323755 39.376488703168889 0 0 0 0 160.33704189214586 -163.67515311857869 0 -163.67515311857869 0.38421941619162681 0 0 0 0 71.311070480680428 -94.02004292327365 0 -94.02004292327365 -25.197622750603841 0 0 0 0 -123.12933626084123 -45.874632802277574 0 -45.874632802277574 -146.68994632104841 0 0 0 0 7.8082614106679102 -187.99489516596623 0 -187.99489516596623 -41.802025123011617 0 0 0 0 -435.1435788362387 -268.85056428533562 0 -268.85056428533562 34.009093018383282 0 0 0 0 -100.98217586182272 -290.55490516799671 0 -290.55490516799671 -55.562179195983845 0 0 0 0 1.4633988159209466 -1.7748235722145083 0 -1.7748235722145083 0.046728025026069986 0 0 0 0 625.68760760136138 -84.715695926891385 0 -84.715695926891385 -127.1250470471623 0 0 0 0 105.47532998750467 -239.07289097093962 0 -239.07289097093962 95.434786708545289 0 0 0 0 260.26288478216884 0.3908926147623788 0 0.3908926147623788 -63.279846083845712 0 0 0 0 78.702699191554984 -72.387520865670467 0 -72.387520865670467 -168.07273952223659 0 0 0 0 76.107560077291055 -127.82942682339853 0 -127.82942682339853 -61.344806824063895 0 0 0 0 100.82190582358817 -129.5318534785165 0 -129.5318534785165 -160.09300794161345 0 0 0 0 109.05052282348151 -161.48582786494626 0 -161.48582786494626 -189.44636240538966 0 0 0 0 121.88512838488805 -76.154833731727649 0 -76.154833731727649 -196.67820117295923 0 0 0 0 142.13242362458141 -122.55296603241186 0 -122.55296603241186 -228.04788271971302 0 0 0 0 134.44560657409875 -109.41474014260075 0 -109.41474014260075 -200.8972337824307 0 0 0 0 143.64044530869432 -129.10855638323483 0 -129.10855638323483 -222.86097841721357 0 0 0 0 11.731644280664113 -57.421183072813392 0 -57.421183072813392 -205.172782388614 0 0 0 0 113.69561411334871 -129.14870852814238 0 -129.14870852814238 -159.80334435834448 0 0 0 0 151.96550797178315 -101.54612232132513 0 -101.54612232132513 -158.17627482472278 0 0 0 0 132.59223901083533 6.0249289131534169 0 6.0249289131534169 -50.557858438830408 0 0 0 0 116.54604418885174 -103.18282909673508 0 -103.18282909673508 -99.159596391138621 0 0 0 0 628.55810773484154 105.92135773427526 0 105.92135773427526 -56.82253702120488 0 0 0 0 2.350029430956333 -1.4664711918821007 0 -1.4664711918821007 1.3659131667881823 0 0 0 0 0.3898183426772448 -6.1648562242376101 0 -6.1648562242376101 -0.0028951008371222997 0 0 0 0 297.98738586908075 -390.37958830229536 0 -390.37958830229536 -0.043842992476129439 0 0 0 0 323.8706394422029 -430.44597593977574 0 -430.44597593977574 -58.734856120901895 0 0 0 0 -340.41674811039411 -465.57421311984763 0 -465.57421311984763 -19.323200743833695 0 0 0 0 1.9388937520322962 -2.2607842159913289 0 -2.2607842159913289 0.012955971181483505 0 0 0 0 480.13959924315623 -485.1247767730074 0 -485.1247767730074 0.43571340515336487 0 0 0 0 279.02824061387219 -124.317889675468 0 -124.317889675468 -94.838201927093905 0 0 0 0 798.13212130292686 -123.95246365861385 0 -123.95246365861385 -160.53017368270775 0 0 0 0 308.18611191022273 -341.80504484171615 0 -341.80504484171615 -122.40798945678034 0 0 0 0 3.2378432440568758 -3.9491547819817914 0 -3.9491547819817914 0.17327393648652389 0 0 0 0 -56.623507126203549 -249.73294354811696 0 -249.73294354811696 -92.06969947180005 0 0 0 0 -12.815746815309467 -159.16807364679221 0 -159.16807364679221 -50.912243861523166 0 0 0 0 157.84798354886334 -246.08949213273354 0 -246.08949213273354 -68.755040646626867 0 0 0 0 163.21355905242672 -227.39129799759121 0 -227.39129799759121 -11.97935081885953 0 0 0 0 358.01437876193449 -166.56018335697991 0 -166.56018335697991 -43.130775954608907 0 0 0 0 149.1657408981041 -152.01591265220691 0 -152.01591265220691 -43.756343116649077 0 0 0 0 106.98373396877651 -323.82618861514129 0 -323.82618861514129 -98.9506419142308 0 0 0 0 316.67707355262064 -151.86164417048531 0 -151.86164417048531 153.06787079516289 0 0 0 0 201.74245660997076 -337.28883859369307 0 -337.28883859369307 221.85928561159017 0 0 0 0 609.94502627097336 -426.06588643426585 0 -426.06588643426585 93.335373801201058 0 0 0 0 -149.73805728964726 -208.03613336107992 0 -208.03613336107992 24.354135354389655 0 0 0 0 -0.68906852046022138 -1.9104140519846915 0 -1.9104140519846915 -0.95012254589281753 0 0 0 0 45.185106926670414 -470.22219418633813 0 -470.22219418633813 -32.932797144600045 0 0 0 0 365.82428915310084 -381.02519766552541 0 -381.02519766552541 -59.443850400855354 0 0 0 0 118.71935821739135 -258.05399746628336 0 -258.05399746628336 -334.70578666669644 0 0 0 0 1.0863995798050041 -1.5363385661307376 0 -1.5363385661307376 0.03801686912261526 0 0 0 0 80.718728460964485 -552.38134316531091 0 -552.38134316531091 428.85083008066431 0 0 0 0 162.6640895781502 -426.06951383245996 0 -426.06951383245996 84.025981964920902 0 0 0 0 99.922257050588087 -332.50147491093776 0 -332.50147491093776 -0.043915879259216709 0 0 0 0 -0.46359546227722603 -465.34767634768559 0 -465.34767634768559 222.89258202052952 0 0 0 0 3.5524757823714026 -214.39793786077553 0 -214.39793786077553 135.6957411999465 0 0 0 0 -62.443988536791949 -323.89890928426394 0 -323.89890928426394 446.96132376651803 0 0 0 0 125.84040986107902 -110.98219238416095 0 -110.98219238416095 -318.40703241146207 0 0 0 0 1.08183947877896 -1.4172679239621253 0 -1.4172679239621253 0.084551627176433275 0 0 0 0 -0.19819572610140312 -241.11159388388842 0 -241.11159388388842 42.736488252164236 0 0 0 0 12.965244997376431 -95.419014668252203 0 -95.419014668252203 153.84562451214333 0 0 0 0 232.1138965414666 -286.36328164995393 0 -286.36328164995393 99.045692995798618 0 0 0 0 49.683747632578161 -216.11473917050535 0 -216.11473917050535 190.557182640272 0 0 0 0 54.230882757879954 -160.15590392381182 0 -160.15590392381182 107.8569911908362 0 0 0 0 96.866236844760351 -171.25652753211762 0 -171.25652753211762 185.44003567000459 0 0 0 0 0.060593070180402719 -212.59973629194383 0 -212.59973629194383 189.23160357346023 0 0 0 0 99.753778247406444 -158.95320122213616 0 -158.95320122213616 186.50463831393972 0 0 0 0 0.17856420258976868 -130.80109782141335 0 -130.80109782141335 201.98039302918005 0 0 0 0 -46.568082761184996 -29.760350036931413 0 -29.760350036931413 -8.4822725472149614 0 0 0 0 -0.040945358935168485 -0.84685666141595917 0 -0.84685666141595917 0.79980707823212782 0 0 0 0 99.673635732958786 -162.50320162518207 0 -162.50320162518207 171.07931510371782 0 0 0 0 -0.55332440038348807 -2.4930637952626213 0 -2.4930637952626213 -2.4087369737501767 0 0 0 0 96.653451911499019 -174.82108117252335 0 -174.82108117252335 171.87808717883127 0 0 0 0 233.04939547050162 -220.40618336392163 0 -220.40618336392163 134.4558502810014 0 0 0 0 246.29235954254364 -254.02983897487411 0 -254.02983897487411 156.46866855154497 0 0 0 0 147.81987282572481 48.411775590016987 0 48.411775590016987 11.007494867742935 0 0 0 0 -1.9246987273837881 -4.5507064771557424 0 -4.5507064771557424 -2.8585442202167357 0 0 0 0 2.3407991436435083 0.23138186267897964 0 0.23138186267897964 0.12229833103021903 0 0 0 0 424.19425114270234 -242.09480949730141 0 -242.09480949730141 111.36933540979408 0 0 0 0 169.03921423496104 -271.67034088266701 0 -271.67034088266701 78.41093172418914 0 0 0 0 242.47724514850233 -57.176155550899239 0 -57.176155550899239 108.08254313100565 0 0 0 0 282.65645938709713 -105.82238166044317 0 -105.82238166044317 18.798424872977193 0 0 0 0 257.84711555991998 -108.76788855433733 0 -108.76788855433733 73.910203129761157 0 0 0 0 320.23137034950832 -136.83367846013095 0 -136.83367846013095 33.488509466100368 0 0 0 0 327.55361457485242 -186.35139728036506 0 -186.35139728036506 27.051782266082228 0 0 0 0 233.80192226289728 -125.91672868693149 0 -125.91672868693149 38.920482092087241 0 0 0 0 254.06931509251717 -194.30917568069435 0 -194.30917568069435 49.202649189772274 0 0 0 0 188.24632846546046 -73.553570294749079 0 -73.553570294749079 33.544776419241316 0 0 0 0 243.7116796896953 -123.56936933549059 0 -123.56936933549059 21.608191465871641 0 0 0 0 179.77643548836386 -124.47642464457749 0 -124.47642464457749 61.915460909417561 0 0 0 0 132.35806153165231 -84.298114215614532 0 -84.298114215614532 50.606724086241229 0 0 0 0 202.31946914574291 -128.10606345685028 0 -128.10606345685028 21.117678226766884 0 0 0 0 216.13937442905171 -166.46608941590694 0 -166.46608941590694 -6.8408912981940375 0 0 0 0 152.10907468504229 -194.88312723313356 0 -194.88312723313356 50.911415674020645 0 0 0 0 165.62507780145461 -153.44074374984575 0 -153.44074374984575 31.053885800356511 0 0 0 0 156.90999667561118 -122.45649096542002 0 -122.45649096542002 -78.618888767078261 0 0 0 0 134.90760399243118 -235.88278160065192 0 -235.88278160065192 -44.755913171267821 0 0 0 0 0.029187594853283372 -256.93549119884256 0 -256.93549119884256 -19.131645095303611 0 0 0 0 88.807971377209924 -54.229884721886947 0 -54.229884721886947 -297.63048158227139 0 0 0 0 -0.64355463314671368 -0.82897685033041668 0 -0.82897685033041668 -0.6752064613095925 0 0 0 0 61.229842248146269 -123.29873059527563 0 -123.29873059527563 -3.9038264364644419 0 0 0 0 25.759384888137674 -36.350235070848385 0 -36.350235070848385 -7.6631450111381127 0 0 0 0 -6.3904650382769432 -27.806962210428537 0 -27.806962210428537 24.505191821922381 0 0 0 0 -5.503340005138682 -25.12445477694763 0 -25.12445477694763 6.2135763176738692 0 0 0 0 -4.28934702591323 -10.889792092951211 0 -10.889792092951211 -8.5156954573121766 0 0 0 0 -3.2064455638483835 -2.7135735993213776 0 -2.7135735993213776 -0.63555721994367431 0 0 0 0 -4.4677696740709507 -15.51682969428839 0 -15.51682969428839 -3.6974387280388328 0 0 0 0 -21.587184912748853 -9.0886568587466172 0 -9.0886568587466172 33.487926887084996 0 0 0 0 -18.398773187547249 -49.898877776016434 0 -49.898877776016434 63.429139011903317 0 0 0 0 -9.23659158495866 -28.605462518794411 0 -28.605462518794411 27.712748270123484 0 0 0 0 -16.364238765984283 -2.3653451138015953 0 -2.3653451138015953 -13.099506936139733 0 0 0 0 0.68968973372337139 -0.65901768905244662 0 -0.65901768905244662 0.66097646115336772 0 0 0 0 -49.620325072378364 -42.261762180633923 0 -42.261762180633923 60.616030863573997 0 0 0 0 -42.652879728093239 -42.889444324908482 0 -42.889444324908482 19.876868697107057 0 0 0 0 359.93595789783012 -44.396384025439147 0 -44.396384025439147 74.981922981340176 0 0 0 0 0.84389506747957377 -0.71606828668411637 0 -0.71606828668411637 0.18140452779468319 0 0 0 0 45.801406080365268 -100.58950077518966 0 -100.58950077518966 82.052823874121714 0 0 0 0 -52.237264274893732 -15.300553555661054 0 -15.300553555661054 12.958054209651891 0 0 0 0 -41.616938539364128 -15.351620135136727 0 -15.351620135136727 13.401197573226455 0 0 0 0 -32.545469822494852 -6.662686542847041 0 -6.662686542847041 -32.380041859361882 0 0 0 0 -48.341039321983772 -3.4005189764193346 0 -3.4005189764193346 -6.7851257794191042 0 0 0 0 -57.01584772768183 -41.796101310991617 0 -41.796101310991617 -8.5020261350982764 0 0 0 0 -26.470039635149078 -28.261231091400987 0 -28.261231091400987 -37.760248659926219 0 0 0 0 3.9820720335073929 54.518671833351618 0 54.518671833351618 -29.632880993691288 0 0 0 0 84.060486305710583 -70.856792644089182 0 -70.856792644089182 6.4992742876729608 0 0 0 0 143.74327580926547 -126.5754132237962 0 -126.5754132237962 30.709098609439025 0 0 0 0 288.9708878487736 72.125545304169464 0 72.125545304169464 -76.195811466983287 0 0 0 0 25.330443686093531 -35.735077412246937 0 -35.735077412246937 -7.4110100805301045 0 0 0 0 76.137354353838418 -13.259941095512204 0 -13.259941095512204 -21.063399419188499 0 0 0 0 8.7047271598366933 -0.081514317633264 0 -0.081514317633264 -23.607470636390644 0 0 0 0 9.4578515541447814 -0.79042138255681493 0 -0.79042138255681493 -26.670452691967512 0 0 0 0 -20.410288144845026 13.681340066553275 0 13.681340066553275 -3.2404465624358636 0 0 0 0 1.2192946826634401 -0.86169881496962475 0 -0.86169881496962475 0.45326895128118849 0 0 0 0 0.76273285613933695 3.7332009129140715 0 3.7332009129140715 1.3285837688963511 0 0 0 0 -1.6763525840369766 -17.719923975407255 0 -17.719923975407255 -19.50140313611314 0 0 0 0 -3.0018963911288665 -9.6359498285064547 0 -9.6359498285064547 -9.3019062462872171 0 0 0 0 12.475231633479325 -14.384702363321139 0 -14.384702363321139 -48.088148375870333 0 0 0 0 14.761424774877923 -4.2721853524240032 0 -4.2721853524240032 -29.51173160973849 0 0 0 0 5.3669557339668472 -31.195002964534297 0 -31.195002964534297 -8.2414800234037102 0 0 0 0 -2.1795053717751216 -7.0672563013613399 0 -7.0672563013613399 6.3167733210957522 0 0 0 0 8.0575562372669083 -26.499513284031991 0 -26.499513284031991 -32.435605240119912 0 0 0 0 9.7346986953034502 -3.7551356357962504 0 -3.7551356357962504 -14.542788194183231 0 0 0 0 5.1841043253137862 -8.4943621569597632 0 -8.4943621569597632 4.1398607457533547 0 0 0 0 -4.6676570887798334 -16.008764222235186 0 -16.008764222235186 1.5919245528257306 0 0 0 0 5.9220375498237718 -11.504561572738668 0 -11.504561572738668 3.63554410246633 0 0 0 0 -3.3561417837440786 -21.649387687490162 0 -21.649387687490162 -0.78882933807926747 0 0 0 0 -2.600777841974832 -12.740637591776249 0 -12.740637591776249 -6.1573448615206416 0 0 0 0 -1.4544470599253145 -19.746603933383085 0 -19.746603933383085 -7.233197545123403 0 0 0 0 3.00768220158555 -7.2614494110976224 0 -7.2614494110976224 4.1922537447878092 0 0 0 0 -5.748549546267947 -10.042596517364901 0 -10.042596517364901 6.6894069374753045 0 0 0 0 -7.4354373803546423 -16.371558811496698 0 -16.371558811496698 -2.4160529426389985 0 0 0 0 -7.2626827353206522 -11.980940069064633 0 -11.980940069064633 -2.0639423347281465 0 0 0 0 -0.90855934333512778 -23.837108719464595 0 -23.837108719464595 4.4494643697344145 0 0 0 0 4.2230380901596618 -27.251154953947207 0 -27.251154953947207 -1.5844454917994426 0 0 0 0 -0.99279881596407904 -8.9309101628941789 0 -8.9309101628941789 7.6653294646521317 0 0 0 0 0.28020469898956435 -13.987911103289662 0 -13.987911103289662 7.8416163535356418 0 0 0 0 13.861418978919801 -18.225988159385906 0 -18.225988159385906 6.2787033480763057 0 0 0 0 14.918287409256436 -18.418825526259752 0 -18.418825526259752 6.3109730251476321 0 0 0 0 -4.3598314707605823 -18.167215653857966 0 -18.167215653857966 -7.4883972450329566 0 0 0 0 2.7252324908595256 -13.883635822014185 0 -13.883635822014185 12.824692197757031 0 0 0 0 -0.026679484551633159 -12.691028563335873 0 -12.691028563335873 6.5878633986791018 0 0 0 0 -0.76622364330899018 -14.252208425386698 0 -14.252208425386698 -3.9657651378884111 0 0 0 0 -1.1802305964367861 -15.356814891995782 0 -15.356814891995782 -5.1915975524443638 0 0 0 0 -5.5911547222692519 -14.830361697203443 0 -14.830361697203443 -3.2652081035266747 0 0 0 0 -0.90278843738451542 -14.740632952761189 0 -14.740632952761189 -4.6095063963225584 0 0 0 0 -6.618599091990669 -8.4953156547258821 0 -8.4953156547258821 -11.856323609975146 0 0 0 0 0.039264383458998964 -17.055067646877319 0 -17.055067646877319 -3.0252915112587289 0 0 0 0 -5.5288991074213811 -14.264215417220555 0 -14.264215417220555 -1.5747095063779852 0 0 0 0 -0.66186930894821216 -14.247746012588323 0 -14.247746012588323 -4.4154233684284918 0 0 0 0 -8.2400089659279558 -9.9577092691849209 0 -9.9577092691849209 -3.8928617744388028 0 0 0 0 -12.532426865373054 -15.205659146455218 0 -15.205659146455218 14.798113396021563 0 0 0 0 -12.16695432065211 -12.264541456027473 0 -12.264541456027473 -10.62844964695114 0 0 0 0 -0.27497138895745987 -5.3172803942777236 0 -5.3172803942777236 1.5509011744498729 0 0 0 0 -5.8153188997919187 -14.924216992917536 0 -14.924216992917536 -4.3585459209684814 0 0 0 0 -5.9965618749250211 -14.689118062825401 0 -14.689118062825401 -8.4246287597829905 0 0 0 0 2.2485319874892378 -5.5563226203855596 0 -5.5563226203855596 0.29427625827471005 0 0 0 0 -8.5461881269963555 -13.036620249834868 0 -13.036620249834868 -8.2948368209272303 0 0 0 0 -4.0269478160345926 -11.263703477516287 0 -11.263703477516287 -10.730937739044748 0 0 0 0 -2.6286203945321631 -13.738575210516501 0 -13.738575210516501 -9.6727076412680617 0 0 0 0 -3.8497620066154923 -15.622555348138121 0 -15.622555348138121 -7.4472237909481009 0 0 0 0 -3.291427115913848 -12.578550992066994 0 -12.578550992066994 -6.4670495265690988 0 0 0 0 -3.4430821084029049 -16.947343746432125 0 -16.947343746432125 -11.384316158236288 0 0 0 0 -6.1794175694409059 -10.259278963156094 0 -10.259278963156094 -11.439093179676071 0 0 0 0 -9.9507475343943952 -18.014945368214512 0 -18.014945368214512 -14.197719618645351 0 0 0 0 2.3040194274049099 -7.2851577726667074 0 -7.2851577726667074 -16.027868698699422 0 0 0 0 6.8720242173940278 -16.908167394840575 0 -16.908167394840575 -14.26011368413765 0 0 0 0 -3.8034448105822776 -8.7255347929999516 0 -8.7255347929999516 -13.565393005100532 0 0 0 0 3.506523044223302 -4.1151383543604645 0 -4.1151383543604645 -1.620328092590972 0 0 0 0 -5.7309953566366918 -8.0926093876350187 0 -8.0926093876350187 -7.8348908224203733 0 0 0 0 -3.8905798289900417 -8.965637283584158 0 -8.965637283584158 -7.7990204015795825 0 0 0 0 -5.7122959804455604 -5.4708822294885522 0 -5.4708822294885522 -10.179894929646935 0 0 0 0 -1.038221181022891 -7.6622633952895285 0 -7.6622633952895285 -14.121205744685994 0 0 0 0 -4.0226427078891902 -0.009087772673751715 0 -0.009087772673751715 -15.516901925932871 0 0 0 0 -4.9162645491615535 -12.956004039630443 0 -12.956004039630443 -9.3596520152514131 0 0 0 0 -6.9863744349870842 -15.315040301401837 0 -15.315040301401837 -12.412557324865702 0 0 0 0 -7.2780231545444849 -15.68229787056589 0 -15.68229787056589 -1.4697217665325297 0 0 0 0 1.2627445838422489 -14.762793461759429 0 -14.762793461759429 -8.9248502486789221 0 0 0 0 -4.0714730834842214 -10.432300777524915 0 -10.432300777524915 -2.0066973145949305 0 0 0 0 -6.4354857327524417 -7.018829895585073 0 -7.018829895585073 -7.464931708006171 0 0 0 0 -4.4960042993516254 -8.0610394368222842 0 -8.0610394368222842 -8.3221776143620048 0 0 0 0 -7.7765100039941046 -12.122072638922305 0 -12.122072638922305 0.87039502250081568 0 0 0 0 -9.7434327221213266 -10.256257423581928 0 -10.256257423581928 7.4704061917764193 0 0 0 0 -7.7807448374263402 -12.31972121495221 0 -12.31972121495221 -1.9455778480096342 0 0 0 0 -1.685008423495314 -1.9077387028903594 0 -1.9077387028903594 -1.8986845670277823 0 0 0 0 -0.59215530433514996 -5.5316347364879235 0 -5.5316347364879235 -2.1718113569888047 0 0 0 0 -24.314401995615299 -6.8971334127381851 0 -6.8971334127381851 -26.072388103293633 0 0 0 0 -11.870342460839765 -33.899047124155913 0 -33.899047124155913 23.256140480119939 0 0 0 0 -8.5463204336817853 -13.555323108823814 0 -13.555323108823814 -7.5651463472659088 0 0 0 0 -10.276988619527629 -20.701118731684801 0 -20.701118731684801 2.4622987360526167 0 0 0 0 -6.2526403295022979 -9.7919461223748279 0 -9.7919461223748279 -6.97529116333763 0 0 0 0 37.780858454485951 -34.528624696649103 0 -34.528624696649103 -21.742066089008404 0 0 0 0 43.922447699876557 7.4075741641529476 0 7.4075741641529476 -17.71310011049809 0 0 0 0 -1.9707880227641823 -4.510010383497324 0 -4.510010383497324 0.91586943267512311 0 0 0 0 -11.172493997109427 -10.400779770818644 0 -10.400779770818644 -8.500831929384276 0 0 0 0 -6.6753318454045694 -11.560344577159581 0 -11.560344577159581 -9.6653337481214159 0 0 0 0 -11.298835655660014 -6.9766590988706412 0 -6.9766590988706412 -16.897074540077199 0 0 0 0 -9.8991268852365693 -21.781487136171563 0 -21.781487136171563 -14.925910289879539 0 0 0 0 -13.094342551375121 -8.6261155703086843 0 -8.6261155703086843 -7.2579071398718042 0 0 0 0 -13.153441243317502 -21.587060186181134 0 -21.587060186181134 -10.007076476693328 0 0 0 0 1.6986612571903592 -1.5784627487451672 0 -1.5784627487451672 1.63252689570934 0 0 0 0 -29.321817434331876 -37.474074104194187 0 -37.474074104194187 -24.508050644024479 0 0 0 0 -30.047361048002188 -25.507461268981274 0 -25.507461268981274 -15.525444514223636 0 0 0 0 -11.97805159896194 -24.438313826585329 0 -24.438313826585329 -37.156677048573329 0 0 0 0 -12.944974472367903 -7.9619544712108734 0 -7.9619544712108734 -10.190059656026278 0 0 0 0 -7.7115407605565194 -10.974001116895039 0 -10.974001116895039 -8.0578408854708883 0 0 0 0 2.3082458797366598 -16.814528047925705 0 -16.814528047925705 -13.090270230137321 0 0 0 0 -19.701158849418789 -29.225652300166985 0 -29.225652300166985 24.001316860172665 0 0 0 0 -20.512585774365107 -30.826192210438421 0 -30.826192210438421 35.247698517174285 0 0 0 0 -32.211216994334791 -25.737397422414688 0 -25.737397422414688 30.385033881204436 0 0 0 0 -33.93766411861634 -15.907566376143677 0 -15.907566376143677 13.023269924367924 0 0 0 0 -43.54641218706638 -27.145055949273228 0 -27.145055949273228 28.242958160670241 0 0 0 0 17.085451503866352 -63.705298720566134 0 -63.705298720566134 27.101632162031819 0 0 0 0 279.84692209271088 78.727213959717119 0 78.727213959717119 3.7902549048158107 0 0 0 0 162.45204733299943 106.16719922813081 0 106.16719922813081 43.474062243686603 0 0 0 0 78.860255779090949 -63.59531366891224 0 -63.59531366891224 6.6683787289985048 0 0 0 0 45.687717244765736 -28.454871828934301 0 -28.454871828934301 14.646885905171075 0 0 0 0 34.885438883428833 -17.616933972319657 0 -17.616933972319657 -13.546309301701513 0 0 0 0 87.951881717774995 17.260227262137505 0 17.260227262137505 -1.7201922849690163 0 0 0 0 32.093919943190485 9.9711235244535601 0 9.9711235244535601 7.2000302622154777 0 0 0 0 -13.855573217648271 -13.589742479374763 0 -13.589742479374763 13.610532470328508 0 0 0 0 -28.479714224739382 -35.752492931581401 0 -35.752492931581401 24.951989892446363 0 0 0 0 -25.806175283250013 19.793633835745368 0 19.793633835745368 -28.685541975095475 0 0 0 0 12.505542995256747 -17.364499494149641 0 -17.364499494149641 0.65168860291851161 0 0 0 0 -18.766249738572242 -63.355977782639002 0 -63.355977782639002 -63.519533797396434 0 0 0 0 -2.5866458489444994 9.5648577397892041 0 9.5648577397892041 -63.444191209397104 0 0 0 0 -0.54577012233478683 -0.54719546073240721 0 -0.54719546073240721 -0.5259290446093452 0 0 0 0 -50.295128554964322 0.058479983508732403 0 0.058479983508732403 11.181530451671279 0 0 0 0 -76.794345179361926 -44.860234827159957 0 -44.860234827159957 11.136100200578767 0 0 0 0 -9.4855672777930522 -57.725043474758422 0 -57.725043474758422 -62.498963169237896 0 0 0 0 0.12900271177386458 -32.974680687716045 0 -32.974680687716045 0.82373750827036929 0 0 0 0 3.3404409051893253 -9.5150401941637028 0 -9.5150401941637028 -2.2671647610077343 0 0 0 0 54.88481243014121 -24.76209448203781 0 -24.76209448203781 -14.292701024091912 0 0 0 0 34.111179325171634 -1.8530404089924559 0 -1.8530404089924559 -21.042760849558363 0 0 0 0 -6.5060482027270563 -16.72339825299531 0 -16.72339825299531 -0.61609358665315739 0 0 0 0 59.245301831169854 -37.094113969947443 0 -37.094113969947443 -1.9735785058564943 0 0 0 0 47.93086461439816 -40.521873056634831 0 -40.521873056634831 0.77332563466552529 0 0 0 0 53.334640144919831 -28.148688273159678 0 -28.148688273159678 1.0785784011204669 0 0 0 0 52.90069599956405 -29.789708521856937 0 -29.789708521856937 -4.7058430743436475 0 0 0 0 -7.0320687972301776 -17.448792475746703 0 -17.448792475746703 -3.5590778079980971 0 0 0 0 45.672359693688122 -16.050791256316188 0 -16.050791256316188 -10.08508434104715 0 0 0 0 68.368817617441891 -29.173830764689683 0 -29.173830764689683 -9.7150166630199237 0 0 0 0 -12.903159394510112 -33.126674165709119 0 -33.126674165709119 9.3250239724225139 0 0 0 0 -22.629659697703119 -14.25803947851773 0 -14.25803947851773 8.9452661450995947 0 0 0 0 -10.659239853537656 -24.822437116680703 0 -24.822437116680703 11.672581942688112 0 0 0 0 -30.651309624314308 -21.72748122953908 0 -21.72748122953908 21.750058770786382 0 0 0 0 -31.397560519473245 -26.12261986286785 0 -26.12261986286785 18.950398060113002 0 0 0 0 -24.009496789834884 -27.397617934743721 0 -27.397617934743721 11.205095237316527 0 0 0 0 -25.282787566357001 -27.987593355890567 0 -27.987593355890567 18.181564784721559 0 0 0 0 -26.170559923834389 -33.199327134700525 0 -33.199327134700525 11.189648255615793 0 0 0 0 35.600076999897283 -37.293975736837979 0 -37.293975736837979 -9.998936135069016 0 0 0 0 -19.569280983130739 -34.526629250333826 0 -34.526629250333826 9.1421777665893842 0 0 0 0 50.464890047950576 -40.001361794320474 0 -40.001361794320474 -57.721591326015186 0 0 0 0 47.945817690491822 -36.005437909349439 0 -36.005437909349439 -62.761513862797074 0 0 0 0 46.361379246477554 -66.260966275472583 0 -66.260966275472583 -52.487721370511281 0 0 0 0 52.021502652474737 -59.522306857925287 0 -59.522306857925287 -65.933449195661296 0 0 0 0 41.440330587505741 -60.231676481112117 0 -60.231676481112117 -34.437396663082836 0 0 0 0 46.462863366250531 -55.0271812614792 0 -55.0271812614792 -50.010440446201756 0 0 0 0 46.670835324629252 -58.402089730986631 0 -58.402089730986631 -27.147076369315982 0 0 0 0 47.089949408469693 -54.206623469315673 0 -54.206623469315673 -37.426429682356684 0 0 0 0 43.1647587652933 -65.106040536787987 0 -65.106040536787987 -28.684661955177944 0 0 0 0 44.201014969254175 -54.617987882526904 0 -54.617987882526904 -19.540211882685981 0 0 0 0 46.523807175282855 -38.091447777284884 0 -38.091447777284884 -41.914294781466879 0 0 0 0 47.459973850853203 -40.951641641289825 0 -40.951641641289825 -33.867359336847585 0 0 0 0 44.953631468933963 -39.15544660969681 0 -39.15544660969681 -21.8156876880239 0 0 0 0 45.917893659388938 -38.4108149916824 0 -38.4108149916824 -26.17531984312518 0 0 0 0 43.595042234803259 -53.935646061411717 0 -53.935646061411717 -18.192673767289307 0 0 0 0 40.37418411699764 -51.151483933597774 0 -51.151483933597774 -6.5280863562281866 0 0 0 0 48.040257625527374 -41.311515287425209 0 -41.311515287425209 -11.258372369135031 0 0 0 0 39.186401356257193 -48.855375507042368 0 -48.855375507042368 -0.2324323704251583 0 0 0 0 49.875483351092043 -35.478430687973287 0 -35.478430687973287 -14.237442196434131 0 0 0 0 45.175654969796597 -37.126873171067928 0 -37.126873171067928 -6.5876145867368905 0 0 0 0 44.279005165028138 -21.410013084572711 0 -21.410013084572711 -9.1011684611228247 0 0 0 0 41.327150398830781 -15.488979103402016 0 -15.488979103402016 -18.176859282991018 0 0 0 0 46.029707220336149 -20.003613420903548 0 -20.003613420903548 -26.687325259505087 0 0 0 0 44.868507272720308 -27.774397050585321 0 -27.774397050585321 -16.744143295525646 0 0 0 0 44.239866489830092 -19.567822739409166 0 -19.567822739409166 -34.811262260817784 0 0 0 0 44.69339200757895 -24.120606784897973 0 -24.120606784897973 -42.706523861067581 0 0 0 0 40.886199067028315 -9.3637243393443441 0 -9.3637243393443441 -41.355431530791975 0 0 0 0 32.800549101044453 -0.8646310632557288 0 -0.8646310632557288 -27.172880790843919 0 0 0 0 34.190105624733405 2.3462825927863378 0 2.3462825927863378 -38.568737009254619 0 0 0 0 29.864498151695443 11.802836328452941 0 11.802836328452941 -54.730971472569536 0 0 0 0 43.813843215665656 -11.539358167646697 0 -11.539358167646697 -57.327323342100499 0 0 0 0 42.561667522753851 -13.030314865726723 0 -13.030314865726723 -58.87731596206811 0 0 0 0 12.869163354569537 8.0089212643888459 0 8.0089212643888459 -10.892461731055846 0 0 0 0 20.739396467168035 8.1013964648973342 0 8.1013964648973342 -22.083233943563755 0 0 0 0 20.296070862606939 11.0329475393537 0 11.0329475393537 -33.620120724252956 0 0 0 0 35.938830792340013 -4.0149569443728979 0 -4.0149569443728979 -24.014527712946801 0 0 0 0 25.204244734689837 3.5602579812439217 0 3.5602579812439217 -18.569523153046248 0 0 0 0 25.534281168293091 4.5903678128997853 0 4.5903678128997853 -19.939791984927979 0 0 0 0 28.849927326484249 -0.31245394605957699 0 -0.31245394605957699 -14.568890374174771 0 0 0 0 28.032708024824387 -2.979373865996422 0 -2.979373865996422 -13.207706980385865 0 0 0 0 35.275217054962923 -4.7681923890440885 0 -4.7681923890440885 -20.566491470927531 0 0 0 0 37.965611018275695 -16.60832526656452 0 -16.60832526656452 -6.453781820830045 0 0 0 0 39.784135198166041 -8.4987147801316496 0 -8.4987147801316496 -18.229825368720412 0 0 0 0 22.85325477023116 -7.156694275156724 0 -7.156694275156724 -13.813544724054736 0 0 0 0 31.269058980105456 -4.620385292722176 0 -4.620385292722176 -13.733516661490285 0 0 0 0 21.586132063466305 -7.2027782234986901 0 -7.2027782234986901 2.3019165127272707 0 0 0 0 23.452744877983605 -5.7742597453116105 0 -5.7742597453116105 -11.230887075565079 0 0 0 0 22.256012912761435 -4.7102872511950409 0 -4.7102872511950409 -6.1323189338140764 0 0 0 0 21.274610408689114 0.95626686572450126 0 0.95626686572450126 -10.399701812275453 0 0 0 0 19.048158818026423 -4.164866775685141 0 -4.164866775685141 -0.92936556706445117 0 0 0 0 4.7560057701742267 0.041589071920089538 0 0.041589071920089538 0.32868060968162638 0 0 0 0 20.190372184981243 -6.3473024736831576 0 -6.3473024736831576 1.0565605909962414 0 0 0 0 -37.468002809420341 -1.8004977186494671 0 -1.8004977186494671 14.535053337549471 0 0 0 0 14.227368812651548 0.67675161533043138 0 0.67675161533043138 -0.86387517396747171 0 0 0 0 21.31178703565638 0.54621045115050038 0 0.54621045115050038 -7.4092102337035612 0 0 0 0 9.8359689817943945 -27.272851186707157 0 -27.272851186707157 -13.293208026326283 0 0 0 0 -4.9476476182506026 -18.764189588999212 0 -18.764189588999212 -7.9605064369195624 0 0 0 0 -13.219586442679429 -23.627112271211445 0 -23.627112271211445 -12.497748949036577 0 0 0 0 -29.18671247398288 -26.344423475578878 0 -26.344423475578878 -16.65833507098796 0 0 0 0 -21.305065139780709 -16.041900483140125 0 -16.041900483140125 -7.4805921277175003 0 0 0 0 -15.449746505162693 -21.437093178458781 0 -21.437093178458781 -3.2890104966390936 0 0 0 0 -6.1478628281229248 -15.998396197231159 0 -15.998396197231159 -15.060826683284176 0 0 0 0 -21.972192724168053 -11.792488553392104 0 -11.792488553392104 -16.879849322485342 0 0 0 0 -30.106861194343765 -16.212758924023547 0 -16.212758924023547 -6.2035265058584628 0 0 0 0 -28.128662361428724 -10.045554368853118 0 -10.045554368853118 -5.604824359362965 0 0 0 0 -27.167684401837505 -13.782215753507899 0 -13.782215753507899 8.9154332436555705 0 0 0 0 -5.0429064380894033 -23.309480848891042 0 -23.309480848891042 1.8603516383991519 0 0 0 0 21.060294230933323 -27.003083238054842 0 -27.003083238054842 -5.2942360691577051 0 0 0 0 59.796489749241573 -27.426146963303609 0 -27.426146963303609 -9.0576975033745839 0 0 0 0 -7.3931233398518437 -17.744349516208672 0 -17.744349516208672 -6.047214876471859 0 0 0 0 28.24272300276607 -11.527299539727892 0 -11.527299539727892 -11.504364062568129 0 0 0 0 38.286904011974912 -11.620794977791775 0 -11.620794977791775 -13.422783938176508 0 0 0 0 35.188140863847366 -22.411785741776839 0 -22.411785741776839 -4.3969434646132868 0 0 0 0 41.727801258666659 -19.924141321279421 0 -19.924141321279421 -13.281800796252355 0 0 0 0 23.282147315868528 -11.077453026341225 0 -11.077453026341225 -0.64135658148405028 0 0 0 0 26.776830582118123 -24.223958110059698 0 -24.223958110059698 -13.335608106111977 0 0 0 0 28.115921104299559 -7.9636444283232777 0 -7.9636444283232777 -15.898033427135488 0 0 0 0 23.488215982767279 -7.1995267574967752 0 -7.1995267574967752 2.5948366387065924 0 0 0 0 9.6714806766049151 -6.4650955096221878 0 -6.4650955096221878 -22.686021172668006 0 0 0 0 27.307253022153418 -13.172533518740238 0 -13.172533518740238 -22.162992807798219 0 0 0 0 23.784183219788702 -15.698075189528936 0 -15.698075189528936 -34.697306012927584 0 0 0 0 13.255463949641126 -17.238268873007655 0 -17.238268873007655 -11.288423401649197 0 0 0 0 1.6247629837125741 -6.5117069177937861 0 -6.5117069177937861 -17.532170019245058 0 0 0 0 34.280244801802837 -8.0150089907183428 0 -8.0150089907183428 -17.57429434703954 0 0 0 0 30.870664336244772 -22.70471939913341 0 -22.70471939913341 -39.350828269052727 0 0 0 0 -2.1304219059334173 -26.862520138341097 0 -26.862520138341097 -21.433020954450285 0 0 0 0 9.2666693397268318 -30.186710390372355 0 -30.186710390372355 4.3239657952581183 0 0 0 0 25.456821037943882 -12.628846682724543 0 -12.628846682724543 -17.344746506517367 0 0 0 0 -3.6613566455157613 -5.9999426333640598 0 -5.9999426333640598 -1.845836524516967 0 0 0 0 12.306414793886006 -6.4947245936593845 0 -6.4947245936593845 -13.901551606573776 0 0 0 0 -57.950538692108239 -18.430500720992313 0 -18.430500720992313 11.311454747274183 0 0 0 0 -37.258173699804502 -1.9706732957902204 0 -1.9706732957902204 8.0497126597347233 0 0 0 0 5.0142684071106487 -7.3537515212724429 0 -7.3537515212724429 -24.979889631680635 0 0 0 0 0.28869073376661269 -2.3898809239715004 0 -2.3898809239715004 -2.6099165485794273 0 0 0 0 -4.4198163616321153 -17.147022919507094 0 -17.147022919507094 -21.657352478337089 0 0 0 0 0.78808226098020384 -8.4976837661899616 0 -8.4976837661899616 1.6678065077121005 0 0 0 0 -0.34399564657769588 -6.8575514900348935 0 -6.8575514900348935 -0.5311052993811245 0 0 0 0 -0.37862936247893231 -11.024783650955214 0 -11.024783650955214 -6.5010293443674527 0 0 0 0 2.7849798826400729 -11.974465723691992 0 -11.974465723691992 -12.319436354027857 0 0 0 0 -1.655378513100918 -7.1014818168088478 0 -7.1014818168088478 -5.588380391986945 0 0 0 0 19.455746488172736 -19.107964147626262 0 -19.107964147626262 -4.7523042400339364 0 0 0 0 31.392097747882417 -3.6913237875291998 0 -3.6913237875291998 -7.7019218721015932 0 0 0 0 59.497651989968745 13.316255383697012 0 13.316255383697012 -12.285042894134676 0 0 0 0 65.264397084451048 2.8814574505158816 0 2.8814574505158816 -71.078492731947335 0 0 0 0 -1.4382673741436562 -3.0612969528672807 0 -3.0612969528672807 -1.5494973001632424 0 0 0 0 -10.233768341568066 -10.762339261011221 0 -10.762339261011221 -46.354438535461668 0 0 0 0 0.17266449500330339 -2.8293775192512891 0 -2.8293775192512891 -3.2899955509967924 0 0 0 0 45.346134688999882 -31.2394733068395 0 -31.2394733068395 -39.851485945197055 0 0 0 0 -25.005013612404582 -45.338923905983393 0 -45.338923905983393 -38.718861673010906 0 0 0 0 -0.3709115858317098 -13.656608504898323 0 -13.656608504898323 -16.015018551762743 0 0 0 0 0.41962215485791532 -0.015443494391785606 0 -0.015443494391785606 -0.11107899936136434 0 0 0 0 14.723378518246136 -38.555796467378968 0 -38.555796467378968 -49.682284516956315 0 0 0 0 -14.760668494003767 -10.718085440865252 0 -10.718085440865252 -34.568758779750169 0 0 0 0 0.84813220167403358 -0.045989730409978336 0 -0.045989730409978336 -0.16769963183613257 0 0 0 0 17.242357687172444 -2.8305585323264495 0 -2.8305585323264495 -50.172651294222305 0 0 0 0 6.2651656443631509 -1.6629899610093162 0 -1.6629899610093162 -30.093275037430431 0 0 0 0 -2.6066374875026668 2.8406621616777556 0 2.8406621616777556 -0.74531497570205829 0 0 0 0 21.156418279367699 7.3052156712838041 0 7.3052156712838041 -7.9449754939796549 0 0 0 0 11.784581707290272 2.784827182078061 0 2.784827182078061 -2.2310342884138663 0 0 0 0 -9.4168349104947993 9.8463190907841636 0 9.8463190907841636 13.142629222400501 0 0 0 0 -5.4963703452367554 -12.559874651655264 0 -12.559874651655264 37.070599803681034 0 0 0 0 3.0480192777135784 -1.1686857100857821 0 -1.1686857100857821 0.66877862230557383 0 0 0 0 4.2759381170335473 -10.590886881145479 0 -10.590886881145479 -3.7887538711256639 0 0 0 0 2.0737030454929481 -7.4629625757224858 0 -7.4629625757224858 4.0696519725070175 0 0 0 0 4.3145941161919836 -10.063569473554708 0 -10.063569473554708 1.5777477287920192 0 0 0 0 -0.15985275502091056 -3.4457240049978495 0 -3.4457240049978495 0.49754143899981784 0 0 0 0 5.6071821812384997 -7.5664625616866488 0 -7.5664625616866488 2.8082548333004524 0 0 0 0 4.3648933340696594 -3.2587614609509643 0 -3.2587614609509643 0.51790943868362049 0 0 0 0 14.511385125270408 -0.55591558999822155 0 -0.55591558999822155 -1.5899422688980849 0 0 0 0 28.564402853125102 -143.33735843569775 0 -143.33735843569775 172.25183955751163 0 0 0 0 85.678568820641885 -59.074246881194995 0 -59.074246881194995 -10.503437867236244 0 0 0 0 -40.072669867122386 -92.397891562983204 0 -92.397891562983204 -17.270876260790828 0 0 0 0 75.331993055360726 -93.55372671209625 0 -93.55372671209625 -99.843315689633528 0 0 0 0 53.311184069564433 -20.743326039423891 0 -20.743326039423891 -15.59558969257705 0 0 0 0 12.661691588146482 -3.0925067051958557 0 -3.0925067051958557 0.41196416339505681 0 0 0 0 0.30392274840414757 -5.0373758402529347 0 -5.0373758402529347 -192.25817746593384 0 0 0 0 3.9034387250421023 -1.1101388832585748 0 -1.1101388832585748 -0.35347728796558897 0 0 0 0 19.675923967055709 -6.9350517714344377 0 -6.9350517714344377 1.9615367875765717 0 0 0 0 47.002748710461674 -50.58535444973586 0 -50.58535444973586 -123.52664985749925 0 0 0 0 -5.7636496442173666 -60.377628778246617 0 -60.377628778246617 -98.149871126819562 0 0 0 0 41.73716767830274 15.537257089172726 0 15.537257089172726 -72.147611940039496 0 0 0 0 109.59396492580527 -45.289018982498419 0 -45.289018982498419 -34.12939343146445 0 0 0 0 71.465252300056818 51.546411088311288 0 51.546411088311288 0.06655215564842365 0 0 0 0 16.720055510584643 1.175615481693967 0 1.175615481693967 -31.503518965758303 0 0 0 0 28.991207440805738 -5.7374972036304825 0 -5.7374972036304825 -76.074161401876154 0 0 0 0 34.471077783252781 15.753474913386526 0 15.753474913386526 -53.178577108814352 0 0 0 0 25.184455212530338 -8.4044231138350369 0 -8.4044231138350369 -45.815425262891949 0 0 0 0 15.932123187276375 -2.5191647469837335 0 -2.5191647469837335 -47.783316764117899 0 0 0 0 -11.376788979910998 20.549256054768193 0 20.549256054768193 4.8273236445156726 0 0 0 0 -1.4253846866972708 -0.89810240802216867 0 -0.89810240802216867 19.121566949206681 0 0 0 0 0.88738062321322531 -0.49069829024986689 0 -0.49069829024986689 0.31623691034132406 0 0 0 0 73.329089214792475 20.835412286113751 0 20.835412286113751 16.090272457405263 0 0 0 0 144.45590407204418 -66.966137499750403 0 -66.966137499750403 29.447126074657717 0 0 0 0 121.4071615007515 -17.081546711614465 0 -17.081546711614465 -2.3398564625349536 0 0 0 0 55.223107126728792 -51.910071329546554 0 -51.910071329546554 -20.489929541125093 0 0 0 0 0.43626948019612755 -0.021398171139473732 0 -0.021398171139473732 -0.060299019754268102 0 0 0 0 192.55832656441544 -103.73756999882426 0 -103.73756999882426 52.486618880380774 0 0 0 0 34.530736320728465 -52.669628816824115 0 -52.669628816824115 59.572622610468898 0 0 0 0 250.81341848160901 -158.75834380232209 0 -158.75834380232209 40.76588231097503 0 0 0 0 139.50296700172839 -154.09106793754927 0 -154.09106793754927 52.907758666977315 0 0 0 0 241.91832687558963 -58.503688399243401 0 -58.503688399243401 86.896945340102207 0 0 0 0 271.30185255794322 -75.664827226602938 0 -75.664827226602938 173.24926744495679 0 0 0 0 235.2177106104582 -135.40068874199369 0 -135.40068874199369 80.036694744955071 0 0 0 0 309.86053848354095 -36.07790543608462 0 -36.07790543608462 -6.2059141164063476 0 0 0 0 255.836305613273 -190.20586153677505 0 -190.20586153677505 103.78560141454545 0 0 0 0 487.16297130085513 -159.89276965421868 0 -159.89276965421868 68.159669505988859 0 0 0 0 2.6423340808232325 -0.40750227616575074 0 -0.40750227616575074 -0.27890094477437444 0 0 0 0 139.94148022438003 -183.7910622164809 0 -183.7910622164809 201.48730189110847 0 0 0 0 250.93986429813549 -277.90160646073309 0 -277.90160646073309 265.56093155671442 0 0 0 0 207.05201686706459 103.30509799452921 0 103.30509799452921 -158.78201642105705 0 0 0 0 6.266547981219901 -31.766264510401925 0 -31.766264510401925 -25.017877689824672 0 0 0 0 -48.512510344123257 -7.8402429018451585 0 -7.8402429018451585 92.912300797825083 0 0 0 0 68.235597023702212 -68.503222202232791 0 -68.503222202232791 47.737939704034488 0 0 0 0 5.8399882343766762 -0.55328201550443268 0 -0.55328201550443268 -0.73028451979377706 0 0 0 0 75.415100210351284 -57.52115647165283 0 -57.52115647165283 64.527087461076007 0 0 0 0 124.61933180659707 -123.56172404041536 0 -123.56172404041536 57.80682094813892 0 0 0 0 208.16624252163456 -91.379397656443871 0 -91.379397656443871 0.015286434445442865 0 0 0 0 295.56164512681471 -108.33944454164839 0 -108.33944454164839 13.722639125406204 0 0 0 0 278.46722792601577 -124.82817388571402 0 -124.82817388571402 81.408319791984923 0 0 0 0 242.25033799628545 -124.91763189231006 0 -124.91763189231006 14.054044025547583 0 0 0 0 269.74146330681651 -98.634987370846375 0 -98.634987370846375 -0.038938373034397955 0 0 0 0 236.76602199081299 -86.898310180457884 0 -86.898310180457884 14.891434059521998 0 0 0 0 316.19024528881528 -94.226509414283555 0 -94.226509414283555 8.6548572253341263 0 0 0 0 10.08531594746637 -5.6502074174159134 0 -5.6502074174159134 -5.33561317362728 0 0 0 0 0.1514394901463687 -3.2910445568288704 0 -3.2910445568288704 -1.6379301814634317 0 0 0 0 11.664386792292134 -3.4666104730440566 0 -3.4666104730440566 -2.5081074266097403 0 0 0 0 14.1646526357722 -5.0135876499007281 0 -5.0135876499007281 -4.6273798551410437 0 0 0 0 -1.2116321096109601 -2.5224158599335116 0 -2.5224158599335116 -0.89332287330811511 0 0 0 0 10.597751032523774 -9.2953281410946147 0 -9.2953281410946147 -1.7357769315258338 0 0 0 0 7.5425735290314151 -6.8126262322330149 0 -6.8126262322330149 -1.9001591860651388 0 0 0 0 9.7971569268356689 -15.374718915641097 0 -15.374718915641097 -3.4728422003998958 0 0 0 0 8.0259340992406578 1.873297804617323 0 1.873297804617323 -58.808918200515109 0 0 0 0 9.1912649805713045 -11.160392997105191 0 -11.160392997105191 -12.397760074547477 0 0 0 0 7.5488229581524138 0.73825513468727877 0 0.73825513468727877 -19.282480894647051 0 0 0 0 44.914141084212361 2.5654897473896199 0 2.5654897473896199 -15.593530003920023 0 0 0 0 -3.7379931881732773 -3.8489568267104914 0 -3.8489568267104914 8.354697351737741 0 0 0 0 6.666129816073731 -0.3289982705437744 0 -0.3289982705437744 -0.78714294359690662 0 0 0 0 10.229279309883623 -17.328681050268187 0 -17.328681050268187 32.111603124585599 0 0 0 0 88.913073472232554 -59.593680945434244 0 -59.593680945434244 0.073074164332865621 0 0 0 0 56.87723226847811 -57.555520638523376 0 -57.555520638523376 30.493747132330896 0 0 0 0 35.828186201628341 -24.843773531396437 0 -24.843773531396437 -0.16291558060557382 0 0 0 0 -0.24691294393900876 -0.35812672722428118 0 -0.35812672722428118 0.44447579078111943 0 0 0 0 69.114448720499524 1.0624994297768353 0 1.0624994297768353 1.6127695335526369 0 0 0 0 0.035842306235281285 -0.62821532034286065 0 -0.62821532034286065 -8.4438870544545352e-06 0 0 0 0 -28.976052799334866 3.7224117543410102 0 3.7224117543410102 16.460988847935369 0 0 0 0 -0.055616395060802404 -0.42998391857986462 0 -0.42998391857986462 0.18829519325070976 0 0 0 0 4.8145941620642816 8.1215726513398749 0 8.1215726513398749 -5.3815981458410533 0 0 0 0 7.1796353571287437 -0.70104358291294133 0 -0.70104358291294133 -0.70146803351821774 0 0 0 0 12.481940251075685 -2.7172919690801791 0 -2.7172919690801791 -6.809823621668329 0 0 0 0 6.2811644014818739 -2.9461380676766566 0 -2.9461380676766566 2.3497226438994403 0 0 0 0 2.3555521891667013 3.3083736842563667 0 3.3083736842563667 -6.5332594715246159 0 0 0 0 5.3437361680643853 -4.2306952124351689 0 -4.2306952124351689 -1.2309503435551719 0 0 0 0 0.53473015254145118 -0.90659245616775763 0 -0.90659245616775763 -0.17785306259024303 0 0 0 0 7.568856206809869 -6.5779375401252764 0 -6.5779375401252764 1.051713033055421 0 0 0 0 16.654853564331461 4.3018968405340274 0 4.3018968405340274 -11.956823676100612 0 0 0 0 0.5229363368356772 0.059527027590036141 0 0.059527027590036141 -0.046348437864477177 0 0 0 0 0.43020820996753173 -0.900149133263767 0 -0.900149133263767 -0.00069457939373539506 0 0 0 0 4.3092134762223395 -0.017320159030532523 0 -0.017320159030532523 -1.3005488894814334 0 0 0 0 0.25560564886755444 -0.54473412323403281 0 -0.54473412323403281 -0.020071172855072206 0 0 0 0 0.067365423316687156 -0.57463293992009312 0 -0.57463293992009312 -0.20611925396224251 0 0 0 0 0.70586928406373772 2.2007915948743175 0 2.2007915948743175 2.2552859203860862 0 0 0 0 4.6520963421044144 -5.730178982268626 0 -5.730178982268626 -10.662081457001477 0 0 0 0 -0.49770972476551378 -1.3424225278704398 0 -1.3424225278704398 0.00025085163542826194 0 0 0 0 0.37672420999664213 0.1697302223752537 0 0.1697302223752537 -0.088488510362438433 0 0 0 0 1.2624593759400566 -0.64199710304792212 0 -0.64199710304792212 -1.3500455664825068 0 0 0 0 0.28858344150648918 -2.0243723603525723 0 -2.0243723603525723 0.18687215446789196 0 0 0 0 0.11856402376862363 -1.2819050820388114 0 -1.2819050820388114 0.30640120412905603 0 0 0 0 -0.095893173029253376 -1.5720460838292638 0 -1.5720460838292638 -0.16928378126976895 0 0 0 0 -0.32351708707210491 -1.9972661020110536 0 -1.9972661020110536 0.32902276484946924 0 0 0 0 0.12404055437855277 -2.3733598129665552 0 -2.3733598129665552 0.12171630050488602 0 0 0 0 0.49480789522795021 -4.43719869283359 0 -4.43719869283359 -2.2892569946743606 0 0 0 0 0.15863430014168678 -1.9179863939697555 0 -1.9179863939697555 1.2932596578587017 0 0 0 0 3.9621912651509774 -0.74659799277651473 0 -0.74659799277651473 -2.5217666236276273 0 0 0 0 1.0614095104584749 -2.3816464489204918 0 -2.3816464489204918 0.035011157877306687 0 0 0 0 0.25963760958870807 -2.9012285470707866 0 -2.9012285470707866 -0.00055756509755156003 0 0 0 0 -2.3746347256169429 -2.2874934975752694 0 -2.2874934975752694 0.90699390842564753 0 0 0 0 -0.13356505156980791 0.25849333092518423 0 0.25849333092518423 0.15952004165954037 0 0 0 0 0.42261992506419688 -1.9058606604105535 0 -1.9058606604105535 -0.47788336043595336 0 0 0 0 0.28405101314729109 -0.55343443297715567 0 -0.55343443297715567 -0.62534459432208678 0 0 0 0 -0.080444512044039129 -1.6380949836911896 0 -1.6380949836911896 -0.0013494271497620502 0 0 0 0 2.1522225146190976 -1.7759886681733406 0 -1.7759886681733406 -0.91618071541597601 0 0 0 0 0.3723866147957402 -1.3267441436928955 0 -1.3267441436928955 0.59929555737802076 0 0 0 0 -0.48547161669239358 -1.4841213555664581 0 -1.4841213555664581 1.2879146253981162 0 0 0 0 0.013831596930458545 -1.3736229195610576 0 -1.3736229195610576 0.75843998091841058 0 0 0 0 -2.4468324261870293 -0.68293154277853318 0 -0.68293154277853318 0.21067439125909004 0 0 0 0 1.2183745381344124 -1.2322354355092102 0 -1.2322354355092102 0.9853929222736042 0 0 0 0 0.58594133862859277 -0.061029904318740336 0 -0.061029904318740336 -0.18789216052046243 0 0 0 0 -0.78840775903790927 -1.1983763285170426 0 -1.1983763285170426 0.98826180561974297 0 0 0 0 -3.0134444291406908 -1.3479533611716761 0 -1.3479533611716761 1.103806606069611 0 0 0 0 -1.513205496212322 -1.6764511377477902 0 -1.6764511377477902 1.1159918206521979 0 0 0 0 -2.6018868484943596 0.38446710125026584 0 0.38446710125026584 1.0337764199066442 0 0 0 0 0.201560693554097 -0.7789281255300935 0 -0.7789281255300935 0.16861425097712868 0 0 0 0 -0.054970518737937457 -0.49327427396668799 0 -0.49327427396668799 0.7926546134006216 0 0 0 0 -0.065449248369496615 -1.0603912883854143 0 -1.0603912883854143 0.17280703871308134 0 0 0 0 0.15422379869187353 -0.61066788610696676 0 -0.61066788610696676 0.032189672157983296 0 0 0 0 -0.17080084713705368 -0.42291342659994413 0 -0.42291342659994413 0.13045033403519568 0 0 0 0 0.67996881919725638 -1.5560582289745071 0 -1.5560582289745071 1.0995466503845819 0 0 0 0 0.033152514677926348 -0.54745396322560103 0 -0.54745396322560103 0.898061379294532 0 0 0 0 -0.68227960031572366 -0.70816416303023288 0 -0.70816416303023288 0.69668135291976796 0 0 0 0 0.34938526989435559 -0.79912131773926376 0 -0.79912131773926376 -0.62847521176809096 0 0 0 0 -0.12639491333983877 -1.2252190824273868 0 -1.2252190824273868 1.3930659720496656 0 0 0 0 -0.25784107813706214 -1.8451946282095832 0 -1.8451946282095832 0.34817444217333104 0 0 0 0 -1.0230243835048896 -2.7177125866778624 0 -2.7177125866778624 0.47900339639272715 0 0 0 0 -2.3051112136056986 -1.6927166168994745 0 -1.6927166168994745 3.3707296929151198 0 0 0 0 -1.3705874168792889 -1.521271867752148 0 -1.521271867752148 -0.10842554574264796 0 0 0 0 -2.2285250969450559 -2.9270665435975332 0 -2.9270665435975332 1.6461264212030073 0 0 0 0 -0.59383165422832462 -1.6523266775093362 0 -1.6523266775093362 -0.76876290908148803 0 0 0 0 -0.85601422971111685 -0.93337257499566562 0 -0.93337257499566562 1.3682816333064345 0 0 0 0 0.30533084240437347 -4.3257909175435998 0 -4.3257909175435998 -2.0772031721025996 0 0 0 0 -0.36328975561286825 -3.2328662731888471 0 -3.2328662731888471 -0.029045251801107952 0 0 0 0 -0.40259795324982406 -2.7667133317327171 0 -2.7667133317327171 -2.0030583981952077 0 0 0 0 -1.0156121952427384 -4.5799572570158489 0 -4.5799572570158489 -0.24678791710721271 0 0 0 0 1.7382466540612427 -4.9753187611152043 0 -4.9753187611152043 1.3883297798365675 0 0 0 0 1.0005283148761919 -4.8731497834205584 0 -4.8731497834205584 1.4675404048648488 0 0 0 0 1.5703020364442164 -7.2188896635094721 0 -7.2188896635094721 3.8656835359833117 0 0 0 0 0.83794942912163606 -6.3519591914082412 0 -6.3519591914082412 4.6285636076227092 0 0 0 0 1.7623422886695153 -7.8005418299308076 0 -7.8005418299308076 3.7725937261875515 0 0 0 0 -3.9664047768879982 -5.7959960594394033 0 -5.7959960594394033 7.5238254811010847 0 0 0 0 -2.6375258894477156 -7.2937776722387753 0 -7.2937776722387753 4.472888527869145 0 0 0 0 -3.6227317105749535 -3.3639652517485956 0 -3.3639652517485956 3.6100335423616343 0 0 0 0 -3.5724484264055718 -2.4502272248041663 0 -2.4502272248041663 8.5607267928389774 0 0 0 0 -0.51415061576221888 0.015346201464126352 0 0.015346201464126352 2.8465259571239585 0 0 0 0 -2.5453220313443126 2.7688391345927812 0 2.7688391345927812 12.672722871632686 0 0 0 0 -0.74705489230666444 0.28817736366590907 0 0.28817736366590907 5.8813639034851803 0 0 0 0 -6.6423428712832902 -15.109345378652506 0 -15.109345378652506 10.434091467452163 0 0 0 0 -9.1547083119035051 -6.9544245286506339 0 -6.9544245286506339 20.829764708429138 0 0 0 0 -6.9993595654300407 -7.7547531260715914 0 -7.7547531260715914 7.0776666637921153 0 0 0 0 -8.3404284614621247 -12.314360903950728 0 -12.314360903950728 8.0113172772159942 0 0 0 0 -6.0539993213068328 -9.4108442232736707 0 -9.4108442232736707 3.3186805964760424 0 0 0 0 6.5976270468549956 -20.117637962727713 0 -20.117637962727713 -20.797503319259704 0 0 0 0 3.2854770803904207 -6.8293865804703806 0 -6.8293865804703806 4.9164573005404328 0 0 0 0 6.4659541160990557 -28.682594288159635 0 -28.682594288159635 -17.417878151810328 0 0 0 0 6.6212140725565405 -3.3424102530088931 0 -3.3424102530088931 -11.18129291265177 0 0 0 0 -3.3959378983872739 -20.612131342266366 0 -20.612131342266366 -2.5963215998308442 0 0 0 0 3.1207320137780741 -8.1523283515774683 0 -8.1523283515774683 4.2005506277976572 0 0 0 0 -1.5634707826502563 -4.7810604960232013 0 -4.7810604960232013 3.9808580618737324 0 0 0 0 -1.118743024028845 -15.260189391899985 0 -15.260189391899985 -4.3609706030110829 0 0 0 0 3.2834805188931568 -6.4803259985583281 0 -6.4803259985583281 -9.1358273796777212 0 0 0 0 5.6020800445512577 -15.434188850173086 0 -15.434188850173086 -19.717160392670849 0 0 0 0 -4.4323994666069666 -12.982533881167001 0 -12.982533881167001 -0.034240100725583034 0 0 0 0 2.9279842534148859 -6.5136221431327712 0 -6.5136221431327712 4.8273206568793192 0 0 0 0 32.218720071815596 -12.468474966753092 0 -12.468474966753092 -7.1988749216179713 0 0 0 0 -5.2216333103662862 -1.9839838174257238 0 -1.9839838174257238 3.094262861781317 0 0 0 0 -2.9124834137193392 -5.0065103491148815 0 -5.0065103491148815 -7.150723349684192 0 0 0 0 20.588947565366198 12.754647463905712 0 12.754647463905712 -1.7051302425152244 0 0 0 0 -12.996704961007708 -3.3955015528772492 0 -3.3955015528772492 2.1702534884570923 0 0 0 0 7.480438353920789 -12.568559629163929 0 -12.568559629163929 2.4645011672473629 0 0 0 0 6.7685405412269972 1.5665464203343618 0 1.5665464203343618 0.11956570426264079 0 0 0 0 -16.143881642987253 -6.8666413815572014 0 -6.8666413815572014 7.9145936527202139 0 0 0 0 -11.599759215298263 -6.0912742900081867 0 -6.0912742900081867 7.9180401256453479 0 0 0 0 7.1761732527999129 -9.9525184117683239 0 -9.9525184117683239 1.1338340600977972 0 0 0 0 -0.64019634994582209 -6.9828240652923164 0 -6.9828240652923164 -7.4676174912232369 0 0 0 0 -5.916529327309604 -6.0693835722840959 0 -6.0693835722840959 -14.849165953688498 0 0 0 0 10.981927512628545 -15.065064315913332 0 -15.065064315913332 -28.074439638334297 0 0 0 0 7.1544567075918621 0.16865823292027926 0 0.16865823292027926 -3.7033482235128758 0 0 0 0 6.2119208124877332 -3.9696839044590888 0 -3.9696839044590888 -15.02893224608647 0 0 0 0 22.010408580154262 -6.2881087376172218 0 -6.2881087376172218 -25.033777426759116 0 0 0 0 -7.6516374171039843 -14.736388775786963 0 -14.736388775786963 0.28491674844917725 0 0 0 0 39.812915469181917 -28.725400295910731 0 -28.725400295910731 4.3095654698372527 0 0 0 0 1.5525206704558059 -8.1902511241187312 0 -8.1902511241187312 -7.0350101589701808 0 0 0 0 25.107137100484124 14.254743306252749 0 14.254743306252749 16.827965596181457 0 0 0 0 1.6800450711580197 -6.5343253941373405 0 -6.5343253941373405 1.8964973451584228 0 0 0 0 -5.3480723060401942 -11.903382200350279 0 -11.903382200350279 22.7782919563615 0 0 0 0 -7.4490561249457414 -12.056143040564166 0 -12.056143040564166 61.78530469377074 0 0 0 0 46.58006187602723 -42.315474209741296 0 -42.315474209741296 24.129349583323346 0 0 0 0 0.58150041842827704 14.967079439415102 0 14.967079439415102 33.57466847307569 0 0 0 0 -6.8505939955974142 -18.461337965454419 0 -18.461337965454419 48.769039887483814 0 0 0 0 77.612556601610663 -5.6358174535107537 0 -5.6358174535107537 -1.8131420181744033 0 0 0 0 -0.13780377586007342 0.18567440493765464 0 0.18567440493765464 0.6611796595410695 0 0 0 0 23.07801110347441 5.2138830128769769 0 5.2138830128769769 -0.16935419606670621 0 0 0 0 7.3828341138078031 -5.4185638429444225 0 -5.4185638429444225 9.6972354532244935 0 0 0 0 11.824761433835647 1.3798937013361865 0 1.3798937013361865 1.2164886561549793 0 0 0 0 16.132649727081798 -19.802186789917869 0 -19.802186789917869 4.2425430722651072 0 0 0 0 -3.525714021507838 -0.39992491369048366 0 -0.39992491369048366 6.1180035363931893 0 0 0 0 -0.45815444455875265 -0.16316456896662057 0 -0.16316456896662057 1.4852739668397277 0 0 0 0 -24.40555585774564 -38.05802892203792 0 -38.05802892203792 1.9874252343943226 0 0 0 0 -0.025673828268395482 -20.293174001090847 0 -20.293174001090847 -8.6266306003926729 0 0 0 0 0.79952513570060546 -25.537430427393701 0 -25.537430427393701 20.012147153634942 0 0 0 0 32.889219082818158 -13.466811904928363 0 -13.466811904928363 -5.5557851489356835 0 0 0 0 0.70030655636765005 -20.278102937392759 0 -20.278102937392759 -2.5820279529607433 0 0 0 0 -0.41963332910836471 -1.3624951061074171 0 -1.3624951061074171 15.346094583157537 0 0 0 0 -10.628388623355647 -27.291140980599266 0 -27.291140980599266 -13.286844888698397 0 0 0 0 29.894719860008308 -70.438196486873494 0 -70.438196486873494 14.174224169527406 0 0 0 0 -48.247425827236839 -14.942722287236393 0 -14.942722287236393 36.242380779243831 0 0 0 0 -49.467315066154228 -63.122891414924169 0 -63.122891414924169 56.450816551623575 0 0 0 0 53.740600061906321 -11.071475167845165 0 -11.071475167845165 87.573549584136344 0 0 0 0 63.816730265454225 -42.299888401495991 0 -42.299888401495991 -40.355854564755646 0 0 0 0 -2.7910288533136871 -4.4529628061397029 0 -4.4529628061397029 -5.48562499026702 0 0 0 0 -11.494702857462471 -9.0824415120623598 0 -9.0824415120623598 24.884454660537813 0 0 0 0 83.001583543599679 -37.455480525695293 0 -37.455480525695293 -27.49584537721239 0 0 0 0 62.675509574843481 -41.673244821414301 0 -41.673244821414301 13.847099254908244 0 0 0 0 -0.18844399338068074 -0.077048604099909213 0 -0.077048604099909213 0.95166937646993688 0 0 0 0 -56.94014082966288 -8.8428444199380465 0 -8.8428444199380465 7.7509090942585317 0 0 0 0 -10.729169162741755 -7.5625943682516663 0 -7.5625943682516663 -3.3570149929910258 0 0 0 0 0.25918079967201069 -0.11552061500016109 0 -0.11552061500016109 -0.66017241708608054 0 0 0 0 0.27981510212259764 -5.6786779484855288 0 -5.6786779484855288 -0.32138192037382396 0 0 0 0 -0.19535276114274236 -0.18220626637481541 0 -0.18220626637481541 1.0619678639665011 0 0 0 0 -2.8291650916172557 -10.844103186393113 0 -10.844103186393113 -2.4896938687452348 0 0 0 0 -5.4496437884876627 -13.509360818871755 0 -13.509360818871755 4.4991668968796148 0 0 0 0 -25.473256180785597 -10.841828128740417 0 -10.841828128740417 37.204530160843206 0 0 0 0 1.7136179453175089 -0.2217870263284567 0 -0.2217870263284567 34.24156853241584 0 0 0 0 0.18427569547318817 -0.21316047750706879 0 -0.21316047750706879 -0.60217354895271313 0 0 0 0 -0.023591862676329567 0.29524483381403188 0 0.29524483381403188 0.14032415629677786 0 0 0 0 0.34660959820701009 -0.60508348837303849 0 -0.60508348837303849 0.48566790133532578 0 0 0 0 -8.1008061994501759 3.187457098422783 0 3.187457098422783 -0.26566320439087576 0 0 0 0 2.7324750681523255 -13.740288246414821 0 -13.740288246414821 -6.4578861404879717 0 0 0 0 -0.68847979994984598 -17.480281442617525 0 -17.480281442617525 -1.7437320946264663 0 0 0 0 -18.058095167683064 -18.466338049744991 0 -18.466338049744991 -0.6589125470345607 0 0 0 0 -1.4412452348426541 -15.990042354018442 0 -15.990042354018442 -4.3646479675699084 0 0 0 0 -6.2624605534008424 -24.466554854452625 0 -24.466554854452625 -6.7417515461561379 0 0 0 0 -3.6465673314024798 -15.91412290687822 0 -15.91412290687822 -3.8056560731565696 0 0 0 0 -9.8643168569599311 -16.814118088572286 0 -16.814118088572286 -0.74629594505859131 0 0 0 0 -1.1199222813077085 -17.710095059530431 0 -17.710095059530431 -2.5112384492713318 0 0 0 0 -17.599788463545337 -18.701449437969131 0 -18.701449437969131 0.31703730878507486 0 0 0 0 -10.114355076476613 -18.035359132419217 0 -18.035359132419217 -2.8726824679979472 0 0 0 0 -7.0021104907882545 -18.583076378445185 0 -18.583076378445185 -5.5162209422142041 0 0 0 0 -8.9083577966990788 -0.96912708450236096 0 -0.96912708450236096 1.6196188303656527 0 0 0 0 -3.481508981643799 -8.4180937631008419 0 -8.4180937631008419 -5.6647693350932968 0 0 0 0 -16.142445232790323 -5.1835261230211245 0 -5.1835261230211245 -6.2717752153766924 0 0 0 0 -2.7225588689157121 -1.4996239921674714 0 -1.4996239921674714 -1.77773816282388 0 0 0 0 -0.18896433300256438 0.34914634518670984 0 0.34914634518670984 0.27060289397650905 0 0 0 0 -46.044956722723285 -12.718528751538713 0 -12.718528751538713 5.4629970033784048 0 0 0 0 -3.8623506940690504 -0.42078521927169277 0 -0.42078521927169277 0.63631691514456179 0 0 0 0 -51.178729396988501 -8.476940416103389 0 -8.476940416103389 12.928493497523959 0 0 0 0 -3.9917029815846945 -0.87675024490818032 0 -0.87675024490818032 1.0360591197895701 0 0 0 0 -3.7472400892288533 -0.98692228991785669 0 -0.98692228991785669 1.651649881976482 0 0 0 0 -38.654923952726676 -1.3445323567029845 0 -1.3445323567029845 1.5831888777538552 0 0 0 0 -46.871209938837637 -28.102519487945756 0 -28.102519487945756 15.386468557451735 0 0 0 0 -18.972287196241041 -23.377001006949058 0 -23.377001006949058 7.1443679183503264 0 0 0 0 -20.198785154922234 -16.118305159237934 0 -16.118305159237934 5.9811463778314646 0 0 0 0 -25.447026627594369 -18.062853797819116 0 -18.062853797819116 6.4721041830998729 0 0 0 0 -12.202246889857179 -16.158139273044071 0 -16.158139273044071 -1.6142749279551936 0 0 0 0 -11.909336408451111 -17.654442365534123 0 -17.654442365534123 2.1121538546503871 0 0 0 0 6.2372585866305599 -18.857244599930709 0 -18.857244599930709 0.54543913561428781 0 0 0 0 22.813238979793823 -29.789509848051239 0 -29.789509848051239 -5.5328168867199565 0 0 0 0 41.308556008227242 -14.214601641891932 0 -14.214601641891932 0.0025052278961084085 0 0 0 0 -23.81017571891789 -44.943143844058795 0 -44.943143844058795 5.5039333916029136 0 0 0 0 43.955096298552007 -45.352549921786704 0 -45.352549921786704 -9.804210261143453 0 0 0 0 -18.444823556881261 -42.076879975749989 0 -42.076879975749989 2.0896410401110188 0 0 0 0 -16.752303518831923 -33.873313231926659 0 -33.873313231926659 -0.75541523710126057 0 0 0 0 -57.183084414764721 -3.8024375963495913 0 -3.8024375963495913 -1.673473787963303 0 0 0 0 -62.733044139019967 -20.690348734329746 0 -20.690348734329746 12.720843536044413 0 0 0 0 -87.646502730542579 -25.499085255711179 0 -25.499085255711179 8.1802744373394489 0 0 0 0 -127.62273802575373 27.173962501333335 0 27.173962501333335 -4.0443036732540349 0 0 0 0 -0.3223226163628472 0.35980159079717566 0 0.35980159079717566 0.038220577505278186 0 0 0 0 -0.64974934337215018 -1.1883951982781582 0 -1.1883951982781582 0.0019928162529456862 0 0 0 0 0.1764042831362671 0.057427467404075117 0 0.057427467404075117 -0.40513459851661082 0 0 0 0 3.7569853339809924 -0.91228472285001772 0 -0.91228472285001772 -0.33534186957695056 0 0 0 0 0.17544004617306008 -0.47590998450482402 0 -0.47590998450482402 -0.67166046040141936 0 0 0 0 -3.3463990624150028 0.13160970116041426 0 0.13160970116041426 -0.52895547313437419 0 0 0 0 13.475974930410558 -30.629118340716559 0 -30.629118340716559 -3.3105620705064212 0 0 0 0 1.5213103655842986 -5.6532132065594851 0 -5.6532132065594851 10.300217841737322 0 0 0 0 30.483440637238459 4.4909920711108953 0 4.4909920711108953 1.4955581009307934 0 0 0 0 -3.8181382143701512 3.8745394079887774 0 3.8745394079887774 0.9957798722489315 0 0 0 0 -10.351728468758552 -6.0787146052971366 0 -6.0787146052971366 5.3607422717759619 0 0 0 0 70.662134716645937 -12.212347317105014 0 -12.212347317105014 -23.323423711677606 0 0 0 0 -0.089749110173636404 0.20989479267290889 0 0.20989479267290889 0.48337443603230668 0 0 0 0 -0.043689178527294814 -5.6838141590824307 0 -5.6838141590824307 0.021405995346867712 0 0 0 0 14.717144493142769 -18.976560456008883 0 -18.976560456008883 8.6806257986827404 0 0 0 0 8.547031450039114 -3.9991983360364429 0 -3.9991983360364429 -1.3831304837985954 0 0 0 0 -92.981462416743426 -28.242620756347605 0 -28.242620756347605 -14.663748638020479 0 0 0 0 0.13010113874775647 0.28358557890029168 0 0.28358557890029168 -0.37050265695277318 0 0 0 0 -92.68942337075913 -34.038706080024895 0 -34.038706080024895 0.038782013347372413 0 0 0 0 -0.91341802841111785 -0.9618063662771501 0 -0.9618063662771501 -0.87621713591710204 0 0 0 0 -40.488067159635477 -111.51422059923425 0 -111.51422059923425 21.485330629879172 0 0 0 0 119.98816493549251 -96.25184715674277 0 -96.25184715674277 -11.267581959677045 0 0 0 0 13.680267654623435 4.6224396381530823 0 4.6224396381530823 -13.042785714180354 0 0 0 0 -165.11746578913835 -118.58505012265323 0 -118.58505012265323 -56.647185158542698 0 0 0 0 -185.67921083898841 23.135377099945117 0 23.135377099945117 -53.35702017501535 0 0 0 0 -248.40529017919653 -79.322466838202672 0 -79.322466838202672 20.086125279869975 0 0 0 0 -88.713491883971756 -54.763894801942115 0 -54.763894801942115 -0.030852371276517365 0 0 0 0 -28.448415569084887 -29.611835189141402 0 -29.611835189141402 -38.350044752620306 0 0 0 0 2.8368691735618086 -96.316225600768121 0 -96.316225600768121 -15.599755482020555 0 0 0 0 -87.371126343421622 -16.628432880354012 0 -16.628432880354012 43.108092512133226 0 0 0 0 30.082694804608707 -93.199646400334586 0 -93.199646400334586 50.171287464465422 0 0 0 0 18.054211807730326 -58.53412508450856 0 -58.53412508450856 61.126442964321086 0 0 0 0 3.9358810965784414 -68.001095216124668 0 -68.001095216124668 63.832198665244505 0 0 0 0 -27.375173715956748 -92.384575136727562 0 -92.384575136727562 272.91761307244815 0 0 0 0 -3.3662284467750174 -3.2035931723311997 0 -3.2035931723311997 -0.23061477591872093 0 0 0 0 -223.73082243637077 -32.89220886084604 0 -32.89220886084604 442.30679183779648 0 0 0 0 -107.68669504324953 72.649459690534968 0 72.649459690534968 249.42384834793484 0 0 0 0 -2.3856317753445735 -3.2685940096876998 0 -3.2685940096876998 -2.9578100246806471 0 0 0 0 -184.29129009462076 -97.521062317935503 0 -97.521062317935503 -17.139942283232813 0 0 0 0 -186.75180496212874 -105.98901664483401 0 -105.98901664483401 213.19072484008211 0 0 0 0 63.296997741407779 3.0876680986002611 0 3.0876680986002611 11.138239897438325 0 0 0 0 -414.99488393808826 117.62726327279415 0 117.62726327279415 46.029087171340507 0 0 0 0 -80.302498752566635 26.016674548823175 0 26.016674548823175 -13.384000421792734 0 0 0 0 -21.732131548724283 -50.687582699723862 0 -50.687582699723862 21.02257649092644 0 0 0 0 9.8385911066916378 -28.058907634422212 0 -28.058907634422212 23.202000985939662 0 0 0 0 25.082716146493112 -47.692057373429634 0 -47.692057373429634 20.675173146653833 0 0 0 0 8.6320358123734877 -54.099779374175341 0 -54.099779374175341 22.396232534608316 0 0 0 0 41.860556276653824 -55.581106153223118 0 -55.581106153223118 0.030028563180167112 0 0 0 0 16.657479757767987 -74.268482200227936 0 -74.268482200227936 0.015426040557940723 0 0 0 0 13.729148213181816 -69.569036677978147 0 -69.569036677978147 14.129376482143925 0 0 0 0 2.4732268392331207 -71.623409121197255 0 -71.623409121197255 20.308207887948811 0 0 0 0 5.1646151400973395 -82.569397689836478 0 -82.569397689836478 25.355925803345599 0 0 0 0 18.463194604701357 -80.537928416184059 0 -80.537928416184059 10.525242127605452 0 0 0 0 7.6537051937866636 -78.077539496517602 0 -78.077539496517602 -0.030756254192060215 0 0 0 0 17.838864230595618 -95.261347594340805 0 -95.261347594340805 15.831088938753055 0 0 0 0 17.374063230677734 -73.603113595991317 0 -73.603113595991317 -2.2656449295955099 0 0 0 0 -3.1241907566034479 -4.0645309862941446 0 -4.0645309862941446 -0.46721383049982945 0 0 0 0 11.517867193589296 -89.101599074907142 0 -89.101599074907142 125.07088490343267 0 0 0 0 11.237026237311966 -53.062488216624388 0 -53.062488216624388 71.561011150225568 0 0 0 0 18.683554157249091 -59.389051514576749 0 -59.389051514576749 11.368281485621992 0 0 0 0 15.22054782907594 -67.576728947635274 0 -67.576728947635274 -4.3799947109728237 0 0 0 0 -21.917827509178096 -79.391008362590583 0 -79.391008362590583 20.557466936448691 0 0 0 0 -2.2641270334498813 -4.1990457414314228 0 -4.1990457414314228 0.049297774893808821 0 0 0 0 5.8814805198089743 -20.4521543740575 0 -20.4521543740575 38.880779785202321 0 0 0 0 -8.0453721558014877 -80.804333494714228 0 -80.804333494714228 -7.089861671836843 0 0 0 0 0.0016344754414934215 -0.98552256703512953 0 -0.98552256703512953 -0.78421204189320548 0 0 0 0 -186.57566523459536 10.116558178027844 0 10.116558178027844 -7.5820203882572059 0 0 0 0 -105.2295131181163 -144.5709235639697 0 -144.5709235639697 -190.01381874780191 0 0 0 0 -0.48599060187081911 -0.32788673405000779 0 -0.32788673405000779 1.0129595554784538 0 0 0 0 -161.20749371042803 -126.27894513489446 0 -126.27894513489446 -76.071206087515748 0 0 0 0 -329.7407682822577 -70.489008517422917 0 -70.489008517422917 -24.223452781159722 0 0 0 0 -101.73287564228576 -114.00488976376073 0 -114.00488976376073 -99.332087867202063 0 0 0 0 -73.016251339979135 -32.012667433257775 0 -32.012667433257775 -61.520683059647126 0 0 0 0 -45.305529739782287 -56.486343787881196 0 -56.486343787881196 -39.398410593779772 0 0 0 0 -94.774057830920356 -65.135730646497905 0 -65.135730646497905 9.4870847181482532 0 0 0 0 -50.315736450274926 -51.712983621944659 0 -51.712983621944659 6.5766153180484253 0 0 0 0 -11.225821782734329 -56.408839893740605 0 -56.408839893740605 20.015410436735692 0 0 0 0 -46.158816946595834 -73.493551962137644 0 -73.493551962137644 13.254117873296309 0 0 0 0 -34.931126734019017 -30.704497290922518 0 -30.704497290922518 23.262963310764462 0 0 0 0 -33.587833259389527 -32.72022851413476 0 -32.72022851413476 26.079467683317489 0 0 0 0 -23.778376173775541 -15.459985616455015 0 -15.459985616455015 -0.94638296315315529 0 0 0 0 -40.2319543296353 -29.940817890073959 0 -29.940817890073959 -12.885240122321193 0 0 0 0 -0.79722576757516617 -1.0316319366975755 0 -1.0316319366975755 5.4267974891914221 0 0 0 0 -149.37563647864454 -22.207049797088985 0 -22.207049797088985 19.784443253665813 0 0 0 0 -8.0483963129970562 -10.948158757591955 0 -10.948158757591955 -7.9292689502963185 0 0 0 0 -6.8369315771155925 -15.932634420591967 0 -15.932634420591967 -12.268941919432109 0 0 0 0 -14.952052549922882 -16.228459627347547 0 -16.228459627347547 -5.5849621488937373 0 0 0 0 -16.89137553258945 -29.983252070162052 0 -29.983252070162052 -29.113388626363303 0 0 0 0 -24.909911281871246 -39.648364678689177 0 -39.648364678689177 -23.864538249646102 0 0 0 0 -8.0978573803158724 -41.752588280211967 0 -41.752588280211967 -32.230094007942171 0 0 0 0 -4.01499308707821 -27.355841386239263 0 -27.355841386239263 -49.921340570732355 0 0 0 0 -7.1881562578191733 -27.886344886240295 0 -27.886344886240295 -45.99166905451068 0 0 0 0 -4.7379259917790932 -25.097567566400357 0 -25.097567566400357 -56.774686775359442 0 0 0 0 -18.952291584092109 -63.737311671489806 0 -63.737311671489806 -46.621700284715189 0 0 0 0 -8.8440856359911777 -48.642967488617387 0 -48.642967488617387 -73.424395770960473 0 0 0 0 -18.778258890504731 -59.979883752250316 0 -59.979883752250316 -29.202364956581732 0 0 0 0 -16.714643724590132 -61.500170687018908 0 -61.500170687018908 -45.275446779209233 0 0 0 0 -20.107790902013221 -67.83967402574126 0 -67.83967402574126 -25.348402648023693 0 0 0 0 -24.418455632552877 -61.879316460363498 0 -61.879316460363498 -12.298294129210262 0 0 0 0 -23.278898121630846 -53.414934591481142 0 -53.414934591481142 -14.707855908339297 0 0 0 0 -23.483572092477516 -61.452531943099075 0 -61.452531943099075 -27.847927469592832 0 0 0 0 -22.91295466016345 -57.465205475322364 0 -57.465205475322364 -25.366465919085385 0 0 0 0 -23.574543461474605 -56.42808879342283 0 -56.42808879342283 -18.811191803524707 0 0 0 0 -27.543551682480938 -58.315411443758421 0 -58.315411443758421 -21.888981607464302 0 0 0 0 -25.659846915174057 -56.528986612802328 0 -56.528986612802328 -25.662841362305699 0 0 0 0 -17.035673015322573 -51.257349449335379 0 -51.257349449335379 -40.337970880864304 0 0 0 0 -19.812971675395147 -57.80804081788483 0 -57.80804081788483 -31.26784690198474 0 0 0 0 -15.555514105652037 -45.518529082555688 0 -45.518529082555688 -26.698194552634959 0 0 0 0 -32.838632406316265 -42.865743472712211 0 -42.865743472712211 -19.657187690849241 0 0 0 0 -29.980366190204677 -50.590974434023337 0 -50.590974434023337 -28.338487698473728 0 0 0 0 -25.842260730299131 -55.032357147114794 0 -55.032357147114794 -24.378935705790354 0 0 0 0 -31.838832885967349 -53.866548111953307 0 -53.866548111953307 -23.631751574131158 0 0 0 0 -39.208448725362359 -59.072146968629568 0 -59.072146968629568 -20.359955082596571 0 0 0 0 -41.94556751496566 -45.607520331745036 0 -45.607520331745036 -14.769119925529594 0 0 0 0 -56.118441457852896 -47.593676208352917 0 -47.593676208352917 -15.034792675880453 0 0 0 0 -43.895646632372063 -53.024544596275973 0 -53.024544596275973 -12.851427348465222 0 0 0 0 -79.959415491326581 -45.626208250416312 0 -45.626208250416312 1.3620086106129747 0 0 0 0 -56.824389100123142 -42.212906463255308 0 -42.212906463255308 -1.4918044330479461 0 0 0 0 -61.204484913268061 -35.122609299914984 0 -35.122609299914984 -7.0527328418393154 0 0 0 0 -44.04541218140821 -36.123745403516295 0 -36.123745403516295 -14.906019666545035 0 0 0 0 -50.171456558985483 -33.831773264731964 0 -33.831773264731964 -15.759456047129788 0 0 0 0 -35.139549874988006 -30.56950298722677 0 -30.56950298722677 -14.303506501193624 0 0 0 0 -28.998367646227962 -41.295530951924775 0 -41.295530951924775 -21.812603224174381 0 0 0 0 -52.334378061105326 -50.962044887657612 0 -50.962044887657612 -47.032181972808303 0 0 0 0 -144.70025988885698 -105.55869913371998 0 -105.55869913371998 -64.053626162138244 0 0 0 0 -88.652118873552354 -29.079540899833773 0 -29.079540899833773 -64.599704953519904 0 0 0 0 -54.465181137185937 -10.837212146334423 0 -10.837212146334423 -27.186958116626101 0 0 0 0 -9.5968146119666358 7.2594849133246271 0 7.2594849133246271 -22.545988157013198 0 0 0 0 -90.385057522640636 6.2823396744806814 0 6.2823396744806814 -7.0773843118950026 0 0 0 0 -101.04451031613144 -42.436110958862628 0 -42.436110958862628 -18.901223047171698 0 0 0 0 -277.17662807330169 -173.71446913258296 0 -173.71446913258296 -75.111490936298651 0 0 0 0 46.877611590324193 32.634491097752743 0 32.634491097752743 -67.858614002383547 0 0 0 0 -150.25570933801873 52.426369450147831 0 52.426369450147831 51.967879580697627 0 0 0 0 -45.878695805924963 -151.53693764565287 0 -151.53693764565287 -377.53547070845616 0 0 0 0 -1.6546805594752598 -1.2291521711607771 0 -1.2291521711607771 -0.070464421900465091 0 0 0 0 -25.13120636779604 -44.486325789645889 0 -44.486325789645889 -193.31032646188578 0 0 0 0 -25.127403292137387 -43.654316587479116 0 -43.654316587479116 -90.799907368165805 0 0 0 0 -6.7549377703767277 -38.139207462895683 0 -38.139207462895683 -123.73607698513308 0 0 0 0 -22.732242372254404 -74.406317885762292 0 -74.406317885762292 -96.776125354221904 0 0 0 0 -60.895457789008901 -71.292246800154089 0 -71.292246800154089 -36.426326013348444 0 0 0 0 -21.230098148636898 -56.745231025432076 0 -56.745231025432076 -35.724135904527884 0 0 0 0 -49.522489110320748 -44.80198941771414 0 -44.80198941771414 -6.0915709463715757 0 0 0 0 -21.356265770431492 -59.195009626793762 0 -59.195009626793762 -44.321004251658451 0 0 0 0 -19.258417390810337 -67.151272493345459 0 -67.151272493345459 -43.334107228911307 0 0 0 0 -34.523752756482736 -61.995091342530031 0 -61.995091342530031 -14.327552514871059 0 0 0 0 -0.45801304300221091 -68.406213787595334 0 -68.406213787595334 -14.249587657815937 0 0 0 0 -29.308387231927327 -42.105482746864254 0 -42.105482746864254 8.1397244587005844 0 0 0 0 -15.488279458865691 -37.073345860389963 0 -37.073345860389963 -4.8762873249374934 0 0 0 0 -36.891574348495396 -15.781346438800028 0 -15.781346438800028 24.565860692831848 0 0 0 0 -32.19809504953173 -18.917215288349325 0 -18.917215288349325 9.2020533700624583 0 0 0 0 -75.325535466230576 -59.840557044852176 0 -59.840557044852176 -21.362392193381311 0 0 0 0 -36.319836559788428 -37.37454471759338 0 -37.37454471759338 -15.829668512727949 0 0 0 0 -59.656035848968259 -21.18368071032819 0 -21.18368071032819 10.036397877433046 0 0 0 0 -89.115604084212691 -19.049149624667962 0 -19.049149624667962 3.5038794649590272 0 0 0 0 -56.343792389900045 -11.360563639017528 0 -11.360563639017528 6.4894343453452166 0 0 0 0 -41.388123542397807 -14.9825172018991 0 -14.9825172018991 -1.7955130348082093 0 0 0 0 -47.437773850193025 -5.2421870824164216 0 -5.2421870824164216 9.1983974231588945 0 0 0 0 -16.525317838311366 6.5246435055269103 0 6.5246435055269103 -0.44780587946797823 0 0 0 0 -18.783655924163213 -2.7814709490594396 0 -2.7814709490594396 6.7486976239279102 0 0 0 0 -36.008565323006223 -7.4571951752577661 0 -7.4571951752577661 15.037870634298088 0 0 0 0 -24.381977170970003 -16.844387705714325 0 -16.844387705714325 14.788337577571838 0 0 0 0 -20.930721183330888 -13.315296432367177 0 -13.315296432367177 16.642568993833265 0 0 0 0 -23.733620670550181 -25.892211850619333 0 -25.892211850619333 23.446128915564259 0 0 0 0 -23.245584029557904 -28.988059401926876 0 -28.988059401926876 26.508316259967614 0 0 0 0 -27.007845321895502 -21.744245899428279 0 -21.744245899428279 21.738712835245678 0 0 0 0 -16.804567622300965 -23.395646617074817 0 -23.395646617074817 22.250640248596937 0 0 0 0 9.068620456861936 -44.165100787713527 0 -44.165100787713527 -36.052414410164602 0 0 0 0 -17.430084535615606 -38.497585098210038 0 -38.497585098210038 -2.1328940564781078 0 0 0 0 -19.644968005672126 -36.502707055376959 0 -36.502707055376959 16.977259775841958 0 0 0 0 -18.050188186426283 -28.376409446993648 0 -28.376409446993648 13.211294608943717 0 0 0 0 -23.492865967010857 -27.127822266274961 0 -27.127822266274961 12.932422445705015 0 0 0 0 -18.100771014328984 -29.529680748433293 0 -29.529680748433293 -3.3565982095387881 0 0 0 0 -16.419649450408372 -24.836705711149534 0 -24.836705711149534 4.8559953933872748 0 0 0 0 -16.297168419752097 -24.026117650662854 0 -24.026117650662854 0.93329408694989979 0 0 0 0 -13.210419745457784 -24.497890027891117 0 -24.497890027891117 -8.8640995247260435 0 0 0 0 -7.9713720830235388 -17.231500537543525 0 -17.231500537543525 6.4849021339177852 0 0 0 0 0.65420593025595508 -12.524331489589249 0 -12.524331489589249 2.3947490778714897 0 0 0 0 -14.938040288684533 -25.335372426678077 0 -25.335372426678077 2.1075187064107013 0 0 0 0 1.6527127912563628 -16.746511767126322 0 -16.746511767126322 -3.0081398115557931 0 0 0 0 -6.5349951047305126 -9.8181313372296817 0 -9.8181313372296817 -7.7433470263854325 0 0 0 0 -4.8011075023737249 -22.105766751337569 0 -22.105766751337569 -0.82298304801679478 0 0 0 0 -1.5522940166126773 -25.826019552607477 0 -25.826019552607477 -3.1983455574704749 0 0 0 0 -8.2170376833723022 -16.399929259437773 0 -16.399929259437773 10.269451780766753 0 0 0 0 -4.581229036280547 -23.535267721452698 0 -23.535267721452698 -1.8050978579617549 0 0 0 0 -4.7193828145336738 -22.627766671289578 0 -22.627766671289578 -7.2168698055829736 0 0 0 0 10.670700858627242 -21.01228698520049 0 -21.01228698520049 -10.380999865499689 0 0 0 0 7.9554184404069019 -16.913124756088109 0 -16.913124756088109 -10.02202621709057 0 0 0 0 -23.862364591546793 -28.757124202114483 0 -28.757124202114483 -5.5221645869582971 0 0 0 0 -0.90351971071624781 -4.6439929933034092 0 -4.6439929933034092 -3.2013600705730703 0 0 0 0 -15.773969208850161 -19.919270765707509 0 -19.919270765707509 -17.951991345608803 0 0 0 0 -15.151459382358553 -27.668879125182684 0 -27.668879125182684 -9.5624086165967128 0 0 0 0 -15.485485528505023 -17.694309233221475 0 -17.694309233221475 8.2080113594602153 0 0 0 0 10.11870249991307 -23.914912406276926 0 -23.914912406276926 -37.432362685747648 0 0 0 0 -7.1500742508251385 -16.635109569328353 0 -16.635109569328353 8.0217552961736445 0 0 0 0 -10.736863452301805 -25.97951587623993 0 -25.97951587623993 -3.0192097111075782 0 0 0 0 -1.3634717463681651 -7.2836610237900867 0 -7.2836610237900867 -2.9577896099508934 0 0 0 0 -13.426943014750009 -28.92549673082749 0 -28.92549673082749 -6.1874590439711028 0 0 0 0 -28.957828208937599 -24.325282255560069 0 -24.325282255560069 -7.1379031106298498 0 0 0 0 -20.43070475517834 -23.325849611010199 0 -23.325849611010199 -6.7521028314222349 0 0 0 0 40.95518320017618 -18.143798781009536 0 -18.143798781009536 -6.3194916870079396 0 0 0 0 75.683748461277901 -28.931204289521702 0 -28.931204289521702 -5.7176707480157347 0 0 0 0 -0.80062349359383411 0.90167344211522682 0 0.90167344211522682 1.1253378769621065 0 0 0 0 -18.533999585268475 -39.534109543725208 0 -39.534109543725208 22.627059113805444 0 0 0 0 33.037702390819504 -21.513985568691169 0 -21.513985568691169 14.018415617647406 0 0 0 0 -24.625590637453115 -35.914657361367063 0 -35.914657361367063 52.960361950274091 0 0 0 0 37.759263486966574 -52.26559252190782 0 -52.26559252190782 25.147065132281568 0 0 0 0 -29.766341729804026 -53.021490874340088 0 -53.021490874340088 -3.5921060355140071 0 0 0 0 -29.490021670726946 -51.445269983783874 0 -51.445269983783874 5.340747599295355 0 0 0 0 -48.006468355650668 -31.839835206620592 0 -31.839835206620592 24.818280414416222 0 0 0 0 -13.186106237659033 -72.423946443942896 0 -72.423946443942896 32.325761466410768 0 0 0 0 -17.836622645618263 -34.519546233090296 0 -34.519546233090296 -0.57695106310598021 0 0 0 0 -23.773263170389896 -55.422741944757718 0 -55.422741944757718 -19.919179147153045 0 0 0 0 -21.023283122992552 -51.067152703522424 0 -51.067152703522424 -24.4772073909553 0 0 0 0 -22.966799514862032 -47.384906097713611 0 -47.384906097713611 -11.112656004213022 0 0 0 0 -14.937541150855395 -34.125317020570947 0 -34.125317020570947 -12.236415800412942 0 0 0 0 -19.692979442068008 -43.070499647372344 0 -43.070499647372344 -18.456820433415487 0 0 0 0 -62.532159957333533 -76.454605298325987 0 -76.454605298325987 -22.828388505356997 0 0 0 0 -67.141809729806482 -56.448519092122069 0 -56.448519092122069 9.443140877148835 0 0 0 0 -86.884711985712784 -71.693943949641834 0 -71.693943949641834 1.8885547573891017 0 0 0 0 -66.71626114564242 -58.927272063068813 0 -58.927272063068813 -14.306069345060678 0 0 0 0 -44.035898147110856 -63.884979886664951 0 -63.884979886664951 -15.4745582463147 0 0 0 0 -26.69381516637668 -55.994701590766454 0 -55.994701590766454 -26.543709514437069 0 0 0 0 -24.411757592599315 -60.434410888219645 0 -60.434410888219645 -33.296629729920824 0 0 0 0 -44.44260350289062 -61.922913864008251 0 -61.922913864008251 -21.637324396819167 0 0 0 0 -23.60015061456852 -51.463069523906597 0 -51.463069523906597 -24.283499128357107 0 0 0 0 -10.491664983628198 -43.659881249141108 0 -43.659881249141108 -34.317565967667178 0 0 0 0 -19.870749763042113 -55.241399032880508 0 -55.241399032880508 -30.841950596702191 0 0 0 0 -5.2624405819569802 -38.177086530276938 0 -38.177086530276938 -43.061680068027727 0 0 0 0 -32.598650832276235 -75.950751745666821 0 -75.950751745666821 -58.356593477688875 0 0 0 0 -45.776243386833812 -76.25256782692486 0 -76.25256782692486 -22.857252000183507 0 0 0 0 -8.7498216012641592 -75.972205978111788 0 -75.972205978111788 -101.21671792703637 0 0 0 0 -12.815319292911681 -41.57081711362116 0 -41.57081711362116 -28.745181859314471 0 0 0 0 -8.7499471263012083 -30.185317870655808 0 -30.185317870655808 -19.394001666067197 0 0 0 0 -13.067867063190533 -30.334302550976417 0 -30.334302550976417 -0.56209486078250848 0 0 0 0 -3.378935946781894 -36.632125226270546 0 -36.632125226270546 -26.269641721664811 0 0 0 0 -1.4077906786485386 -19.19637130419602 0 -19.19637130419602 9.6753200010855451 0 0 0 0 -16.07598836112993 -22.331969702584502 0 -22.331969702584502 6.7388313410720002 0 0 0 0 -5.6293582890280742 -18.043698177062755 0 -18.043698177062755 10.251650822386676 0 0 0 0 -14.731944478046898 -29.532824405128849 0 -29.532824405128849 -6.8658780688210754 0 0 0 0 -3.3632984339192262 -32.154924321952876 0 -32.154924321952876 -16.095832758865072 0 0 0 0 -3.5121045825002675 -18.6927381451675 0 -18.6927381451675 9.6233963306009507 0 0 0 0 -1.1478609900696028 -43.048068012008343 0 -43.048068012008343 -22.117351429166433 0 0 0 0 14.948664703153099 -22.095508102249596 0 -22.095508102249596 -34.378125808908635 0 0 0 0 1.1034447324075529 -15.774985704517732 0 -15.774985704517732 -5.1968301955512288 0 0 0 0 89.141650093208909 -8.3733893506673667 0 -8.3733893506673667 5.3159703687406363 0 0 0 0 83.115473851854404 4.7057403967290838 0 4.7057403967290838 -23.070286706320985 0 0 0 0 -0.028931383852651926 0.69116868499894579 0 0.69116868499894579 0.27692884981627941 0 0 0 0 36.794524688256843 -48.972853331807755 0 -48.972853331807755 -40.990185010182358 0 0 0 0 -11.358076433462884 -30.732872864871752 0 -30.732872864871752 -12.817624646286049 0 0 0 0 -13.973718309410287 -37.695100938727592 0 -37.695100938727592 -9.9919878627533762 0 0 0 0 -12.839382362752531 -37.217338757108337 0 -37.217338757108337 -26.018162927043704 0 0 0 0 -16.536784423079553 -61.091782478914638 0 -61.091782478914638 -43.083256941471404 0 0 0 0 -36.407475493522725 -28.851360493509674 0 -28.851360493509674 -28.484457800318864 0 0 0 0 0.48885327343018403 -0.1471911204863261 0 -0.1471911204863261 -0.13058353473673634 0 0 0 0 33.521306954177248 -38.818015873985757 0 -38.818015873985757 -38.9995124574898 0 0 0 0 106.29253600572929 11.891214119856613 0 11.891214119856613 -52.031656688664953 0 0 0 0 3.6243431381240043 -25.576481063657866 0 -25.576481063657866 -17.917352472843504 0 0 0 0 -2.0067661842058442 -38.520112789598898 0 -38.520112789598898 -19.892397289383553 0 0 0 0 -8.3440297249815103 -30.523058292983023 0 -30.523058292983023 -15.566619011846797 0 0 0 0 -23.554301682393088 -29.655134476180137 0 -29.655134476180137 -15.522602705004942 0 0 0 0 -15.227915572574148 -21.948113012665999 0 -21.948113012665999 -55.910670168414526 0 0 0 0 -9.3973666789261188 -36.332329069153275 0 -36.332329069153275 -34.006693366178752 0 0 0 0 -7.3346719519975068 -25.440395476838574 0 -25.440395476838574 -37.9700811904695 0 0 0 0 13.953802217718476 -36.244909897771322 0 -36.244909897771322 -49.275416567695629 0 0 0 0 -14.634821778440255 -25.970243421654402 0 -25.970243421654402 -51.821285195076598 0 0 0 0 1.0917263036448723 -0.39292696482369571 0 -0.39292696482369571 -0.19407648445736037 0 0 0 0 -10.0283217246606 -45.07919298404704 0 -45.07919298404704 -65.108675701612356 0 0 0 0 0.5972597657914207 -0.082079508291740488 0 -0.082079508291740488 -0.064807687750589871 0 0 0 0 4.7078075777662889 -16.595477325644424 0 -16.595477325644424 -77.269533015622983 0 0 0 0 -6.2342455353409605 18.203990279705522 0 18.203990279705522 -43.606875758932347 0 0 0 0 5.788104179898653 -127.07051401177907 0 -127.07051401177907 -45.736154227101451 0 0 0 0 0.60326291300133583 -0.2632763600863619 0 -0.2632763600863619 -0.11642348696736438 0 0 0 0 21.529633344756064 5.5532572808087082 0 5.5532572808087082 -30.424672698817631 0 0 0 0 4.9485702265287728 -13.323000318181357 0 -13.323000318181357 -39.704648437743799 0 0 0 0 14.249131153526832 -8.3018417145515286 0 -8.3018417145515286 -62.67205745775118 0 0 0 0 17.858634902531776 -23.857758532365096 0 -23.857758532365096 -66.452774556797635 0 0 0 0 1.3917949864187538 -0.14590593692853115 0 -0.14590593692853115 -0.13082809717906585 0 0 0 0 20.305485205131845 13.713060921702436 0 13.713060921702436 -45.883994570362916 0 0 0 0 -2.6923437878090226 -20.483681735236132 0 -20.483681735236132 -42.867756948071019 0 0 0 0 1.3156980589405478 -0.08039505744767883 0 -0.08039505744767883 -0.11012730193789277 0 0 0 0 -2.3237925721186912 -23.575613998665176 0 -23.575613998665176 -33.8683662256052 0 0 0 0 -5.9467762105946349 -20.328068652499724 0 -20.328068652499724 -34.680328945294605 0 0 0 0 -5.2170688568985497 -13.478291568396571 0 -13.478291568396571 -29.94483171033562 0 0 0 0 -4.6735162251069369 -10.811599512766918 0 -10.811599512766918 -17.677133952586701 0 0 0 0 -13.092679938243236 -21.971407713239387 0 -21.971407713239387 -22.935320826522002 0 0 0 0 16.141645861947836 -15.029753394102954 0 -15.029753394102954 15.919212894150405 0 0 0 0 2.7165436247096295 25.945549759618871 0 25.945549759618871 -0.74206725924148031 0 0 0 0 3.53156377515052 -1.4112469543645112 0 -1.4112469543645112 0.18871218068050588 0 0 0 0 -12.696715360743838 12.886700767044658 0 12.886700767044658 -6.0299115441519007 0 0 0 0 10.955342038758317 8.8459167845148841 0 8.8459167845148841 -32.02091635939837 0 0 0 0 2.5226494297357931 -13.51929502298799 0 -13.51929502298799 -40.455731211771763 0 0 0 0 4.8025206167087404 -1.6802208740926741 0 -1.6802208740926741 0.60596895670544271 0 0 0 0 49.701156722626365 -21.666548063653636 0 -21.666548063653636 -27.711549415980244 0 0 0 0 -17.324861123191113 6.7073768833204781 0 6.7073768833204781 -16.582033217746357 0 0 0 0 69.274472173176036 -39.990415890979421 0 -39.990415890979421 4.5404192646237789 0 0 0 0 34.099582167119479 17.395050201143476 0 17.395050201143476 -30.802318064403607 0 0 0 0 5.533405133087399 -24.255983227613342 0 -24.255983227613342 -0.5576853970725324 0 0 0 0 0.55661053697133767 0.068094621760268481 0 0.068094621760268481 -0.068310634935406789 0 0 0 0 8.4011265583527006 -22.484748604003471 0 -22.484748604003471 -24.79360408112916 0 0 0 0 8.7854179419800857 -15.109418311180889 0 -15.109418311180889 -21.153515650042664 0 0 0 0 14.815544429087822 -14.161514793200695 0 -14.161514793200695 -27.860703237848952 0 0 0 0 18.837203314405997 -5.854183483493216 0 -5.854183483493216 -16.102390931831906 0 0 0 0 8.7484176677253345 -15.362264694500936 0 -15.362264694500936 -8.3266639924481751 0 0 0 0 -0.09859946966116695 -19.954221942800814 0 -19.954221942800814 -11.169200786548117 0 0 0 0 8.7567441765121998 -15.029450006417846 0 -15.029450006417846 -21.063601895073589 0 0 0 0 -0.65220902241287604 -23.370870257153882 0 -23.370870257153882 -21.683603949707503 0 0 0 0 -9.3844629199338669 -21.800394494611282 0 -21.800394494611282 -18.95390279043022 0 0 0 0 -11.733013242303059 -29.22124885297535 0 -29.22124885297535 -28.023511553657954 0 0 0 0 -65.882137005522964 -44.947372422431272 0 -44.947372422431272 -20.712088966371084 0 0 0 0 -42.537749220803562 -19.013165744775961 0 -19.013165744775961 -14.593836253785639 0 0 0 0 -67.351552517515302 -59.517336216028752 0 -59.517336216028752 -19.732858927987763 0 0 0 0 -24.572063498304487 -27.248639830220327 0 -27.248639830220327 -19.115798487733286 0 0 0 0 -32.853660395996485 -57.813666392196865 0 -57.813666392196865 -42.817598025848383 0 0 0 0 -10.261517760920469 -25.431652536294678 0 -25.431652536294678 -23.376429739406376 0 0 0 0 -22.694177330145976 -27.681094351823504 0 -27.681094351823504 -23.084727069282962 0 0 0 0 -6.920261009882779 -21.562146041365395 0 -21.562146041365395 -24.989023041880955 0 0 0 0 -6.8435450193110228 -23.319506877252479 0 -23.319506877252479 -15.980212175010934 0 0 0 0 -14.955252001398549 -19.530070587620685 0 -19.530070587620685 -23.4579535915218 0 0 0 0 78.443440265362369 -146.86628462296176 0 -146.86628462296176 -492.02119794113059 0 0 0 0 -96.052464858967141 -205.5173309960901 0 -205.5173309960901 -439.34040941507828 0 0 0 0 248.4022556193695 94.043142202473973 0 94.043142202473973 -328.03028097253809 0 0 0 0 -24.719226770923342 150.24759370148149 0 150.24759370148149 78.383746076306124 0 0 0 0 -63.582872338425659 -58.090068190438615 0 -58.090068190438615 -110.25843259667818 0 0 0 0 -108.10802385797479 31.20963753122669 0 31.20963753122669 56.496968652552823 0 0 0 0 -13.709866976922058 28.184345233219574 0 28.184345233219574 -149.64507698881835 0 0 0 0 -162.39821197339734 -54.076782232630649 0 -54.076782232630649 -120.6771178275394 0 0 0 0 2.0951474708181195 -41.148506043979069 0 -41.148506043979069 -370.39107073248306 0 0 0 0 -25.816535827484586 -156.44521825418087 0 -156.44521825418087 -421.77121005842855 0 0 0 0 79.303410334549682 43.239937384152896 0 43.239937384152896 -228.04332264281402 0 0 0 0 -0.57497400002174714 -1.8956017082929399 0 -1.8956017082929399 -1.1197686442966948 0 0 0 0 82.842805893342756 -64.653019401517668 0 -64.653019401517668 -96.05529824520454 0 0 0 0 12.44989745599014 -85.837687371920765 0 -85.837687371920765 -472.01847360914053 0 0 0 0 2.135568093904491 -1.0248713139457237 0 -1.0248713139457237 0.72581273312994909 0 0 0 0 14.403518436602099 -61.435236437104322 0 -61.435236437104322 -11.997712651354959 0 0 0 0 -148.04155701565196 -70.695581564943495 0 -70.695581564943495 89.631560401285242 0 0 0 0 -87.46786620487751 -209.61880841256971 0 -209.61880841256971 -178.86628754201593 0 0 0 0 25.041588530282752 -101.57090940979106 0 -101.57090940979106 -134.87171786266481 0 0 0 0 4.9406173840630334 -6.4074234181400396 0 -6.4074234181400396 -2.4336706284092031 0 0 0 0 16.460851628417913 -4.010120216694304 0 -4.010120216694304 16.234580481453577 0 0 0 0 -136.79119304374717 66.144898659630144 0 66.144898659630144 -42.41489649873256 0 0 0 0 1.1568310827359642 0.36195647479152804 0 0.36195647479152804 -3.0902866182438373 0 0 0 0 8.3252380601477718 -3.5105440975232174 0 -3.5105440975232174 -5.3263088781940553 0 0 0 0 32.496799116987859 10.708895793064585 0 10.708895793064585 -24.940406343000177 0 0 0 0 152.79007260165235 71.338725396644804 0 71.338725396644804 -215.89616510536598 0 0 0 0 39.155456053600574 185.44397729954289 0 185.44397729954289 -138.01951789899431 0 0 0 0 -2.3650968486476671 -3.0494172646862907 0 -3.0494172646862907 -3.274187898042193 0 0 0 0 -107.82305686126347 -374.7537660943126 0 -374.7537660943126 170.30409302655426 0 0 0 0 118.61625559148888 140.62098931091896 0 140.62098931091896 -339.33525119314345 0 0 0 0 119.320278214891 -191.91244984331843 0 -191.91244984331843 178.84332716072458 0 0 0 0 67.959744755346037 222.63938914259597 0 222.63938914259597 -289.38441066909763 0 0 0 0 68.387492288170961 -122.2656305873079 0 -122.2656305873079 -430.71539185851179 0 0 0 0 -20.15862004275732 -153.10745131848989 0 -153.10745131848989 -52.312054318499577 0 0 0 0 -7.1645836988113967 -7.7099826360177728 0 -7.7099826360177728 -8.1100614278147276 0 0 0 0 -129.66415260562917 -346.94075493880337 0 -346.94075493880337 -234.75119548214207 0 0 0 0 83.599005794865661 -107.36906846971988 0 -107.36906846971988 26.714270784845212 0 0 0 0 -12.741569615185654 168.2769964702602 0 168.2769964702602 -38.743813698474696 0 0 0 0 107.93685896686611 -87.597263807057061 0 -87.597263807057061 -42.437056820952421 0 0 0 0 63.123912240633217 -30.363360285515228 0 -30.363360285515228 128.4111783553094 0 0 0 0 75.250133702958919 -55.505383904630435 0 -55.505383904630435 -1.9064020313180663 0 0 0 0 63.039926447750986 -16.447459007030375 0 -16.447459007030375 -15.881255605503611 0 0 0 0 76.590925349863028 -42.902873043102772 0 -42.902873043102772 -30.670061195825838 0 0 0 0 35.27195864244004 -4.0810236057468501 0 -4.0810236057468501 -47.75989834583288 0 0 0 0 14.761737340838295 -96.592789607076384 0 -96.592789607076384 -138.82745742022053 0 0 0 0 79.549809669648539 -51.349642972937886 0 -51.349642972937886 -110.68938843449905 0 0 0 0 33.02650640389902 -7.2531926484293763 0 -7.2531926484293763 16.925463803982893 0 0 0 0 59.008324078540682 -24.562279709634822 0 -24.562279709634822 -30.250092005378974 0 0 0 0 67.497555335028665 -7.8650150433477393 0 -7.8650150433477393 -26.278551912593457 0 0 0 0 55.751648861493777 -14.237463525490966 0 -14.237463525490966 -11.716772706527991 0 0 0 0 58.110708064419669 -8.5413400378906772 0 -8.5413400378906772 -1.3843071949231671 0 0 0 0 60.161294698551501 -8.901753242275845 0 -8.901753242275845 -10.44095609335136 0 0 0 0 31.036522918704577 -19.697345311035178 0 -19.697345311035178 3.7154352193974773 0 0 0 0 18.334476629563596 -20.767901586671996 0 -20.767901586671996 4.2560724367913281 0 0 0 0 40.976607726538532 -0.65810343109478708 0 -0.65810343109478708 -4.2396988555174175 0 0 0 0 36.114693224280927 -25.169532168834849 0 -25.169532168834849 6.9472342382778152 0 0 0 0 26.583912186528323 -22.488340415647144 0 -22.488340415647144 8.5567347045898714 0 0 0 0 28.716374956362415 -17.562251848893993 0 -17.562251848893993 5.1569041422117152 0 0 0 0 47.413229312648582 -48.534871098621807 0 -48.534871098621807 39.853598552450421 0 0 0 0 15.07474167182761 55.032427711567607 0 55.032427711567607 42.683301060200392 0 0 0 0 -33.820035402832673 -73.310912614834706 0 -73.310912614834706 185.15716637245396 0 0 0 0 -9.2271272321669002 -11.810482318829592 0 -11.810482318829592 -5.4453059902701462 0 0 0 0 3.662299166678789 -11.200630674694668 0 -11.200630674694668 12.147007378269361 0 0 0 0 -12.695393887697719 -17.449150855548396 0 -17.449150855548396 13.353227580496423 0 0 0 0 9.9242988959601917 -20.879930155198849 0 -20.879930155198849 -25.138216564913819 0 0 0 0 -6.2343441684956815 -52.452351292899834 0 -52.452351292899834 -12.872776249619164 0 0 0 0 -5.6435674992044369 -11.026859936393976 0 -11.026859936393976 7.2656497365837822 0 0 0 0 -5.7022355079634508 -11.181526597214997 0 -11.181526597214997 7.8427186060446274 0 0 0 0 -1.6858402754947051 -7.5773370613775466 0 -7.5773370613775466 -2.4280269242115846 0 0 0 0 -179.21188925634976 -133.36067804049281 0 -133.36067804049281 -46.420765133033456 0 0 0 0 -120.62447775195415 -128.98759552547745 0 -128.98759552547745 -100.1860990606765 0 0 0 0 0.66160683112849394 -3.9797767788199039 0 -3.9797767788199039 8.7039945892930497 0 0 0 0 -142.19427346941302 -111.51181828110157 0 -111.51181828110157 -103.27700005925544 0 0 0 0 -113.2687075498925 -84.684711459867685 0 -84.684711459867685 -53.130126528863457 0 0 0 0 -160.0521924150687 -72.726755095712008 0 -72.726755095712008 -29.281485971985603 0 0 0 0 -62.900757721254195 -93.139426995436224 0 -93.139426995436224 -62.629846994001809 0 0 0 0 -70.386573037450944 -76.670636289066579 0 -76.670636289066579 -30.297413068296464 0 0 0 0 1.7540782506772166 -4.6668152963503111 0 -4.6668152963503111 13.240930999006647 0 0 0 0 -58.915390085511717 -69.265800115131697 0 -69.265800115131697 -40.076924035867933 0 0 0 0 -5.6694966041172847 -10.17459356818199 0 -10.17459356818199 6.6153561636356244 0 0 0 0 -5.679542580004636 -10.369056660110346 0 -10.369056660110346 7.478096052069759 0 0 0 0 0.49989498644774155 -7.7368224390057652 0 -7.7368224390057652 13.297741169474861 0 0 0 0 56.238471413569187 -8.8754455160226371 0 -8.8754455160226371 -49.845430959467649 0 0 0 0 82.319176078734927 -77.860665630844778 0 -77.860665630844778 -73.193614346975664 0 0 0 0 -7.3569728615543681 -89.379215155364363 0 -89.379215155364363 -10.457117015593667 0 0 0 0 -19.801981298416649 -63.327072343997315 0 -63.327072343997315 -64.993296920247758 0 0 0 0 -64.812657834803758 -85.689562468081931 0 -85.689562468081931 -36.320358253486575 0 0 0 0 -54.402114178170223 -77.33124853846823 0 -77.33124853846823 -48.880369470787628 0 0 0 0 -1.1558811859740672 -59.016755303083301 0 -59.016755303083301 -43.550772032539044 0 0 0 0 12.497459105271446 -86.833520301735916 0 -86.833520301735916 -60.729208391048815 0 0 0 0 5.1732278917088479 -57.305096357683851 0 -57.305096357683851 -58.092163484934645 0 0 0 0 0.1460178494662614 -60.084291228280108 0 -60.084291228280108 -58.356338172436779 0 0 0 0 16.709843571810097 -45.5117264355423 0 -45.5117264355423 -46.495093644345616 0 0 0 0 -13.709889856986592 -51.222675030081973 0 -51.222675030081973 -35.936677865517595 0 0 0 0 1.2417912986820738 -30.867007280306098 0 -30.867007280306098 -19.086862767014736 0 0 0 0 -11.078386133621109 -35.123996200323859 0 -35.123996200323859 -13.788835098571326 0 0 0 0 -58.339000997203584 -57.20643880341072 0 -57.20643880341072 -24.087347819049228 0 0 0 0 -2.3561790997945486 -7.144680265422739 0 -7.144680265422739 6.8505606303803965 0 0 0 0 -10.30955830706489 -14.391319194464359 0 -14.391319194464359 5.1009338097355794 0 0 0 0 2.3447193577466754 -10.160027205086241 0 -10.160027205086241 13.209917192680649 0 0 0 0 -8.9449115371714925 -36.470430951972958 0 -36.470430951972958 -13.057040755557864 0 0 0 0 -8.6886080640088039 -20.804498230615536 0 -20.804498230615536 16.849639311087003 0 0 0 0 -13.572065841598942 -40.880714892126889 0 -40.880714892126889 -1.6738049603254694 0 0 0 0 14.157711324952288 -106.72858760158488 0 -106.72858760158488 -142.19187535802666 0 0 0 0 -12.491984546923049 -12.571390417694602 0 -12.571390417694602 10.475613075408546 0 0 0 0 -8.3585519504622425 -11.395236511321855 0 -11.395236511321855 9.4482047497058375 0 0 0 0 1.3382737778614446 -5.2055572115058002 0 -5.2055572115058002 11.797906232010369 0 0 0 0 -69.865801628653571 -124.90681747615963 0 -124.90681747615963 -146.36970924913658 0 0 0 0 -49.990601553769011 -74.963748146963553 0 -74.963748146963553 -255.1539302643323 0 0 0 0 -0.58049956093492483 0.16406830178638288 0 0.16406830178638288 2.6434482676149784 0 0 0 0 16.305457812109125 -213.23711217134587 0 -213.23711217134587 -405.82204842522333 0 0 0 0 48.42116910569348 -22.729402595587089 0 -22.729402595587089 23.392966508532481 0 0 0 0 -73.756342418335407 -133.59192584338052 0 -133.59192584338052 -86.20023183633748 0 0 0 0 -95.211183902311859 -227.4384192449761 0 -227.4384192449761 -178.25795087892766 0 0 0 0 2.7766691080196324 -110.54488343616322 0 -110.54488343616322 -201.94190276241852 0 0 0 0 -36.613701377944381 -96.880735863720474 0 -96.880735863720474 -75.322376469390292 0 0 0 0 48.653658912784522 -53.133912212822906 0 -53.133912212822906 -100.68608398585729 0 0 0 0 0.79464994726185978 -64.997262188499917 0 -64.997262188499917 -51.886942594421271 0 0 0 0 -31.049006087981979 -98.029444205345499 0 -98.029444205345499 -61.428359922301752 0 0 0 0 22.5717446040303 -98.972244312581097 0 -98.972244312581097 -125.7434990978727 0 0 0 0 -28.240948544406365 -156.72658645605861 0 -156.72658645605861 -167.5411971813628 0 0 0 0 -54.96327160279543 -102.72960538992265 0 -102.72960538992265 -118.30528073738969 0 0 0 0 -65.017160986380986 -129.61061996535364 0 -129.61061996535364 -142.46655678546813 0 0 0 0 -74.353588003094956 -124.38214405590224 0 -124.38214405590224 -138.66083577325389 0 0 0 0 -48.519461256245904 -158.35338550142751 0 -158.35338550142751 -104.50187084543722 0 0 0 0 -10.919604101733057 -95.22362454416907 0 -95.22362454416907 -136.49043252698539 0 0 0 0 1.9462095954295364 -143.72107806433814 0 -143.72107806433814 -53.696975523267611 0 0 0 0 -47.247413264544775 -106.86161628399714 0 -106.86161628399714 -80.859360868429576 0 0 0 0 16.775625770427723 -65.251269782034797 0 -65.251269782034797 -36.935008490644577 0 0 0 0 156.25253624843572 -70.521122373766048 0 -70.521122373766048 -31.297279456992328 0 0 0 0 107.89434732382233 37.373522642216358 0 37.373522642216358 64.551252495260997 0 0 0 0 94.408192443046573 -25.708092148779542 0 -25.708092148779542 -2.2311520915154688 0 0 0 0 86.440903649163829 -5.2369991393516102 0 -5.2369991393516102 -46.664771590971213 0 0 0 0 48.959179071658582 -94.569400690588736 0 -94.569400690588736 -71.477237630550917 0 0 0 0 28.81732003510615 -52.853653072790848 0 -52.853653072790848 -21.984436500140873 0 0 0 0 27.986102782121634 -29.103320871763572 0 -29.103320871763572 -38.141387692524404 0 0 0 0 0.66389138511162216 -19.630298535872114 0 -19.630298535872114 11.321282059225664 0 0 0 0 -9.5862416365512217 -29.158040966955014 0 -29.158040966955014 -19.073908696798753 0 0 0 0 -117.8086076331756 -142.06496625175214 0 -142.06496625175214 -94.360056188412273 0 0 0 0 0.99910800707698044 -3.7002327252228664 0 -3.7002327252228664 -6.9380463624159603 0 0 0 0 -76.72322133563739 -120.27537017544455 0 -120.27537017544455 -142.49600028748773 0 0 0 0 -149.63795564316752 -115.06704397898557 0 -115.06704397898557 -104.66381111894225 0 0 0 0 -78.718356404755923 -177.91926669148552 0 -177.91926669148552 -72.490856103722763 0 0 0 0 -131.27228961385754 -71.125436395554061 0 -71.125436395554061 -71.020508070810024 0 0 0 0 -0.71187221161484171 0.64572748217223719 0 0.64572748217223719 -0.32008343569806641 0 0 0 0 -323.81945647560951 -225.9288946701472 0 -225.9288946701472 -74.776500308358663 0 0 0 0 86.852568930599773 -0.23639313848980237 0 -0.23639313848980237 -41.280288141526398 0 0 0 0 -125.07832882555567 -77.118534118474599 0 -77.118534118474599 -10.492724136540346 0 0 0 0 -87.853737153752263 -120.70052161853528 0 -120.70052161853528 -62.666174029885951 0 0 0 0 -89.277055990129611 -64.077048810067026 0 -64.077048810067026 -100.04016041632349 0 0 0 0 -122.5896612495344 -91.540142564614143 0 -91.540142564614143 8.9481807902775472 0 0 0 0 -114.09560864403738 -192.34318635576346 0 -192.34318635576346 -167.74872165934357 0 0 0 0 -55.092796853392429 -123.35714230795747 0 -123.35714230795747 -38.884579642381141 0 0 0 0 -78.353198453669393 -28.586785917067573 0 -28.586785917067573 -4.7864676782046445 0 0 0 0 -91.385108817462424 -50.326582241948927 0 -50.326582241948927 63.89590457588929 0 0 0 0 -48.985766228067405 -24.283173391891978 0 -24.283173391891978 61.850639677024446 0 0 0 0 -22.484727650758487 -50.322246416808412 0 -50.322246416808412 19.990024764712871 0 0 0 0 -35.152121041677674 -44.568810193613899 0 -44.568810193613899 60.103817136900034 0 0 0 0 -92.860301399479795 -102.80826959353362 0 -102.80826959353362 6.4996126820769859 0 0 0 0 -269.71484555369716 -230.07969082761701 0 -230.07969082761701 46.208657866864087 0 0 0 0 -121.92831077993469 -86.799154281882693 0 -86.799154281882693 163.50191445452219 0 0 0 0 -84.659307572223042 -15.337414741508837 0 -15.337414741508837 106.92476207921936 0 0 0 0 -87.230955750509565 -56.001370769214191 0 -56.001370769214191 48.999314985623641 0 0 0 0 -82.063583123313947 -40.681249082685099 0 -40.681249082685099 29.654455255902576 0 0 0 0 -120.33245938444361 -70.629754808733196 0 -70.629754808733196 43.17709409827512 0 0 0 0 -63.555557754420079 -45.81403325411884 0 -45.81403325411884 35.77980906875564 0 0 0 0 -96.95171759018649 -63.830908742314932 0 -63.830908742314932 32.692773868300719 0 0 0 0 -84.345406358772379 -64.167923031343889 0 -64.167923031343889 19.004761012129165 0 0 0 0 -94.926472945651767 -89.911633960751715 0 -89.911633960751715 -5.8003433313460846 0 0 0 0 333.57506001007141 77.261004586521494 0 77.261004586521494 2.8010923438814643 0 0 0 0 266.97436594169631 -92.301502353709111 0 -92.301502353709111 12.712925758036363 0 0 0 0 58.683620648046599 -56.834433540896498 0 -56.834433540896498 40.378249188481277 0 0 0 0 65.958533297861777 -103.96310937535418 0 -103.96310937535418 125.54930402569698 0 0 0 0 69.643905151778881 -98.363144226973418 0 -98.363144226973418 -17.775034706035512 0 0 0 0 -56.053813700678802 -78.18771994061899 0 -78.18771994061899 26.731600923354563 0 0 0 0 -9.6875706144483047 -112.17313723896768 0 -112.17313723896768 47.838701495347777 0 0 0 0 -34.643385303204013 -73.773528508496383 0 -73.773528508496383 41.87876887544553 0 0 0 0 2.1343661796627202 -26.514570078035831 0 -26.514570078035831 42.805123194227804 0 0 0 0 26.387155827591414 -18.524302186207933 0 -18.524302186207933 32.873178400066536 0 0 0 0 25.814532912866653 -36.66233745874294 0 -36.66233745874294 41.400530100203468 0 0 0 0 94.574206521544511 29.548402061509478 0 29.548402061509478 105.09299326945552 0 0 0 0 201.19858111849817 -59.060154807380968 0 -59.060154807380968 12.415921023914052 0 0 0 0 58.670591632206197 -56.772098035792624 0 -56.772098035792624 40.690467653968881 0 0 0 0 98.450321367490687 -118.80173488629225 0 -118.80173488629225 84.18338004620864 0 0 0 0 21.912742185229263 -16.676471511981845 0 -16.676471511981845 -46.612600030031899 0 0 0 0 -0.6584635285825744 -2.2461017788050288 0 -2.2461017788050288 -6.0821145835373045 0 0 0 0 65.162354886451794 -48.529741018064669 0 -48.529741018064669 51.032091025730551 0 0 0 0 -26.4982911819734 -5.5585044216022652 0 -5.5585044216022652 8.1689667574604528 0 0 0 0 -29.345997444741442 -69.397565257653696 0 -69.397565257653696 74.586983395309744 0 0 0 0 15.104977922223497 7.8278919357071572 0 7.8278919357071572 -6.1174362803631084 0 0 0 0 0.7768643084617084 -0.79891075819256585 0 -0.79891075819256585 1.3419210801045054 0 0 0 0 145.09015606221101 54.798053812263788 0 54.798053812263788 -22.415471808468283 0 0 0 0 13.606158121132921 -16.32975515142698 0 -16.32975515142698 -28.263404208118118 0 0 0 0 1.623610562784199 -3.4242964768577693 0 -3.4242964768577693 3.4402673828604975 0 0 0 0 19.21345820794113 -1.3209134393723616 0 -1.3209134393723616 -4.869243963757981 0 0 0 0 1.0980909294318155 -2.8176960354556257 0 -2.8176960354556257 -7.4897085974861639 0 0 0 0 6.1284403289264446 5.7619381220338255 0 5.7619381220338255 7.2113331484906666 0 0 0 0 10.774144420081939 -6.8711276838807862 0 -6.8711276838807862 -4.3915050410378171 0 0 0 0 11.628930408335691 -5.8645734215920129 0 -5.8645734215920129 -4.2005672780214809 0 0 0 0 9.5568185741894922 -5.8781528067358977 0 -5.8781528067358977 -4.1929261027489702 0 0 0 0 6.2199183476623148 -83.431542093854659 0 -83.431542093854659 -25.180637027522607 0 0 0 0 17.434903690373176 5.9750264034992142 0 5.9750264034992142 35.697192529842141 0 0 0 0 -102.84710803131706 -332.48480951095274 0 -332.48480951095274 -95.625667365959089 0 0 0 0 3.9296401434840789 -4.6463670220803053 0 -4.6463670220803053 -4.9128868418219245 0 0 0 0 5.3406400488856889 -6.5465934165349609 0 -6.5465934165349609 -7.7002353005073019 0 0 0 0 7.3895338509864814 -7.3116558362680735 0 -7.3116558362680735 -2.106922903693885 0 0 0 0 7.6421907978149193 -5.2923829917803005 0 -5.2923829917803005 -8.6807510218059178 0 0 0 0 9.0614909080843518 -5.1444952637571078 0 -5.1444952637571078 0.64579433831750066 0 0 0 0 -9.0721023458481795 -12.354275970737945 0 -12.354275970737945 -1.3868096073538254 0 0 0 0 5.2842530400685064 -5.0770356532639198 0 -5.0770356532639198 -8.592718854020859 0 0 0 0 1.4453931555181043 -2.8760640248619893 0 -2.8760640248619893 -8.149833254126861 0 0 0 0 -113.01658376617706 -216.78010222560988 0 -216.78010222560988 -204.7822856965995 0 0 0 0 30.480609900696663 3.5533177446714035 0 3.5533177446714035 -5.7276434050036187 0 0 0 0 0.11051404226224548 -0.1265714486054712 0 -0.1265714486054712 -0.22751394280158621 0 0 0 0 19.019917429327052 -22.942004882900619 0 -22.942004882900619 -16.565217297738855 0 0 0 0 -14.899063915258012 -50.281470804775381 0 -50.281470804775381 -38.592864742906386 0 0 0 0 -180.41740367710372 -95.066903470700709 0 -95.066903470700709 -34.016196834541347 0 0 0 0 -32.404125012355507 17.249146044498957 0 17.249146044498957 -19.067327803957596 0 0 0 0 -11.403165184206955 -168.05385898691111 0 -168.05385898691111 -195.41290897138242 0 0 0 0 -42.244675873745564 -176.19011820220339 0 -176.19011820220339 -139.31618192179849 0 0 0 0 154.97900560819437 -161.53721420792056 0 -161.53721420792056 -368.72070735224406 0 0 0 0 -1.0214082690016113 -1.5889097141616917 0 -1.5889097141616917 -1.545073994276386 0 0 0 0 -234.40604969186279 -415.95273058025941 0 -415.95273058025941 -73.097242827656373 0 0 0 0 -207.27157217082186 -284.64309072335618 0 -284.64309072335618 145.52464206847398 0 0 0 0 -253.91057718489355 -54.406935266773871 0 -54.406935266773871 19.862166845497541 0 0 0 0 -223.44446550678367 -324.8420405186298 0 -324.8420405186298 -225.29006542070965 0 0 0 0 -0.26546609922201414 -1.1494274366043227 0 -1.1494274366043227 -2.5841822908747929 0 0 0 0 233.41477584695758 -104.09654228990667 0 -104.09654228990667 -86.520748120126882 0 0 0 0 -381.97735315889258 -273.26157144561512 0 -273.26157144561512 -196.41146030435175 0 0 0 0 114.74619758964582 -56.909733756577225 0 -56.909733756577225 40.391610144556807 0 0 0 0 111.10875922418063 -75.737826843945186 0 -75.737826843945186 -18.736259080942546 0 0 0 0 106.84183805943485 -201.31266323167074 0 -201.31266323167074 -161.15069342798961 0 0 0 0 8.5168025617012972 -90.989197799029625 0 -90.989197799029625 -16.557330479634402 0 0 0 0 -164.25688238649218 -277.45922213274002 0 -277.45922213274002 -72.913012595538021 0 0 0 0 -232.30103705229294 -162.26942962672797 0 -162.26942962672797 30.257754086120258 0 0 0 0 -111.76337597803285 -241.44678350476534 0 -241.44678350476534 -48.227245412345837 0 0 0 0 14.391130901093675 -45.188037128243195 0 -45.188037128243195 13.221290431469811 0 0 0 0 -1.7414877567155607 -0.84415267305320896 0 -0.84415267305320896 -0.21916914519541919 0 0 0 0 -86.628089576464845 -190.84259371700955 0 -190.84259371700955 -135.62149826230871 0 0 0 0 -33.378470186432423 -39.873253652307994 0 -39.873253652307994 117.95450319162956 0 0 0 0 3.6628139294989523 -4.795294611853933 0 -4.795294611853933 115.61278114984725 0 0 0 0 140.49102742861919 -84.136868220902102 0 -84.136868220902102 39.345887183530067 0 0 0 0 -70.84636899265297 -137.11810352448447 0 -137.11810352448447 -107.89129832308663 0 0 0 0 -61.704897437000909 -7.8069144115488598 0 -7.8069144115488598 150.98768606536026 0 0 0 0 -39.409063482813281 -27.949650053692494 0 -27.949650053692494 -13.130098763092974 0 0 0 0 -191.50933048621482 -22.31435163579954 0 -22.31435163579954 -19.981496697415423 0 0 0 0 -362.91815881485491 -72.922812101429372 0 -72.922812101429372 33.2091432065954 0 0 0 0 -48.800719761745086 -23.7580094204327 0 -23.7580094204327 -14.258609205029643 0 0 0 0 -82.428574414658669 -31.739649133604871 0 -31.739649133604871 11.891188214613067 0 0 0 0 -0.44935567833561763 -0.035997418677920834 0 -0.035997418677920834 1.1006811759438335 0 0 0 0 -70.845943084828832 -21.438058988705961 0 -21.438058988705961 -10.022456751193204 0 0 0 0 -0.18858333782445102 -0.46872474065638325 0 -0.46872474065638325 -1.1731249721318378 0 0 0 0 -277.6040796788111 -147.79640187086261 0 -147.79640187086261 -137.32545058525284 0 0 0 0 -81.042659328201808 -42.101959827139581 0 -42.101959827139581 28.899727514911319 0 0 0 0 69.99633926409939 -37.982139801764333 0 -37.982139801764333 -34.718763065138774 0 0 0 0 -24.658774648520193 -120.29681648875339 0 -120.29681648875339 -105.64730732857606 0 0 0 0 0.27856883099957486 -48.8012041166985 0 -48.8012041166985 11.748322766149158 0 0 0 0 1.5986368428002606 -39.903727117802191 0 -39.903727117802191 -21.344567874635686 0 0 0 0 4.6403124195990131 -14.928201056708645 0 -14.928201056708645 27.130277830034174 0 0 0 0 36.090442843979417 -4.9131813602707552 0 -4.9131813602707552 12.165255429401441 0 0 0 0 13.471963003155906 2.418767067756562 0 2.418767067756562 17.536575181111402 0 0 0 0 -29.927430513120271 -15.907118386779985 0 -15.907118386779985 19.111721506958816 0 0 0 0 42.493889290583866 -24.887415898508152 0 -24.887415898508152 -10.923306301086996 0 0 0 0 5.1766526746707768 -20.917903694304414 0 -20.917903694304414 11.735845869472541 0 0 0 0 25.269160624734468 -22.913799033673058 0 -22.913799033673058 11.503715326969541 0 0 0 0 36.470406475450773 1.8437755488112089 0 1.8437755488112089 44.941807476348913 0 0 0 0 77.547650999501457 -46.463553392473841 0 -46.463553392473841 11.597239454354053 0 0 0 0 104.55295079460666 -29.68854405068214 0 -29.68854405068214 -12.574899223354805 0 0 0 0 53.790908854580266 -42.996745883455333 0 -42.996745883455333 -20.311390071752612 0 0 0 0 41.541764452312236 -41.156301456902838 0 -41.156301456902838 -14.058468633523489 0 0 0 0 4.8220166871587935 -116.69665733122565 0 -116.69665733122565 -34.899209259418058 0 0 0 0 -123.6681752866894 -68.328440418650871 0 -68.328440418650871 -20.657351354800994 0 0 0 0 -34.378338781189086 -143.9930050676785 0 -143.9930050676785 -166.7865074858446 0 0 0 0 -34.12119702775135 -67.162714337346188 0 -67.162714337346188 -11.64993665414022 0 0 0 0 157.55182894798509 -10.124425228364089 0 -10.124425228364089 -91.900034595100806 0 0 0 0 -4.2579489814997942 -60.723312852356685 0 -60.723312852356685 -34.454954387468206 0 0 0 0 0.12332218086366797 -0.34013247197163743 0 -0.34013247197163743 0.18922364953817095 0 0 0 0 -150.39712800329312 -72.264567618016827 0 -72.264567618016827 6.8568343452097906 0 0 0 0 23.176009300445912 -12.282560158224442 0 -12.282560158224442 -31.636095303045295 0 0 0 0 -57.257881217969043 10.10905129677667 0 10.10905129677667 -0.53660325552300492 0 0 0 0 -61.904121964767 -54.260390143726909 0 -54.260390143726909 -24.444575953516505 0 0 0 0 -61.824068845673537 -0.19499545105645666 0 -0.19499545105645666 -17.082107192049079 0 0 0 0 -147.58553653521903 -15.695330279735572 0 -15.695330279735572 34.364030406444726 0 0 0 0 -0.4193651808466301 -0.2122781279183048 0 -0.2122781279183048 3.4066688071004592 0 0 0 0 -132.86560751083516 -60.678557070132229 0 -60.678557070132229 -15.149186581851609 0 0 0 0 -0.072424092073153201 -1.2183169626720778 0 -1.2183169626720778 -3.4058012349237714 0 0 0 0 -108.74803748724526 -40.832012981067237 0 -40.832012981067237 -15.955478589996346 0 0 0 0 56.807789636406596 22.454294951697193 0 22.454294951697193 -17.622977386914499 0 0 0 0 16.48455452373878 -15.335933849425146 0 -15.335933849425146 14.453222708307294 0 0 0 0 -0.019191229682548827 -0.98680333932144038 0 -0.98680333932144038 -3.5374794431541119 0 0 0 0 1.9968618394332225 6.2548202425714408 0 6.2548202425714408 19.204960997863964 0 0 0 0 -85.873074639673177 -38.639021842891452 0 -38.639021842891452 -18.725069685811832 0 0 0 0 -66.521005970750139 1.239639974617603 0 1.239639974617603 31.224172134105174 0 0 0 0 0.045665055360591011 -1.3369875910437363 0 -1.3369875910437363 -4.5752610857194469 0 0 0 0 -72.163138029572337 57.936811468700398 0 57.936811468700398 74.738231128318148 0 0 0 0 16.666095848327586 -68.938801307834183 0 -68.938801307834183 -90.069244082809746 0 0 0 0 -101.86946920145556 -130.55319899063852 0 -130.55319899063852 -147.41013185253541 0 0 0 0 -85.0857311848672 5.0176529073969505 0 5.0176529073969505 5.1086080800032505 0 0 0 0 -14.650158637778475 -24.82029640692457 0 -24.82029640692457 -37.064461827842024 0 0 0 0 -129.25344132636565 -52.480723742964983 0 -52.480723742964983 3.576451379856735 0 0 0 0 -121.72937006124357 -43.265814328811757 0 -43.265814328811757 -10.420836459805287 0 0 0 0 -231.72543675082989 -173.0488154204827 0 -173.0488154204827 -34.322361963186268 0 0 0 0 0.1164002218451099 -1.1650278630228321 0 -1.1650278630228321 0.96226060129895075 0 0 0 0 -114.48562737151406 -46.298136653455003 0 -46.298136653455003 -12.229289492055614 0 0 0 0 -133.76070371831975 -113.87631371508542 0 -113.87631371508542 -55.665712251766308 0 0 0 0 -220.15612850588423 -147.20900259739574 0 -147.20900259739574 -27.45017522886701 0 0 0 0 0.34016855642314159 -1.093482933878736 0 -1.093482933878736 0.54503104778458322 0 0 0 0 -37.154767207822715 -103.81634524990113 0 -103.81634524990113 -74.093485795669039 0 0 0 0 -102.55818480662606 -146.93226790858625 0 -146.93226790858625 -98.367591735124734 0 0 0 0 0.43122134216617169 -0.54448607280700756 0 -0.54448607280700756 -0.37549490069223523 0 0 0 0 -75.000947326441747 -161.00599677820446 0 -161.00599677820446 252.01104392532761 0 0 0 0 -4.8560392560075343 -51.337473683109238 0 -51.337473683109238 -199.36543146872191 0 0 0 0 12.258072087612845 -119.23186481045377 0 -119.23186481045377 0.035134380146701005 0 0 0 0 99.629712629493497 -55.641345725384781 0 -55.641345725384781 46.277321468216542 0 0 0 0 -104.42620642262818 -47.382823537630429 0 -47.382823537630429 93.047058390797247 0 0 0 0 -148.14290017967096 -129.05694487740402 0 -129.05694487740402 -33.850510058928194 0 0 0 0 -54.595382831324059 -206.99788230586637 0 -206.99788230586637 -4.1542704368539489 0 0 0 0 -158.47184487851973 -112.66732157830302 0 -112.66732157830302 -33.003428015603276 0 0 0 0 -258.77144101193289 -26.947192802521386 0 -26.947192802521386 -9.4650065389250813 0 0 0 0 -183.90832256838621 -156.53288664948741 0 -156.53288664948741 -71.917347038877779 0 0 0 0 -117.86551971823997 -32.423700286911298 0 -32.423700286911298 -14.582768087828299 0 0 0 0 -302.17960783973285 -49.249061936177895 0 -49.249061936177895 4.2743176185867924 0 0 0 0 -0.48581768494576671 -0.49016915164714625 0 -0.49016915164714625 0.59472783989451727 0 0 0 0 -400.24391582315775 -132.15211676847957 0 -132.15211676847957 42.248513876907964 0 0 0 0 -272.69414725811203 -145.13760030512367 0 -145.13760030512367 -0.026613579524564557 0 0 0 0 -293.43002123360657 -291.5304881583852 0 -291.5304881583852 0.078735339088293665 0 0 0 0 -0.18768180911710269 -0.338829033802857 0 -0.338829033802857 -1.192004330627114 0 0 0 0 88.939338434428464 -29.969909749157523 0 -29.969909749157523 -1.7486474177949276 0 0 0 0 22.193056238120334 -14.504526823619017 0 -14.504526823619017 20.619061409546703 0 0 0 0 2.7613970352995238 -17.51652861257935 0 -17.51652861257935 20.466779841473908 0 0 0 0 16.984658254758656 -13.538334066928066 0 -13.538334066928066 -9.1180201122424478 0 0 0 0 17.106008579087757 -3.5178521162379184 0 -3.5178521162379184 -21.479119297895522 0 0 0 0 1.1365327078710834 -7.5730544596558502 0 -7.5730544596558502 9.6736340477973499 0 0 0 0 2.6087547431516214 -30.880575798440987 0 -30.880575798440987 39.280824252765342 0 0 0 0 -4.3481455045805362 -1.3485921362048927 0 -1.3485921362048927 -0.30477057186520362 0 0 0 0 -93.703535590929278 -42.983654402993125 0 -42.983654402993125 94.141589310758718 0 0 0 0 42.303057992771755 -7.0225525017112886 0 -7.0225525017112886 -0.83927492185648589 0 0 0 0 -201.44037823384724 -165.31013825540776 0 -165.31013825540776 -21.060700289122906 0 0 0 0 -60.509171083554975 -81.690452238708531 0 -81.690452238708531 0.38548387610035206 0 0 0 0 -39.51247689317961 -56.616281248091582 0 -56.616281248091582 -62.854045833475539 0 0 0 0 -11.913731313891731 -7.3963250884662557 0 -7.3963250884662557 2.6458592576946103 0 0 0 0 -1.5349721616112078 4.7548385509694597 0 4.7548385509694597 -5.3972703767030907 0 0 0 0 6.0654803463085045 4.4529144984380764 0 4.4529144984380764 -17.620368883668561 0 0 0 0 -6.023920231642478 -6.0951109467969218 0 -6.0951109467969218 -25.326300148496557 0 0 0 0 -1.4580715807978777 -8.6660805180326861 0 -8.6660805180326861 -23.965629280336543 0 0 0 0 1.7061616300687135 -0.74437234273816699 0 -0.74437234273816699 -0.77697131811802223 0 0 0 0 67.827277781020712 -90.551555790188104 0 -90.551555790188104 90.890825366806894 0 0 0 0 45.475071360997845 -36.57282511622634 0 -36.57282511622634 0.065661564562105923 0 0 0 0 3.4863076674955664 -1.7304845155758812 0 -1.7304845155758812 -2.7051522303409001 0 0 0 0 26.123442965463255 -26.431707581155933 0 -26.431707581155933 30.055077784640162 0 0 0 0 2.6371180454661953 -1.0958728992918623 0 -1.0958728992918623 -0.00058753556186275091 0 0 0 0 3.7847383464116611 -0.39184561687453012 0 -0.39184561687453012 -0.74758767073566545 0 0 0 0 1.3535282131975617 0.50849022838576374 0 0.50849022838576374 -0.13756780230170307 0 0 0 0 8.2841117903717532 -0.34955926514339808 0 -0.34955926514339808 -7.4148826649688999 0 0 0 0 3.9983982451822726 -2.8050767660740945 0 -2.8050767660740945 1.4428816656080912 0 0 0 0 6.5978105457630249 -7.2364957360177868 0 -7.2364957360177868 -9.2158291772848315 0 0 0 0 -166.58728829882239 -51.054478653359183 0 -51.054478653359183 -13.465406890779377 0 0 0 0 -95.756676499881905 -66.744625758917209 0 -66.744625758917209 -10.152394373932111 0 0 0 0 0.67961680100161814 -1.0963017860392732 0 -1.0963017860392732 0.072035916912323472 0 0 0 0 -88.172714706498482 -98.180279172637711 0 -98.180279172637711 0.023849040979257552 0 0 0 0 -56.343996811909165 -102.33502162544573 0 -102.33502162544573 -18.51014274056979 0 0 0 0 -35.198165900259028 -95.518946032338135 0 -95.518946032338135 16.042902227578452 0 0 0 0 -40.349016821429359 -78.515914224934932 0 -78.515914224934932 -39.275975204684073 0 0 0 0 -60.771852743098862 -98.884905375778544 0 -98.884905375778544 -19.223011867943569 0 0 0 0 -11.246246702474309 -121.98519378624042 0 -121.98519378624042 -85.524308575479154 0 0 0 0 -97.416459121238859 -74.447334777998776 0 -74.447334777998776 -37.317272386397235 0 0 0 0 -57.91391745929468 -92.521717795452787 0 -92.521717795452787 -74.40885313727631 0 0 0 0 -2.1772349368949335 -15.661446825992471 0 -15.661446825992471 5.9848713534320268 0 0 0 0 4.5047883946029224 -4.270759731918286 0 -4.270759731918286 1.8992008597612937 0 0 0 0 -55.947363805164059 -93.710955259127331 0 -93.710955259127331 -73.92350731761826 0 0 0 0 -60.762675154053795 -58.725840859839082 0 -58.725840859839082 -127.11089698473825 0 0 0 0 58.023080897675754 -56.117310915997223 0 -56.117310915997223 -294.84693627283013 0 0 0 0 -82.94732924663731 -53.493404209903019 0 -53.493404209903019 359.77461140486412 0 0 0 0 137.79253522289946 -156.35760521476914 0 -156.35760521476914 399.04522913054097 0 0 0 0 -0.57085589572568907 -0.65118293097659574 0 -0.65118293097659574 -0.27161758801846503 0 0 0 0 124.04317881381576 -178.31472984288484 0 -178.31472984288484 421.24487754506845 0 0 0 0 140.5863786103946 -211.37762098165331 0 -211.37762098165331 398.99639656161162 0 0 0 0 135.28386925586892 -127.90794858086156 0 -127.90794858086156 316.32777684207758 0 0 0 0 155.20147335838919 -214.83036656229706 0 -214.83036656229706 244.48607180843828 0 0 0 0 147.05648836760156 -194.4245507065898 0 -194.4245507065898 357.97494485637435 0 0 0 0 46.500964752513028 -137.42728807859748 0 -137.42728807859748 238.70318478952504 0 0 0 0 116.64933651409092 -177.72741628414497 0 -177.72741628414497 257.75596879237492 0 0 0 0 38.610053272182995 -16.648858044281951 0 -16.648858044281951 129.05715631275962 0 0 0 0 -5.6254635438411 -2.2113472131214209 0 -2.2113472131214209 0.22084452638195451 0 0 0 0 57.942410036514048 -83.173830653002369 0 -83.173830653002369 145.48446445312629 0 0 0 0 146.17685781705495 -209.9669446038024 0 -209.9669446038024 183.67507438116991 0 0 0 0 191.15250051731437 -295.00153705833418 0 -295.00153705833418 190.43206158976727 0 0 0 0 0.063257507510812161 -2.9330847999889871 0 -2.9330847999889871 -4.9946945214791292 0 0 0 0 163.05391153736855 -183.55890556270788 0 -183.55890556270788 283.39523994204501 0 0 0 0 174.98843997827316 -214.56434688112677 0 -214.56434688112677 253.7876511510658 0 0 0 0 -0.2970740233826632 -0.77780493915496152 0 -0.77780493915496152 -0.074902258455360027 0 0 0 0 179.02532868898379 -170.96166121030728 0 -170.96166121030728 232.51638440116039 0 0 0 0 114.00494932903166 -278.69090412316291 0 -278.69090412316291 437.90058620444506 0 0 0 0 226.88078705736552 -395.65784655818788 0 -395.65784655818788 233.25920764144075 0 0 0 0 1.0566419813828176 -1.7729487618894844 0 -1.7729487618894844 -0.15976249945088661 0 0 0 0 108.21116176876058 -178.71640212242346 0 -178.71640212242346 -189.42615562044739 0 0 0 0 109.14728162231859 -211.89235512633695 0 -211.89235512633695 26.242800808715401 0 0 0 0 216.02306709147251 -167.66595646213045 0 -167.66595646213045 103.05370469374793 0 0 0 0 178.59634476855081 -216.3101654814709 0 -216.3101654814709 39.938839420381555 0 0 0 0 152.33175257833955 -261.57834769619785 0 -261.57834769619785 56.867456242394837 0 0 0 0 132.7676218656743 -176.7105971232495 0 -176.7105971232495 74.099943537075887 0 0 0 0 199.93427133556361 -181.54373052133815 0 -181.54373052133815 67.095100533988443 0 0 0 0 163.20831476357125 -138.38845634062818 0 -138.38845634062818 36.417579062161565 0 0 0 0 167.31214299610883 -144.48884104795616 0 -144.48884104795616 -71.87990186362731 0 0 0 0 216.01528546944974 -80.711498035218028 0 -80.711498035218028 19.976281563531302 0 0 0 0 61.711762198452561 -92.024615180682304 0 -92.024615180682304 -56.225513847176444 0 0 0 0 60.688792898032261 -93.986724339026296 0 -93.986724339026296 37.541440058441367 0 0 0 0 -24.124020063668922 -98.6044870743508 0 -98.6044870743508 -39.507117371729692 0 0 0 0 111.54174692360175 -55.721686819052593 0 -55.721686819052593 -20.934453723521983 0 0 0 0 49.796021008658499 -113.84176826655585 0 -113.84176826655585 0.0080326226907345699 0 0 0 0 234.8110892670029 -95.0027177965585 0 -95.0027177965585 -0.030759968443817343 0 0 0 0 129.97908851483771 -94.996399051025492 0 -94.996399051025492 46.283623109269683 0 0 0 0 217.70872282121945 -104.85995419138544 0 -104.85995419138544 14.755692895869288 0 0 0 0 189.19797249189469 -83.333236648082675 0 -83.333236648082675 0.029423719535770942 0 0 0 0 0.79606654583065506 -1.0236770192099929 0 -1.0236770192099929 0.58723415885599906 0 0 0 0 50.154678437758776 -160.75742556325986 0 -160.75742556325986 222.49668060193653 0 0 0 0 65.188028696198671 -46.954865750393765 0 -46.954865750393765 59.722899731757025 0 0 0 0 0.85860894944685029 -1.0795404815518523 0 -1.0795404815518523 -0.14200761044207866 0 0 0 0 409.53781317943776 -133.54258584121908 0 -133.54258584121908 45.712362872127414 0 0 0 0 341.51251108177712 -73.093338682991089 0 -73.093338682991089 16.654269047141611 0 0 0 0 227.92550797713648 -152.18446607634814 0 -152.18446607634814 73.878328890656121 0 0 0 0 286.21734915670459 -215.22781587452846 0 -215.22781587452846 124.2357621172996 0 0 0 0 215.32272797458356 -104.05112315031676 0 -104.05112315031676 165.44378932440304 0 0 0 0 6.4740009337056108 -20.153471348081439 0 -20.153471348081439 0.069511002733634086 0 0 0 0 35.635593855300613 -98.231682059699779 0 -98.231682059699779 81.922528935227092 0 0 0 0 15.638269912147052 -32.236757539414839 0 -32.236757539414839 13.731789214883975 0 0 0 0 -15.113115406960105 -2.1664603755957614 0 -2.1664603755957614 7.5112309390569862 0 0 0 0 -11.454065202829952 -15.735535966507996 0 -15.735535966507996 11.585362472340421 0 0 0 0 0.11369322110499525 -12.163485857519163 0 -12.163485857519163 7.1365881931633339 0 0 0 0 0.078804161019434105 -12.304411260142956 0 -12.304411260142956 7.3853883555348148 0 0 0 0 -6.7387022656566842 -11.846178969108223 0 -11.846178969108223 9.2519419453155933 0 0 0 0 -3.8019390916806515 -6.4725031798011514 0 -6.4725031798011514 7.1611276845378597 0 0 0 0 1.0271031029624282 -12.905974964657617 0 -12.905974964657617 8.7096467209885304 0 0 0 0 -1.2368042657635669 -10.263288428397573 0 -10.263288428397573 8.337913764802579 0 0 0 0 0.31027018810527807 -11.115857435159342 0 -11.115857435159342 8.2637670108460952 0 0 0 0 -1.0402648346278056 -12.430978036229249 0 -12.430978036229249 9.4625492274317367 0 0 0 0 1.320560807110926 -3.6368348438108651 0 -3.6368348438108651 -4.9149342652503023 0 0 0 0 239.66077421892987 -189.05464987943833 0 -189.05464987943833 61.457104465846442 0 0 0 0 1.9624898364610317 -14.63906351029533 0 -14.63906351029533 9.3648001198107522 0 0 0 0 267.59696675702799 -133.18927112592519 0 -133.18927112592519 45.766704577235487 0 0 0 0 1.6187693972642592 -17.132998375514035 0 -17.132998375514035 4.9843523992021801 0 0 0 0 2.6108912316793962 -5.5729369926684207 0 -5.5729369926684207 9.203002938038928 0 0 0 0 5.0089212027760368 -12.210673070835583 0 -12.210673070835583 1.7503243692317483 0 0 0 0 5.2273833744075091 -9.2370530417556438 0 -9.2370530417556438 9.2999510913198975 0 0 0 0 8.9862864411685166 -11.194038823160042 0 -11.194038823160042 9.8473501663593197 0 0 0 0 12.450092355472407 -4.0028403785699993 0 -4.0028403785699993 14.260881039706419 0 0 0 0 -5.4206474418697326 -7.4177973326368374 0 -7.4177973326368374 9.9877918801976193 0 0 0 0 8.8843414336506612 -14.881963050615468 0 -14.881963050615468 15.123369300508784 0 0 0 0 5.0295360877153144 -9.7319723231703392 0 -9.7319723231703392 9.6922877887627692 0 0 0 0 -4.2152963946136879 -12.33541437695385 0 -12.33541437695385 17.792248361209204 0 0 0 0 -1.5444456660770811 1.9714781178754492 0 1.9714781178754492 25.598575197454693 0 0 0 0 -0.53169521959716803 -10.996253339375471 0 -10.996253339375471 27.134042287532793 0 0 0 0 -0.18193595679237262 -0.32102595177649818 0 -0.32102595177649818 0.09193665503053694 0 0 0 0 -1.1767958287737201 -7.9753416338717216 0 -7.9753416338717216 14.102760264267999 0 0 0 0 -11.109488415941087 -24.506977833780184 0 -24.506977833780184 13.522873476335008 0 0 0 0 11.58184269603953 -16.194302975449318 0 -16.194302975449318 9.404840047176549 0 0 0 0 4.9250435259127698 1.2782279664870657 0 1.2782279664870657 12.535801152431304 0 0 0 0 -2.1066069229982531 -11.603138543032401 0 -11.603138543032401 9.2977343535567343 0 0 0 0 1.7148198996783321 -9.2667551779686619 0 -9.2667551779686619 6.8037327521560655 0 0 0 0 2.5986366423146556 -6.5393814845483007 0 -6.5393814845483007 11.123644879799066 0 0 0 0 -8.6622770185567788 -17.288729747189791 0 -17.288729747189791 6.925569681730849 0 0 0 0 -10.661603888307582 -14.491797604040585 0 -14.491797604040585 13.707996012559306 0 0 0 0 -3.436532018451544 -12.226452824623266 0 -12.226452824623266 9.0799716381316102 0 0 0 0 -4.8931031098363746 -4.5693389838397707 0 -4.5693389838397707 6.7511093963939857 0 0 0 0 -4.9377456679358147 -5.1035533008816856 0 -5.1035533008816856 11.695868725517357 0 0 0 0 -4.9281560518938932 -5.4179128508840222 0 -5.4179128508840222 21.743793475776329 0 0 0 0 -6.3173256217669405 -8.7018879719398683 0 -8.7018879719398683 13.520874720517895 0 0 0 0 -4.7916659421680379 -5.3051602568884846 0 -5.3051602568884846 11.970260527166829 0 0 0 0 -0.082078224770157249 2.6180419161028112 0 2.6180419161028112 11.126220314949023 0 0 0 0 -3.7631281735084485 -2.5095515457578585 0 -2.5095515457578585 5.2103647160911351 0 0 0 0 -3.8502169383318687 0.48729546260801726 0 0.48729546260801726 13.602706949219282 0 0 0 0 -5.134110180366406 -4.1166148216143483 0 -4.1166148216143483 13.789115237836086 0 0 0 0 -4.8296857154891768 -3.89844947381971 0 -3.89844947381971 10.208634862057806 0 0 0 0 -5.0825584147023619 -4.9726305391523056 0 -4.9726305391523056 7.5639311432896648 0 0 0 0 -3.7641281778523989 -2.8533815350128862 0 -2.8533815350128862 9.2796587692773755 0 0 0 0 -5.7891322473042237 -6.024590439061285 0 -6.024590439061285 9.0107441598884179 0 0 0 0 -5.7891516528177505 -6.9573825168857155 0 -6.9573825168857155 6.3222347991322749 0 0 0 0 -5.3517752324987669 -6.5150519865637762 0 -6.5150519865637762 9.493873136361799 0 0 0 0 -5.5822839251086407 -6.0666901904278348 0 -6.0666901904278348 8.6945973331894493 0 0 0 0 -6.5611897590542867 -9.7985552272102723 0 -9.7985552272102723 8.679828811014886 0 0 0 0 -5.5291263908657129 -9.3605630495530932 0 -9.3605630495530932 5.2749332062157919 0 0 0 0 -2.8318789950773287 -1.9532052809859772 0 -1.9532052809859772 1.0123700998103757 0 0 0 0 -1.0370573972018065 -6.7645500837074906 0 -6.7645500837074906 -1.6834999471066112 0 0 0 0 -6.0377266049217724 -7.674441121671407 0 -7.674441121671407 5.2118644556903746 0 0 0 0 -5.6184282348040142 -8.5726585121665266 0 -8.5726585121665266 4.513039398161709 0 0 0 0 -6.4450316476504668 -8.3274340680291061 0 -8.3274340680291061 5.9549515125836479 0 0 0 0 -6.6134639866140787 -8.3427959439795814 0 -8.3427959439795814 6.534304058914131 0 0 0 0 -6.4142027076368322 -8.2931778483789458 0 -8.2931778483789458 5.6723316526549752 0 0 0 0 3.4141474378829031 -5.8594561792569557 0 -5.8594561792569557 1.9217328992645193 0 0 0 0 9.578452863601342 -0.33506630344254518 0 -0.33506630344254518 -8.4503461146523478 0 0 0 0 5.6072758396621794 11.256714275572449 0 11.256714275572449 17.605299462411494 0 0 0 0 0.0099104280858313132 -0.55507297611263695 0 -0.55507297611263695 -0.62391910434937614 0 0 0 0 -39.348582178383367 -9.7549777383683249 0 -9.7549777383683249 21.07997206935579 0 0 0 0 1.5573016589301503 -5.3814752741723133 0 -5.3814752741723133 1.753728599608726 0 0 0 0 1.4872066442512732 -4.1084369065692954 0 -4.1084369065692954 1.9563224605117284 0 0 0 0 6.621495154889999 -7.2806822712445864 0 -7.2806822712445864 -6.422232832543159 0 0 0 0 2.5324289600865271 -5.0943660894248204 0 -5.0943660894248204 1.232686909408514 0 0 0 0 -1.8999047950128443 -6.7324660795302407 0 -6.7324660795302407 6.5347687404082535 0 0 0 0 0.16035480083649389 -0.96241906317421666 0 -0.96241906317421666 0.19546586669297916 0 0 0 0 -0.11089136411101208 -11.816706920876641 0 -11.816706920876641 -6.5479934953145857 0 0 0 0 1.8521488986125405 -6.0083371305304354 0 -6.0083371305304354 4.4214970143439132 0 0 0 0 -3.2376249013395864 -5.9835929853816197 0 -5.9835929853816197 4.5274860284371243 0 0 0 0 1.7330263758308817 -2.4285876975516807 0 -2.4285876975516807 1.9425204145686941 0 0 0 0 -1.3474786347687768 -8.2052446571469773 0 -8.2052446571469773 1.7133777580465903 0 0 0 0 0.61509148310506134 -0.8517626283573918 0 -0.8517626283573918 0.086839458268514136 0 0 0 0 -1.1532708121560411 -1.4711235321856329 0 -1.4711235321856329 1.0574746387469247 0 0 0 0 -1.2168749075315652 -1.7315800214813528 0 -1.7315800214813528 0.62368877077229712 0 0 0 0 -0.63020259379663912 0.29565989780712698 0 0.29565989780712698 2.7573756887359195 0 0 0 0 0.019384066428756341 -1.7251738349768857 0 -1.7251738349768857 1.3687364629804506 0 0 0 0 0.38079280812053184 -1.4271509698100999 0 -1.4271509698100999 -3.2556655733642401 0 0 0 0 -1.1519727446341257 -2.2009841280243165 0 -2.2009841280243165 0.60518035493907973 0 0 0 0 -28.413585638816585 -97.10081298300247 0 -97.10081298300247 -89.83570886240841 0 0 0 0 -2.7907848139897737 8.60545016391427 0 8.60545016391427 -27.612962465489545 0 0 0 0 2.8242671629941469 -2.0374758238513095 0 -2.0374758238513095 -1.1076620000858384 0 0 0 0 -0.32273158585655182 -0.21565699934464178 0 -0.21565699934464178 -0.11560580437686241 0 0 0 0 -34.918207554261244 -94.380377082653467 0 -94.380377082653467 -149.92473089545638 0 0 0 0 -14.672607079068257 -10.774551980938668 0 -10.774551980938668 18.312544744858315 0 0 0 0 -0.11861705278288426 -0.83033968040975292 0 -0.83033968040975292 -0.16445797324671219 0 0 0 0 -31.811260233638677 -4.9635075041032906 0 -4.9635075041032906 2.8296796411823379 0 0 0 0 -7.5606408260618991 4.8669808383906457 0 4.8669808383906457 -4.3473158939114001 0 0 0 0 12.345001280964425 -2.7708295615902898 0 -2.7708295615902898 0.080259909404048813 0 0 0 0 -0.57806421680855635 -0.55909206111271814 0 -0.55909206111271814 0.005078575303748778 0 0 0 0 -5.8863516882298086 -38.625406942913088 0 -38.625406942913088 -158.96036265386647 0 0 0 0 -44.11006037905463 -95.624568413222732 0 -95.624568413222732 -134.32894668776044 0 0 0 0 -42.672966795045795 -53.927991450540503 0 -53.927991450540503 -191.66141890611152 0 0 0 0 -29.937943022562578 -108.84780946556226 0 -108.84780946556226 -192.26292735989591 0 0 0 0 13.875711636026608 -98.619720867742217 0 -98.619720867742217 -188.66286781690178 0 0 0 0 -12.016807148389489 -63.0340047897771 0 -63.0340047897771 -172.35130792004793 0 0 0 0 -34.822286880738829 -91.995333999484501 0 -91.995333999484501 -163.9651671174247 0 0 0 0 17.339282243700836 -42.515254460912729 0 -42.515254460912729 -117.21126856096998 0 0 0 0 -20.444599199402546 -69.656312410596911 0 -69.656312410596911 -87.549383150444555 0 0 0 0 -32.819476561324336 -20.505775248916507 0 -20.505775248916507 23.485920898499899 0 0 0 0 46.866705924939197 -52.748386552801094 0 -52.748386552801094 -151.50315726293047 0 0 0 0 41.374566090954886 -64.422577865761014 0 -64.422577865761014 -176.20266688829906 0 0 0 0 36.525009727301949 8.6788857979190652 0 8.6788857979190652 -108.74810905817776 0 0 0 0 62.147000183093041 -53.909706695650129 0 -53.909706695650129 -202.78115296713804 0 0 0 0 63.485976505084182 -61.527370829131542 0 -61.527370829131542 -176.80108338236596 0 0 0 0 66.903404730945113 -44.978051846721428 0 -44.978051846721428 -186.56426675914781 0 0 0 0 48.42735247460223 -42.487532053544783 0 -42.487532053544783 -185.25151686166828 0 0 0 0 71.689412772915603 -61.060224365449358 0 -61.060224365449358 -198.74917726985586 0 0 0 0 17.084627439942778 -88.518016974618149 0 -88.518016974618149 -208.58451958746537 0 0 0 0 100.05623842352043 12.454433310599029 0 12.454433310599029 -50.011457996957688 0 0 0 0 164.68594376049805 -306.31999636907676 0 -306.31999636907676 79.815353203347058 0 0 0 0 36.823178766844649 6.987623222815273 0 6.987623222815273 -193.15388562617096 0 0 0 0 49.702812097983951 -42.961568684440408 0 -42.961568684440408 -189.76567483293366 0 0 0 0 167.75527603336559 -164.87438155595828 0 -164.87438155595828 220.74961060701571 0 0 0 0 -0.026915188438483284 -0.85137730316977578 0 -0.85137730316977578 -1.1554272063691506 0 0 0 0 123.51693157593354 -151.97811044592879 0 -151.97811044592879 154.06061415281511 0 0 0 0 -1.9977183835078449 -2.9628026406783388 0 -2.9628026406783388 -2.5294397746747741 0 0 0 0 38.396824834527706 -83.797499861350843 0 -83.797499861350843 152.83978200969977 0 0 0 0 132.68671541727326 -110.97600400862484 0 -110.97600400862484 104.80709226694489 0 0 0 0 179.13668000451798 -221.77940949211825 0 -221.77940949211825 237.41455962945861 0 0 0 0 -1.328958929317448 -2.0419238321591351 0 -2.0419238321591351 -1.2306256463488836 0 0 0 0 126.87831681585112 -160.3894436995339 0 -160.3894436995339 158.96696769996197 0 0 0 0 153.05355870054336 -158.67069375892788 0 -158.67069375892788 159.05116014169107 0 0 0 0 -0.29673537961799923 -2.2584989989381468 0 -2.2584989989381468 -3.1037451911131448 0 0 0 0 179.16156059925365 -222.53850046024866 0 -222.53850046024866 242.08627606482514 0 0 0 0 9.4045704837587039 -20.89406275173539 0 -20.89406275173539 27.510296746620952 0 0 0 0 -9.1066128076145105 -9.0699372034423504 0 -9.0699372034423504 24.988329733805131 0 0 0 0 23.619324280245564 -25.740181305703118 0 -25.740181305703118 -2.8014340445988637 0 0 0 0 -3.7044784555200749 -14.988700543943196 0 -14.988700543943196 -4.14095359109524 0 0 0 0 15.653303143750236 -48.069124780714446 0 -48.069124780714446 8.0802186307246302 0 0 0 0 -7.4114683627922204 -39.638479876372912 0 -39.638479876372912 9.6535347512071894 0 0 0 0 -4.4913039896867986 -6.9915463077448976 0 -6.9915463077448976 0.2119752096823504 0 0 0 0 -4.3156333840934167 -9.2122928642720581 0 -9.2122928642720581 17.453903487835305 0 0 0 0 -0.01338459115686419 -18.942789892197652 0 -18.942789892197652 5.7087019167611288 0 0 0 0 -0.6456783678750071 -14.355847183905553 0 -14.355847183905553 7.2502303399060111 0 0 0 0 -0.66980895152059361 -0.41786726807679031 0 -0.41786726807679031 -0.4981555840620544 0 0 0 0 -263.72321635350454 -128.68853601877345 0 -128.68853601877345 -62.901278199518856 0 0 0 0 0.081484493224319623 -336.28542713567015 0 -336.28542713567015 -338.0306521054772 0 0 0 0 -374.07637661603803 -305.62658120138894 0 -305.62658120138894 0.075227841944979446 0 0 0 0 -48.873862041912616 -108.04550393141517 0 -108.04550393141517 -239.04407154023374 0 0 0 0 -4.738112739499627 -3.9052300763893371 0 -3.9052300763893371 -2.9089227956337211 0 0 0 0 -0.54007346081461804 -0.77811805599863071 0 -0.77811805599863071 -0.6115945467783277 0 0 0 0 17.204617565315857 -21.151233958038574 0 -21.151233958038574 16.281181410505269 0 0 0 0 5.0540240516002086 -12.913674934296978 0 -12.913674934296978 19.58843546953949 0 0 0 0 -0.034647910912092073 -0.92629671671794966 0 -0.92629671671794966 -0.11114281811676108 0 0 0 0 101.99626644598584 -87.67142330175966 0 -87.67142330175966 -112.06111289825822 0 0 0 0 23.193978351533588 45.118539840146695 0 45.118539840146695 -79.597787376940687 0 0 0 0 5.0101397321122931 -41.297260724394619 0 -41.297260724394619 0.043129295952894608 0 0 0 0 18.998789756107726 17.404350804657952 0 17.404350804657952 -82.244391911414368 0 0 0 0 -0.14485580570476486 -0.58871723004897536 0 -0.58871723004897536 -0.87102668247044335 0 0 0 0 -1.3451148623089466 -2.6621023171155684 0 -2.6621023171155684 -19.616907355179137 0 0 0 0 11.448741817367136 -31.378808371198375 0 -31.378808371198375 36.821330645509079 0 0 0 0 3.8694658540553064 -11.005302321784256 0 -11.005302321784256 38.340751391266167 0 0 0 0 18.595130669300488 -13.403689169428617 0 -13.403689169428617 -1.7080716741929791 0 0 0 0 14.745857670659461 -2.8267315178400167 0 -2.8267315178400167 24.190194280685319 0 0 0 0 10.003676489079226 -22.2537000469747 0 -22.2537000469747 18.923555577088337 0 0 0 0 -0.90400314420185168 -12.874792817888647 0 -12.874792817888647 -1.0536017117656229 0 0 0 0 0.3498924738300655 -1.4300087557878491 0 -1.4300087557878491 -0.45355869993002784 0 0 0 0 -5.0017401678378519 -17.260523805287448 0 -17.260523805287448 0.1159630934685083 0 0 0 0 21.661876270905168 -16.910712010970201 0 -16.910712010970201 6.01177451964395 0 0 0 0 -4.2229255265268613 -6.6090006666715961 0 -6.6090006666715961 -4.6035498496190925 0 0 0 0 16.166675558286443 -8.8954520649504047 0 -8.8954520649504047 11.466368304951175 0 0 0 0 23.02141005030353 -10.410619339484583 0 -10.410619339484583 -7.7687715780666622 0 0 0 0 21.631926567613846 -15.271655513589394 0 -15.271655513589394 3.7695755590321838 0 0 0 0 -1.6044685502494431 -2.0599867831118681 0 -2.0599867831118681 -2.6470193611386179 0 0 0 0 14.1483801127888 -23.205659206746986 0 -23.205659206746986 13.21583060076955 0 0 0 0 7.1059402341739997 -9.4311721690360173 0 -9.4311721690360173 7.7229919076653459 0 0 0 0 14.355636049206623 -16.530550183028026 0 -16.530550183028026 21.505826258275192 0 0 0 0 -0.88068708003888219 -1.543491745488927 0 -1.543491745488927 -1.784499095049803 0 0 0 0 24.674746919267136 -41.5389565558703 0 -41.5389565558703 10.972352842252803 0 0 0 0 7.5067175298863731 -12.982476875094108 0 -12.982476875094108 1.2674295608558168 0 0 0 0 -1.1312678250496901 -8.0473973321213634 0 -8.0473973321213634 -0.64063593763603421 0 0 0 0 7.1405578464245991 -21.586818719558778 0 -21.586818719558778 -11.784114173660782 0 0 0 0 7.1167171379711363 -20.287913018892141 0 -20.287913018892141 -32.570351143072912 0 0 0 0 8.324854685878563 -16.410352867969777 0 -16.410352867969777 -0.027890704779565567 0 0 0 0 7.4461334972947952 -12.49770415590865 0 -12.49770415590865 0.29396689375198548 0 0 0 0 6.1381231819459572 -11.277305042884564 0 -11.277305042884564 6.1073881503234588 0 0 0 0 7.6639601394635974 -16.093139339543995 0 -16.093139339543995 0.6342626417538213 0 0 0 0 6.6676172458392102 -18.8433008456077 0 -18.8433008456077 5.7044987176977884 0 0 0 0 7.0156989602610338 -16.792901626969524 0 -16.792901626969524 -0.0064012307993834838 0 0 0 0 3.8018769333029923 -13.846939817871316 0 -13.846939817871316 5.0028453422112307 0 0 0 0 3.3652496461982082 -12.383639771891467 0 -12.383639771891467 7.4848135807687868 0 0 0 0 3.4645032274365803 -12.136857307092214 0 -12.136857307092214 6.9424341056737831 0 0 0 0 7.61517840880515 -11.232119445234503 0 -11.232119445234503 7.4757966023862537 0 0 0 0 6.8011873744781042 -15.158330567303892 0 -15.158330567303892 9.3279798553023738 0 0 0 0 2.0786612323900044 -11.460125316896665 0 -11.460125316896665 10.618004582496724 0 0 0 0 4.6102732041599666 -13.973526825967838 0 -13.973526825967838 9.3452926479276357 0 0 0 0 8.5661982705696573 -14.500006193757145 0 -14.500006193757145 0.97314671465028368 0 0 0 0 -1.6007521590075768 -3.5970263372271436 0 -3.5970263372271436 -1.4241042025704758 0 0 0 0 4.1964127799092239 -7.1683138728358244 0 -7.1683138728358244 10.848369027610715 0 0 0 0 6.4329908012414307 -4.987388629983343 0 -4.987388629983343 0.60725659097533935 0 0 0 0 4.0612717620679177 -10.533523627005707 0 -10.533523627005707 -7.4674902216593182 0 0 0 0 4.5349155077165051 -6.4645586477727193 0 -6.4645586477727193 -4.9734119543159068 0 0 0 0 6.5307060847581013 -5.5545487432377811 0 -5.5545487432377811 -0.37380116293014187 0 0 0 0 19.651595302906571 16.557493617918226 0 16.557493617918226 -14.033131709473309 0 0 0 0 9.4343736385126249 -5.5289345276651147 0 -5.5289345276651147 -15.03127651773309 0 0 0 0 0.021386912708884154 -0.052837923331836123 0 -0.052837923331836123 -0.031642397356108631 0 0 0 0 0.36451063389677074 -4.4086438252336393 0 -4.4086438252336393 17.286710752703584 0 0 0 0 7.7245782515624342 -5.7575807450666616 0 -5.7575807450666616 -0.05731118556286674 0 0 0 0 5.1179167903956113 -8.6902801748510683 0 -8.6902801748510683 7.0717313276982168 0 0 0 0 2.5195657200209318 -2.4627966102418668 0 -2.4627966102418668 1.3581401504006294 0 0 0 0 3.5908177646651893 -3.6720340740121173 0 -3.6720340740121173 -0.64312284684683618 0 0 0 0 4.488028176872831 -6.824305982900114 0 -6.824305982900114 -4.0390099242945325 0 0 0 0 -0.024114031396990754 -0.096622079401152305 0 -0.096622079401152305 -0.35593982355646148 0 0 0 0 22.738704758157837 -0.56048904974954894 0 -0.56048904974954894 -12.531287017010982 0 0 0 0 21.649173651076126 -15.227204693410386 0 -15.227204693410386 13.105851759395591 0 0 0 0 1.7029536159247805 -1.1163018035356629 0 -1.1163018035356629 -3.2140664601423552 0 0 0 0 14.476649776648628 -26.752320552622223 0 -26.752320552622223 -1.6889666618881165 0 0 0 0 5.937024253715208 -3.8131984306710365 0 -3.8131984306710365 0.032314592599504977 0 0 0 0 1.4483215202991566 -0.47778949959928774 0 -0.47778949959928774 -3.2857008097277856 0 0 0 0 18.083235696326028 -12.528723862843208 0 -12.528723862843208 6.8044142528342491 0 0 0 0 16.040784092710965 -16.848534628636116 0 -16.848534628636116 13.694366385621834 0 0 0 0 21.958612714972332 -27.63195981071658 0 -27.63195981071658 10.790802618938869 0 0 0 0 17.556777974526995 -10.354871737252324 0 -10.354871737252324 15.770022543474624 0 0 0 0 18.59112081623789 -8.3935187060346834 0 -8.3935187060346834 -2.4304098998654808 0 0 0 0 17.906401284582898 -15.662681175960643 0 -15.662681175960643 -3.8329468357223959 0 0 0 0 24.250275368083749 -11.548588968763397 0 -11.548588968763397 -3.4736867729372989 0 0 0 0 24.279182978350946 -10.799631156973192 0 -10.799631156973192 -11.974526729301942 0 0 0 0 20.564261078525305 -15.934392316208232 0 -15.934392316208232 -8.1407164463143999 0 0 0 0 11.0217489796687 -8.751538411297588 0 -8.751538411297588 -4.0918437181034903 0 0 0 0 25.938200708007571 -24.278811893832426 0 -24.278811893832426 0.36480499732215321 0 0 0 0 18.205098726454708 -14.688438147036777 0 -14.688438147036777 -4.0536596779220417 0 0 0 0 16.348038895619538 -13.573247229104709 0 -13.573247229104709 9.5184579506058071 0 0 0 0 25.559911156948147 -21.637718224420496 0 -21.637718224420496 16.30817961286084 0 0 0 0 49.929181196854188 -3.6001564755370055 0 -3.6001564755370055 -28.331680966137355 0 0 0 0 15.768071311882522 -12.517167006408272 0 -12.517167006408272 8.8540499446244212 0 0 0 0 28.487243781150028 -52.921316711509462 0 -52.921316711509462 90.025635475027229 0 0 0 0 0.28330931299051798 0.14182784396502157 0 0.14182784396502157 -0.91363050708219218 0 0 0 0 1.5830689017698063 3.4448837401849772 0 3.4448837401849772 -8.8770430104032805 0 0 0 0 2.5240416847304701 -1.0213688288352749 0 -1.0213688288352749 -2.2858005243753894 0 0 0 0 5.3342061788434876 -3.3836310130677703 0 -3.3836310130677703 -1.7331732618076785 0 0 0 0 0.10905133596996208 -0.73728260676207125 0 -0.73728260676207125 -0.32490821363075639 0 0 0 0 7.3728659599941864 -4.5494971928840684 0 -4.5494971928840684 -1.4981865416006457 0 0 0 0 16.889987611346442 -8.8183653745763877 0 -8.8183653745763877 -16.831871454862721 0 0 0 0 12.583460355956049 -4.8714554008474806 0 -4.8714554008474806 -10.370423202843085 0 0 0 0 10.858465137614985 -7.5439336062736402 0 -7.5439336062736402 3.7292612513824963 0 0 0 0 8.358904727648234 -2.1094911380160539 0 -2.1094911380160539 -9.1307895111532176 0 0 0 0 13.483423976440918 -12.222869773187767 0 -12.222869773187767 -8.3958123321463063 0 0 0 0 9.8525619395022659 -0.54504343190637883 0 -0.54504343190637883 -8.4755131667681098 0 0 0 0 17.177458708058111 8.020183937594993 0 8.020183937594993 -34.178279727348126 0 0 0 0 -9.0157877823749004 9.8299453040772278 0 9.8299453040772278 -7.5922921620045827 0 0 0 0 19.781838595554291 1.1495389041101589 0 1.1495389041101589 -2.9779990036076924 0 0 0 0 -0.0057885600409939286 0.34588241542973375 0 0.34588241542973375 -0.57719923493326775 0 0 0 0 11.036118925022492 -32.955707909400644 0 -32.955707909400644 50.340235040792322 0 0 0 0 1.5963509204618722 -11.615800379852857 0 -11.615800379852857 2.7747526465034582 0 0 0 0 18.88996424330071 10.895993818047828 0 10.895993818047828 -30.432373213912797 0 0 0 0 -1.2656721576477139 -15.346811518918912 0 -15.346811518918912 0.92632293086899153 0 0 0 0 2.7637898271750601 -13.743852247493123 0 -13.743852247493123 1.0847758150421214 0 0 0 0 70.776944704706693 -65.303830548044061 0 -65.303830548044061 -27.160456209719996 0 0 0 0 1.8649260005807657 -9.928763499362141 0 -9.928763499362141 0.51440899856442002 0 0 0 0 5.6691446810896196 -11.66375666353747 0 -11.66375666353747 -3.2417446328909136 0 0 0 0 -2.7962807633857665 -6.9946514213652335 0 -6.9946514213652335 -0.33792419058954692 0 0 0 0 6.6524230601407908 -9.8907922742523624 0 -9.8907922742523624 -0.63448972024434624 0 0 0 0 6.7444442405958398 -11.321376519521436 0 -11.321376519521436 -8.5465934021558496 0 0 0 0 5.8238943864362227 -14.243540286312964 0 -14.243540286312964 -2.0628477369946268 0 0 0 0 10.478349937315215 -6.8319753600394506 0 -6.8319753600394506 -15.814190091214073 0 0 0 0 0.0082650629116529841 -19.406857927685245 0 -19.406857927685245 -3.3403612945367058 0 0 0 0 5.1233108809174155 -18.37745902995357 0 -18.37745902995357 -12.800063322431697 0 0 0 0 -0.032773718522548734 -15.957127137940006 0 -15.957127137940006 1.3385864278243389 0 0 0 0 0.90867178785401848 -17.12516711233684 0 -17.12516711233684 0.97646426819937915 0 0 0 0 0.0045195069906185381 -19.469589907061163 0 -19.469589907061163 -3.3418673614208672 0 0 0 0 1.7747408398104199 -16.623848272467285 0 -16.623848272467285 -3.3248155796427454 0 0 0 0 -0.74911871460972179 -203.09715261196288 0 -203.09715261196288 -320.65084298767823 0 0 0 0 0.71313760177326913 -202.98074261446163 0 -202.98074261446163 -320.65340678745912 0 0 0 0 -143.64492661929944 -29.595852560856656 0 -29.595852560856656 -310.32668765891481 0 0 0 0 106.35786659142377 -104.08273664119633 0 -104.08273664119633 -298.41991223274817 0 0 0 0 -0.83250798847984697 -4.4973222551707295 0 -4.4973222551707295 -22.079463390484307 0 0 0 0 -103.84817030008435 -22.231045757724132 0 -22.231045757724132 169.67682011727447 0 0 0 0 1.1089584203805103 0.18641158667681168 0 0.18641158667681168 0.28976584131631467 0 0 0 0 15.987437439649511 -5.5678408280200529 0 -5.5678408280200529 -47.647214766720481 0 0 0 0 -0.013395959174886229 -14.959211885916829 0 -14.959211885916829 -24.520447450123356 0 0 0 0 4.5308016572507768 3.6480683453910387 0 3.6480683453910387 4.7569000346975372 0 0 0 0 0.01688611955913559 -12.662626645927457 0 -12.662626645927457 9.9155579102189222 0 0 0 0 -0.49102902064750253 -0.15624800393902571 0 -0.15624800393902571 0.39271447401995374 0 0 0 0 8.3476393349678801 -4.8056180428850439 0 -4.8056180428850439 -0.075518327925237827 0 0 0 0 4.1595520837963704 -7.9516681425511706 0 -7.9516681425511706 5.5843712833254813 0 0 0 0 -0.44785432189559771 -0.14434893107929447 0 -0.14434893107929447 0.34353003736517351 0 0 0 0 10.673623473089265 -9.7791345461216679 0 -9.7791345461216679 -25.775116478168457 0 0 0 0 2.9673217091767583 -12.254958408365383 0 -12.254958408365383 4.1008260786356914 0 0 0 0 15.126203317799764 -12.65816003620921 0 -12.65816003620921 -20.409763590118018 0 0 0 0 2.9888309574052982 -14.136967189663665 0 -14.136967189663665 0.49925932514770466 0 0 0 0 5.0809925207040578 -9.3888515383021058 0 -9.3888515383021058 -0.42284043431391183 0 0 0 0 -4.6333067926345848 -15.258051199614897 0 -15.258051199614897 -1.9460474647657975 0 0 0 0 7.4868494697548158 -8.8729443676879782 0 -8.8729443676879782 -2.6228534541132831 0 0 0 0 1.8476044518397958 -9.91043226862325 0 -9.91043226862325 -2.5844215048370032 0 0 0 0 1.5744917797773477 -9.4670114471645697 0 -9.4670114471645697 -5.6965688463810622 0 0 0 0 -6.2670839438460462 -10.350000007471408 0 -10.350000007471408 -2.7289792795781977 0 0 0 0 -13.309784475575725 -13.725327827982255 0 -13.725327827982255 1.8994081294677017 0 0 0 0 7.085156352369097 -118.49127454548179 0 -118.49127454548179 -279.17097225964153 0 0 0 0 -9.1727444552478161 -5.8052036375177298 0 -5.8052036375177298 -0.19375716044947078 0 0 0 0 -6.5328404913580016 -16.389047447654775 0 -16.389047447654775 1.0181515324475185 0 0 0 0 5.066085990584007 -1.8452894629608174 0 -1.8452894629608174 -1.9754753505936773 0 0 0 0 -1.5588611201237654 -10.722922426206424 0 -10.722922426206424 -14.690786050263455 0 0 0 0 -55.085592229657777 -152.11302415005412 0 -152.11302415005412 -54.738866868821788 0 0 0 0 -122.38842811356153 -44.063333090434753 0 -44.063333090434753 38.609046185416219 0 0 0 0 22.354583913253009 -49.816277997270845 0 -49.816277997270845 -385.24675021349867 0 0 0 0 -25.280162039825882 -198.18810751424098 0 -198.18810751424098 -397.78257406162243 0 0 0 0 -0.062671254618180683 42.251205779697557 0 42.251205779697557 -146.51468996513722 0 0 0 0 -61.379414179640662 -78.546864006390024 0 -78.546864006390024 -302.42611731301258 0 0 0 0 0.58456365263737098 -110.11683261221742 0 -110.11683261221742 -403.40237122332928 0 0 0 0 33.485367464021692 -98.46549382138619 0 -98.46549382138619 -470.89029232317216 0 0 0 0 -35.902371543025765 -14.463730865007165 0 -14.463730865007165 -386.04283717712224 0 0 0 0 -5.1619153078334179 -3.4218334955240266 0 -3.4218334955240266 -0.66367464015188649 0 0 0 0 6.9211060614215967 -33.095244268946772 0 -33.095244268946772 35.368558944807006 0 0 0 0 1.813234987515898 -12.896385958214069 0 -12.896385958214069 -3.2838189021695143 0 0 0 0 16.061988767907224 -12.705369118420322 0 -12.705369118420322 -7.9084604069557827 0 0 0 0 12.549129911496493 -17.491569266180704 0 -17.491569266180704 -6.758343332201548 0 0 0 0 29.647268479283412 -20.332318884748929 0 -20.332318884748929 -11.764000135892275 0 0 0 0 44.703118596478816 -7.8993347371506388 0 -7.8993347371506388 -12.576415701263613 0 0 0 0 30.801323542540558 -12.689024664729914 0 -12.689024664729914 -14.16615892365553 0 0 0 0 38.72396582732199 -35.479648175732109 0 -35.479648175732109 -12.8301954379167 0 0 0 0 -19.138346698395253 -19.772911387637578 0 -19.772911387637578 -41.407753735780716 0 0 0 0 40.511870058136765 -39.103920499152196 0 -39.103920499152196 -57.359184359416759 0 0 0 0 0.23288583961975462 -0.24532305485294259 0 -0.24532305485294259 -0.44732266993677072 0 0 0 0 -21.668998373526847 -0.13106540244007192 0 -0.13106540244007192 14.848138459750771 0 0 0 0 33.385988176151841 14.676142172609389 0 14.676142172609389 3.6579966780973336 0 0 0 0 41.144074131324487 0.12637111460071537 0 0.12637111460071537 -14.735410294619214 0 0 0 0 -114.96645816360251 -64.776525889245022 0 -64.776525889245022 -11.26886827823455 0 0 0 0 0.23928789113998761 -0.75712368120406115 0 -0.75712368120406115 -0.40439360217381193 0 0 0 0 1.1257446195113516 -59.748669846720304 0 -59.748669846720304 -199.08800534749935 0 0 0 0 -130.19110664384516 -123.95418093583157 0 -123.95418093583157 -114.36367415024779 0 0 0 0 -107.82870321836685 -229.27041535418812 0 -229.27041535418812 -302.41891381843379 0 0 0 0 63.695768844438135 -125.56982353296553 0 -125.56982353296553 -902.1653773775115 0 0 0 0 -1.5521803781004095 -1.649709272431565 0 -1.649709272431565 -0.58454538465309591 0 0 0 0 -83.701301877354126 -115.94651341089411 0 -115.94651341089411 161.85995557239403 0 0 0 0 -200.91264872001011 -152.5340620330262 0 -152.5340620330262 -86.933741376371472 0 0 0 0 -67.183773307682713 -318.5156213742066 0 -318.5156213742066 -506.56236002412425 0 0 0 0 5.9335085528491618 2.6832939617620468 0 2.6832939617620468 -14.940586651109697 0 0 0 0 -0.63720470289517905 -0.5162943235806523 0 -0.5162943235806523 -2.4845053754803601 0 0 0 0 -123.56732189646459 -98.943685950483314 0 -98.943685950483314 -371.35745379450964 0 0 0 0 -1.6438992751991464 -17.370189696876878 0 -17.370189696876878 -7.0278563335923536 0 0 0 0 34.561149175279297 6.2173820887514921 0 6.2173820887514921 -14.578790348508846 0 0 0 0 9.2404822779627622 -3.9396946775644217 0 -3.9396946775644217 -2.2812413776925156 0 0 0 0 20.276832477480639 -16.83981121065699 0 -16.83981121065699 -28.950108043045475 0 0 0 0 16.020988160633351 -11.225162962029572 0 -11.225162962029572 -19.61788792718653 0 0 0 0 16.81338300529751 -21.602270127244083 0 -21.602270127244083 -32.654029452998657 0 0 0 0 0.928730591560047 0.37734008740792291 0 0.37734008740792291 -0.88474860091600149 0 0 0 0 13.087697389507142 -7.4794045807686835 0 -7.4794045807686835 -10.053923851862308 0 0 0 0 -14.353471344298669 -34.408765642788694 0 -34.408765642788694 14.006672547028757 0 0 0 0 -12.526598067131474 -7.4498129471766088 0 -7.4498129471766088 -0.26912550963655946 0 0 0 0 5.2761455394261247 -15.197127902392822 0 -15.197127902392822 -21.001559109325171 0 0 0 0 12.639697225686609 -10.611473443016379 0 -10.611473443016379 -8.3411592170058313 0 0 0 0 -0.5671852785790179 -23.828773600426757 0 -23.828773600426757 -15.002160157977414 0 0 0 0 11.044386583627784 -19.784011993995591 0 -19.784011993995591 -18.72885656535982 0 0 0 0 10.543708065219107 -22.528029953240548 0 -22.528029953240548 -24.424921346348128 0 0 0 0 10.545361773831699 -27.394204262170831 0 -27.394204262170831 -30.160725764832023 0 0 0 0 4.5326342462476532 -20.273855893952259 0 -20.273855893952259 -4.89545295967946 0 0 0 0 11.598988559308054 -20.437215647711128 0 -20.437215647711128 -18.660835175778061 0 0 0 0 11.449330742972961 -25.720939047670186 0 -25.720939047670186 26.212927640705857 0 0 0 0 11.209268990503006 -29.84641235719846 0 -29.84641235719846 -2.4793093852026686 0 0 0 0 -5.0573389188906894 -8.9072064181934785 0 -8.9072064181934785 -13.55355910351116 0 0 0 0 18.389329810990603 -27.403636733825351 0 -27.403636733825351 -1.1558205424137213 0 0 0 0 10.34212187164519 -27.119284350030853 0 -27.119284350030853 -14.137308689223573 0 0 0 0 -1.3742437589775811 -12.833231085865414 0 -12.833231085865414 -14.49374675628107 0 0 0 0 -18.716620832499757 -39.944579034910475 0 -39.944579034910475 10.824667476721515 0 0 0 0 -32.787744003398984 -23.213825366691708 0 -23.213825366691708 -2.4544963604703298 0 0 0 0 10.947531284084107 -29.847978787131069 0 -29.847978787131069 -0.61988832091265067 0 0 0 0 11.083625005836879 -14.397087457756339 0 -14.397087457756339 5.2872680183907299 0 0 0 0 -46.563386010966497 -40.369764479860351 0 -40.369764479860351 100.2422242577004 0 0 0 0 -51.231966767556514 -26.068815189692486 0 -26.068815189692486 -8.2176428749658044 0 0 0 0 -8.1588990582968108 -64.718839728863259 0 -64.718839728863259 -111.81761498662581 0 0 0 0 11.18267379020963 -10.932017569016146 0 -10.932017569016146 5.4379410718176402 0 0 0 0 -34.857711275170004 -67.358603474872325 0 -67.358603474872325 -34.930381195539667 0 0 0 0 -52.777623744150333 -44.043914852163653 0 -44.043914852163653 46.864948822501901 0 0 0 0 -30.718300809618086 -45.328856431604436 0 -45.328856431604436 46.93100664047779 0 0 0 0 -35.771146042046894 -70.419968686360335 0 -70.419968686360335 79.913296597125736 0 0 0 0 -28.588279168894587 -40.348673704651901 0 -40.348673704651901 30.851324691902846 0 0 0 0 -72.345080839488446 -64.380764638469543 0 -64.380764638469543 32.94403145625256 0 0 0 0 -77.167864845803706 -15.361841274368999 0 -15.361841274368999 18.330222192713336 0 0 0 0 -126.17814231382931 -105.10795700735895 0 -105.10795700735895 46.028695492452243 0 0 0 0 -241.8195410841945 67.485252305225913 0 67.485252305225913 1.3257923988276161 0 0 0 0 -136.88651992186033 45.17314763365647 0 45.17314763365647 -10.448414963782852 0 0 0 0 -37.374177161436819 -4.4405962777718742 0 -4.4405962777718742 14.286743200093042 0 0 0 0 2.9655111020720426 -5.594305685444513 0 -5.594305685444513 -3.4201930201950006 0 0 0 0 -31.448305082874867 -11.645590955300577 0 -11.645590955300577 -0.35727449315982085 0 0 0 0 18.471679845448307 -12.838172715721612 0 -12.838172715721612 -39.603615265349617 0 0 0 0 69.831154205687199 -32.553864013936618 0 -32.553864013936618 -34.635785347374849 0 0 0 0 -10.535805596271281 -5.2959397190820923 0 -5.2959397190820923 0.76397693238213327 0 0 0 0 -357.10418943598052 -30.082282578749073 0 -30.082282578749073 84.106555585658498 0 0 0 0 0.62081688951184333 78.115762967313003 0 78.115762967313003 -5.865280059779252 0 0 0 0 -281.73341832263031 -62.230454945738529 0 -62.230454945738529 39.559955246439131 0 0 0 0 -1.6514413402784953 -0.86029010570369113 0 -0.86029010570369113 -0.39202397089231056 0 0 0 0 132.84151057196505 -1.6861869979702533 0 -1.6861869979702533 -21.430795657175622 0 0 0 0 32.777107507954497 -260.29710555358815 0 -260.29710555358815 -68.704439330016612 0 0 0 0 74.891137071780577 -71.505769943312544 0 -71.505769943312544 -658.55130534717773 0 0 0 0 -5.4577092462310546 -3.6707280767523862 0 -3.6707280767523862 0.059856291798559891 0 0 0 0 28.310824128829154 21.604053997911251 0 21.604053997911251 118.97199536595872 0 0 0 0 5.9088008976141282 -29.967845253807354 0 -29.967845253807354 55.022836662359623 0 0 0 0 32.691136214274593 -22.509267845101931 0 -22.509267845101931 34.211602311153001 0 0 0 0 -18.288534704645741 -66.444959927634855 0 -66.444959927634855 18.612132210544587 0 0 0 0 23.798548663216934 -76.585975313130803 0 -76.585975313130803 -9.300123527797723 0 0 0 0 -18.53254615701735 -78.964173313085666 0 -78.964173313085666 23.048664182842003 0 0 0 0 -24.315977930764348 -58.827732631243634 0 -58.827732631243634 32.498005170428769 0 0 0 0 -1.8340472192649031 -63.89650623129728 0 -63.89650623129728 18.605259755662701 0 0 0 0 -1.5808873395326373 -25.837006511934305 0 -25.837006511934305 45.949924495389496 0 0 0 0 -24.978854327597219 -59.004856903229665 0 -59.004856903229665 39.268259018881508 0 0 0 0 -34.781383510136948 -32.862737526757428 0 -32.862737526757428 90.738504329844545 0 0 0 0 -0.18532735482428109 -0.049143119915441957 0 -0.049143119915441957 -0.023856659202940556 0 0 0 0 1.4971241819948773 -61.324685640549433 0 -61.324685640549433 -119.92608938018293 0 0 0 0 15.689049666958454 -50.74987915886868 0 -50.74987915886868 -112.1979520112709 0 0 0 0 14.667724532131615 -43.932813370215172 0 -43.932813370215172 -53.731951638184 0 0 0 0 -59.137138615831645 -2.6919818981969001 0 -2.6919818981969001 -5.8292256091724539 0 0 0 0 -0.26248130728858854 -0.15085961531318404 0 -0.15085961531318404 -0.019387373659567331 0 0 0 0 15.482207852513966 -53.194899633354908 0 -53.194899633354908 5.2294759300266378 0 0 0 0 -1.7629076971452378 -21.81141959834963 0 -21.81141959834963 -0.76097665752058674 0 0 0 0 -2.0304081412123196 -50.756856678906388 0 -50.756856678906388 20.499043613868707 0 0 0 0 -5.7227352279041952 -51.239071636528024 0 -51.239071636528024 44.298219626171885 0 0 0 0 12.553807096461242 -32.257757778565519 0 -32.257757778565519 -4.0602847334976104 0 0 0 0 -21.761013229322998 -40.415866850442399 0 -40.415866850442399 -4.73965610359312 0 0 0 0 16.578257977224894 -23.895400959992685 0 -23.895400959992685 -116.92250748583592 0 0 0 0 0.015311287283445552 0.17024753445596019 0 0.17024753445596019 -0.1378483699679478 0 0 0 0 -0.04996486154050217 -54.838494051754424 0 -54.838494051754424 -22.013731843027017 0 0 0 0 1.340048581989322 -9.6126904927787109 0 -9.6126904927787109 8.758936202629684 0 0 0 0 0.04883327434072271 -54.095306921410611 0 -54.095306921410611 73.901456776436135 0 0 0 0 13.94913525649099 -9.7082834776924756 0 -9.7082834776924756 64.088840172175878 0 0 0 0 139.45696209408197 -56.852788593995228 0 -56.852788593995228 -789.92761060020621 0 0 0 0 -26.804654255686728 -16.893424952849955 0 -16.893424952849955 165.15492376774637 0 0 0 0 -1.1198690929218742 -1.160265932527075 0 -1.160265932527075 -0.43470340901201343 0 0 0 0 -87.266610132670394 -145.88983307324816 0 -145.88983307324816 -101.25013969953943 0 0 0 0 368.26822933204903 -73.886964725143116 0 -73.886964725143116 -331.81576607593888 0 0 0 0 90.961394052243122 -92.916643129950899 0 -92.916643129950899 -152.40112819375463 0 0 0 0 -1.0424799247339251 -19.437304093107286 0 -19.437304093107286 -68.848912673598534 0 0 0 0 -16.983145473279365 -29.06635009429101 0 -29.06635009429101 -21.600067993411358 0 0 0 0 -57.547874315761874 -30.238838433718229 0 -30.238838433718229 -59.54461587384867 0 0 0 0 -34.652578309539422 -50.616649448118551 0 -50.616649448118551 -54.170577588600281 0 0 0 0 -26.044652002141447 -42.3468310666467 0 -42.3468310666467 -68.986374288929255 0 0 0 0 297.82507187632291 49.306111639740266 0 49.306111639740266 -174.54737442884652 0 0 0 0 205.09034268270443 42.601757982751224 0 42.601757982751224 -150.34373070021138 0 0 0 0 2.1532507238316132 -1.8579197460550319 0 -1.8579197460550319 0.91053348146240154 0 0 0 0 61.473323751937642 -14.060475662239696 0 -14.060475662239696 -89.580070079031429 0 0 0 0 180.35017303324094 53.593135427105153 0 53.593135427105153 -54.184783825394334 0 0 0 0 1.9801162634642893 -1.2170936019519196 0 -1.2170936019519196 0.80182498332652585 0 0 0 0 21.215434099209233 0.23856221813548473 0 0.23856221813548473 38.844495853012177 0 0 0 0 19.480529144822867 5.2128420682929573 0 5.2128420682929573 25.573640221345158 0 0 0 0 11.538916112534935 16.582338626069941 0 16.582338626069941 34.379756986854773 0 0 0 0 -196.29575308886615 -83.444984747126 0 -83.444984747126 -30.130028233914345 0 0 0 0 -37.381121595163222 -266.83412886531914 0 -266.83412886531914 -188.3046162130122 0 0 0 0 12.828560994841609 13.271120091065313 0 13.271120091065313 41.837857617075997 0 0 0 0 4.5545042447821302 -4.4807731708667511 0 -4.4807731708667511 1.1128420597957245 0 0 0 0 1.4582903147529578 23.560705716860866 0 23.560705716860866 160.37713318821443 0 0 0 0 2.7479676625372313 -5.1968496885478253 0 -5.1968496885478253 -3.9234291060225548 0 0 0 0 -104.72255117468188 222.43309517584203 0 222.43309517584203 0.74306962217633554 0 0 0 0 5.0470453967709545 -0.32962720903651643 0 -0.32962720903651643 -8.8546701761479198 0 0 0 0 6.0482701867113065 -0.54264453035466431 0 -0.54264453035466431 -8.8138161689480512 0 0 0 0 -56.781916473590513 -133.81199039041331 0 -133.81199039041331 -208.4781429057166 0 0 0 0 1.210992780045153 -0.15218089526279499 0 -0.15218089526279499 -2.3520615600376935 0 0 0 0 7.6518893729680713 -3.2793304527695 0 -3.2793304527695 -8.1688864430853414 0 0 0 0 -78.035505995403582 -183.65473399032271 0 -183.65473399032271 -236.2189787743373 0 0 0 0 -192.62285026394238 26.169602715603105 0 26.169602715603105 51.585636089564105 0 0 0 0 305.79867533391234 -282.8765088590535 0 -282.8765088590535 -369.29563573829 0 0 0 0 -56.62547096904018 -135.61264309660874 0 -135.61264309660874 -342.75197765928169 0 0 0 0 -0.19256363495064477 -1.5112983896087275 0 -1.5112983896087275 -0.19968339032637772 0 0 0 0 173.71356313593424 -53.998558909193889 0 -53.998558909193889 -163.69347834115797 0 0 0 0 -80.925727331197322 -178.90356996733772 0 -178.90356996733772 -188.51988681366856 0 0 0 0 -111.39458877116158 -103.26102393983456 0 -103.26102393983456 -132.27424918015367 0 0 0 0 -1.36302365515985 -85.34132851668619 0 -85.34132851668619 -171.14823748924937 0 0 0 0 -42.602601362021232 -103.84653236951453 0 -103.84653236951453 -174.79129086506509 0 0 0 0 -7.1335266492274059 -79.015169739007888 0 -79.015169739007888 -168.53104509261539 0 0 0 0 28.843410683345155 -15.388340846775918 0 -15.388340846775918 -93.358330924482289 0 0 0 0 48.528621718776776 -39.536903803290443 0 -39.536903803290443 -164.81166132600447 0 0 0 0 122.85796737036799 -34.290998017941092 0 -34.290998017941092 -196.79640414486494 0 0 0 0 91.130894903903936 -92.967393238740215 0 -92.967393238740215 -206.38238931105843 0 0 0 0 182.88021357449134 -16.492996539268233 0 -16.492996539268233 -94.904373141827818 0 0 0 0 90.303433061578289 42.51901613604241 0 42.51901613604241 7.6751608027989278 0 0 0 0 -29.502136072136636 -140.22183856574884 0 -140.22183856574884 -224.15397770495474 0 0 0 0 -39.936002140303572 -73.371985035542366 0 -73.371985035542366 -180.71729062321174 0 0 0 0 1.1103956673714208 -0.32933509831401153 0 -0.32933509831401153 -0.22903107728545891 0 0 0 0 -25.968183788806527 -75.20734587863717 0 -75.20734587863717 -173.13348594702438 0 0 0 0 -41.838102074931157 -76.370861547341519 0 -76.370861547341519 -173.12075435988891 0 0 0 0 -40.608417836348963 -73.321125404661871 0 -73.321125404661871 -178.30884072060508 0 0 0 0 -65.355386945109785 -68.973201750389308 0 -68.973201750389308 -160.52390678198026 0 0 0 0 -11.929472266354423 -102.43385871692408 0 -102.43385871692408 -162.90663869867785 0 0 0 0 -28.090899945566434 -87.356624240821475 0 -87.356624240821475 -175.90512439297891 0 0 0 0 -29.103101664515634 -87.825065423389788 0 -87.825065423389788 -160.53352483655181 0 0 0 0 1.6065084498713986 -93.774506889320946 0 -93.774506889320946 -181.10945289225674 0 0 0 0 -31.404113895580849 -91.017199355128469 0 -91.017199355128469 -209.08604103191828 0 0 0 0 -32.718571258164047 -96.720655417676426 0 -96.720655417676426 -177.764381038956 0 0 0 0 -70.789627181038668 -149.73640406881259 0 -149.73640406881259 -142.24395877006373 0 0 0 0 -40.828569478446298 14.445298566876772 0 14.445298566876772 2.2879533960258414 0 0 0 0 3.0110348850134869 -64.067409098754979 0 -64.067409098754979 -91.459085747146673 0 0 0 0 -9.5296992362718811 -91.351561107050657 0 -91.351561107050657 -152.5061874556377 0 0 0 0 -14.040228525741895 -133.53973936384637 0 -133.53973936384637 -226.76150408405374 0 0 0 0 -5.2807381352431548 -110.16585540769665 0 -110.16585540769665 -172.84186655309168 0 0 0 0 0.028711696530990594 -101.85262473738476 0 -101.85262473738476 -212.4330176171934 0 0 0 0 20.356656461435705 -87.852758102329972 0 -87.852758102329972 -226.45443387638255 0 0 0 0 -130.77449093765426 -135.60675696717681 0 -135.60675696717681 -199.34205945356734 0 0 0 0 -53.535763095337643 -93.505498495868324 0 -93.505498495868324 -199.34424998211216 0 0 0 0 -49.557908336794753 -157.32594981178499 0 -157.32594981178499 -282.75725515612976 0 0 0 0 32.047824385592321 -38.148803949574358 0 -38.148803949574358 -290.57973913028218 0 0 0 0 -4.4354081502751797 -48.570017934774114 0 -48.570017934774114 -78.685438033538958 0 0 0 0 6.7674687509588694 -82.829803787554283 0 -82.829803787554283 -187.71544873737366 0 0 0 0 29.858650175349794 -67.299704186684721 0 -67.299704186684721 -195.60484121777881 0 0 0 0 -0.37719331593778094 -0.67924769299272469 0 -0.67924769299272469 0.28755599065549564 0 0 0 0 7.2684846296526864 -1.8448133864183873 0 -1.8448133864183873 0.11992122463933441 0 0 0 0 -18.145514679406915 50.071038250788661 0 50.071038250788661 -50.080507977241268 0 0 0 0 -9.371377593074385 -16.938378669489623 0 -16.938378669489623 3.5199582991463103 0 0 0 0 21.428954787414114 30.641068685105893 0 30.641068685105893 -152.7619579040711 0 0 0 0 -15.181609053510329 -7.3108808515444252 0 -7.3108808515444252 -23.915166016295188 0 0 0 0 3.242924830831015 -0.82263361321035688 0 -0.82263361321035688 -0.46580569520197557 0 0 0 0 4.8706779427911613 -1.458641897300776 0 -1.458641897300776 -0.18958831675328369 0 0 0 0 8.9462338313751388 -44.744495263708814 0 -44.744495263708814 -152.33321400735622 0 0 0 0 -25.789648404755553 -78.982376626183168 0 -78.982376626183168 -168.70642432213026 0 0 0 0 -3.8390679181438827 -27.511188140564627 0 -27.511188140564627 -4.8656574274200466 0 0 0 0 -4.3594620701624081 8.8361295114279415 0 8.8361295114279415 21.951172951668923 0 0 0 0 -0.066508280039897727 0.20833737070995539 0 0.20833737070995539 -0.12045396314416879 0 0 0 0 -5.4533589295751881 -37.796678965403771 0 -37.796678965403771 -50.137698890730462 0 0 0 0 -14.675681476629961 -28.094337047941281 0 -28.094337047941281 -60.243867503773799 0 0 0 0 -27.354592503415915 -42.927060352012631 0 -42.927060352012631 -52.775323735511847 0 0 0 0 -24.741736308323198 -45.83984332860382 0 -45.83984332860382 -55.719502822321374 0 0 0 0 -25.787986818841091 -32.420577682991279 0 -32.420577682991279 -22.008742566904402 0 0 0 0 -35.720339806625816 -47.287049293651762 0 -47.287049293651762 -41.296331525991263 0 0 0 0 -18.487731666948093 -50.50979002310487 0 -50.50979002310487 -47.569466353517214 0 0 0 0 -28.852549912960058 -36.073541310626752 0 -36.073541310626752 -11.388448852332658 0 0 0 0 -30.24777136882858 -47.859811411384726 0 -47.859811411384726 -47.686842604111007 0 0 0 0 -25.140974032628719 -60.674240768406889 0 -60.674240768406889 -62.045395257420751 0 0 0 0 -1.0271242622129648 -36.185996884456472 0 -36.185996884456472 -125.1749192896566 0 0 0 0 -21.115800084648072 -34.426395168255112 0 -34.426395168255112 -62.180877392869483 0 0 0 0 -20.355741654978374 -30.598872117760038 0 -30.598872117760038 -20.890746717048387 0 0 0 0 -24.733336836356102 -23.842712950550776 0 -23.842712950550776 -25.003372807354026 0 0 0 0 -11.89043368437757 -25.52070591710654 0 -25.52070591710654 -24.888637302381539 0 0 0 0 2.7906164888176068 -5.8022502994423277 0 -5.8022502994423277 8.5836650104259 0 0 0 0 -21.995454657272603 -19.568050174570089 0 -19.568050174570089 2.9546739678535232 0 0 0 0 -17.823335123740435 -19.155206243835892 0 -19.155206243835892 -18.65543264169537 0 0 0 0 0.27832924030959205 -1.959141237754686 0 -1.959141237754686 1.8541903945470208 0 0 0 0 -2.6908880741202665 -14.13598235709469 0 -14.13598235709469 -42.036773553645617 0 0 0 0 -1.4671820897920043 -24.944714583663881 0 -24.944714583663881 -31.289403169338584 0 0 0 0 -3.7259495896814769 -22.174194309996892 0 -22.174194309996892 -55.274217064071308 0 0 0 0 -10.724058264268024 -16.601553090349626 0 -16.601553090349626 -53.223774785958085 0 0 0 0 -17.10880824672995 -35.335709628915538 0 -35.335709628915538 -45.502507019957193 0 0 0 0 -18.577091297738662 -31.303323888838349 0 -31.303323888838349 -17.932857544451508 0 0 0 0 -11.738338391955949 -22.384945704276106 0 -22.384945704276106 -26.194460661667108 0 0 0 0 -2.719470867428754 -22.91901890702502 0 -22.91901890702502 -19.540632019273971 0 0 0 0 -6.4948516986446521 -29.742642317865375 0 -29.742642317865375 -31.406772890375578 0 0 0 0 -9.3589113748685122 -20.546665789504914 0 -20.546665789504914 -5.7304339350939699 0 0 0 0 3.0169656152256721 -25.209857910039318 0 -25.209857910039318 -19.3692000762112 0 0 0 0 -9.4027722371592972 -21.066037763956956 0 -21.066037763956956 -10.282760776276518 0 0 0 0 -19.056488133262064 -21.11092540391337 0 -21.11092540391337 -2.0239823184119814 0 0 0 0 -11.012638212468119 -15.823086552738459 0 -15.823086552738459 -0.61984205301268958 0 0 0 0 3.8043864514565939 -16.810741620842691 0 -16.810741620842691 -0.676013152455198 0 0 0 0 -3.9542647866528569 -23.943443805854258 0 -23.943443805854258 -5.5410486935775793 0 0 0 0 -39.662847581415463 -43.920990616057907 0 -43.920990616057907 -13.531319989551776 0 0 0 0 -18.9922244731505 -19.006804751415117 0 -19.006804751415117 -1.4116851037451852 0 0 0 0 -22.230409291894375 -24.433780600269984 0 -24.433780600269984 -2.888953440646219 0 0 0 0 2.8995552155154591 -4.9476532853201043 0 -4.9476532853201043 8.9671573003409257 0 0 0 0 -45.387722437856155 -46.92508592370541 0 -46.92508592370541 -11.32415228953414 0 0 0 0 -47.863590570728206 -69.450191796339141 0 -69.450191796339141 -31.56591233790823 0 0 0 0 -50.799492478140564 -55.148857277040406 0 -55.148857277040406 -23.001226836882779 0 0 0 0 -28.339949194683868 -80.992737739639779 0 -80.992737739639779 -34.933753523073847 0 0 0 0 -9.0654645629768567 -81.58101009560518 0 -81.58101009560518 -56.28167099206803 0 0 0 0 -9.0217945061793436 -73.594621115356858 0 -73.594621115356858 -66.043133303497598 0 0 0 0 -27.276716174306785 -62.22342823854683 0 -62.22342823854683 -40.228456336597446 0 0 0 0 -10.687245104260001 -56.14971462675021 0 -56.14971462675021 -77.060270856041825 0 0 0 0 -11.195021777022703 -53.246783976126608 0 -53.246783976126608 -35.478251714269391 0 0 0 0 -11.903801186721466 -38.531605415917056 0 -38.531605415917056 -51.861730702639761 0 0 0 0 0.16248411785085537 -3.2662473489527031 0 -3.2662473489527031 1.2638356348138435 0 0 0 0 -13.375695909901083 -38.656155942159216 0 -38.656155942159216 -50.740480879665483 0 0 0 0 -2.7486059491257038 -37.131690270788567 0 -37.131690270788567 -58.645132186245974 0 0 0 0 -3.2230902724616328 -27.598003067377874 0 -27.598003067377874 -137.32370964064285 0 0 0 0 10.115506573632956 36.836696023883633 0 36.836696023883633 195.5114708662386 0 0 0 0 -57.1141772774522 -140.15366836445082 0 -140.15366836445082 193.36571187768459 0 0 0 0 -121.42083401481432 -148.30519221755094 0 -148.30519221755094 222.49416283076425 0 0 0 0 163.64297726262521 70.884496365146333 0 70.884496365146333 -122.35669350249952 0 0 0 0 3.9658950433425169 -4.2855632865258322 0 -4.2855632865258322 2.7777533446973841 0 0 0 0 -33.935908673984159 -52.350734927746089 0 -52.350734927746089 -56.652993503288599 0 0 0 0 98.878479777304619 -19.904482233771887 0 -19.904482233771887 26.090448070557613 0 0 0 0 79.92688275726141 -125.02125520073696 0 -125.02125520073696 -29.788950231899889 0 0 0 0 176.08370509696397 28.990266782639083 0 28.990266782639083 -261.7595793245091 0 0 0 0 37.587603305243647 -116.05926127352495 0 -116.05926127352495 71.338453979624319 0 0 0 0 -42.031038347026879 -71.700962288821756 0 -71.700962288821756 -138.05072843794551 0 0 0 0 0.79707411331667544 -2.480125465894826 0 -2.480125465894826 -0.6410634657636467 0 0 0 0 20.088748369803398 -55.877957573128697 0 -55.877957573128697 -210.42793712996991 0 0 0 0 -16.924383833132197 15.449824936307778 0 15.449824936307778 -189.75414092083247 0 0 0 0 -89.654407302366963 -79.954741418589037 0 -79.954741418589037 515.69832521641183 0 0 0 0 0.12310127248874636 -0.84815120529306931 0 -0.84815120529306931 -0.027193366389689722 0 0 0 0 38.969447220317306 -98.704732346108358 0 -98.704732346108358 -97.686878912731117 0 0 0 0 0.18872981521417387 -95.859831466951618 0 -95.859831466951618 -91.157448521295009 0 0 0 0 -2.5399414564235485 -48.332838992548204 0 -48.332838992548204 -124.93121867014725 0 0 0 0 -18.079333324209074 -101.47923740663464 0 -101.47923740663464 -1.5436558778592371 0 0 0 0 2.6892733531685735 -46.090975515916853 0 -46.090975515916853 -1.6332521943817975 0 0 0 0 113.53743684130131 -76.525142698982108 0 -76.525142698982108 -21.598917486535356 0 0 0 0 -6.7583803235629603 -31.346834621013841 0 -31.346834621013841 -34.822936775012749 0 0 0 0 87.563133622663372 -61.147252613072851 0 -61.147252613072851 -194.69182541144619 0 0 0 0 0.82900807342613092 -0.3125050115754533 0 -0.3125050115754533 0.024691506068597491 0 0 0 0 -21.925820439223116 -64.562242241017429 0 -64.562242241017429 183.0327976828803 0 0 0 0 -47.65962998709756 -50.876945095995552 0 -50.876945095995552 -27.575997215117241 0 0 0 0 0.21802967039934629 27.686873076348775 0 27.686873076348775 -60.906736314854243 0 0 0 0 85.547871777951286 -76.323654634766285 0 -76.323654634766285 -12.492459355293249 0 0 0 0 48.981588707472838 -31.165084040846523 0 -31.165084040846523 -16.867563284346033 0 0 0 0 46.573387337302961 -27.585381795607418 0 -27.585381795607418 56.568420928737396 0 0 0 0 43.722718233938622 -8.0065592247958648 0 -8.0065592247958648 62.944406155730576 0 0 0 0 30.348391569569685 -29.008744642233978 0 -29.008744642233978 105.37883010243149 0 0 0 0 12.358120459761267 13.759535136391605 0 13.759535136391605 48.797321478694357 0 0 0 0 19.767166327051655 4.3035595074079538 0 4.3035595074079538 -6.6795063226982165 0 0 0 0 -4.598929233002309 -12.17626807467559 0 -12.17626807467559 112.82221126629338 0 0 0 0 7.2345731775549211 -31.173260755286265 0 -31.173260755286265 155.88633617714186 0 0 0 0 -10.315524945086509 -31.530569067886972 0 -31.530569067886972 179.67045715813038 0 0 0 0 15.303800530706212 -22.399623737044749 0 -22.399623737044749 111.42040185167195 0 0 0 0 37.422253351955078 -75.15898655743149 0 -75.15898655743149 197.33173655930841 0 0 0 0 36.367552454130418 -76.885945072512186 0 -76.885945072512186 195.07871383351994 0 0 0 0 5.419006540767441 -49.317098242861903 0 -49.317098242861903 180.36234016820163 0 0 0 0 49.932752352226089 -76.632585928200569 0 -76.632585928200569 183.50942637476828 0 0 0 0 16.819583110379426 -40.191830670043146 0 -40.191830670043146 154.1411628709011 0 0 0 0 12.94188788829706 -50.677581203019145 0 -50.677581203019145 170.19455084712718 0 0 0 0 27.071728444923792 -43.583150217864386 0 -43.583150217864386 143.37708708279933 0 0 0 0 12.240696012151602 -42.262780089687112 0 -42.262780089687112 147.69865506972383 0 0 0 0 28.06551836938786 -35.278898193957787 0 -35.278898193957787 113.67968781886884 0 0 0 0 14.825741798817944 -18.54505468813727 0 -18.54505468813727 115.88992256815254 0 0 0 0 43.793871681798919 -130.00659971504319 0 -130.00659971504319 325.86776718259171 0 0 0 0 70.68751962819988 108.93108308455157 0 108.93108308455157 86.864513179217283 0 0 0 0 54.593125358594079 30.645846609253567 0 30.645846609253567 -22.385175209219597 0 0 0 0 1.2817311199757029 0.39912663128153714 0 0.39912663128153714 0.3513393542794212 0 0 0 0 12.826948866040766 -96.829378866942534 0 -96.829378866942534 247.423064121469 0 0 0 0 10.627440223579015 -68.773462011366291 0 -68.773462011366291 177.15468396829056 0 0 0 0 14.814929675932945 -45.283756658132006 0 -45.283756658132006 216.77984607366488 0 0 0 0 -23.66698205281682 -44.703215666280812 0 -44.703215666280812 73.869779906027361 0 0 0 0 44.171098229728159 17.377572155249254 0 17.377572155249254 113.95521093890966 0 0 0 0 127.29287272723468 5.613156600581533 0 5.613156600581533 29.951486153505357 0 0 0 0 -9.4215453178549069 -7.5871466856115148 0 -7.5871466856115148 273.7725038269341 0 0 0 0 0.95954142511841312 -1.6098736769242041 0 -1.6098736769242041 0.41211432392483349 0 0 0 0 59.191578367190232 -98.971647505722558 0 -98.971647505722558 -78.109762436407664 0 0 0 0 -15.100250782149828 -89.71500275659406 0 -89.71500275659406 16.31118221559791 0 0 0 0 31.764455223278674 -67.0888071722311 0 -67.0888071722311 -202.19520422514097 0 0 0 0 17.980614807994698 24.27292663791161 0 24.27292663791161 -65.480635206260558 0 0 0 0 1.5544947942612382 -1.3253485239338669 0 -1.3253485239338669 0.26892670293075671 0 0 0 0 -21.467171163339572 -59.537625244143101 0 -59.537625244143101 13.590605331080951 0 0 0 0 -17.592936095707046 -52.77525214201205 0 -52.77525214201205 -45.966447047381962 0 0 0 0 -38.235921552865875 -57.264500198843052 0 -57.264500198843052 -109.46055558526768 0 0 0 0 -31.959942543306624 -78.01864967621168 0 -78.01864967621168 -82.899005373426007 0 0 0 0 -22.179610609747215 -61.801116408790222 0 -61.801116408790222 -87.289436935736376 0 0 0 0 -94.057821020169285 -95.62273096690933 0 -95.62273096690933 -13.523809434019597 0 0 0 0 -163.73743666311566 -30.580606343799445 0 -30.580606343799445 256.60515483465292 0 0 0 0 -68.740491220250988 -176.7468955393515 0 -176.7468955393515 -273.82750022129767 0 0 0 0 0.19487818051959493 -0.68850173248757507 0 -0.68850173248757507 0.17916035468780223 0 0 0 0 -199.49163659015994 -137.97621269568026 0 -137.97621269568026 -56.111878344264369 0 0 0 0 8.5313092687692915 -118.38162563518381 0 -118.38162563518381 -17.00312561251485 0 0 0 0 -2.6660017528183566 -8.6445058880054457 0 -8.6445058880054457 -11.407820382796665 0 0 0 0 -4.9624806667147254 -24.062865675543605 0 -24.062865675543605 6.3003326352900331 0 0 0 0 10.894244148160396 -64.837020039687104 0 -64.837020039687104 12.741658497819799 0 0 0 0 -4.7029551370169429 -22.288897243715837 0 -22.288897243715837 -0.64947311766862015 0 0 0 0 2.043464012380154 -6.6115453347717335 0 -6.6115453347717335 7.2515841785136779 0 0 0 0 -41.95688193713363 39.825970977706618 0 39.825970977706618 -33.458940182335937 0 0 0 0 -13.387071518714947 8.1264719770761076 0 8.1264719770761076 -140.75480512611284 0 0 0 0 -128.9545185670886 -2.9161188291827784 0 -2.9161188291827784 32.731638412117718 0 0 0 0 -1.6484294736808138 -3.3172741928072758 0 -3.3172741928072758 -1.6854281246000404 0 0 0 0 -175.32900795391038 -20.299997223271134 0 -20.299997223271134 27.620647132045633 0 0 0 0 -7.3109151819246563 43.477177530830545 0 43.477177530830545 -4.8471466471582971 0 0 0 0 142.54038713892987 56.774802411017845 0 56.774802411017845 -45.325610487991071 0 0 0 0 -0.69211665087121155 -2.4605189488771266 0 -2.4605189488771266 -1.460928075568054 0 0 0 0 -4.3949657768248471 24.082215295466995 0 24.082215295466995 48.878980886027421 0 0 0 0 -2.0620046053845726 -111.89197906149502 0 -111.89197906149502 138.72135340797649 0 0 0 0 136.524480288105 -28.611284987530553 0 -28.611284987530553 -37.640097320281711 0 0 0 0 148.38817678384498 -115.07874691113057 0 -115.07874691113057 -100.89745383495392 0 0 0 0 55.740640795382205 -102.60054450484949 0 -102.60054450484949 55.764409814387989 0 0 0 0 50.99114945446513 -64.989642164139923 0 -64.989642164139923 -114.77406990625605 0 0 0 0 75.699633709960835 -93.897221037679628 0 -93.897221037679628 -95.121162973613536 0 0 0 0 62.079325649765451 -127.87587504551357 0 -127.87587504551357 -161.03048641631995 0 0 0 0 -103.44390578579169 -131.8339739717826 0 -131.8339739717826 -45.894572323626562 0 0 0 0 7.9180822015532613 -58.43887935478233 0 -58.43887935478233 -105.15132766750321 0 0 0 0 -30.845003192579497 -135.17086371310052 0 -135.17086371310052 -257.038643263224 0 0 0 0 -183.74762361791181 -251.68476555217831 0 -251.68476555217831 -173.69319375030682 0 0 0 0 -152.09358848100146 -55.610707446026481 0 -55.610707446026481 79.143011891493188 0 0 0 0 13.072915757968076 -105.65119680334374 0 -105.65119680334374 -40.860509483669375 0 0 0 0 82.182111326721497 -44.166741531457774 0 -44.166741531457774 46.248619284942947 0 0 0 0 9.2323053386139691 -117.62037092747323 0 -117.62037092747323 -24.831491501354321 0 0 0 0 109.55264547599108 -81.605940061730507 0 -81.605940061730507 -92.501385725249747 0 0 0 0 100.93761666972341 -135.38323662262502 0 -135.38323662262502 -94.476580136275516 0 0 0 0 173.4518575535285 -112.97300485159599 0 -112.97300485159599 -87.568741317656531 0 0 0 0 -12.466312050981287 -22.970551839131076 0 -22.970551839131076 -23.963017991317827 0 0 0 0 54.919551775355103 -111.41700448567417 0 -111.41700448567417 86.180348635020891 0 0 0 0 -368.86696793905685 -335.85305616368714 0 -335.85305616368714 -27.717287287415274 0 0 0 0 -424.36278825877889 -71.630825801648825 0 -71.630825801648825 55.394027851711144 0 0 0 0 -178.83014869150975 113.32182626897338 0 113.32182626897338 -168.90308184172136 0 0 0 0 -26.658037573999536 -52.832239010469948 0 -52.832239010469948 -18.41018220306978 0 0 0 0 -149.46240810452053 78.321902834839591 0 78.321902834839591 36.039926743744218 0 0 0 0 -140.39592542583523 -65.824944645512005 0 -65.824944645512005 39.029145045628866 0 0 0 0 -91.984949809135287 18.195901568929912 0 18.195901568929912 98.302061311482248 0 0 0 0 -38.559240161694106 75.629478566024773 0 75.629478566024773 159.04047401636899 0 0 0 0 -10.995350326636185 43.822246176748138 0 43.822246176748138 35.883425986095972 0 0 0 0 -15.021192250238528 62.125302103538161 0 62.125302103538161 82.651111873921081 0 0 0 0 7.7147697693762893 -11.630847966665897 0 -11.630847966665897 87.094196402074886 0 0 0 0 -48.662226828282655 39.027367611233785 0 39.027367611233785 66.965418312500333 0 0 0 0 -91.856858552942413 -23.316192128393595 0 -23.316192128393595 98.654105326510035 0 0 0 0 -12.246838712229874 -12.733084826231789 0 -12.733084826231789 11.278410657504992 0 0 0 0 -10.492232243610705 -4.8159223602180958 0 -4.8159223602180958 0.20145528904414256 0 0 0 0 -33.310799038409641 -3.9985558550242786 0 -3.9985558550242786 86.525452343079451 0 0 0 0 -6.4858820398667376 14.891895024707082 0 14.891895024707082 79.49650169567758 0 0 0 0 -4.8215761294363801 13.841275961383985 0 13.841275961383985 33.206372216398449 0 0 0 0 -8.7016867188311799 -4.3896246831312027 0 -4.3896246831312027 4.0215703753391683 0 0 0 0 75.919594706394491 -111.50478018456852 0 -111.50478018456852 55.433817313307259 0 0 0 0 -6.2833765131099426 -17.473282557252787 0 -17.473282557252787 -26.396670081894626 0 0 0 0 -0.33056505108376832 -1.2286339642561241 0 -1.2286339642561241 -1.0945868750909753 0 0 0 0 -23.560010176155629 -65.786930363396095 0 -65.786930363396095 110.46973316661933 0 0 0 0 -15.050214867187606 -39.957247948058011 0 -39.957247948058011 95.219267931001013 0 0 0 0 -17.511466705931525 -49.070372824637161 0 -49.070372824637161 78.644869147943496 0 0 0 0 -3.0716686430041591 -4.3294429998559281 0 -4.3294429998559281 10.345854594067077 0 0 0 0 -2.7933500438902676 -3.1907241714623069 0 -3.1907241714623069 -1.5068971205794366 0 0 0 0 -4.7446193891191797 -3.6620331721433104 0 -3.6620331721433104 11.160088050793092 0 0 0 0 -3.690652440709254 -1.2403967276871803 0 -1.2403967276871803 2.4481506912719091 0 0 0 0 -0.56691659437547059 7.7029449906262926 0 7.7029449906262926 21.742071751295953 0 0 0 0 -2.105948032896487 0.20288013347978051 0 0.20288013347978051 5.8221610371456975 0 0 0 0 1.4570864663710381 18.543357889352592 0 18.543357889352592 -17.48692473870824 0 0 0 0 -8.9657751475442637 8.0787426801143738 0 8.0787426801143738 39.213251538307873 0 0 0 0 -5.8487342968201119 2.2847291707385011 0 2.2847291707385011 26.922515773695523 0 0 0 0 -6.9772070490844271 9.3313243211177905 0 9.3313243211177905 25.362201918171195 0 0 0 0 -9.5794650410716713 -0.19857397665600729 0 -0.19857397665600729 26.926038841696936 0 0 0 0 -4.8324595170943212 -5.939707112233009 0 -5.939707112233009 36.130780611174487 0 0 0 0 -8.3201276499532284 0.2922328982761222 0 0.2922328982761222 20.381593112209199 0 0 0 0 -9.7022918830662093 -7.5045706680257354 0 -7.5045706680257354 12.968522025661514 0 0 0 0 -10.814377838163637 -3.723961430707277 0 -3.723961430707277 11.163634363546862 0 0 0 0 -7.7407414037916169 -4.5039643214659009 0 -4.5039643214659009 16.15691184647585 0 0 0 0 -7.760652586531652 -1.3058164819381792 0 -1.3058164819381792 8.4448357779625223 0 0 0 0 -12.231415409853728 -15.287836295764341 0 -15.287836295764341 11.35557444346759 0 0 0 0 -6.4287908769438218 -10.541655932637241 0 -10.541655932637241 24.268983486383149 0 0 0 0 -6.686832037744125 -0.22355150180665895 0 -0.22355150180665895 13.85476444014955 0 0 0 0 -13.43616114697943 -13.514656789258879 0 -13.514656789258879 2.4296669771865709 0 0 0 0 -18.228567372945118 -23.340445087201005 0 -23.340445087201005 26.934513354849447 0 0 0 0 -13.326882863112587 -23.315800384786598 0 -23.315800384786598 28.572756142833896 0 0 0 0 -4.6998351298941827 -4.7687670533534359 0 -4.7687670533534359 16.84535439958816 0 0 0 0 -10.745967200544328 -3.84397106401358 0 -3.84397106401358 14.194381114133165 0 0 0 0 -2.3757184679722982 -2.8613633694952476 0 -2.8613633694952476 5.3600364155521394 0 0 0 0 -10.904994663560039 -8.1955809926473897 0 -8.1955809926473897 15.21122140798931 0 0 0 0 -24.186944256545758 -11.594324393787019 0 -11.594324393787019 23.081598732021064 0 0 0 0 -29.541691465132317 -26.669305329432518 0 -26.669305329432518 72.787384494338767 0 0 0 0 -15.717670204445312 -0.5870321329748549 0 -0.5870321329748549 -34.558495670531556 0 0 0 0 -10.614660308276314 -21.290262486471299 0 -21.290262486471299 -3.4552590392626241 0 0 0 0 -6.6018972771904743 -6.2903121800325899 0 -6.2903121800325899 -4.8539855104183776 0 0 0 0 -12.074811054531892 -8.7519291901953693 0 -8.7519291901953693 9.1156346429406767 0 0 0 0 -0.38059479314207323 -2.0184978448115665 0 -2.0184978448115665 -2.8563070602443652 0 0 0 0 -15.946679802993458 -17.48801856215141 0 -17.48801856215141 -10.377781575934932 0 0 0 0 -5.8608155388455465 -10.07969909897005 0 -10.07969909897005 -3.3207734966955593 0 0 0 0 -2.1657538381405175 -3.0112332014778076 0 -3.0112332014778076 -3.6708754220462652 0 0 0 0 -8.2640152051563405 -11.770360735853551 0 -11.770360735853551 8.8011891045868698 0 0 0 0 -10.386049776215341 -4.5269943745675612 0 -4.5269943745675612 9.7610751189406884 0 0 0 0 -9.2245427708548959 -7.1672870951224468 0 -7.1672870951224468 33.684859903278266 0 0 0 0 -9.1645000414149393 -31.08292286618456 0 -31.08292286618456 39.718923596268723 0 0 0 0 -20.174312387245664 -4.9708433958076057 0 -4.9708433958076057 12.286953838467525 0 0 0 0 -36.112258129567408 -18.001169678693486 0 -18.001169678693486 46.654342843403356 0 0 0 0 -40.782718594917242 7.4741876056400542 0 7.4741876056400542 32.731582476897756 0 0 0 0 -2.4001022761076456 -13.395469423694522 0 -13.395469423694522 54.373482453863289 0 0 0 0 -31.628310511077871 -6.8280208140022296 0 -6.8280208140022296 63.60998484032325 0 0 0 0 -32.848534495286003 -19.029320087221095 0 -19.029320087221095 74.390671613792847 0 0 0 0 -24.864119241603476 -42.935365382041255 0 -42.935365382041255 107.63420582320578 0 0 0 0 -11.865189126931 -15.272479528041458 0 -15.272479528041458 57.055508022153845 0 0 0 0 -17.510468437074451 -38.66774110602455 0 -38.66774110602455 70.793610665054985 0 0 0 0 2.3075805790213053 -43.63172724838023 0 -43.63172724838023 76.73862957931766 0 0 0 0 -0.43609454444049334 -13.059685622705047 0 -13.059685622705047 -77.662848251464311 0 0 0 0 -72.060019388047294 44.218352881372994 0 44.218352881372994 -95.061770053323471 0 0 0 0 -10.616579530316557 -22.347193974811518 0 -22.347193974811518 -8.8170309188027538 0 0 0 0 -5.1867956468981546 -2.6840382527640871 0 -2.6840382527640871 -0.043635344619199934 0 0 0 0 6.1060235552322411 -6.1514930492157873 0 -6.1514930492157873 7.0066606411087378 0 0 0 0 -1.2950889333624716 -1.3074426501291203 0 -1.3074426501291203 -1.157756941813366 0 0 0 0 88.380026014847317 41.686371842525659 0 41.686371842525659 -187.18955432469193 0 0 0 0 -3.7352472527018108 16.635778719306472 0 16.635778719306472 -13.855344880046232 0 0 0 0 -33.029138890141439 17.713280825694028 0 17.713280825694028 -1.056820354264346 0 0 0 0 14.165966181131807 2.7103062280818904 0 2.7103062280818904 -6.3277300221416226 0 0 0 0 -11.224772761008353 -24.264572728290204 0 -24.264572728290204 88.35203151795622 0 0 0 0 4.5912994293776137 -52.080582506524138 0 -52.080582506524138 68.079791812009717 0 0 0 0 -17.806704590169829 -54.783960022198244 0 -54.783960022198244 94.875217157519728 0 0 0 0 -10.255301762485956 -22.624737529060681 0 -22.624737529060681 -8.4269721383374314 0 0 0 0 -234.00629214497167 -98.708244101500895 0 -98.708244101500895 -217.03500201501902 0 0 0 0 0.10626773865260475 -46.234567539620912 0 -46.234567539620912 48.884654790244895 0 0 0 0 -5.5673738124714873 -38.35034574776364 0 -38.35034574776364 73.191787772632779 0 0 0 0 79.79356944095889 -152.86846610177872 0 -152.86846610177872 -286.71659170397425 0 0 0 0 75.62453332892801 29.18068814283879 0 29.18068814283879 -47.630653845966663 0 0 0 0 151.8440401533262 -18.484122497603039 0 -18.484122497603039 -147.7381271244285 0 0 0 0 5.1947697382056504 -95.585701713845992 0 -95.585701713845992 -123.65383162188505 0 0 0 0 -27.065928685095969 -74.708638362335705 0 -74.708638362335705 -41.274657321648192 0 0 0 0 -40.711521495682973 -56.569665206376158 0 -56.569665206376158 -48.26183884992588 0 0 0 0 49.914516514938441 -43.307026115768622 0 -43.307026115768622 -67.109294032729849 0 0 0 0 -55.381411988324544 7.3300480358620916 0 7.3300480358620916 -10.312960186592136 0 0 0 0 -160.64937366639788 -148.92804544652017 0 -148.92804544652017 -79.663155570640811 0 0 0 0 -124.42730358115637 -27.704538087620676 0 -27.704538087620676 -12.253026503358342 0 0 0 0 -67.638126644167642 -5.512022135155803 0 -5.512022135155803 3.5940079341098681 0 0 0 0 -40.881455858838308 1.4879113725601201 0 1.4879113725601201 -8.7810128006919967 0 0 0 0 -40.052981731250838 -1.5294035964143404 0 -1.5294035964143404 -3.8822033174074022 0 0 0 0 -22.674124837252748 2.3424725462346032 0 2.3424725462346032 6.906845226839323 0 0 0 0 -36.032181742259127 7.6726786230774451 0 7.6726786230774451 4.7801934794842964 0 0 0 0 -20.659073585033184 -7.7973734708712072 0 -7.7973734708712072 5.7965326320036183 0 0 0 0 -41.466219897702103 -13.284616655438185 0 -13.284616655438185 4.4202029749812937 0 0 0 0 -24.011540386727575 0.96460945292892575 0 0.96460945292892575 15.563936088989976 0 0 0 0 -29.91666038259973 4.2020290702726015 0 4.2020290702726015 13.792555269816148 0 0 0 0 -34.428050208146033 -12.431286663201945 0 -12.431286663201945 28.807707965935151 0 0 0 0 7.804472064904985 -14.373906389903368 0 -14.373906389903368 -11.905315692858494 0 0 0 0 13.016469681093668 -35.204884058569974 0 -35.204884058569974 -68.208122316398658 0 0 0 0 19.685515550218327 -67.727075880711951 0 -67.727075880711951 151.27525821462859 0 0 0 0 19.225121830217063 -58.759469819261369 0 -58.759469819261369 159.89400668583585 0 0 0 0 -18.750676178728099 -23.337565624568924 0 -23.337565624568924 31.013160711288151 0 0 0 0 43.576038071143557 -80.387168905639555 0 -80.387168905639555 133.22188838165675 0 0 0 0 13.897849306134958 -59.157342823147246 0 -59.157342823147246 169.43953245644843 0 0 0 0 -4.5961338960001967 -2.6664029213564526 0 -2.6664029213564526 -0.25979682200838994 0 0 0 0 4.3938291389695223 -1.2161269319028634 0 -1.2161269319028634 14.738102462920324 0 0 0 0 20.069569615223372 -50.92468627944163 0 -50.92468627944163 166.93479309260874 0 0 0 0 -0.50702644494534255 -0.41277340700737852 0 -0.41277340700737852 0.45943969995007805 0 0 0 0 37.177930900890715 -77.152871981116732 0 -77.152871981116732 294.26960458097892 0 0 0 0 -11.82552834028138 11.529301133546596 0 11.529301133546596 14.85244033545905 0 0 0 0 -8.6250778788798925 12.051160208399779 0 12.051160208399779 16.483213532012087 0 0 0 0 1.8153343551547252 2.8646971188164576 0 2.8646971188164576 2.8864780502000489 0 0 0 0 -8.5541225327929933 -2.12279693320626 0 -2.12279693320626 4.8719260655050016 0 0 0 0 19.18309849517118 29.710538310186166 0 29.710538310186166 42.173345440253797 0 0 0 0 -4.1275298028949692 0.40259008326756884 0 0.40259008326756884 20.872106950301713 0 0 0 0 0.16682522383416654 -2.3279470034185579 0 -2.3279470034185579 6.6497519147656021 0 0 0 0 -10.959981548880023 10.967429381290458 0 10.967429381290458 16.492724958642228 0 0 0 0 -6.3416577075386158 12.126708409916318 0 12.126708409916318 1.563233258334094 0 0 0 0 -6.3994771324942121 12.658854907498608 0 12.658854907498608 -0.61991179891901993 0 0 0 0 -24.883804638656784 10.952097096529769 0 10.952097096529769 8.7414221052513312 0 0 0 0 -6.9343102229067881 11.165759007486486 0 11.165759007486486 8.675197114898765 0 0 0 0 1.9383433764271558 3.7610870541947179 0 3.7610870541947179 7.4289302480265178 0 0 0 0 -0.019682545398609363 -18.571072394347539 0 -18.571072394347539 -18.255809412542476 0 0 0 0 -14.467545038593016 -34.53669431355911 0 -34.53669431355911 -35.792211884445351 0 0 0 0 17.259919345960952 -3.4492725921631973 0 -3.4492725921631973 -1.4416875511376475 0 0 0 0 -19.375617551808318 -16.64200079066859 0 -16.64200079066859 -11.346086383064403 0 0 0 0 24.28277709400345 3.7029875125421086 0 3.7029875125421086 -4.9303055938544276 0 0 0 0 -60.894284023667069 -50.327999582641837 0 -50.327999582641837 -32.394464177176815 0 0 0 0 -0.039436565586157712 -0.48767987546915847 0 -0.48767987546915847 -0.38800425926013915 0 0 0 0 -6.3917407101325807 -34.192278743482802 0 -34.192278743482802 -50.668232174060904 0 0 0 0 0.0035621301831270102 -30.183643926285185 0 -30.183643926285185 -41.953146271897822 0 0 0 0 0.50111050435589277 -19.259766310455689 0 -19.259766310455689 -23.193275754139904 0 0 0 0 -8.5533841903506982 -30.00522503559705 0 -30.00522503559705 -25.767942193376257 0 0 0 0 0.010792352859227108 -35.113039571256706 0 -35.113039571256706 3.6147606603299209 0 0 0 0 -12.447615734155988 -15.154473968059392 0 -15.154473968059392 47.041675276086607 0 0 0 0 11.019731863611014 -14.453925068852186 0 -14.453925068852186 -2.1938454952005486 0 0 0 0 -24.543764820291926 -28.31162268001043 0 -28.31162268001043 -22.002200370541686 0 0 0 0 -6.7562015016337682 -41.853958455937573 0 -41.853958455937573 -11.902506774861195 0 0 0 0 -26.564286791934137 -39.405009747500571 0 -39.405009747500571 -13.300174867479654 0 0 0 0 -22.776499325091208 -44.759668152379675 0 -44.759668152379675 -6.1497660860377437 0 0 0 0 1.9994110735647155 -43.943636193831708 0 -43.943636193831708 -46.06417974748274 0 0 0 0 -37.122404498761171 -55.22588171692405 0 -55.22588171692405 -10.632380502119304 0 0 0 0 -40.215700651091879 -26.51810544212276 0 -26.51810544212276 17.172303156326052 0 0 0 0 -0.85229652367706876 -57.420675234372538 0 -57.420675234372538 -104.99567460718981 0 0 0 0 0.47279495779353908 -2.8962510854003058 0 -2.8962510854003058 1.0408456506601915 0 0 0 0 -0.28747404860496317 -16.903521309900952 0 -16.903521309900952 1.2319435252115909 0 0 0 0 8.1399228336519691 -8.0214305288865191 0 -8.0214305288865191 2.8595567417938419 0 0 0 0 58.783310870473542 -96.242664473184277 0 -96.242664473184277 56.873234693616723 0 0 0 0 91.47822453923618 -92.340403478594681 0 -92.340403478594681 -61.06819457344227 0 0 0 0 7.5204167223805385 -5.3340963212208052 0 -5.3340963212208052 -0.7481176906123892 0 0 0 0 -184.11923246702281 261.94758721767357 0 261.94758721767357 -297.70286843453505 0 0 0 0 11.086524415759413 -13.396170977228849 0 -13.396170977228849 -26.573134252483214 0 0 0 0 89.315321414283062 -26.644303700130877 0 -26.644303700130877 -89.5354793232475 0 0 0 0 -1.4831863816378004 -1.5504262859919979 0 -1.5504262859919979 -1.9164550025659217 0 0 0 0 -482.05597503046647 89.993245435957078 0 89.993245435957078 281.35654106198308 0 0 0 0 86.419255081909796 -40.801444077040742 0 -40.801444077040742 -33.071652385411198 0 0 0 0 60.511311481528537 -14.586500340329167 0 -14.586500340329167 -29.234548032850853 0 0 0 0 13.648847518645198 -14.29712746065843 0 -14.29712746065843 -19.494772974085208 0 0 0 0 -0.94046936530867242 -24.821601225128234 0 -24.821601225128234 -3.2040192311878855 0 0 0 0 13.578511090690881 -31.902204467001411 0 -31.902204467001411 -0.3729983283974434 0 0 0 0 37.062092831947666 -40.633826134370338 0 -40.633826134370338 -29.806893602654782 0 0 0 0 35.222622131739627 -24.668046604022038 0 -24.668046604022038 -14.815138136542373 0 0 0 0 8.9914388070592395 -3.8770375942635837 0 -3.8770375942635837 48.270019225231295 0 0 0 0 11.070932499047103 -5.7796572300154594 0 -5.7796572300154594 7.1840557187024388 0 0 0 0 -7.632594106180477 -25.933225041783317 0 -25.933225041783317 15.655191944955732 0 0 0 0 -2.3848454944238284 -4.6055203679919892 0 -4.6055203679919892 0.85510488902563342 0 0 0 0 1.4500698130318597 -12.453006609343447 0 -12.453006609343447 22.071857062181152 0 0 0 0 -2.3718759092571418 1.7767402613035301 0 1.7767402613035301 7.6664329368728659 0 0 0 0 1.2203572010494099 -11.311550319659545 0 -11.311550319659545 -6.8658811386339949 0 0 0 0 -11.566180619262468 -11.9584135037951 0 -11.9584135037951 9.0984851287603306 0 0 0 0 -2.3824944482176065 -0.94878388449428908 0 -0.94878388449428908 -0.38081854588981745 0 0 0 0 6.0153371022915962 -31.939577617118175 0 -31.939577617118175 50.663889199104005 0 0 0 0 9.8222295073192072 -54.779022580713445 0 -54.779022580713445 93.59092314927625 0 0 0 0 21.30383486978053 -23.491767051340503 0 -23.491767051340503 26.354909564171976 0 0 0 0 -8.890635070611097 -38.414730030822284 0 -38.414730030822284 -79.156818840212964 0 0 0 0 -0.26569485132677073 -86.018325678080146 0 -86.018325678080146 -31.475607793551717 0 0 0 0 -0.60660335908301732 -0.93643571413583615 0 -0.93643571413583615 -0.31148972385638807 0 0 0 0 -80.717273529066006 -9.2878683122298753 0 -9.2878683122298753 -20.682881263154741 0 0 0 0 -37.925376076525936 -51.405228390465254 0 -51.405228390465254 6.653870505485429 0 0 0 0 -4.7195753973928731 -118.77437940697155 0 -118.77437940697155 -72.777015661343285 0 0 0 0 -65.083725838514511 -19.670436424748914 0 -19.670436424748914 -3.6653880721128189 0 0 0 0 -1.6317396000135886 -18.997288362893642 0 -18.997288362893642 -38.758936310317949 0 0 0 0 -63.45142519395813 -56.396278768890625 0 -56.396278768890625 -34.219639915420885 0 0 0 0 -55.799998788177618 -15.857607550428838 0 -15.857607550428838 -19.828934158484117 0 0 0 0 -192.98880886961524 -88.676544551487495 0 -88.676544551487495 -18.944697236840511 0 0 0 0 -143.00285842392623 -68.697296440520404 0 -68.697296440520404 -12.927512984114401 0 0 0 0 -216.27581797557104 -38.338935465598297 0 -38.338935465598297 12.720008922874513 0 0 0 0 0.18302894207844034 -0.21442939652527038 0 -0.21442939652527038 -1.0241070512934556 0 0 0 0 -58.285433581120117 -72.47852888280795 0 -72.47852888280795 -100.78664229762762 0 0 0 0 -47.54813316588843 1.126933491366799 0 1.126933491366799 -3.2776458557827937 0 0 0 0 0.33003967496358655 -1.0375792011866913 0 -1.0375792011866913 -0.17725163693775414 0 0 0 0 -161.59677328170073 -13.238216317910883 0 -13.238216317910883 23.620168118955917 0 0 0 0 -92.762025344224639 -30.333876981506364 0 -30.333876981506364 -8.6489612280001893 0 0 0 0 -108.08039108816001 -8.8203845189975709 0 -8.8203845189975709 -10.068925573912566 0 0 0 0 -124.42745991931588 -54.005265685889754 0 -54.005265685889754 -6.4664384394776562 0 0 0 0 61.092968517854388 -60.477836764299354 0 -60.477836764299354 -60.850039403156188 0 0 0 0 -123.51410315630437 -58.2437537158753 0 -58.2437537158753 4.9140062617407239 0 0 0 0 -1.3073167353062409 -0.46319219951822888 0 -0.46319219951822888 -0.31676156796855626 0 0 0 0 -35.584284110318549 -55.104497457846264 0 -55.104497457846264 -14.636319578492476 0 0 0 0 -41.963978978219529 41.554973493267426 0 41.554973493267426 -21.417367305028165 0 0 0 0 -28.782572605441601 -22.564267702644429 0 -22.564267702644429 59.562903317417295 0 0 0 0 -35.618894244239527 -8.9768770535683871 0 -8.9768770535683871 37.865286743623074 0 0 0 0 -11.819804088547233 -9.4227153128245842 0 -9.4227153128245842 11.275291894123729 0 0 0 0 -20.339889075568863 -17.990791943711884 0 -17.990791943711884 34.304125751657239 0 0 0 0 -6.3024181050095649 -34.951996168408186 0 -34.951996168408186 32.224135030039179 0 0 0 0 -39.071987283591625 -39.881302052231149 0 -39.881302052231149 32.991612280064146 0 0 0 0 -6.4992746851946066 -9.6578692571295992 0 -9.6578692571295992 -5.571835033270947 0 0 0 0 -120.00145330318315 -95.221973349789579 0 -95.221973349789579 82.178384756427477 0 0 0 0 90.908072115609684 -102.05270134887087 0 -102.05270134887087 39.32037520526228 0 0 0 0 -125.9558834840027 21.367076381187871 0 21.367076381187871 55.928369328301414 0 0 0 0 -3.2081393640252962 -1.7628154117099246 0 -1.7628154117099246 1.2787318066021456 0 0 0 0 -81.97134498037849 -7.3341855534858951 0 -7.3341855534858951 1.3576794737396085 0 0 0 0 14.900536752466905 -79.053523785046536 0 -79.053523785046536 84.359404786146115 0 0 0 0 -6.764952287562533 -9.0233273926663706 0 -9.0233273926663706 -10.023769706742403 0 0 0 0 -114.05320453595232 -5.4854630605136663 0 -5.4854630605136663 0.22934178599734878 0 0 0 0 10.698576704347943 -16.789947599496145 0 -16.789947599496145 -40.077934118385201 0 0 0 0 -84.545938158717036 -17.872668385001361 0 -17.872668385001361 -10.341088987393505 0 0 0 0 -6.2966372267744566 -7.2457479623180348 0 -7.2457479623180348 -1.4961940042374113 0 0 0 0 -48.229997736112637 9.763872956074465 0 9.763872956074465 -16.641950679669208 0 0 0 0 -85.571791909391322 5.7298733398031345 0 5.7298733398031345 47.884407628308963 0 0 0 0 -60.244291536648234 16.631201556016322 0 16.631201556016322 -24.704869455270455 0 0 0 0 -89.443025546972422 -8.9022664374333544 0 -8.9022664374333544 9.0191812304183259 0 0 0 0 -80.001438298022549 5.6428398713751449 0 5.6428398713751449 19.298746059174846 0 0 0 0 -4.8387155787833827 -5.3093542009129031 0 -5.3093542009129031 -5.430709431821672 0 0 0 0 106.60870803876196 -84.468347374893938 0 -84.468347374893938 -17.953861547083761 0 0 0 0 -147.96552602991596 63.350516848220877 0 63.350516848220877 -8.5942009187592703 0 0 0 0 43.074256178158976 0.90216229337329423 0 0.90216229337329423 -63.758920236668871 0 0 0 0 30.970341976628333 -34.678459516781004 0 -34.678459516781004 9.1606797166418801 0 0 0 0 55.580792573928193 -101.94796668780236 0 -101.94796668780236 52.014346669281622 0 0 0 0 22.515878266878929 -41.002140284410359 0 -41.002140284410359 11.93473055620143 0 0 0 0 17.945213234432231 -4.9313469480666754 0 -4.9313469480666754 -35.238597644538459 0 0 0 0 7.6153428243160306 12.345846248239923 0 12.345846248239923 -80.652046571951814 0 0 0 0 -94.100429693147817 -44.357158235775842 0 -44.357158235775842 -33.621119283041935 0 0 0 0 15.781892608298676 38.029431280940344 0 38.029431280940344 -15.487011037361299 0 0 0 0 7.4827060962225005 -33.841715834122965 0 -33.841715834122965 -14.856398662705033 0 0 0 0 -16.827678599417595 6.298655310545314 0 6.298655310545314 -15.196622627905526 0 0 0 0 13.13482118198408 -33.441070964676328 0 -33.441070964676328 -14.149782574835768 0 0 0 0 -50.728009344791644 40.917231514640207 0 40.917231514640207 20.766766924143667 0 0 0 0 -34.257073958562614 -16.493313473797343 0 -16.493313473797343 -22.189963850716367 0 0 0 0 -0.99976638800958995 0.52572727480829495 0 0.52572727480829495 0.43374787629570299 0 0 0 0 -5.4469810750106262 15.322922288376049 0 15.322922288376049 -3.2137885274755718 0 0 0 0 19.813587755612843 -1.0539885321635438 0 -1.0539885321635438 -13.100857971247933 0 0 0 0 -0.82386992715517948 -0.49150502916054872 0 -0.49150502916054872 0.044992391396732501 0 0 0 0 0.38628808057092101 -34.008615528322935 0 -34.008615528322935 30.382446963619714 0 0 0 0 0.6821320362275145 -3.4820812572513669 0 -3.4820812572513669 -1.206668552765283 0 0 0 0 -1.5927244262633389 -4.787652243081677 0 -4.787652243081677 0.18958172828051367 0 0 0 0 -1.5027978282814729 -10.502018026460291 0 -10.502018026460291 5.5510247327893012 0 0 0 0 -2.9573739439420024 -4.7512736295250306 0 -4.7512736295250306 -0.10974649668787606 0 0 0 0 -2.0531941378740157 -3.8783179435074544 0 -3.8783179435074544 0.11217030045759202 0 0 0 0 -2.8607115063501638 -2.3932483287617208 0 -2.3932483287617208 -0.69972079354517724 0 0 0 0 1.7013294659348475 -1.6116605950617036 0 -1.6116605950617036 -0.82976322358446097 0 0 0 0 -0.31231638454846689 -3.0521077897897158 0 -3.0521077897897158 -0.64190861024121659 0 0 0 0 -0.004507580630161101 -3.5261515061074533 0 -3.5261515061074533 -0.67073940779118857 0 0 0 0 -0.35178902756524622 -4.6444101043939554 0 -4.6444101043939554 -2.0282200981691858 0 0 0 0 0.33691768875001316 -0.55450330492943367 0 -0.55450330492943367 0.074824207965342282 0 0 0 0 -0.0011900008339580381 -10.997289911786538 0 -10.997289911786538 -7.6784982951439815 0 0 0 0 -0.92869134229385963 -9.082512749901241 0 -9.082512749901241 -11.182158852941029 0 0 0 0 -0.71341852207342527 -6.9707158597464058 0 -6.9707158597464058 -7.3799539787905815 0 0 0 0 4.339683846639673 -3.5662810009664554 0 -3.5662810009664554 -1.7915148749630134 0 0 0 0 39.964243373524369 -14.355559189433734 0 -14.355559189433734 -7.6430434226672332 0 0 0 0 2.9675935814581091 -4.0583816833153641 0 -4.0583816833153641 -1.9648959229934562 0 0 0 0 2.6434786433396305 -2.864784129925404 0 -2.864784129925404 -1.4124425286330595 0 0 0 0 -11.233716101338359 -14.991189733153078 0 -14.991189733153078 -12.710853978217301 0 0 0 0 6.6622043976181828 -5.2736503890613591 0 -5.2736503890613591 -2.648133325806695 0 0 0 0 2.5935447380956838 -0.29630381740454936 0 -0.29630381740454936 -0.91872103357061974 0 0 0 0 -8.3724919836402023 -9.8369840849121317 0 -9.8369840849121317 -4.3529855246524676 0 0 0 0 -7.1320674331184364 -17.633880192425579 0 -17.633880192425579 -13.484256024759816 0 0 0 0 15.615153455223663 -72.17903668633511 0 -72.17903668633511 151.34962609395996 0 0 0 0 0.03134682732525107 -32.226842236379071 0 -32.226842236379071 159.91971619515238 0 0 0 0 -3.2775219989785001 -37.055937456278855 0 -37.055937456278855 252.05683208813525 0 0 0 0 3.3026547458466666 -26.062991682846956 0 -26.062991682846956 119.85456885465555 0 0 0 0 0.37278918819643536 -0.07439418402082687 0 -0.07439418402082687 0.1194996544531135 0 0 0 0 -14.830938594735926 -4.244177104200844 0 -4.244177104200844 -8.3321838086910702 0 0 0 0 14.321436150301452 -40.014761012840609 0 -40.014761012840609 -64.851676374220347 0 0 0 0 17.049456353097412 -66.649122784843939 0 -66.649122784843939 130.25355005040342 0 0 0 0 0.023280297347810119 -14.964794320871761 0 -14.964794320871761 6.3525976840242038 0 0 0 0 -3.1187817980880936 -12.719410756284219 0 -12.719410756284219 24.791356520620411 0 0 0 0 11.495524407024277 -23.821630846820881 0 -23.821630846820881 21.397814759496214 0 0 0 0 0.0055880736121339024 -12.226521576400355 0 -12.226521576400355 10.318221729091874 0 0 0 0 -11.698020613154995 -4.0757970575845377 0 -4.0757970575845377 20.899198668891131 0 0 0 0 -2.3976089144540156 -0.92916754527804457 0 -0.92916754527804457 0.054981275757729264 0 0 0 0 -19.982455940098589 -17.390271608756393 0 -17.390271608756393 21.578142334486984 0 0 0 0 21.201587081795878 -15.371681705643823 0 -15.371681705643823 -6.6673986782845986 0 0 0 0 -1.075950900954922 -6.2438546097278049 0 -6.2438546097278049 -5.608904406964939 0 0 0 0 29.790252854032587 -26.379972168049107 0 -26.379972168049107 7.1799096183225686 0 0 0 0 -10.205673022638834 -3.9605277434213892 0 -3.9605277434213892 0.46533474476356673 0 0 0 0 60.506503776354293 15.794425759021919 0 15.794425759021919 -7.3531295871212023 0 0 0 0 -62.954477578528895 20.696342242964874 0 20.696342242964874 59.908346709379202 0 0 0 0 -61.257879897742214 -1.1150389202400106 0 -1.1150389202400106 13.402885754420822 0 0 0 0 -4.5732569181982399 -15.536700902821678 0 -15.536700902821678 4.3322955997587087 0 0 0 0 -55.072488168050768 -146.16420891005237 0 -146.16420891005237 46.248660480842744 0 0 0 0 -9.5058806377651663 -1.9549825763940749 0 -1.9549825763940749 1.4016516546678695 0 0 0 0 5.5970749829612032 -17.547648879509211 0 -17.547648879509211 55.598895948287009 0 0 0 0 0.72509173601014254 -1.7347605407303686 0 -1.7347605407303686 0.34231785248247215 0 0 0 0 4.4183082817216928 14.363305758002525 0 14.363305758002525 69.967277042763271 0 0 0 0 6.4735260114812263 -24.103565520280881 0 -24.103565520280881 120.55833960062432 0 0 0 0 -2.0398457103960936 -28.762027831513478 0 -28.762027831513478 -29.04779583286836 0 0 0 0 0.85243176447130509 -0.42996429896674471 0 -0.42996429896674471 0.23453634665326728 0 0 0 0 6.095977597719866 -17.617745422527264 0 -17.617745422527264 54.266443220522888 0 0 0 0 2.2279503516328987 -21.00052661143377 0 -21.00052661143377 62.849211813298552 0 0 0 0 -8.6570120456090081 -32.802157298939392 0 -32.802157298939392 17.727268104992163 0 0 0 0 -47.092270247772831 -20.919825417148331 0 -20.919825417148331 21.06279972837342 0 0 0 0 -8.2291309343127068 -38.042724877686851 0 -38.042724877686851 44.597929419857451 0 0 0 0 -8.0926794758015603 -61.367791016885349 0 -61.367791016885349 19.073130261711128 0 0 0 0 -87.300834832174587 -20.034563688333265 0 -20.034563688333265 25.004412264382381 0 0 0 0 -82.983995932696416 -32.842314362583465 0 -32.842314362583465 26.758101814584279 0 0 0 0 -0.16382881702298135 -0.33481655723187487 0 -0.33481655723187487 2.3262091983012319 0 0 0 0 -83.630833087467181 -25.187945144672085 0 -25.187945144672085 35.291615710113547 0 0 0 0 -84.967231358485151 -27.291863999955694 0 -27.291863999955694 33.603625040377665 0 0 0 0 -81.158976668502874 -27.491750401077525 0 -27.491750401077525 30.131412300565898 0 0 0 0 -57.562329234187928 -38.7577795750924 0 -38.7577795750924 28.4781697077633 0 0 0 0 -70.381925507717824 -27.57625824241677 0 -27.57625824241677 28.362578359662621 0 0 0 0 -82.522874048168887 -27.967838061138536 0 -27.967838061138536 33.785370365537347 0 0 0 0 -70.774571964531788 -32.810506166186315 0 -32.810506166186315 28.529311612284175 0 0 0 0 -91.503399746579817 -64.069703538203612 0 -64.069703538203612 -48.928249352143666 0 0 0 0 -3.7997154106079165 0.95759631404195655 0 0.95759631404195655 0.42865602434022843 0 0 0 0 -50.456496781174792 -37.622737457947551 0 -37.622737457947551 17.389490119649054 0 0 0 0 -52.084581762261223 -60.069641185913042 0 -60.069641185913042 -50.416931756220947 0 0 0 0 -66.537294721732906 -41.152636049328976 0 -41.152636049328976 16.911939431543942 0 0 0 0 -84.224603289942024 -38.893103451182469 0 -38.893103451182469 26.614446501535895 0 0 0 0 -75.08138393030822 -36.581239685746368 0 -36.581239685746368 27.132007643895122 0 0 0 0 -83.581279426056426 -38.474555448923638 0 -38.474555448923638 24.560430543260736 0 0 0 0 -84.977885490792687 -44.748862243029407 0 -44.748862243029407 16.484327869698973 0 0 0 0 -73.208500564607675 -38.109472851110695 0 -38.109472851110695 19.819288401744416 0 0 0 0 -95.853013387764804 -42.137889400546555 0 -42.137889400546555 24.916248666890624 0 0 0 0 -84.612681383223389 -43.897487608576284 0 -43.897487608576284 14.851709620232214 0 0 0 0 -90.861305135360453 -47.284946199071783 0 -47.284946199071783 14.305923614337871 0 0 0 0 -73.804497004311997 -44.528984324351768 0 -44.528984324351768 7.8591285037346097 0 0 0 0 -79.22476786642801 -47.567623730898049 0 -47.567623730898049 7.3622442239850443 0 0 0 0 -69.689832598465728 -46.030573848227505 0 -46.030573848227505 4.4096167115208118 0 0 0 0 -67.476387899499969 -41.72062690346138 0 -41.72062690346138 12.052191619190125 0 0 0 0 -73.044148211571155 -48.456313345177477 0 -48.456313345177477 3.9040592223309432 0 0 0 0 -62.649287745298352 -46.183261685073376 0 -46.183261685073376 -0.64941733708752736 0 0 0 0 -54.089829758115229 -35.823134650495376 0 -35.823134650495376 10.601835371187917 0 0 0 0 -69.356647737673484 -44.856245726127781 0 -44.856245726127781 12.676314803284185 0 0 0 0 -85.868191896115604 -21.120528049300447 0 -21.120528049300447 39.956388321666964 0 0 0 0 -74.015899705744232 -25.815808088321319 0 -25.815808088321319 37.960672135504865 0 0 0 0 -84.775462989218795 -23.70920340547741 0 -23.70920340547741 40.821117144454547 0 0 0 0 -84.860346987465164 -23.136511155846847 0 -23.136511155846847 37.117775952918237 0 0 0 0 -90.461450128714205 -28.711877477862799 0 -28.711877477862799 37.793439099692023 0 0 0 0 -86.486017835806706 -30.187652854365297 0 -30.187652854365297 32.883384041574573 0 0 0 0 -91.208727810735581 -31.929751369980295 0 -31.929751369980295 33.757559444322851 0 0 0 0 -90.097765642058221 -26.40409998319592 0 -26.40409998319592 35.84793171075421 0 0 0 0 -92.967318654438714 -35.278436247070431 0 -35.278436247070431 28.084976608215584 0 0 0 0 -99.811029777687509 -40.528959335406398 0 -40.528959335406398 24.484585888962101 0 0 0 0 -101.79690837706858 -43.785387233661766 0 -43.785387233661766 19.531544821591524 0 0 0 0 -100.54373422397293 -30.401333438903464 0 -30.401333438903464 30.024267049124319 0 0 0 0 -94.967680119138095 -36.487782069933019 0 -36.487782069933019 28.775618160549129 0 0 0 0 -99.253582495584851 -33.158456421633673 0 -33.158456421633673 33.828696370305806 0 0 0 0 -93.694304140392887 -26.329520251194936 0 -26.329520251194936 36.272457409839262 0 0 0 0 -99.495902440219652 -35.29325841922855 0 -35.29325841922855 22.77704233104123 0 0 0 0 -107.56575594237074 -28.630444779608297 0 -28.630444779608297 32.093258126549586 0 0 0 0 -89.504736487724585 -23.60630713768478 0 -23.60630713768478 32.313158263434161 0 0 0 0 -86.924234950347454 -18.557748394352529 0 -18.557748394352529 27.095582735408243 0 0 0 0 -89.221922874086886 -15.166691646192248 0 -15.166691646192248 27.391016714369471 0 0 0 0 -85.298253678629408 -28.494251838462787 0 -28.494251838462787 36.502198789861723 0 0 0 0 -69.337067713306169 -16.932310591119858 0 -16.932310591119858 26.744189226023082 0 0 0 0 -157.61718389274756 -8.9050412463868724 0 -8.9050412463868724 18.114599321547757 0 0 0 0 -132.80598327115877 -19.371309911373828 0 -19.371309911373828 30.043776138563771 0 0 0 0 -99.810521828796482 3.7519572229771256 0 3.7519572229771256 18.676388338406468 0 0 0 0 -114.21609466226073 -38.404024733716142 0 -38.404024733716142 25.122123786573866 0 0 0 0 -125.90310064954247 -48.988252427880525 0 -48.988252427880525 15.611427774911135 0 0 0 0 -111.39451205646037 -48.492951630300013 0 -48.492951630300013 7.5770922222291119 0 0 0 0 -137.29974482824036 -47.25700440197852 0 -47.25700440197852 8.7817388715034213 0 0 0 0 -109.75684938203631 -57.093342011642108 0 -57.093342011642108 -13.238558131686659 0 0 0 0 -105.80848123119358 -44.374766975445255 0 -44.374766975445255 8.6273961665119714 0 0 0 0 -113.96412028779741 -49.27686009124227 0 -49.27686009124227 17.433808001681427 0 0 0 0 -96.583050482222461 -52.871135430525101 0 -52.871135430525101 2.0843479889590526 0 0 0 0 -111.32440194092487 -59.728743287313364 0 -59.728743287313364 -0.1243794562506082 0 0 0 0 -112.52779899433153 -75.213509559130216 0 -75.213509559130216 -30.62139204308005 0 0 0 0 -127.33435543251835 -50.938936804523792 0 -50.938936804523792 -15.195840544376551 0 0 0 0 -192.26017159543699 -53.365312265563261 0 -53.365312265563261 -1.7568703424585692 0 0 0 0 -128.15529621465248 -46.608316560151252 0 -46.608316560151252 -2.4742759658875002 0 0 0 0 -131.52477134288347 -60.452683231013907 0 -60.452683231013907 -32.999666311005058 0 0 0 0 -163.72509724296106 -7.4940941877302976 0 -7.4940941877302976 6.3702395640120812 0 0 0 0 -37.132110301448847 -54.038086169894086 0 -54.038086169894086 -51.180354062062179 0 0 0 0 -59.233779383270303 -49.181888444738433 0 -49.181888444738433 -16.965731646952008 0 0 0 0 -62.730088987358613 -52.82179008867206 0 -52.82179008867206 -19.327688415917692 0 0 0 0 -59.297261707368307 -56.310004111861417 0 -56.310004111861417 -24.374791706745327 0 0 0 0 -50.652060022257501 -46.378631397859863 0 -46.378631397859863 -15.104743821459124 0 0 0 0 -55.494229690579232 -52.810906781356607 0 -52.810906781356607 -23.35166851649501 0 0 0 0 -52.570334447926143 -48.132431077294314 0 -48.132431077294314 -14.953939284612716 0 0 0 0 -60.111258445424028 -44.659954728653247 0 -44.659954728653247 -0.74189340203071197 0 0 0 0 -67.173507215164136 -53.46862465227241 0 -53.46862465227241 -11.450820114883754 0 0 0 0 -62.927120651685982 -49.886873383691636 0 -49.886873383691636 -9.2419024290866219 0 0 0 0 -70.152014143255656 -49.983031290798863 0 -49.983031290798863 -5.1355304200551473 0 0 0 0 -73.717128231917741 -52.359874402057358 0 -52.359874402057358 -5.3947300432846532 0 0 0 0 -83.160147654794855 -53.310748663822778 0 -53.310748663822778 -0.72286619524675189 0 0 0 0 -83.157686599501176 -52.039164398713183 0 -52.039164398713183 -0.8492405774971985 0 0 0 0 -95.801606703840662 -53.708698824105795 0 -53.708698824105795 5.9540282888701768 0 0 0 0 -97.769669272500323 -53.82002293279038 0 -53.82002293279038 5.9938236441857953 0 0 0 0 -85.843509301790618 -56.550142786213655 0 -56.550142786213655 -8.4252719297965086 0 0 0 0 -92.970827572833514 -63.935997676826446 0 -63.935997676826446 -19.732715981564979 0 0 0 0 -87.965106293093413 -56.395883562989184 0 -56.395883562989184 -8.4042072584418293 0 0 0 0 -82.318546201655408 -60.712328878413246 0 -60.712328878413246 -13.585310610919237 0 0 0 0 -75.585037902055774 -57.022522840154124 0 -57.022522840154124 -13.783648311826255 0 0 0 0 -69.950987531159626 -57.07236777926073 0 -57.07236777926073 -23.286436173426409 0 0 0 0 -87.166103770941845 -69.373622485324631 0 -69.373622485324631 -31.414171637787149 0 0 0 0 -88.968389331013896 -59.515571791847833 0 -59.515571791847833 -20.217554830461381 0 0 0 0 -67.919112523770309 -61.145986523317788 0 -61.145986523317788 -30.187288873719808 0 0 0 0 -28.187690800157725 -48.645212506295593 0 -48.645212506295593 -51.173923453083717 0 0 0 0 0.16781437591998838 -25.068059093096963 0 -25.068059093096963 -43.820283320630551 0 0 0 0 -18.516999007166305 -42.142595369742594 0 -42.142595369742594 -50.37358597507864 0 0 0 0 8.510156769923924 -19.922719823919124 0 -19.922719823919124 -41.139469455555627 0 0 0 0 35.224278364752536 5.7232728238677737 0 5.7232728238677737 -16.52603176409707 0 0 0 0 -4.7703844667266821 -17.874801445501362 0 -17.874801445501362 -16.797963992805307 0 0 0 0 -15.787494272604818 -30.381323276687908 0 -30.381323276687908 -18.611381288979146 0 0 0 0 -15.784588725686262 -30.8355388597098 0 -30.8355388597098 -25.301194541489167 0 0 0 0 -23.259096954541747 -42.236989921859276 0 -42.236989921859276 -45.056466149867106 0 0 0 0 -46.659266318805749 -51.058938991556715 0 -51.058938991556715 -27.619111245627209 0 0 0 0 -10.283287701546215 -28.899616523542136 0 -28.899616523542136 -33.721450635661313 0 0 0 0 -20.179316784619004 -28.652616395446785 0 -28.652616395446785 -10.015211501503472 0 0 0 0 -35.775791693624342 -40.92050952084719 0 -40.92050952084719 -19.61024858109613 0 0 0 0 -51.308077444293303 -44.358358578228945 0 -44.358358578228945 -4.1998856223272014 0 0 0 0 -35.780007759708496 -40.487022097919485 0 -40.487022097919485 -19.378730144493602 0 0 0 0 -43.264046469654204 -37.996766175719131 0 -37.996766175719131 3.7794903574322234 0 0 0 0 -43.980978561958182 -42.089438757302105 0 -42.089438757302105 -3.7774633958010781 0 0 0 0 -15.535711683420232 -23.774889457700283 0 -23.774889457700283 7.8315272197251034 0 0 0 0 -49.386534530138306 -27.599022160693039 0 -27.599022160693039 23.008902979077448 0 0 0 0 12.819802315607376 -9.3658312299312456 0 -9.3658312299312456 33.083461170863643 0 0 0 0 17.477880596896284 4.2979807208912462 0 4.2979807208912462 11.786545486681916 0 0 0 0 -13.136446129487013 -29.416009544967892 0 -29.416009544967892 20.584676618436788 0 0 0 0 38.90815323816787 12.28650683802698 0 12.28650683802698 -11.839731393792135 0 0 0 0 0.81946291165513685 -189.35088945251709 0 -189.35088945251709 -250.73569380634945 0 0 0 0 71.067644603568169 214.43705939621208 0 214.43705939621208 -7.7393056926644022 0 0 0 0 -141.93639600939423 8.9202091032752833 0 8.9202091032752833 35.558087156423426 0 0 0 0 -114.96691408439438 -10.35870996490371 0 -10.35870996490371 22.827674156519151 0 0 0 0 -110.99186986074892 -26.345132363185712 0 -26.345132363185712 16.966196182786916 0 0 0 0 -151.40496950474517 -34.377397761290126 0 -34.377397761290126 35.703461852936925 0 0 0 0 -105.39039458610569 -60.284952967106847 0 -60.284952967106847 -23.364186438673187 0 0 0 0 -45.564336818804804 -31.062687399956076 0 -31.062687399956076 -20.24779684645182 0 0 0 0 -43.883307968222653 158.47129952284899 0 158.47129952284899 121.70332682052776 0 0 0 0 -8.6595498833994498 5.9418143822758793 0 5.9418143822758793 -31.212769859959167 0 0 0 0 38.58299182333576 114.28361369482445 0 114.28361369482445 -61.537724700540821 0 0 0 0 -2.5079894573521173 1.4153932077216353 0 1.4153932077216353 -0.20897515875496442 0 0 0 0 -72.097007653010223 58.800870834947546 0 58.800870834947546 79.489652564859171 0 0 0 0 -221.47554792347364 -67.067247443679662 0 -67.067247443679662 -31.361387931771787 0 0 0 0 -385.12267744400015 14.389960285804591 0 14.389960285804591 4.7301818451451254 0 0 0 0 -453.02815961877059 486.51208022539777 0 486.51208022539777 -178.9030240146717 0 0 0 0 -33.405028238401428 28.65757952818926 0 28.65757952818926 14.0546430468859 0 0 0 0 -2.9002784453864177 -5.0484404501217384 0 -5.0484404501217384 10.018319093270987 0 0 0 0 -2.0047239871914044 0.74514183951530111 0 0.74514183951530111 5.4625994905770758 0 0 0 0 17.476317416007078 -42.328617715617384 0 -42.328617715617384 57.926460118532759 0 0 0 0 -1.9955530199385976 -3.6688313786820856 0 -3.6688313786820856 -67.501861147360273 0 0 0 0 -349.08888082303747 -130.56230698617446 0 -130.56230698617446 187.33267741744021 0 0 0 0 26.440820666633954 -15.992500500151692 0 -15.992500500151692 -55.121691139981522 0 0 0 0 0.42557070012117038 -35.251591030827399 0 -35.251591030827399 55.297138066168941 0 0 0 0 -62.140974247575286 -24.771218140068243 0 -24.771218140068243 70.486475533068187 0 0 0 0 -7.88321529078803 -7.1777559578225691 0 -7.1777559578225691 3.0919742531677912 0 0 0 0 -5.5055683268598763 -2.6676623077722077 0 -2.6676623077722077 6.4107121471683293 0 0 0 0 -6.2207660209907587 -8.9412738868614721 0 -8.9412738868614721 2.2778838925471927 0 0 0 0 -8.21530054001596 -3.3886762605887952 0 -3.3886762605887952 22.094517097962978 0 0 0 0 -24.767023980441536 -27.128114180931576 0 -27.128114180931576 14.978441893077274 0 0 0 0 -10.558773547028977 2.6918480540680889 0 2.6918480540680889 22.487911972929851 0 0 0 0 -15.272915006458561 -19.274351498852841 0 -19.274351498852841 3.1465572755412268 0 0 0 0 -15.756624106412346 -6.6735388059121874 0 -6.6735388059121874 28.481682228981413 0 0 0 0 -28.191858815167507 -17.764738099907476 0 -17.764738099907476 29.99022371076785 0 0 0 0 -6.6008665194183678 0.89098442751842555 0 0.89098442751842555 12.192480031685337 0 0 0 0 -12.113942768324705 -6.4918739699780872 0 -6.4918739699780872 17.703344879898395 0 0 0 0 -13.094430461882894 -2.9383121769887453 0 -2.9383121769887453 51.31299714533634 0 0 0 0 -2.3924585306969419 -5.8740145843044438 0 -5.8740145843044438 6.7508192728994247 0 0 0 0 -17.279966757228976 -3.5614068285250866 0 -3.5614068285250866 20.230687862842316 0 0 0 0 73.325735151078334 32.615868508921494 0 32.615868508921494 -75.023706101588687 0 0 0 0 -61.177958282489271 261.69178025057454 0 261.69178025057454 -128.83736468785628 0 0 0 0 -156.1502568036376 -12.008066328053701 0 -12.008066328053701 7.9811024762348097 0 0 0 0 -54.23406817833893 0.50562699738384254 0 0.50562699738384254 12.959259760051282 0 0 0 0 -48.039646454366448 -37.861652216065636 0 -37.861652216065636 34.808272379988011 0 0 0 0 -41.510917949777649 -22.847846207362863 0 -22.847846207362863 15.593657322637227 0 0 0 0 -60.139889609334205 -33.884332614956747 0 -33.884332614956747 37.210509095488305 0 0 0 0 -67.038771156032453 -21.190803944693471 0 -21.190803944693471 31.542741448872221 0 0 0 0 -59.840022453165147 -13.87554209591508 0 -13.87554209591508 37.722177988625845 0 0 0 0 -72.842425894807093 -21.830143974602834 0 -21.830143974602834 51.252603871070278 0 0 0 0 -21.305111808958372 6.031288635064243 0 6.031288635064243 27.222492135736502 0 0 0 0 0.82320955787145067 6.7932769404017961 0 6.7932769404017961 3.0325409838198993 0 0 0 0 -3.0249549553591599 2.5474359974922507 0 2.5474359974922507 10.432206175956564 0 0 0 0 -65.661055417112948 -27.471630466619445 0 -27.471630466619445 22.445178819192733 0 0 0 0 -14.494443402218167 1.4696499320986618 0 1.4696499320986618 2.5599855249324719 0 0 0 0 -58.028245745061213 -23.042022788408985 0 -23.042022788408985 24.913718610697288 0 0 0 0 -24.806851824600017 39.385264857039147 0 39.385264857039147 138.06642917958015 0 0 0 0 -7.005095990023392 0.15276452140987473 0 0.15276452140987473 12.313765212781519 0 0 0 0 -1.8896105484118024 -1.6877939724061051 0 -1.6877939724061051 5.3684000888911871 0 0 0 0 17.94199845991352 20.97094857053969 0 20.97094857053969 10.501670249219387 0 0 0 0 3.9395334173896117 17.278560675389372 0 17.278560675389372 15.662284408538426 0 0 0 0 0.70736002004878173 4.1148522475511982 0 4.1148522475511982 1.6687620826005514 0 0 0 0 4.8261051852568926 8.8354094637260516 0 8.8354094637260516 5.3509710221451314 0 0 0 0 -2.3250630176480627 10.65466326658543 0 10.65466326658543 9.1724214175644647 0 0 0 0 -16.460654290722232 15.18787736010924 0 15.18787736010924 9.0522093733495694 0 0 0 0 0.053121915756157989 2.1548239911979898 0 2.1548239911979898 10.180216241593209 0 0 0 0 -14.5596792778706 13.460009887314513 0 13.460009887314513 28.835713084930148 0 0 0 0 -0.018488929996125947 1.5367446144040393 0 1.5367446144040393 0.28424997208393421 0 0 0 0 -4.7902076443806436 2.3542864142553412 0 2.3542864142553412 10.256417804851935 0 0 0 0 16.311659336091907 -8.8095981596913475 0 -8.8095981596913475 7.6277266767708625 0 0 0 0 16.032267021986627 -26.312283457976491 0 -26.312283457976491 7.6965037941183141 0 0 0 0 7.0128514791131238 13.677664093471776 0 13.677664093471776 -8.0791905174828571 0 0 0 0 16.903902991949508 -49.06557006100671 0 -49.06557006100671 90.840286934804624 0 0 0 0 40.13247493691415 -3.6785060456510195 0 -3.6785060456510195 -90.53189151500851 0 0 0 0 -0.14881355302953914 -0.47865948152454507 0 -0.47865948152454507 0.46343788808594666 0 0 0 0 -5.887562867221277 -26.824587318094501 0 -26.824587318094501 121.43523604536836 0 0 0 0 2.7485614154667815 -66.842820996442143 0 -66.842820996442143 136.1515996558162 0 0 0 0 3.0719760421015962 -46.763697989273226 0 -46.763697989273226 101.35900626372052 0 0 0 0 -5.5112325499267172 0.72358220363645387 0 0.72358220363645387 6.4288132141898586 0 0 0 0 42.307641931929538 -52.808397208062274 0 -52.808397208062274 151.47487608827365 0 0 0 0 0.16307326806673217 1.1227707622508198 0 1.1227707622508198 5.6140117281042388 0 0 0 0 42.520954331526923 -33.304359861151489 0 -33.304359861151489 82.525039503523161 0 0 0 0 6.1493669092051277 3.0277417622836538 0 3.0277417622836538 -3.9766380918540563 0 0 0 0 91.711620684192894 -57.354846197723504 0 -57.354846197723504 36.224454317098491 0 0 0 0 238.35724594009298 -194.85448549615444 0 -194.85448549615444 71.674898345896509 0 0 0 0 0.0065319020883976009 -0.47424843274628969 0 -0.47424843274628969 1.1097805502165683 0 0 0 0 235.52733080306643 -200.00687919257518 0 -200.00687919257518 106.2697979688146 0 0 0 0 71.107931210879542 -158.31882557580204 0 -158.31882557580204 135.80821190208644 0 0 0 0 191.17032084826496 -102.03570272613359 0 -102.03570272613359 46.071367939214042 0 0 0 0 96.220903810056825 -122.32518904025164 0 -122.32518904025164 81.317771093093256 0 0 0 0 84.004257623129888 -159.84341219008917 0 -159.84341219008917 181.71609503461696 0 0 0 0 27.773750229709549 -95.61017005682929 0 -95.61017005682929 71.610473505836694 0 0 0 0 30.998389537097864 -86.602829212115196 0 -86.602829212115196 96.237310897820549 0 0 0 0 32.738439020714168 -88.391875188325059 0 -88.391875188325059 97.114963803249196 0 0 0 0 93.469487464283247 -112.43208618823296 0 -112.43208618823296 86.103682353595531 0 0 0 0 34.971787083093659 -76.949821085278046 0 -76.949821085278046 73.529978245583692 0 0 0 0 51.035920518297644 -53.200708873552401 0 -53.200708873552401 87.723855189166045 0 0 0 0 3.8757493578941649 -82.766246426687701 0 -82.766246426687701 107.42249239797673 0 0 0 0 2.8858349738566176 -72.18833140286884 0 -72.18833140286884 108.82566603665907 0 0 0 0 -10.241028347427346 -88.772375133113911 0 -88.772375133113911 100.23684642316175 0 0 0 0 1.1692625291566401 -73.177049216343306 0 -73.177049216343306 42.296557601548045 0 0 0 0 -4.2450657568297174 -89.194262781421173 0 -89.194262781421173 101.35899533897269 0 0 0 0 31.328028684358287 -104.99755226404805 0 -104.99755226404805 8.0336750782124113 0 0 0 0 -1.9036691358471671 -46.082689451566466 0 -46.082689451566466 73.98090711125738 0 0 0 0 14.806853531659954 -49.120243408947942 0 -49.120243408947942 124.16169887108407 0 0 0 0 24.819596131625985 -98.626133366219022 0 -98.626133366219022 138.10964086124602 0 0 0 0 -1.0435990517635219 6.7654935997899202 0 6.7654935997899202 177.33602697772491 0 0 0 0 -1.4465475873657851 -2.6414940875861816 0 -2.6414940875861816 37.279248159141844 0 0 0 0 0.55349607810285306 -0.50357307628251746 0 -0.50357307628251746 0.17900270575410238 0 0 0 0 -37.676585237199106 -20.242783221826357 0 -20.242783221826357 -37.049519803419116 0 0 0 0 -14.811935251149407 -114.43085916231058 0 -114.43085916231058 -5.5974879877758212 0 0 0 0 -22.248459458454363 -123.0826308583177 0 -123.0826308583177 100.16826452130977 0 0 0 0 -8.2180395920404408 -54.548050190804759 0 -54.548050190804759 48.939961374377162 0 0 0 0 4.110150473399699 -73.389957144088498 0 -73.389957144088498 76.056458177300385 0 0 0 0 4.9773403226536175 -72.621283267407193 0 -72.621283267407193 127.5936153934134 0 0 0 0 1.7915947912879346 -62.943322690592538 0 -62.943322690592538 101.92936306806075 0 0 0 0 7.8865089283490306 -77.757191836236331 0 -77.757191836236331 110.71506451261763 0 0 0 0 -17.646773030612167 -76.095617882172121 0 -76.095617882172121 146.34545918063293 0 0 0 0 -6.0646731762644777 -85.363142282004674 0 -85.363142282004674 108.01891706623512 0 0 0 0 7.2288083380349235 -71.80048673960917 0 -71.80048673960917 88.370470152089752 0 0 0 0 7.0252185482113418 -68.740310558312757 0 -68.740310558312757 109.26387189670496 0 0 0 0 29.838807387723591 -116.40347548328252 0 -116.40347548328252 101.82429239839944 0 0 0 0 12.04403089954485 -83.515359523035073 0 -83.515359523035073 113.12822941558267 0 0 0 0 7.777770916778536 -86.550498855071453 0 -86.550498855071453 114.89359409070052 0 0 0 0 0.0076396166587073822 -82.911789586639827 0 -82.911789586639827 119.01733521849064 0 0 0 0 11.998992477123466 -79.323040620333416 0 -79.323040620333416 118.32849885230969 0 0 0 0 0.012657247676543193 -76.884480868889682 0 -76.884480868889682 127.1777021702253 0 0 0 0 10.55240330514971 -82.113829404551609 0 -82.113829404551609 117.82086118723146 0 0 0 0 19.029128377002053 -72.494886238499589 0 -72.494886238499589 114.3299813411511 0 0 0 0 15.809436830033064 -60.161739427672714 0 -60.161739427672714 139.76013672380873 0 0 0 0 -62.086765934365758 -72.589568133277339 0 -72.589568133277339 -4.1669971637147682 0 0 0 0 -138.80619370890145 -39.363741902265474 0 -39.363741902265474 33.093617661012104 0 0 0 0 -59.706304322588039 -50.783717649133905 0 -50.783717649133905 -12.489487924487662 0 0 0 0 -41.039928000521286 -73.726489796717487 0 -73.726489796717487 -11.232699645748653 0 0 0 0 -31.795536992009147 -58.747307984441704 0 -58.747307984441704 4.3487222661178748 0 0 0 0 -23.055520350462075 -53.311537317823792 0 -53.311537317823792 15.074704932710119 0 0 0 0 -24.171800430944131 -63.084178986703591 0 -63.084178986703591 -2.689648486149963 0 0 0 0 -25.610023005716357 -49.207270815449647 0 -49.207270815449647 9.1108316309720081 0 0 0 0 -49.114253725570961 -63.94187688177135 0 -63.94187688177135 12.871489196845687 0 0 0 0 -35.988547421729891 -73.098026069074649 0 -73.098026069074649 16.107723906795854 0 0 0 0 -41.656609444829883 -52.362451678419347 0 -52.362451678419347 14.414315571277712 0 0 0 0 -22.510248822625726 -71.823305327599428 0 -71.823305327599428 2.9615962486680019 0 0 0 0 -28.736080302582195 -62.612644637790709 0 -62.612644637790709 36.262841485812714 0 0 0 0 -22.017489135268988 -61.298074931336487 0 -61.298074931336487 14.726909589928667 0 0 0 0 -2.1832114756462033 -79.440014883076174 0 -79.440014883076174 16.303891606394245 0 0 0 0 18.407003533126044 -68.395288283270474 0 -68.395288283270474 19.821498483909892 0 0 0 0 7.3308891622546071 -66.909708853620032 0 -66.909708853620032 19.839515589919252 0 0 0 0 -10.467139785761901 -62.103777269117472 0 -62.103777269117472 39.911175674935294 0 0 0 0 -0.41662753521814011 -57.530895856589723 0 -57.530895856589723 40.253811857650362 0 0 0 0 -1.4797196260060446 -54.053339098387369 0 -54.053339098387369 50.594738370207779 0 0 0 0 0.027246387167906505 -54.788974610961986 0 -54.788974610961986 36.566831747497417 0 0 0 0 -15.415012862245021 -63.402465365380976 0 -63.402465365380976 46.954024538168596 0 0 0 0 -24.029979456034198 -44.593582699460512 0 -44.593582699460512 67.005110459675677 0 0 0 0 -6.01580500356431 -57.538537880944205 0 -57.538537880944205 37.179130930101564 0 0 0 0 -13.546240377130744 -56.750511367727086 0 -56.750511367727086 63.691021079629991 0 0 0 0 -42.879584354735925 -29.010215904624147 0 -29.010215904624147 68.717385555848523 0 0 0 0 -16.968356595837577 -46.919100679590201 0 -46.919100679590201 47.331183658235204 0 0 0 0 -59.102307018078136 -47.66671088201565 0 -47.66671088201565 47.343531236339913 0 0 0 0 -77.337795776873463 -30.46154139074315 0 -30.46154139074315 55.608118553874192 0 0 0 0 -43.873274852896429 -35.411011670486459 0 -35.411011670486459 32.621631971804049 0 0 0 0 -29.94873535410261 -17.1559093558119 0 -17.1559093558119 59.185350462322276 0 0 0 0 -56.204011567024281 -1.103818776312437 0 -1.103818776312437 57.972567883835836 0 0 0 0 -36.198416030061708 17.38968977107038 0 17.38968977107038 69.32490081731612 0 0 0 0 -49.78068014038945 42.159265821669578 0 42.159265821669578 30.386560340775986 0 0 0 0 15.464999570969667 -46.710208758199769 0 -46.710208758199769 81.619433290130473 0 0 0 0 1.4172501108511923 1.0072131431001417 0 1.0072131431001417 -1.0039775052415791 0 0 0 0 -22.857600025112333 28.294185068677507 0 28.294185068677507 51.249220469874672 0 0 0 0 5.2984047660411306 2.9130316604964719 0 2.9130316604964719 8.4131232930508304 0 0 0 0 -71.882865152286854 6.3902615785250987 0 6.3902615785250987 70.475513312627299 0 0 0 0 -5.3820469091221916 -2.7795146082691495 0 -2.7795146082691495 15.649032921013182 0 0 0 0 -15.29951102115956 -0.69472084093058584 0 -0.69472084093058584 32.243061721783761 0 0 0 0 0.12005016600778617 -3.4146624431841843 0 -3.4146624431841843 -0.76386368103862878 0 0 0 0 -9.394272351924883 -6.3985022451238365 0 -6.3985022451238365 19.308840221899345 0 0 0 0 -17.530198511552953 13.095113401354865 0 13.095113401354865 24.266865207148385 0 0 0 0 -8.4328545571388531 7.7807037269299144 0 7.7807037269299144 -4.3400935689614926 0 0 0 0 -1.3594163745473011 0.59114911792128311 0 0.59114911792128311 3.2485332162834508 0 0 0 0 -15.31259402789874 3.7215952459978325 0 3.7215952459978325 17.129115494519283 0 0 0 0 -13.289660256163188 13.25362598620859 0 13.25362598620859 11.367215479368724 0 0 0 0 12.909760164183353 16.745382745423854 0 16.745382745423854 26.037207857350495 0 0 0 0 -14.500987216113572 11.805574501980118 0 11.805574501980118 41.914344394636373 0 0 0 0 -19.738598903335287 -4.3299876580492196 0 -4.3299876580492196 99.207336753368054 0 0 0 0 -0.65446452554802903 -0.20423827257268456 0 -0.20423827257268456 -0.3325640403639154 0 0 0 0 12.128939618050936 8.144599794630949 0 8.144599794630949 23.252737624743986 0 0 0 0 0.049476780499060347 0.61762681559938315 0 0.61762681559938315 0.33478017777959224 0 0 0 0 -34.816881470707813 3.099657367623422 0 3.099657367623422 8.4446870057202261 0 0 0 0 -99.004661176648824 68.758310690676865 0 68.758310690676865 -54.393585931266898 0 0 0 0 -7.8217265023704385 39.190770488156886 0 39.190770488156886 -26.861760186782703 0 0 0 0 -23.098001835996911 45.457831594984327 0 45.457831594984327 40.470067760849588 0 0 0 0 11.698482434684593 -10.191664445089486 0 -10.191664445089486 -12.726807911456035 0 0 0 0 -111.5253133110582 -97.908367818623447 0 -97.908367818623447 142.92934336163307 0 0 0 0 -0.24866623804940957 -0.40680963699707817 0 -0.40680963699707817 -0.16584459563111764 0 0 0 0 -136.31396446783765 16.128196367816031 0 16.128196367816031 -16.880888889919731 0 0 0 0 -51.646035467230831 -96.422976535091493 0 -96.422976535091493 -141.02969653637035 0 0 0 0 -15.012556602141558 25.340862626291937 0 25.340862626291937 -137.47929940392783 0 0 0 0 -111.69792251457829 -56.316505547772039 0 -56.316505547772039 -142.84204252274935 0 0 0 0 1.4115845479645941 25.026136179891182 0 25.026136179891182 3.4717687036127245 0 0 0 0 10.060245594377193 -15.92078058177799 0 -15.92078058177799 -4.1746862282362827 0 0 0 0 8.2370078183357691 7.1983409347426459 0 7.1983409347426459 -33.784518985337399 0 0 0 0 -20.472632766261086 -9.5459337181664523 0 -9.5459337181664523 -24.492441933494092 0 0 0 0 4.8209732933755731 -31.937459748140554 0 -31.937459748140554 -56.261216544504869 0 0 0 0 5.3193236967272242 3.293027944526898 0 3.293027944526898 -55.494749547169704 0 0 0 0 0.048966490836740428 0.6013979164751504 0 0.6013979164751504 1.2194088546835493 0 0 0 0 29.081547043917453 -13.734613119474375 0 -13.734613119474375 -40.68247150816228 0 0 0 0 16.54843817339497 -6.5094186809926669 0 -6.5094186809926669 -26.96491301611286 0 0 0 0 -103.00483673669805 -32.295348115751722 0 -32.295348115751722 34.839069193055821 0 0 0 0 -23.777354148602171 -15.1681311680818 0 -15.1681311680818 -12.34284039083559 0 0 0 0 -46.751368376990285 -58.993526497541779 0 -58.993526497541779 27.94338528272192 0 0 0 0 -68.559729017055361 -20.634142140561835 0 -20.634142140561835 -9.0916518162721331 0 0 0 0 -3.7540546285790697 -38.917337432647912 0 -38.917337432647912 -71.98065862975136 0 0 0 0 -4.259548610465572 -41.064118203016733 0 -41.064118203016733 -33.772236100571035 0 0 0 0 -31.656057410444191 -62.181628264115488 0 -62.181628264115488 -21.834545922254165 0 0 0 0 -18.03402323233513 -45.410279763930447 0 -45.410279763930447 -32.633798522060715 0 0 0 0 -32.447036741772536 -71.137576199474893 0 -71.137576199474893 34.246733358607116 0 0 0 0 -26.791473795321508 -99.670704012723604 0 -99.670704012723604 -42.135649391618756 0 0 0 0 -60.127524968087528 -99.279052357844648 0 -99.279052357844648 146.68551670493548 0 0 0 0 -38.537721468817836 -82.516282613595365 0 -82.516282613595365 77.266683899636973 0 0 0 0 -29.87351242748673 -60.691874547920008 0 -60.691874547920008 35.196667897710313 0 0 0 0 -7.2164728972347802 -5.1237766112586201 0 -5.1237766112586201 7.0920164543658757 0 0 0 0 -116.86801035069993 -52.408904132873793 0 -52.408904132873793 63.350643085176671 0 0 0 0 -0.1763043818988006 0.71591524501120674 0 0.71591524501120674 2.1798911889389387 0 0 0 0 -78.278827592876041 -75.048251845122195 0 -75.048251845122195 73.180663901421212 0 0 0 0 -55.025267810073274 -53.896449125063782 0 -53.896449125063782 29.563846900090368 0 0 0 0 -74.069778275879798 -62.089729044683963 0 -62.089729044683963 140.70929180816717 0 0 0 0 -93.429055834334577 -81.296905474549931 0 -81.296905474549931 71.990424727427126 0 0 0 0 -72.857958947835868 -55.781600458201751 0 -55.781600458201751 78.777462984025988 0 0 0 0 -96.935128777615319 -63.06703197638376 0 -63.06703197638376 25.591677325484852 0 0 0 0 -271.27066265184658 93.155069886190873 0 93.155069886190873 -26.693604246420591 0 0 0 0 -0.96882481474202109 -0.78696859097685135 0 -0.78696859097685135 -0.78304938530612667 0 0 0 0 -60.102835587482332 -38.362441507256449 0 -38.362441507256449 -11.468335777047741 0 0 0 0 -197.32962047722776 -103.48122280501431 0 -103.48122280501431 -40.887394666622185 0 0 0 0 -102.786259385417 -102.52158429597205 0 -102.52158429597205 61.620462483940514 0 0 0 0 -26.937895923844735 -18.228223756844642 0 -18.228223756844642 128.1830588467426 0 0 0 0 -71.923591901044347 -38.852670799082034 0 -38.852670799082034 117.72419361296193 0 0 0 0 -50.184033039801079 44.984784506233822 0 44.984784506233822 -34.613899706518851 0 0 0 0 -92.944384537539008 64.112132823716138 0 64.112132823716138 129.32352150446928 0 0 0 0 -4.3484965611976882 -4.1178558526810249 0 -4.1178558526810249 -3.9597106355233471 0 0 0 0 -171.77896963748901 -66.172571871642845 0 -66.172571871642845 76.664460718943246 0 0 0 0 -137.48323700196738 166.58468469893126 0 166.58468469893126 -87.453759776338529 0 0 0 0 -2.6773378022378758 -1.6105134591981525 0 -1.6105134591981525 -0.39838701174332769 0 0 0 0 -169.56300818664204 286.53740894565601 0 286.53740894565601 -111.56623764982464 0 0 0 0 -90.400117910519839 -209.76838229106079 0 -209.76838229106079 -96.678150370936237 0 0 0 0 36.189834356770724 -16.524852000317125 0 -16.524852000317125 -0.40679862847673576 0 0 0 0 -7.3504997261916287 -105.54281425118916 0 -105.54281425118916 -55.774053270978868 0 0 0 0 -33.371616984133652 -62.370872507112324 0 -62.370872507112324 -22.769921851061099 0 0 0 0 35.960721991979881 -72.708714752861169 0 -72.708714752861169 -48.064924307452657 0 0 0 0 -0.97889452550792555 -0.98280173177641572 0 -0.98280173177641572 -1.5862699624292818 0 0 0 0 -191.79207231198893 -82.730440488368714 0 -82.730440488368714 3.9485857598951952 0 0 0 0 -169.99810631290347 3.423893674636588 0 3.423893674636588 4.2386343925501251 0 0 0 0 -0.57374556857575953 -40.341679856419091 0 -40.341679856419091 -13.330232016396621 0 0 0 0 -6.6194543128744954 -34.419856202797007 0 -34.419856202797007 18.159399786627091 0 0 0 0 -13.805124473659816 -57.031718340337648 0 -57.031718340337648 -30.287872531627727 0 0 0 0 -3.518263605541506 -24.444582355785769 0 -24.444582355785769 -8.9501312936995419 0 0 0 0 -4.6986707418454898 -32.082655692026492 0 -32.082655692026492 4.9502394313776676 0 0 0 0 8.8633082649212156 -20.824761384619137 0 -20.824761384619137 5.1079323205506899 0 0 0 0 2.7612940243775483 -11.631530917725797 0 -11.631530917725797 17.943682559277022 0 0 0 0 12.372399141223468 -19.030026353462404 0 -19.030026353462404 7.2572701961880739 0 0 0 0 -1.6188337243545448 -20.361067863599601 0 -20.361067863599601 16.821396402071514 0 0 0 0 9.8019046893250561 -15.290143994654727 0 -15.290143994654727 19.590499808046729 0 0 0 0 6.9854267804894334 -17.434944772116367 0 -17.434944772116367 17.958950936634707 0 0 0 0 8.6854689603496809 -13.921332062010293 0 -13.921332062010293 18.412866386223982 0 0 0 0 6.6176855300200259 -20.468914334598168 0 -20.468914334598168 43.167145474398012 0 0 0 0 6.8999228361790301 -24.421135966484403 0 -24.421135966484403 30.757312818536963 0 0 0 0 21.317287151881828 -40.082719534472631 0 -40.082719534472631 32.103254551000987 0 0 0 0 21.734479929737688 -28.120520094007578 0 -28.120520094007578 17.689580033941063 0 0 0 0 14.982681773008153 -21.771392580887493 0 -21.771392580887493 11.771997395944652 0 0 0 0 11.659826477708066 -19.333154420092086 0 -19.333154420092086 9.6375798276378646 0 0 0 0 11.872572767299062 -21.058563262094765 0 -21.058563262094765 20.122727037695427 0 0 0 0 13.011021258966139 -22.686309631390685 0 -22.686309631390685 11.855531541786434 0 0 0 0 16.591144489975704 -18.289746911087661 0 -18.289746911087661 5.2286825880542835 0 0 0 0 12.260142976932002 -16.098429362827432 0 -16.098429362827432 17.492244666084048 0 0 0 0 12.02384463605631 -26.277145387407188 0 -26.277145387407188 0.86042109346726647 0 0 0 0 11.75623894661112 -23.784330825395983 0 -23.784330825395983 3.7799362397672667 0 0 0 0 11.832674474326268 -22.735029378171326 0 -22.735029378171326 0.6257456199903686 0 0 0 0 19.217578753616181 -23.026889621727946 0 -23.026889621727946 29.821977609733494 0 0 0 0 24.116691688924675 -12.731085839515572 0 -12.731085839515572 11.096257975173785 0 0 0 0 10.187668380525793 -16.029114759938011 0 -16.029114759938011 17.584859916705739 0 0 0 0 -96.859905243847606 22.708557237515016 0 22.708557237515016 -0.010749707090042193 0 0 0 0 -44.876909170287945 -37.034658811133866 0 -37.034658811133866 6.5464806123770245 0 0 0 0 -112.51586322463663 -41.817739850114606 0 -41.817739850114606 6.2751086609065325 0 0 0 0 -3.5401965409246259 -12.14074782887019 0 -12.14074782887019 4.8587574269876086 0 0 0 0 5.8018788762731219 -41.908217823401486 0 -41.908217823401486 -19.015404963602464 0 0 0 0 10.206335109537576 -37.391482884508861 0 -37.391482884508861 38.749094359260312 0 0 0 0 -12.99188395268618 -53.566987538265259 0 -53.566987538265259 -67.720277140740961 0 0 0 0 -83.232036401215737 12.629104853500792 0 12.629104853500792 20.667913671442875 0 0 0 0 -96.886576932535945 -54.515270533206987 0 -54.515270533206987 52.940133353910142 0 0 0 0 -20.342150221423253 -15.647357988253134 0 -15.647357988253134 33.21203310716453 0 0 0 0 -23.929701088644322 -71.447244807869794 0 -71.447244807869794 52.820582169973704 0 0 0 0 -50.227232524520332 15.29467740114768 0 15.29467740114768 21.040107532575348 0 0 0 0 62.671278438580885 -53.993978527994614 0 -53.993978527994614 28.092730820168129 0 0 0 0 0.8877542190543295 0.52705952311884197 0 0.52705952311884197 -0.48445198768554576 0 0 0 0 -4.2772871827133372 -78.173025837495217 0 -78.173025837495217 130.36866112321695 0 0 0 0 40.671136899542034 -51.077077393006675 0 -51.077077393006675 23.769401862103777 0 0 0 0 16.24760733142034 -11.873619963795136 0 -11.873619963795136 16.643946863049678 0 0 0 0 15.462652861657261 -26.912534410353828 0 -26.912534410353828 25.311469372125202 0 0 0 0 43.533998285807684 -17.588143598514762 0 -17.588143598514762 18.855250478283779 0 0 0 0 47.39517871521457 -37.803250850457516 0 -37.803250850457516 17.718803204451888 0 0 0 0 0.70742590860689525 0.45157617196443312 0 0.45157617196443312 -0.045865390502203951 0 0 0 0 23.179616118855847 -19.049313081402033 0 -19.049313081402033 27.980183138162147 0 0 0 0 10.537613089101797 -31.30070160141031 0 -31.30070160141031 9.0974675626939643 0 0 0 0 18.076516240328147 -8.2748891144399295 0 -8.2748891144399295 14.154677732482924 0 0 0 0 -7.7681067233588692 -18.258830326603402 0 -18.258830326603402 27.238573358804388 0 0 0 0 0.64487974247738578 0.27071081183359524 0 0.27071081183359524 -0.29172622457020658 0 0 0 0 17.751145512131188 -119.16675508698972 0 -119.16675508698972 58.525176435091453 0 0 0 0 110.18314996198205 -137.16663491460804 0 -137.16663491460804 9.9708538446570856 0 0 0 0 -49.510751085581433 -32.571983122752499 0 -32.571983122752499 22.330805235952084 0 0 0 0 -10.315520509489943 -109.00784006017807 0 -109.00784006017807 364.55898114730644 0 0 0 0 49.4140815508581 -42.340193009595168 0 -42.340193009595168 -287.89318914994556 0 0 0 0 0.42164988553129845 -1.7211559275826378 0 -1.7211559275826378 -0.36279877209629108 0 0 0 0 25.265695926240824 -127.32287017324484 0 -127.32287017324484 -73.675075038742762 0 0 0 0 -11.23976318298628 13.621155547392163 0 13.621155547392163 121.69626163874182 0 0 0 0 105.147943384271 -138.46071151328022 0 -138.46071151328022 87.332759956382688 0 0 0 0 26.414504188126557 -17.961887331163325 0 -17.961887331163325 168.12215060721678 0 0 0 0 -14.150997448547514 -40.776335680930629 0 -40.776335680930629 160.72320632596575 0 0 0 0 9.3795741753045263 -90.031551490389091 0 -90.031551490389091 212.32496923849885 0 0 0 0 -10.451346189526816 -45.670384626855878 0 -45.670384626855878 -68.019756796976253 0 0 0 0 0.87841548933574742 -3.1662483555317138 0 -3.1662483555317138 -0.72542660291002914 0 0 0 0 11.60884701834766 -25.907419625727243 0 -25.907419625727243 -117.58969980295569 0 0 0 0 -21.753482052703703 -10.918519024276748 0 -10.918519024276748 -93.280920047624932 0 0 0 0 -2.2565232792057941 -56.846752236878956 0 -56.846752236878956 -71.64074095268461 0 0 0 0 -15.597576263529845 -40.94082189642495 0 -40.94082189642495 -7.2606444642033239 0 0 0 0 9.9314550605527074 -42.255439627086162 0 -42.255439627086162 -67.511347722763276 0 0 0 0 -8.8859784475781947 -18.309430699187708 0 -18.309430699187708 -6.8871352844110136 0 0 0 0 8.1467698304277292 -19.083200487413706 0 -19.083200487413706 -10.319616669738025 0 0 0 0 -12.260918188630967 -44.38658189849275 0 -44.38658189849275 21.536483094141204 0 0 0 0 -19.989634834067147 -19.774967053407636 0 -19.774967053407636 40.662355412764555 0 0 0 0 4.3760614243228702 -36.593766793814211 0 -36.593766793814211 -7.6765578756443915 0 0 0 0 -21.506967758152314 -38.432447794426025 0 -38.432447794426025 57.263197637481426 0 0 0 0 -5.1016706347400032 -42.635620228618336 0 -42.635620228618336 -6.0212803380090918 0 0 0 0 10.122449659169433 -35.022401346374409 0 -35.022401346374409 6.2228719189597541 0 0 0 0 -11.046685866102052 -44.646667498626812 0 -44.646667498626812 36.677635257552765 0 0 0 0 -1.5465202774539648 -32.992533790841662 0 -32.992533790841662 37.801817846933716 0 0 0 0 13.145203009007673 -47.244407725185738 0 -47.244407725185738 34.651572962489809 0 0 0 0 6.0779833627602784 -46.209631181817713 0 -46.209631181817713 45.382129895104299 0 0 0 0 10.89777046321251 -48.513255064047371 0 -48.513255064047371 28.52683157041929 0 0 0 0 12.398614155747964 -60.065875814718765 0 -60.065875814718765 20.281798835183508 0 0 0 0 10.462993971614196 -47.654609187264214 0 -47.654609187264214 34.600086868539165 0 0 0 0 22.198517623633052 -57.380924332139102 0 -57.380924332139102 -5.2147117165213785 0 0 0 0 19.96125874003701 -56.744957856465589 0 -56.744957856465589 14.24681579181879 0 0 0 0 19.580523666151521 -64.593960735612768 0 -64.593960735612768 8.1997844544757754 0 0 0 0 2.861077731477053 -29.201256913109319 0 -29.201256913109319 -37.34149086792263 0 0 0 0 -34.362627484457335 -49.514623554982791 0 -49.514623554982791 -1.4164145669155914 0 0 0 0 53.599738908917516 23.182473820232417 0 23.182473820232417 -125.11157854566 0 0 0 0 -65.246668834036541 -30.887566228615185 0 -30.887566228615185 -14.71738895548151 0 0 0 0 0.66990666960631629 0.022352471771954541 0 0.022352471771954541 -2.6299110618664798 0 0 0 0 52.966713864409144 6.6532358707686399 0 6.6532358707686399 -12.121552116140265 0 0 0 0 32.008259515633597 -34.559125239117975 0 -34.559125239117975 -77.206100826539569 0 0 0 0 6.4705717424108116 -11.160125612294451 0 -11.160125612294451 24.952304210777129 0 0 0 0 3.869078633330874 -16.0277420866048 0 -16.0277420866048 -6.1856325381591564 0 0 0 0 3.6189901548077614 -10.676911694393766 0 -10.676911694393766 29.380577916050015 0 0 0 0 74.424089018513314 -37.2273775118515 0 -37.2273775118515 -80.272550796176802 0 0 0 0 156.72239971353156 -73.876722615835206 0 -73.876722615835206 -204.16943794155122 0 0 0 0 6.9779504065413676 -26.929454511662925 0 -26.929454511662925 25.61275139355439 0 0 0 0 0.75604751522848801 -6.405474176254927 0 -6.405474176254927 24.563184036357598 0 0 0 0 -3.6974638620333593 -17.361407601938893 0 -17.361407601938893 -6.5234119115407267 0 0 0 0 -23.38176218051467 -35.930068751902581 0 -35.930068751902581 48.345225896970533 0 0 0 0 7.9751677603953794 -60.822500491055052 0 -60.822500491055052 -77.225361353496282 0 0 0 0 -171.81124693910715 42.178766318159205 0 42.178766318159205 46.838265354713712 0 0 0 0 -5.2284441975662048 -46.606658027358662 0 -46.606658027358662 -57.30388460987183 0 0 0 0 27.96502688081523 -38.951285833901011 0 -38.951285833901011 -65.894703023548573 0 0 0 0 -51.958015003244327 -72.569024332486606 0 -72.569024332486606 -48.62042968541482 0 0 0 0 -6.7231766202448853 -41.313048227847503 0 -41.313048227847503 -27.023548283130822 0 0 0 0 -13.748703007419408 -31.637060869885772 0 -31.637060869885772 -33.362075929647062 0 0 0 0 8.2743078865796633 -31.717089274960699 0 -31.717089274960699 -46.179081780542447 0 0 0 0 -7.7298567195962278 -27.716952586222874 0 -27.716952586222874 -34.106806744048754 0 0 0 0 19.00432197158716 -72.168947884559316 0 -72.168947884559316 89.929790436524399 0 0 0 0 1.5054239580860447 -3.6111026920429925 0 -3.6111026920429925 -0.68367492311747213 0 0 0 0 2.2459849571559971 -71.959765721884196 0 -71.959765721884196 141.92022050819446 0 0 0 0 12.068726306901226 -56.190910720001739 0 -56.190910720001739 99.846255709694105 0 0 0 0 32.303565197109037 -53.129577190379223 0 -53.129577190379223 27.018568051601562 0 0 0 0 2.628232239992669 -4.263973028965232 0 -4.263973028965232 -2.7766830053446929 0 0 0 0 7.4008515599639395 -4.5625879288988926 0 -4.5625879288988926 -6.234426945633686 0 0 0 0 0.73811257095440519 -1.9535585350715774 0 -1.9535585350715774 -4.640605649244077 0 0 0 0 -15.376531684372566 4.904930919621556 0 4.904930919621556 5.5448325930401552 0 0 0 0 78.782551337957898 -59.332943404368848 0 -59.332943404368848 -9.731784664011883 0 0 0 0 58.640271451789033 -30.762734380810798 0 -30.762734380810798 -4.4138135633593265 0 0 0 0 3.095763166016881 -1.6705837141175 0 -1.6705837141175 -2.4763286193896357 0 0 0 0 37.964558284235949 2.194531639202566 0 2.194531639202566 -5.1673335029536247 0 0 0 0 161.36778683834154 29.618025547044965 0 29.618025547044965 -4.6438085722220421 0 0 0 0 -0.79113066321055259 -4.4237895531313223 0 -4.4237895531313223 -8.3364419972971895 0 0 0 0 27.01390008667147 -81.078176288383929 0 -81.078176288383929 62.985633111788957 0 0 0 0 46.915608846839064 -71.355790696867189 0 -71.355790696867189 49.207566699725248 0 0 0 0 26.71852405704567 -78.917864273915825 0 -78.917864273915825 47.22246953647084 0 0 0 0 94.671752996151099 -152.67816897107775 0 -152.67816897107775 125.99961908836826 0 0 0 0 160.02934482386266 -58.046881288536838 0 -58.046881288536838 -15.564355444216289 0 0 0 0 13.151265304737535 -58.300081536634025 0 -58.300081536634025 75.991014348006843 0 0 0 0 13.068906180427803 -60.58557800177573 0 -60.58557800177573 63.538940807875406 0 0 0 0 4.1984119442749943 -81.852854617626008 0 -81.852854617626008 74.576511676979862 0 0 0 0 9.6563667754035123 -66.0589748794049 0 -66.0589748794049 80.373663435942603 0 0 0 0 19.410538435137823 -88.272909997125794 0 -88.272909997125794 62.354617705362671 0 0 0 0 -30.903114982676925 -68.798979435917545 0 -68.798979435917545 73.58678672483552 0 0 0 0 12.800230844902671 -64.152899867594954 0 -64.152899867594954 20.669074790540321 0 0 0 0 -8.3985823453676858 -40.144518591173977 0 -40.144518591173977 51.666047964677631 0 0 0 0 -11.464501259611097 -60.99544839854741 0 -60.99544839854741 -42.717938328372441 0 0 0 0 -0.34719628148997117 -44.919093367781656 0 -44.919093367781656 86.682478827302617 0 0 0 0 -1.0998113785740005 -0.74707554815123123 0 -0.74707554815123123 1.204045384774012 0 0 0 0 1.375985382707654 -2.2603324203399673 0 -2.2603324203399673 65.343455710905516 0 0 0 0 6.0344645432105608 0.83727735520666613 0 0.83727735520666613 -0.55090998866641883 0 0 0 0 -0.69097074236532308 14.407134269021114 0 14.407134269021114 3.4168636578624501 0 0 0 0 2.872185637055054 -34.698236853103559 0 -34.698236853103559 23.922021771194068 0 0 0 0 -8.7693154774033246 -9.4567385879159929 0 -9.4567385879159929 0.26505444488196872 0 0 0 0 -0.0079793409173287699 -1.933585217891264 0 -1.933585217891264 -1.4626279386245835 0 0 0 0 -34.560999426942089 17.132222383013627 0 17.132222383013627 -0.18992881083391921 0 0 0 0 0.37043457601787466 -0.65901075659017305 0 -0.65901075659017305 -1.2091646897878214 0 0 0 0 -124.60092479640781 113.47975331530208 0 113.47975331530208 10.777224106337826 0 0 0 0 -120.21478012619519 -3.8686752925064418 0 -3.8686752925064418 129.97697203920325 0 0 0 0 1.0071395674252792 0.43251144464949487 0 0.43251144464949487 0.53826523040865304 0 0 0 0 -45.549140066596919 -48.948613529209865 0 -48.948613529209865 141.11656928342495 0 0 0 0 44.036782331406812 -34.17417087742561 0 -34.17417087742561 73.896679110182561 0 0 0 0 35.909152547328404 -64.838889239092609 0 -64.838889239092609 62.575292089708881 0 0 0 0 -21.410914790012157 17.954346355398059 0 17.954346355398059 59.332038642785562 0 0 0 0 33.774308744430073 -49.575649307340043 0 -49.575649307340043 42.794018456450317 0 0 0 0 -25.264142125152194 -0.16549182500541804 0 -0.16549182500541804 -22.102424144203439 0 0 0 0 -34.340360188958925 15.641086119519926 0 15.641086119519926 57.195809272326073 0 0 0 0 0.25599790430442226 -48.335535500320077 0 -48.335535500320077 70.265315264898902 0 0 0 0 -9.7471707020844178 -65.278989960265491 0 -65.278989960265491 70.03240079663226 0 0 0 0 -64.653442061973522 7.951291526672378 0 7.951291526672378 24.291151919021125 0 0 0 0 -56.820342518165049 -24.880583491295113 0 -24.880583491295113 37.095803016029407 0 0 0 0 -1.2898080857052205 2.148411790101096 0 2.148411790101096 7.2416252492665585 0 0 0 0 -306.00420402613327 -226.57608189280631 0 -226.57608189280631 417.54873810862955 0 0 0 0 507.78502433453286 -324.63251280474447 0 -324.63251280474447 10.790070976174093 0 0 0 0 -76.001007321758152 -123.71036904950779 0 -123.71036904950779 69.919505933785672 0 0 0 0 -105.08961497788459 -17.89835362121471 0 -17.89835362121471 123.89008366193184 0 0 0 0 0.76407988887217471 -112.46119061946729 0 -112.46119061946729 28.372588926826666 0 0 0 0 -7.5106441596915445 -57.931609027185871 0 -57.931609027185871 108.54745712968406 0 0 0 0 17.458268206916159 -155.62753002301451 0 -155.62753002301451 273.18450888843608 0 0 0 0 27.080105656455203 -313.10194766526911 0 -313.10194766526911 355.98240486242003 0 0 0 0 37.143053824912315 -42.708872475802281 0 -42.708872475802281 192.50159849185457 0 0 0 0 118.26022286055934 -125.19692144137696 0 -125.19692144137696 274.69419312196896 0 0 0 0 73.696113721878646 -67.454667299381299 0 -67.454667299381299 412.99529587539905 0 0 0 0 93.323169227687288 -60.805004492974149 0 -60.805004492974149 179.38374977372769 0 0 0 0 72.940253596439788 -136.90271853481704 0 -136.90271853481704 286.21249092489415 0 0 0 0 24.685520555260496 -33.509723272545443 0 -33.509723272545443 188.95862767469725 0 0 0 0 8.6550143385005924 -68.92549143603901 0 -68.92549143603901 181.6677187180394 0 0 0 0 27.333029239752932 -56.287489296132321 0 -56.287489296132321 183.22054891489515 0 0 0 0 54.872268640781556 -83.361506995703849 0 -83.361506995703849 113.25080800819524 0 0 0 0 40.516940206435208 -53.16600667240391 0 -53.16600667240391 117.93872631970726 0 0 0 0 43.193091922781775 -53.880822459478281 0 -53.880822459478281 112.97869003262167 0 0 0 0 6.4083377268483446 -40.976646745021867 0 -40.976646745021867 108.84088384551012 0 0 0 0 59.656045612220112 -81.388185042256737 0 -81.388185042256737 116.50209331043311 0 0 0 0 41.648520148487478 -74.537268008364322 0 -74.537268008364322 50.497196297757796 0 0 0 0 -43.317863882453935 -50.058681224869019 0 -50.058681224869019 43.84214743174249 0 0 0 0 21.703763703126732 -75.933415518698183 0 -75.933415518698183 -3.797925000412306 0 0 0 0 59.722619080081017 -76.786628174895498 0 -76.786628174895498 23.946295472780662 0 0 0 0 25.879943222435159 -36.552972923007758 0 -36.552972923007758 -3.8216226625152672 0 0 0 0 80.566301198170208 -30.721732362752974 0 -30.721732362752974 -69.872980051091417 0 0 0 0 59.068366462244896 -76.427079311335376 0 -76.427079311335376 -49.541446568455399 0 0 0 0 10.268111370206611 -82.530355160179255 0 -82.530355160179255 -89.84778073088431 0 0 0 0 25.015712849765663 -44.867332476274257 0 -44.867332476274257 -78.323423607519416 0 0 0 0 -38.271925931464011 -17.662707585155886 0 -17.662707585155886 -52.492161801462714 0 0 0 0 -31.774898811751562 -54.651723553575209 0 -54.651723553575209 -100.55579061204165 0 0 0 0 -112.50035355484238 73.837435101325127 0 73.837435101325127 -169.42470551764339 0 0 0 0 -41.986008216739606 -98.788487446290844 0 -98.788487446290844 -211.17734221512936 0 0 0 0 107.80671707224587 195.41263187603477 0 195.41263187603477 -497.84362309854271 0 0 0 0 -377.77660117305845 3.3760672201717625 0 3.3760672201717625 194.51834639627771 0 0 0 0 -0.83316884940622826 -1.7791174797132432 0 -1.7791174797132432 -3.177403204241906 0 0 0 0 71.567650800198919 -142.95278723308047 0 -142.95278723308047 301.38160177274119 0 0 0 0 -57.838719934519418 -191.5375929676905 0 -191.5375929676905 116.94499304425972 0 0 0 0 -172.8944199651703 -165.9769119288037 0 -165.9769119288037 194.39904662671415 0 0 0 0 -35.492005071585368 -100.86099269201372 0 -100.86099269201372 76.300502556073752 0 0 0 0 -51.703891313727581 -48.865976527465847 0 -48.865976527465847 -15.719424244155107 0 0 0 0 -150.80401445215148 -26.779673196771569 0 -26.779673196771569 33.630781085458011 0 0 0 0 -0.72366981805953401 1.5540734523268611 0 1.5540734523268611 11.172973541639976 0 0 0 0 2.9532115158572196 -19.289764113030742 0 -19.289764113030742 1.0759668853972926 0 0 0 0 35.692295151744133 -45.28076772105544 0 -45.28076772105544 115.24813028831841 0 0 0 0 89.023931100441814 -152.44877624855508 0 -152.44877624855508 285.40463747820809 0 0 0 0 2.5737413083364631 0.16371207450383407 0 0.16371207450383407 0.090776388974671107 0 0 0 0 90.36422734061864 25.308859609249907 0 25.308859609249907 -20.288672321702961 0 0 0 0 99.929245731765832 -28.550322167457921 0 -28.550322167457921 -11.989602147708752 0 0 0 0 263.98770598302156 -133.26915606413763 0 -133.26915606413763 30.409621666062321 0 0 0 0 63.158731775767933 -84.183643006763646 0 -84.183643006763646 159.8259758168673 0 0 0 0 68.559069335550362 -49.836956946470877 0 -49.836956946470877 294.18757384864944 0 0 0 0 146.57418603281224 -80.095895332649263 0 -80.095895332649263 -28.105619497833686 0 0 0 0 76.07957213024838 -45.648150724517848 0 -45.648150724517848 -27.140646523022042 0 0 0 0 92.180796554785275 -46.056984368023791 0 -46.056984368023791 -89.631151741476003 0 0 0 0 69.347219504676559 -19.199959636423387 0 -19.199959636423387 -86.979009395485448 0 0 0 0 119.21608695661325 -46.340055728547668 0 -46.340055728547668 -78.716769036341645 0 0 0 0 99.558468176525821 -13.67434780993613 0 -13.67434780993613 -94.526769805409117 0 0 0 0 95.50650205229249 -65.491180827850371 0 -65.491180827850371 -57.313642462210936 0 0 0 0 46.529577118356428 -2.9218395145703937 0 -2.9218395145703937 7.2299548996152225 0 0 0 0 88.959979902112082 -17.444410917888547 0 -17.444410917888547 -95.867794772426578 0 0 0 0 49.895178288217721 -88.623125464455924 0 -88.623125464455924 -127.14327654319845 0 0 0 0 -29.509235786268619 -49.410874334321079 0 -49.410874334321079 -105.25459206612989 0 0 0 0 46.742315993841203 -64.464479788650706 0 -64.464479788650706 -194.90565600684252 0 0 0 0 -0.16043586554683209 0.63424415958649361 0 0.63424415958649361 -0.3458698863332737 0 0 0 0 4.4686125684797844 -10.714660898442048 0 -10.714660898442048 29.321537732002298 0 0 0 0 -0.029493912165435177 -1.1590439895164764 0 -1.1590439895164764 9.0727790531913115 0 0 0 0 1.5642297677134138 -106.17784670929257 0 -106.17784670929257 -9.9834323897887316 0 0 0 0 10.852488684240598 -64.859614089347247 0 -64.859614089347247 105.58514032750406 0 0 0 0 37.611082544055535 -91.802032817498002 0 -91.802032817498002 -91.788481704800347 0 0 0 0 12.769712857848504 -62.979671851117544 0 -62.979671851117544 -91.575925818539758 0 0 0 0 166.22854856547519 -141.34082103455887 0 -141.34082103455887 -55.298119914360313 0 0 0 0 96.326944300748892 58.570094621358294 0 58.570094621358294 -222.20725492866643 0 0 0 0 190.69246250634939 -2.384314120530874 0 -2.384314120530874 -182.84128263162552 0 0 0 0 101.92868023883511 -16.189998103738958 0 -16.189998103738958 -114.34175587518729 0 0 0 0 64.746043014215502 -2.7709512311815701 0 -2.7709512311815701 -117.47178951370284 0 0 0 0 81.693135859927366 -23.778192684656375 0 -23.778192684656375 -115.74954275715243 0 0 0 0 -20.693527260243798 0.72304432227943494 0 0.72304432227943494 -120.26394680645956 0 0 0 0 50.949983316592011 -82.065525645184891 0 -82.065525645184891 87.833167039284945 0 0 0 0 62.818394874858768 -92.633770832396294 0 -92.633770832396294 90.99624410156315 0 0 0 0 77.011318460888106 -62.793562412256506 0 -62.793562412256506 62.745779654970022 0 0 0 0 224.27558084311977 -145.47532913646523 0 -145.47532913646523 52.06610272235207 0 0 0 0 2.2158759590648689 0.14556984592039512 0 0.14556984592039512 0.010743350430969523 0 0 0 0 86.613072930590079 -165.71185817046739 0 -165.71185817046739 279.06826857196313 0 0 0 0 176.97803596179904 -12.313249455048634 0 -12.313249455048634 6.7137605729053575 0 0 0 0 19.914733112202384 -55.300173277132785 0 -55.300173277132785 51.582334556154592 0 0 0 0 4.0796712468541045 -14.376426045635981 0 -14.376426045635981 -26.912689724233019 0 0 0 0 -69.630776705784228 46.769831868975302 0 46.769831868975302 -49.766959188916189 0 0 0 0 6.0438901811435244 -9.0167790168895863 0 -9.0167790168895863 -41.836300900851143 0 0 0 0 2.3953325181957577 2.4639587999424775 0 2.4639587999424775 -16.028906590978814 0 0 0 0 -31.72083119710112 -17.486913328059586 0 -17.486913328059586 -13.766674101087688 0 0 0 0 102.88866857980179 -23.730545106440104 0 -23.730545106440104 -55.678936239638006 0 0 0 0 19.361423885775594 93.947961975292401 0 93.947961975292401 -146.5532156211903 0 0 0 0 86.561402155031374 -162.2012065410031 0 -162.2012065410031 151.05945194718595 0 0 0 0 -94.678458604920138 -140.13581553041251 0 -140.13581553041251 416.16268967860742 0 0 0 0 -0.95704528821093149 1.3195676249551758 0 1.3195676249551758 -4.4163645277143493 0 0 0 0 195.55976197014797 -82.668686182247825 0 -82.668686182247825 -179.17746749649712 0 0 0 0 -144.87520050491554 -119.02286170348681 0 -119.02286170348681 -86.929144812884331 0 0 0 0 -95.811020936498835 -53.664763842657379 0 -53.664763842657379 -30.771823127638996 0 0 0 0 -35.445530806294641 -100.48479865368165 0 -100.48479865368165 -98.581730803447556 0 0 0 0 9.5271928305474773 -59.124276582176151 0 -59.124276582176151 -97.231212855204035 0 0 0 0 10.141277814449808 -63.453963941467009 0 -63.453963941467009 -73.44478744661717 0 0 0 0 46.3464441547859 -69.230046293682619 0 -69.230046293682619 -99.353177824196564 0 0 0 0 34.858409680281511 -27.364697653930023 0 -27.364697653930023 -95.70305549426763 0 0 0 0 31.970849148790819 -21.740330355341371 0 -21.740330355341371 -144.52089368474481 0 0 0 0 12.490307977279116 -30.00278937831979 0 -30.00278937831979 -87.183816084415639 0 0 0 0 -0.35779569521241683 -23.126054633423223 0 -23.126054633423223 -44.07183493323987 0 0 0 0 -26.817039948829418 -53.442947326603978 0 -53.442947326603978 -73.64166545189596 0 0 0 0 -5.5708601740126369 -23.078322967148438 0 -23.078322967148438 -41.482763598082329 0 0 0 0 8.9841661928263985 0.2919297261387479 0 0.2919297261387479 -2.8628045252855818 0 0 0 0 49.414037561359464 -11.849324270656211 0 -11.849324270656211 2.968283048704734 0 0 0 0 51.989468137558106 -75.933470540627013 0 -75.933470540627013 102.74975806347891 0 0 0 0 4.3932386417095586 -32.850511330635072 0 -32.850511330635072 63.95341209794833 0 0 0 0 6.1356698977536501 -0.099872880535948561 0 -0.099872880535948561 0.016038901628666391 0 0 0 0 82.291142984935505 -83.848829356741135 0 -83.848829356741135 60.997778656337161 0 0 0 0 59.196831911820937 -76.813707766857988 0 -76.813707766857988 90.860027383772376 0 0 0 0 47.692668348412099 -23.067416421560665 0 -23.067416421560665 18.535274614157515 0 0 0 0 0.44467773051474069 -22.953272797604996 0 -22.953272797604996 7.0863268029406754 0 0 0 0 16.496226565799589 -27.408064301222794 0 -27.408064301222794 23.764067779444076 0 0 0 0 3.8531766874212132 -3.5473240001269231 0 -3.5473240001269231 1.3897177742395712 0 0 0 0 21.355623606346853 12.268650752297617 0 12.268650752297617 11.72372496491306 0 0 0 0 12.203766996463484 -13.422088185801185 0 -13.422088185801185 -7.4932417026522522 0 0 0 0 0.14611102640878926 27.88813491413066 0 27.88813491413066 -69.514223483617229 0 0 0 0 20.881827749820516 40.311600788527556 0 40.311600788527556 -74.370721486507136 0 0 0 0 19.822792177780684 -10.511201360525774 0 -10.511201360525774 3.8138365055457371 0 0 0 0 4.9967663616166647 -21.100763309389095 0 -21.100763309389095 32.211490819338906 0 0 0 0 6.3394947301137563 -15.047480636600653 0 -15.047480636600653 37.349090520011487 0 0 0 0 1.5922118494274855 -10.395118270394619 0 -10.395118270394619 102.48825348738774 0 0 0 0 -9.8114419102162174 -38.969025897665006 0 -38.969025897665006 83.485962114490576 0 0 0 0 -0.10872099615835396 -54.691914152862978 0 -54.691914152862978 52.052146654854369 0 0 0 0 -2.0586182594523734 -58.637149451647474 0 -58.637149451647474 115.37305626426132 0 0 0 0 -11.913541472618363 -93.813662502145235 0 -93.813662502145235 106.84540038673833 0 0 0 0 -6.3108608180143619 -96.54587308199325 0 -96.54587308199325 84.301879155812458 0 0 0 0 24.130465046517656 -60.960829196185159 0 -60.960829196185159 73.446061083756831 0 0 0 0 107.59177366968743 -108.73391423239696 0 -108.73391423239696 100.79101864673203 0 0 0 0 -0.052862344742874656 0.25012275435247933 0 0.25012275435247933 1.32684807933075 0 0 0 0 -9.0133998912496054 37.751740825209822 0 37.751740825209822 116.51645590420776 0 0 0 0 -16.251014388678868 -58.340043878842152 0 -58.340043878842152 212.95936439242632 0 0 0 0 53.719200620399079 -64.401103949684284 0 -64.401103949684284 173.33084093785692 0 0 0 0 145.13200804414714 -109.4995073565089 0 -109.4995073565089 59.223129248821806 0 0 0 0 62.26141007630622 -71.556219690495482 0 -71.556219690495482 88.272323881953184 0 0 0 0 114.30767161905976 -61.524622189986815 0 -61.524622189986815 70.114497625491367 0 0 0 0 82.492454180230425 -66.749118251209552 0 -66.749118251209552 74.151285736644695 0 0 0 0 73.297066817059658 14.10775915860745 0 14.10775915860745 106.611502174208 0 0 0 0 54.504287928846225 35.976848723485318 0 35.976848723485318 -55.275576625639133 0 0 0 0 106.90095665044669 -41.225060640272886 0 -41.225060640272886 31.278674317587729 0 0 0 0 84.227568419856652 26.390859110688098 0 26.390859110688098 80.134149502438277 0 0 0 0 138.91612485370479 -111.01765872545354 0 -111.01765872545354 96.045801010805462 0 0 0 0 1.5201476227797741 -0.47062331180483774 0 -0.47062331180483774 0.12331201866386232 0 0 0 0 17.587338848498803 -117.81762521146743 0 -117.81762521146743 277.21573845975189 0 0 0 0 3.7695734142916724 -1.03810058072267 0 -1.03810058072267 0.024731178917030805 0 0 0 0 18.071268341539962 -71.140241292307337 0 -71.140241292307337 97.379153980111823 0 0 0 0 58.568274405938155 -43.968900556359813 0 -43.968900556359813 90.202884260580049 0 0 0 0 17.993566461256705 -28.014509523245351 0 -28.014509523245351 90.854713521998292 0 0 0 0 7.9700178617412121 6.9278452661891379 0 6.9278452661891379 75.71976787310814 0 0 0 0 4.7992050525381273 -31.875338275100603 0 -31.875338275100603 -4.8608749317834281 0 0 0 0 -49.732978101088747 -63.142601456353646 0 -63.142601456353646 132.34820543910337 0 0 0 0 14.44412538526467 -126.20688508399371 0 -126.20688508399371 110.43126270150333 0 0 0 0 16.896800666999752 -85.018521707919007 0 -85.018521707919007 62.836971481477121 0 0 0 0 3.4297878636426162 -15.995581015121004 0 -15.995581015121004 39.635263713548966 0 0 0 0 108.44573661839036 -30.67422259795876 0 -30.67422259795876 4.8921114201272076 0 0 0 0 37.913325390615682 -2.1695113071207288 0 -2.1695113071207288 24.790985480403151 0 0 0 0 64.481528538816974 -39.710787577385872 0 -39.710787577385872 51.623600638294192 0 0 0 0 54.313991462600825 -49.467677588852212 0 -49.467677588852212 73.92008856739244 0 0 0 0 86.685221103712593 -66.835350244354231 0 -66.835350244354231 50.225550108753851 0 0 0 0 107.9505154477381 -91.378212981188881 0 -91.378212981188881 62.734680496703731 0 0 0 0 80.732308817365947 -76.981143030754538 0 -76.981143030754538 101.36083584099424 0 0 0 0 32.294447269274769 -9.30856219362704 0 -9.30856219362704 137.66234670657423 0 0 0 0 46.513798523054902 -22.563373559450497 0 -22.563373559450497 61.755646228134992 0 0 0 0 11.232494736624631 17.101452877157271 0 17.101452877157271 68.90213751852059 0 0 0 0 9.5317580028822704 -4.3762293453999064 0 -4.3762293453999064 66.384570712533559 0 0 0 0 -11.020355133983458 3.3605553974798568 0 3.3605553974798568 55.731111693432695 0 0 0 0 -1.7068909668769265 22.327606968945929 0 22.327606968945929 35.895000569788351 0 0 0 0 14.201200380950468 -2.2495946584973581 0 -2.2495946584973581 39.410934424840889 0 0 0 0 -5.0827130056468377 9.7806763222563404 0 9.7806763222563404 -2.4111193665667088 0 0 0 0 -29.376453159835975 3.4940767696815485 0 3.4940767696815485 23.667937460565099 0 0 0 0 10.40415888153575 12.570510195990209 0 12.570510195990209 -2.3673039073255495 0 0 0 0 10.98796848601279 15.934361761574024 0 15.934361761574024 16.64190129707913 0 0 0 0 20.793492567141129 11.644573627043201 0 11.644573627043201 -16.831728154761947 0 0 0 0 33.511508570928072 30.002091926906814 0 30.002091926906814 -12.586342511159785 0 0 0 0 21.941214599256455 7.8779671171340624 0 7.8779671171340624 13.622037743415149 0 0 0 0 14.196159632877425 26.47486771523063 0 26.47486771523063 25.873626373937896 0 0 0 0 62.468394767023028 -6.7080586165117211 0 -6.7080586165117211 33.807488967577228 0 0 0 0 18.223702165337841 -1.8185668066641938 0 -1.8185668066641938 -15.071338532015034 0 0 0 0 6.6792226528077663 23.741021612716395 0 23.741021612716395 -28.454769286995543 0 0 0 0 1.4201701445766197 -0.67401415645246221 0 -0.67401415645246221 0.16521996088007818 0 0 0 0 17.72625452818545 -11.58837935128696 0 -11.58837935128696 -65.700108985981842 0 0 0 0 -30.434494201084817 -28.468226042461538 0 -28.468226042461538 -44.072159497947268 0 0 0 0 37.430556852376412 15.810469416303931 0 15.810469416303931 0.49557197366448236 0 0 0 0 9.3608490027140761 45.684430212080315 0 45.684430212080315 15.461597855055516 0 0 0 0 -14.32339864245796 -48.039598478917469 0 -48.039598478917469 -50.192220625376194 0 0 0 0 2.0536724707181584 -0.76989081693010597 0 -0.76989081693010597 0.076632111650533297 0 0 0 0 -13.320210309227605 0.90311265152649867 0 0.90311265152649867 4.6653073831403162 0 0 0 0 -27.348706414847868 -4.5656613727502133 0 -4.5656613727502133 -6.3630775378778708 0 0 0 0 2.3235809033766373 15.181834546806215 0 15.181834546806215 -12.58066372597068 0 0 0 0 18.680314557053521 7.5697631171492503 0 7.5697631171492503 -11.225413832456979 0 0 0 0 23.598959062339418 13.848681658032547 0 13.848681658032547 -15.517034178228414 0 0 0 0 0.47158298466748505 -0.19759226522394435 0 -0.19759226522394435 0.056016305724171822 0 0 0 0 39.23443203381521 -1.0286862953781792 0 -1.0286862953781792 -12.308131078076713 0 0 0 0 20.03248829007407 -48.684880288766863 0 -48.684880288766863 -50.780489432078639 0 0 0 0 9.7196540407185239 13.647010316375315 0 13.647010316375315 -14.547736104087562 0 0 0 0 -1.6459289492113385 -2.2622161345775567 0 -2.2622161345775567 -4.0605293763600514 0 0 0 0 0.81726498038869977 11.185049688307572 0 11.185049688307572 5.4591917635934806 0 0 0 0 -0.16427820149419858 1.9135933538950667 0 1.9135933538950667 -16.305481718533429 0 0 0 0 -3.1175448820445126 4.4774822833849157 0 4.4774822833849157 -3.1586261853990436 0 0 0 0 -2.2339578980227088 -5.1884346656142952 0 -5.1884346656142952 14.526380652908074 0 0 0 0 60.942915810470367 40.933642736400088 0 40.933642736400088 -28.243366281239105 0 0 0 0 1.04740488288002 -0.57868519159872811 0 -0.57868519159872811 0.27418040565911639 0 0 0 0 135.40711287930708 -70.832375975348214 0 -70.832375975348214 6.2691501907311249 0 0 0 0 114.87528595203321 3.9041673864885524 0 3.9041673864885524 -21.803950388755766 0 0 0 0 76.200080939832787 -92.562343009471533 0 -92.562343009471533 88.613822171656921 0 0 0 0 46.095017796149023 -46.696224408562784 0 -46.696224408562784 21.745083526953294 0 0 0 0 30.571942591242077 -24.650140113459656 0 -24.650140113459656 128.92821776049595 0 0 0 0 97.879639987756221 -21.958456597715291 0 -21.958456597715291 82.040418880042125 0 0 0 0 100.53627511257557 -95.362438675354355 0 -95.362438675354355 104.3804282566357 0 0 0 0 -4.8015935307894324 0.44624182567417847 0 0.44624182567417847 16.304793814006644 0 0 0 0 17.470262966706741 -120.55609692817552 0 -120.55609692817552 103.63969686571977 0 0 0 0 -15.94976500598932 -20.935213419699721 0 -20.935213419699721 75.944838645283994 0 0 0 0 29.963342510969596 -54.001280232838326 0 -54.001280232838326 20.212682581081026 0 0 0 0 30.375263393024852 -58.634842747412904 0 -58.634842747412904 -99.557627977198081 0 0 0 0 2.0238800176342657 -1.0404347198421462 0 -1.0404347198421462 0.28714106361354386 0 0 0 0 39.793130039992775 -76.03344827011324 0 -76.03344827011324 -79.364770536655669 0 0 0 0 66.552704770572291 -8.1489518373075498 0 -8.1489518373075498 -30.093934124539373 0 0 0 0 23.811086260632692 -2.5989480964583436 0 -2.5989480964583436 -63.185288463619599 0 0 0 0 -30.820360120712394 -23.573138097260198 0 -23.573138097260198 -26.218997763970492 0 0 0 0 -80.569958821944056 0.15884067129513824 0 0.15884067129513824 44.326694409482116 0 0 0 0 37.767929468402144 -10.795827291254227 0 -10.795827291254227 11.507386083038 0 0 0 0 32.273460523576887 -3.5021136610637313 0 -3.5021136610637313 3.0408076728094784 0 0 0 0 25.647664803691441 -9.2588804361716939 0 -9.2588804361716939 36.988611524913495 0 0 0 0 24.425158900287443 36.202843918777035 0 36.202843918777035 41.706957999469523 0 0 0 0 0.58194119463667171 -0.25001745416846433 0 -0.25001745416846433 0.036838725458671284 0 0 0 0 -21.50160288187908 -40.680317043497325 0 -40.680317043497325 -87.738774119073241 0 0 0 0 19.469350399250288 20.105224375231501 0 20.105224375231501 -26.427044777788979 0 0 0 0 0.88102657593753975 -7.401313958444689 0 -7.401313958444689 19.964623811578349 0 0 0 0 -24.633645991510093 -10.706017256049108 0 -10.706017256049108 2.3596106662134844 0 0 0 0 28.484247879828672 -44.506089312361382 0 -44.506089312361382 -30.303012582751307 0 0 0 0 48.288334826976097 -31.884207834500103 0 -31.884207834500103 -22.271570860158363 0 0 0 0 54.113670180566714 -34.706742859521 0 -34.706742859521 -21.011315805697905 0 0 0 0 22.397631843613453 -6.7689504669936014 0 -6.7689504669936014 8.768846864864372 0 0 0 0 20.989732136036309 3.1858489847625151 0 3.1858489847625151 5.5013040229659964 0 0 0 0 52.342941773836174 -46.284684116302287 0 -46.284684116302287 -20.119232755200755 0 0 0 0 77.742930841076742 -71.923406940560426 0 -71.923406940560426 2.5160690694192454 0 0 0 0 76.775774207838367 -30.007332375430451 0 -30.007332375430451 -21.598314798528918 0 0 0 0 54.069905344108008 -60.667162232748495 0 -60.667162232748495 -26.5648620555462 0 0 0 0 53.852047603926621 -55.418783363360944 0 -55.418783363360944 -33.89216579597587 0 0 0 0 53.20899918035866 -56.791874846952112 0 -56.791874846952112 -33.127445218548019 0 0 0 0 13.045159275681726 -29.593286238693508 0 -29.593286238693508 -37.042289285068364 0 0 0 0 -27.493852773293838 -58.890395704504499 0 -58.890395704504499 -28.687617847867841 0 0 0 0 -37.327493960314314 -43.981246845015903 0 -43.981246845015903 -12.23359019293548 0 0 0 0 -6.7223079587602115 -32.054240833238509 0 -32.054240833238509 -37.254088660822845 0 0 0 0 9.7369354716329326 -50.47851002088828 0 -50.47851002088828 -17.702120276388996 0 0 0 0 -13.918007073614717 -29.472231649821424 0 -29.472231649821424 -2.3023747931292746 0 0 0 0 7.9111857907005287 -44.64685088261615 0 -44.64685088261615 8.2459925377761465 0 0 0 0 -11.328454099794271 -37.495195276115737 0 -37.495195276115737 -16.649385368888943 0 0 0 0 19.702399176668223 -33.707458683255027 0 -33.707458683255027 -31.654457629086323 0 0 0 0 47.037995766846507 -59.039634788889998 0 -59.039634788889998 -8.2135022794277575 0 0 0 0 17.641730841957724 -30.368675238629294 0 -30.368675238629294 3.2874162067121233 0 0 0 0 37.207071470084884 -56.629041538265255 0 -56.629041538265255 35.163760997762438 0 0 0 0 9.0917867340367593 -21.429652027355132 0 -21.429652027355132 63.292502648557956 0 0 0 0 4.9600309030365679 -31.281002925280063 0 -31.281002925280063 44.52041672222731 0 0 0 0 -3.3983914616947004 -18.664524116021767 0 -18.664524116021767 27.880262939935392 0 0 0 0 -14.198105638527068 -37.685566155062133 0 -37.685566155062133 20.868770445914379 0 0 0 0 -2.882656985392714 -7.303501314604091 0 -7.303501314604091 63.612434259557631 0 0 0 0 -2.6324395399542482 -12.498698757697639 0 -12.498698757697639 39.197521567558852 0 0 0 0 -6.8440308623212331 -17.352009332210287 0 -17.352009332210287 49.743070246485331 0 0 0 0 0.44377075911870634 -2.4473100631025773 0 -2.4473100631025773 63.324398961300631 0 0 0 0 1.8747435057875919 -11.555644077478064 0 -11.555644077478064 67.36758883890343 0 0 0 0 29.839409472573834 -33.849414565272696 0 -33.849414565272696 69.723536102485923 0 0 0 0 0.21283827660045063 -12.921723090054911 0 -12.921723090054911 94.030399386280351 0 0 0 0 -28.304127197671733 -57.483293336486895 0 -57.483293336486895 54.491731337513102 0 0 0 0 15.088408452398653 -78.486032214977513 0 -78.486032214977513 11.93280037182285 0 0 0 0 1.1345003983942661 -21.063198907536389 0 -21.063198907536389 49.040732402890171 0 0 0 0 -12.697141794540585 -40.793575669992606 0 -40.793575669992606 18.922663536929122 0 0 0 0 16.151313358143852 -14.222862576352782 0 -14.222862576352782 38.85887301457069 0 0 0 0 -18.984017045721885 -37.990732216776905 0 -37.990732216776905 17.834519668773282 0 0 0 0 -17.371343789197454 -29.102163550174737 0 -29.102163550174737 5.8737593950245355 0 0 0 0 -31.337302884758174 -56.574952531973508 0 -56.574952531973508 2.1999743382702945 0 0 0 0 -63.231480813904454 -81.418737194564983 0 -81.418737194564983 -0.80075402999364087 0 0 0 0 -48.489877272587364 -78.550363387838388 0 -78.550363387838388 14.973779880160237 0 0 0 0 -17.766980742433276 -75.52745674986086 0 -75.52745674986086 -4.5619460596963108 0 0 0 0 -43.16401823639444 -80.700114018241948 0 -80.700114018241948 -10.00862257352037 0 0 0 0 -67.943822605579044 -99.917254782487362 0 -99.917254782487362 -10.48657077412372 0 0 0 0 -66.727725100136013 -96.574797530000978 0 -96.574797530000978 -19.334176890205526 0 0 0 0 -54.249778254111789 -96.196502659946646 0 -96.196502659946646 -20.100280704705256 0 0 0 0 -45.630592871601948 -76.691599548492832 0 -76.691599548492832 -15.289502561154222 0 0 0 0 -90.168027496726609 -78.750287442376703 0 -78.750287442376703 -12.758790070358373 0 0 0 0 -69.927349717551806 -90.074867295991226 0 -90.074867295991226 -31.864476355113766 0 0 0 0 -91.145353102900117 -75.701557418327866 0 -75.701557418327866 -39.377272411895319 0 0 0 0 -103.76022125937379 -104.90274785223119 0 -104.90274785223119 -38.21338906859728 0 0 0 0 -76.578406597397588 -107.0215728253163 0 -107.0215728253163 -28.849534675195173 0 0 0 0 -55.657659651549693 -101.89919275082866 0 -101.89919275082866 -49.723359760667336 0 0 0 0 -36.112501243533188 -45.379119466923612 0 -45.379119466923612 -14.687604821411696 0 0 0 0 -41.925501370471466 -44.38799199093728 0 -44.38799199093728 5.5489963787874075 0 0 0 0 -56.987896239337715 -52.638973728121982 0 -52.638973728121982 4.8804349486695173 0 0 0 0 -72.438361607873048 -47.563258061109082 0 -47.563258061109082 -30.954409126297833 0 0 0 0 -86.319020383172756 -85.326159590282714 0 -85.326159590282714 -25.619480199380632 0 0 0 0 -66.991021638197708 -57.821778591781367 0 -57.821778591781367 -14.207431094748472 0 0 0 0 -37.13565073546124 -38.850032857063979 0 -38.850032857063979 -36.004143482430663 0 0 0 0 -72.367755918374314 -41.119549298421134 0 -41.119549298421134 -32.24369044756213 0 0 0 0 -25.880313981385825 -54.543721145507334 0 -54.543721145507334 -71.120006097072292 0 0 0 0 -117.03908616363697 -75.187672961404132 0 -75.187672961404132 -67.695215902338873 0 0 0 0 -103.03768329356899 -47.881661802931376 0 -47.881661802931376 -63.914781217748896 0 0 0 0 -76.851129169037904 -69.365665111776366 0 -69.365665111776366 -46.462604621980063 0 0 0 0 -108.81543766042773 -84.106082313306274 0 -84.106082313306274 -70.274004669712667 0 0 0 0 -75.351828375129116 -84.199730500065925 0 -84.199730500065925 -117.11265505062966 0 0 0 0 -151.36964870124939 -75.175178237053842 0 -75.175178237053842 -121.06439187307387 0 0 0 0 -112.81028562689153 -71.121784666144322 0 -71.121784666144322 -126.71500736213784 0 0 0 0 -134.62700218232658 -125.47100184105784 0 -125.47100184105784 -162.82403238070765 0 0 0 0 -117.3115065866682 -83.49226263489777 0 -83.49226263489777 -91.781276214045647 0 0 0 0 -51.790322053448108 -99.82178224168365 0 -99.82178224168365 -75.562762921036665 0 0 0 0 -74.563170312396323 -55.002786361167182 0 -55.002786361167182 -55.989498779729274 0 0 0 0 -51.362193646791638 -112.50744673002055 0 -112.50744673002055 -101.84685611189525 0 0 0 0 -76.641920117832342 -100.67601249274776 0 -100.67601249274776 -74.883927531846325 0 0 0 0 -28.059612351908982 -82.301056512042578 0 -82.301056512042578 -73.148301458242713 0 0 0 0 -68.027275883076072 -104.56246000026067 0 -104.56246000026067 -49.951246988191997 0 0 0 0 -77.910818202253722 -120.23694747540594 0 -120.23694747540594 -72.260512743461732 0 0 0 0 -100.79408599607632 -96.550940392442499 0 -96.550940392442499 -45.120944326402423 0 0 0 0 -111.02759965927817 -111.95980054794063 0 -111.95980054794063 -67.579594736993386 0 0 0 0 -129.60542664670356 -82.097010187939304 0 -82.097010187939304 -40.404695859639105 0 0 0 0 -160.76125134688846 -73.665806792823787 0 -73.665806792823787 -71.750976544151172 0 0 0 0 -135.50737732817834 -101.3499974493634 0 -101.3499974493634 -111.24689514810234 0 0 0 0 -148.27425509429304 -97.678272427876436 0 -97.678272427876436 -71.249867994227316 0 0 0 0 -97.829636230155302 -131.60664313096277 0 -131.60664313096277 -115.64591229752659 0 0 0 0 -125.29697036034486 -97.259299989877491 0 -97.259299989877491 -112.32559137798853 0 0 0 0 -52.770411822086317 -110.59863457416759 0 -110.59863457416759 -154.86936613310445 0 0 0 0 -216.91328455348412 -88.209182009410142 0 -88.209182009410142 -113.35277740173569 0 0 0 0 -130.67002466513077 -124.23872326044284 0 -124.23872326044284 -225.33327237046615 0 0 0 0 -143.39037707125681 -83.05656478212768 0 -83.05656478212768 -205.88256271075807 0 0 0 0 -205.32887282492084 -95.560297467308828 0 -95.560297467308828 -104.6538667268087 0 0 0 0 -413.95991932432662 -360.3938653386449 0 -360.3938653386449 -313.95084090311457 0 0 0 0 -312.06562353911067 -167.25415637175956 0 -167.25415637175956 -147.21326100892111 0 0 0 0 148.3817516330073 75.864664388779602 0 75.864664388779602 -88.85763897826655 0 0 0 0 0.71237465630145103 -0.85893530654800543 0 -0.85893530654800543 -1.1516393789792261 0 0 0 0 -31.100009840825805 -32.020945672956259 0 -32.020945672956259 -3.2678936963698106 0 0 0 0 -8.896080684804474 -57.097010458909153 0 -57.097010458909153 -98.44533009845145 0 0 0 0 -31.397277904748989 -55.953397073708402 0 -55.953397073708402 -46.259779538944713 0 0 0 0 -17.421325443494425 -47.192392087536973 0 -47.192392087536973 -52.700597087778078 0 0 0 0 -15.957351466997352 -57.383275735203824 0 -57.383275735203824 -46.132473517032849 0 0 0 0 -17.179079252200836 -23.267534759675243 0 -23.267534759675243 -11.620392273704965 0 0 0 0 -7.8543058604091129 -50.593337708270155 0 -50.593337708270155 -52.607153298193225 0 0 0 0 -33.767201975964781 -80.479189624684295 0 -80.479189624684295 -58.367201674888861 0 0 0 0 -23.228651455645377 -63.76620842196985 0 -63.76620842196985 -39.911229581540283 0 0 0 0 -46.629693330629379 -60.151516658881974 0 -60.151516658881974 -8.1440050937308115 0 0 0 0 -49.739250961283688 -69.989193003323635 0 -69.989193003323635 -21.221258327693249 0 0 0 0 32.370120975235295 11.243980165053472 0 11.243980165053472 -1.1032673926347343 0 0 0 0 5.4376497961757195 -24.027740667021135 0 -24.027740667021135 15.903056791653853 0 0 0 0 57.608027071476499 -10.258260633758709 0 -10.258260633758709 -3.0348630496555415 0 0 0 0 3.9409158910422644 -6.6719988269100785 0 -6.6719988269100785 12.061205692828786 0 0 0 0 -45.029434176812174 -52.124259068491938 0 -52.124259068491938 -21.420854693399633 0 0 0 0 1.3608367097941356 -1.969307130171682 0 -1.969307130171682 0.14651488910108412 0 0 0 0 -67.759686273328043 -51.955733860116197 0 -51.955733860116197 -13.552761616433713 0 0 0 0 -61.54530881278879 -91.714773516740934 0 -91.714773516740934 -20.266827999789655 0 0 0 0 -51.520548175789827 -91.226549286831982 0 -91.226549286831982 -32.176438223929836 0 0 0 0 -63.835319500426067 -97.578384099905179 0 -97.578384099905179 -33.705081174956831 0 0 0 0 -50.463172425423181 -87.460357092743834 0 -87.460357092743834 -41.554060082252249 0 0 0 0 -44.322078650450749 -72.390701391965081 0 -72.390701391965081 -21.053729107943582 0 0 0 0 -75.149851025184944 -82.137082589230886 0 -82.137082589230886 -23.469949996446303 0 0 0 0 56.433325503743617 -35.876137741895946 0 -35.876137741895946 37.028656235921972 0 0 0 0 94.643322108287975 -57.598312516346596 0 -57.598312516346596 22.299269114524122 0 0 0 0 69.76233243723118 -7.8973529965307989 0 -7.8973529965307989 -1.3986374797823373 0 0 0 0 56.569768364341144 -3.7528413699274097 0 -3.7528413699274097 20.638931052039425 0 0 0 0 64.775009966219329 1.390415165701409 0 1.390415165701409 17.128002000774359 0 0 0 0 98.907971587060274 9.0964739789910709 0 9.0964739789910709 4.2354928563117937 0 0 0 0 110.90202834636943 -48.223292335228734 0 -48.223292335228734 -0.92554981779539958 0 0 0 0 101.01253730906865 -25.351613660616749 0 -25.351613660616749 -15.859182690550966 0 0 0 0 101.26229495192547 -28.776550474703072 0 -28.776550474703072 25.778759232958237 0 0 0 0 -0.1706043622240383 0.19624158604342057 0 0.19624158604342057 1.1112823466786139 0 0 0 0 177.72592952523246 -1.8886789540015343 0 -1.8886789540015343 5.4536576777791197 0 0 0 0 133.53349366536895 -60.377220317120191 0 -60.377220317120191 56.4864415111997 0 0 0 0 135.43059067217291 -21.320311522516022 0 -21.320311522516022 77.537436709070789 0 0 0 0 192.84392389289678 -62.649561031556914 0 -62.649561031556914 25.062283976987146 0 0 0 0 145.83465571143824 -16.224611454789738 0 -16.224611454789738 24.52323469593739 0 0 0 0 80.044609324919293 -56.535857160208252 0 -56.535857160208252 101.58999258967924 0 0 0 0 62.396331816158636 -62.462217590561977 0 -62.462217590561977 100.66678770375529 0 0 0 0 60.538837026819238 -64.323610079688024 0 -64.323610079688024 134.68942164357804 0 0 0 0 74.627790421029204 -40.085085446225094 0 -40.085085446225094 92.895004203475764 0 0 0 0 -62.884747963040354 -103.68114684995408 0 -103.68114684995408 -12.877749070835762 0 0 0 0 -72.596310770213677 -91.044428039110244 0 -91.044428039110244 -20.222245593144464 0 0 0 0 -108.56401874272308 -101.33266890804245 0 -101.33266890804245 -4.0692209077697044 0 0 0 0 -116.31039167087874 -48.088342826195912 0 -48.088342826195912 -11.646312355646614 0 0 0 0 -197.2128381802213 -86.171452549148853 0 -86.171452549148853 15.047840087936038 0 0 0 0 42.84227030746024 -49.608506011379859 0 -49.608506011379859 69.691276218402891 0 0 0 0 0.6588426985875786 -3.2696027213300791 0 -3.2696027213300791 9.3270094525450666 0 0 0 0 -139.90586647106375 -10.115523778936222 0 -10.115523778936222 -32.314690924385744 0 0 0 0 -115.68467403766954 -103.27366649692294 0 -103.27366649692294 -34.729642084796069 0 0 0 0 -111.80130208897117 -85.594118708127098 0 -85.594118708127098 17.758893499984879 0 0 0 0 -30.084866544329998 -96.773430881168224 0 -96.773430881168224 12.309291840474543 0 0 0 0 -144.57460445753907 -47.861917834863817 0 -47.861917834863817 131.9189201516956 0 0 0 0 -75.45703951384894 -33.864892477988633 0 -33.864892477988633 111.15503790609682 0 0 0 0 -0.087941874102631823 -0.94246747769050643 0 -0.94246747769050643 3.701762809183899 0 0 0 0 -356.37747839715939 -4.436003773319726 0 -4.436003773319726 164.05838927440755 0 0 0 0 -141.17870159940685 -121.88776126518769 0 -121.88776126518769 201.0103994962119 0 0 0 0 110.53398495402325 -182.54783542250425 0 -182.54783542250425 116.16570146984623 0 0 0 0 -28.229626420750719 14.743502507655649 0 14.743502507655649 125.74067032297444 0 0 0 0 -165.86863596486785 -16.640564435883391 0 -16.640564435883391 198.53702920374417 0 0 0 0 -8.3537959317864079 -76.353921393797918 0 -76.353921393797918 164.28957221944415 0 0 0 0 147.11318036411558 -131.69662959089146 0 -131.69662959089146 144.64518361720184 0 0 0 0 411.35983925518383 -188.42121417852243 0 -188.42121417852243 33.817570171845546 0 0 0 0 30.543914292997215 80.404006395050146 0 80.404006395050146 65.883194201233209 0 0 0 0 83.746873120138844 -296.54099055251459 0 -296.54099055251459 220.08487276304459 0 0 0 0 11.940413715006798 -37.043452757560772 0 -37.043452757560772 -71.333606335202603 0 0 0 0 30.393560680661267 -49.359687096176913 0 -49.359687096176913 118.1540464599384 0 0 0 0 -1.3104096485075587 -1.0575353891106563 0 -1.0575353891106563 -0.71753556871028223 0 0 0 0 10.283696919968861 -20.679489433324306 0 -20.679489433324306 -68.335141764098353 0 0 0 0 8.3611567070947785 -19.868144905216923 0 -19.868144905216923 -43.841626954501407 0 0 0 0 -30.658232606443562 -42.256678942607323 0 -42.256678942607323 -55.536864787002742 0 0 0 0 -32.222935073894405 -14.103232633736297 0 -14.103232633736297 -23.102942287170663 0 0 0 0 -26.023526529318588 -3.1121967730941833 0 -3.1121967730941833 -18.017682208905171 0 0 0 0 -46.51590962768114 -14.10180357184845 0 -14.10180357184845 -23.20492501418903 0 0 0 0 32.68683561759326 -32.538669866553619 0 -32.538669866553619 -125.06981116989209 0 0 0 0 6.6434648098026052 -8.5011476435785518 0 -8.5011476435785518 -4.2431081496118361 0 0 0 0 -17.092741065112932 -0.46010270498572936 0 -0.46010270498572936 -21.304385666063354 0 0 0 0 0.10439478135776881 -47.0682638174967 0 -47.0682638174967 45.92704274811058 0 0 0 0 -0.096128454521931417 7.8164633750106987 0 7.8164633750106987 -10.100880565675197 0 0 0 0 5.862545801075612 -59.820864774241272 0 -59.820864774241272 32.815024278259443 0 0 0 0 -7.7374208790557972 -23.076971652263161 0 -23.076971652263161 -8.2627857465311951 0 0 0 0 -19.458742249171337 -8.583521016400482 0 -8.583521016400482 -22.341117949946238 0 0 0 0 -3.9908889213274961 -32.00036764208221 0 -32.00036764208221 103.87142201425922 0 0 0 0 -0.99908728096686161 -3.6599289821242831 0 -3.6599289821242831 -11.470495491520985 0 0 0 0 7.2591787942783412 -64.120259897727237 0 -64.120259897727237 -93.96083498853568 0 0 0 0 6.7914065545624638 -5.4173529729252694 0 -5.4173529729252694 4.0419581677762233 0 0 0 0 -17.529993213973285 -92.135245451146375 0 -92.135245451146375 -16.16388147656744 0 0 0 0 169.09807261177684 -35.021124862116267 0 -35.021124862116267 -35.496719820717772 0 0 0 0 -32.875196880849217 -86.269296013663279 0 -86.269296013663279 52.441420054261016 0 0 0 0 72.694942500370416 33.039882454789222 0 33.039882454789222 -79.987065013462598 0 0 0 0 -12.431477970523705 -19.736074601721295 0 -19.736074601721295 -5.3439739899910741 0 0 0 0 -14.298963307089252 -51.400085230919103 0 -51.400085230919103 -31.164101102005588 0 0 0 0 -37.376930774352331 -35.320149717721961 0 -35.320149717721961 43.84957072548184 0 0 0 0 10.90064383802337 -0.31795661175362966 0 -0.31795661175362966 -49.154777816294882 0 0 0 0 -0.23202463587244893 -11.466563495482092 0 -11.466563495482092 -32.540195029564529 0 0 0 0 -24.159668107940888 -59.857185746636333 0 -59.857185746636333 -14.50223656169419 0 0 0 0 4.6800696651016302 -4.3955911536550918 0 -4.3955911536550918 2.708713680008997 0 0 0 0 -32.653892141897359 -16.416643489223588 0 -16.416643489223588 -32.808006300488159 0 0 0 0 -30.430612197268147 -80.415743627445863 0 -80.415743627445863 -91.79340184085595 0 0 0 0 -15.524906337774155 -33.440472256543217 0 -33.440472256543217 -15.888933590313798 0 0 0 0 -3.4791779034676438 -20.693768506465858 0 -20.693768506465858 -17.806404160814054 0 0 0 0 -31.961401666073471 -25.834362383091502 0 -25.834362383091502 42.925935035315888 0 0 0 0 -25.302355836551101 -5.8871750375764123 0 -5.8871750375764123 15.751275905383409 0 0 0 0 6.6362610484520701 -18.332786618431555 0 -18.332786618431555 14.187453390975634 0 0 0 0 1.0071946729144656 -7.1079754740931094 0 -7.1079754740931094 -6.09444183290816 0 0 0 0 6.4338927736267806 -17.892093535689469 0 -17.892093535689469 29.531598319455043 0 0 0 0 15.485691433905231 -26.267544418094531 0 -26.267544418094531 10.307308286402076 0 0 0 0 12.718479095443854 -39.28273910573489 0 -39.28273910573489 63.64125951751339 0 0 0 0 14.140308612180434 -71.934930204550483 0 -71.934930204550483 36.133080821053682 0 0 0 0 18.77247104343769 -87.107326068329712 0 -87.107326068329712 83.057758432532864 0 0 0 0 51.648873409960288 -77.818099480679848 0 -77.818099480679848 19.665951421291538 0 0 0 0 43.5088597523918 -70.148412081385686 0 -70.148412081385686 12.517862093985315 0 0 0 0 23.368273357395992 -114.94453874383089 0 -114.94453874383089 42.39526662126525 0 0 0 0 30.794523316855702 -85.547719538209094 0 -85.547719538209094 46.994662347684425 0 0 0 0 -16.694358793694846 -20.440077183938683 0 -20.440077183938683 -2.1456928656466516 0 0 0 0 39.103634746726016 -35.944718622479684 0 -35.944718622479684 -80.288870275812769 0 0 0 0 57.214105262203702 -136.53686215965399 0 -136.53686215965399 -9.7999718912703884 0 0 0 0 1.5963460204588227 -1.8667170716527499 0 -1.8667170716527499 1.4785531185754657 0 0 0 0 -185.01763682101682 -56.387533516531676 0 -56.387533516531676 637.13921897125465 0 0 0 0 49.867998680907021 -75.116757272752011 0 -75.116757272752011 -181.717062260886 0 0 0 0 -39.321087634379182 -104.48439353259801 0 -104.48439353259801 233.337802995949 0 0 0 0 53.271765809688219 -189.99582374969498 0 -189.99582374969498 132.55239548994814 0 0 0 0 245.41537018457893 23.382002309976997 0 23.382002309976997 118.76472732225739 0 0 0 0 6.9469532592911492 -1.3128447256358413 0 -1.3128447256358413 56.959117501076889 0 0 0 0 4.3487121241805191 -1.1559809319168926 0 -1.1559809319168926 0.10999320818614733 0 0 0 0 0.99248890377748467 1.2809515458425267 0 1.2809515458425267 71.746524993753155 0 0 0 0 8.9446264166581386 1.2901128411272111 0 1.2901128411272111 59.08584061059355 0 0 0 0 -3.914715365187476 -4.8358597724579795 0 -4.8358597724579795 64.429107643334646 0 0 0 0 -3.4348432712095018 -6.0501878651627976 0 -6.0501878651627976 65.827364441694044 0 0 0 0 2.1290501505973722 -0.95722460833261547 0 -0.95722460833261547 0.28076049642518708 0 0 0 0 11.906836023569213 -0.307180700293884 0 -0.307180700293884 62.603757559993937 0 0 0 0 61.352165028542004 -5.869889071615944 0 -5.869889071615944 51.603830891872121 0 0 0 0 107.25134865354721 -129.89435773573496 0 -129.89435773573496 90.73161427655532 0 0 0 0 -75.043481956327014 -24.902922608574045 0 -24.902922608574045 301.92756751456227 0 0 0 0 -22.906628469148302 -19.247085707637183 0 -19.247085707637183 147.79375782325451 0 0 0 0 136.2354032870021 9.3608024890968409 0 9.3608024890968409 141.94066805992998 0 0 0 0 -3.659642600555344 -50.016993699632167 0 -50.016993699632167 439.43170085627656 0 0 0 0 
</DataArray>
<DataArray type="Float64" Name="cross_section_updated" format="ascii">
1 1 1 1 1 1 1 1 1 1 0.0094082215710910647 1 0.010682295582324416 1 1 1 1 1 1 1 0.0096571056856623941 1 0.010235906162763755 1 1 1 1 0.0098931756499031371 1 1 1 1 1 1 1 1 1 1 1 1 1 1 1 1 1 1 1 1 1 1 1 1 1 1 1 1 1 1 0.0098467207091512271 1 1 1 0.0097655165997572388 1 1 1 1 1 1 1 1 1 1 1 1 1 1 1 1 1 1 0.010175963604573924 1 1 1 1 1 1 1 1 1 1 1 0.0097705262859154787 0.010523009637091654 1 1 1 1 1 1 1 1 1 1 1 1 1 1 1 0.0099659683810688193 1 1 1 1 1 1 0.009831755412065598 1 1 1 1 1 1 1 1 1 1 1 1 1 1 1 0.0099660592443245218 1 1 1 1 1 1 1 1 1 1 1 1 1 0.0099187958906060154 1 1 1 1 0.009277032527525101 1 1 0.010206748999041483 1 0.010341575642042094 0.009962023822398712 1 1 1 1 1 0.010296651770217241 1 1 1 1 1 1 1 1 1 1 1 1 1 1 0.0095441715891787723 1 1 1 1 1 1 1 0.010103817343296115 1 1 0.010232777129650174 1 1 1 1 1 1 1 1 1 1 1 1 1 1 1 1 1 1 1 0.0091919836212321811 1 1 1 1 0.0093771130513898571 1 1 1 1 1 1 1 1 0.010067509858250601 1 1 1 0.010128959786354062 1 1 1 1 1 1 1 1 1 1 1 0.0097960804950836568 1 0.0093024348984280698 1 1 1 1 1 1 1 0.010223523102475833 1 0.0088088505963387145 1 1 1 0.0093851265713671105 1 0.0098055745738193992 1 1 1 1 1 1 0.010126873820157929 1 1 1 1 1 0.010305149337249487 1 1 0.010314420127305894 1 1 1 1 1 1 1 0.0100895958452995 1 1 1 1 1 1 1 1 1 1 1 1 1 1 1 1 1 1 1 1 0.010082306670051125 1 1 0.0097226509041213847 1 1 1 1 1 1 1 1 1 1 1 1 1 1 1 1 1 1 1 1 1 1 1 1 1 1 1 1 1 1 1 1 1 1 1 1 1 1 1 1 1 1 1 1 1 1 1 1 1 1 1 1 1 1 1 1 1 1 1 1 1 1 1 0.0095912565617408477 1 1 1 1 1 1 1 1 1 0.010161192847810856 0.0099793977955931479 1 1 0.010049327586758312 1 1 1 0.010068128979897728 1 1 1 1 1 1 0.01006800183439239 1 1 1 1 1 1 1 1 1 1 1 1 1 1 1 1 1 0.010169011097452036 1 0.0089707018902766642 1 1 1 1 1 1 1 0.010157868512057125 0.010641221186376953 1 1 1 1 0.010464134153232781 1 1 1 1 1 1 0.010002361443100249 1 1 1 1 1 1 1 1 1 1 1 1 0.010488748961741533 1 1 1 1 0.01133934161911908 1 1 1 1 1 1 1 1 1 1 1 1 1 0.0098815086802785199 1 0.011403541416938501 1 1 1 1 1 1 1 1 1 1 1 1 1 1 0.012039419395230485 1 1 1 1 1 1 1 1 1 1 1 1 1 1 1 1 1 1 1 1 1 1 1 1 1 1 1 1 1 1 1 1 1 1 1 1 1 1 1 1 1 1 0.010079494063821571 1 1 1 1 1 0.010198573531504287 1 1 0.01003321498471928 1 1 0.010021729666292572 1 1 1 0.0098755305394702449 1 1 0.0097839678644590193 1 1 1 1 1 1 1 1 1 1 1 1 1 1 1 1 1 1 1 1 0.0099979406827568965 0.0099962756066392846 1 1 1 1 0.010222803915256897 1 1 1 0.0099997671011312645 1 1 1 1 0.0099511400083565869 1 1 0.010415063628143005 1 1 0.010672315543142876 1 1 1 0.0098438440308295846 1 1 1 1 1 1 1 1 1 1 1 1 1 1 1 1 1 1 1 1 1 1 1 1 1 1 1 1 0.010740348818215943 1 0.0095849565037099769 1 0.0097711666856748047 1 1 1 1 0.010626101477074157 1 1 1 1 1 1 0.0099273797012709736 1 1 1 0.010136094499340364 1 1 0.011517758698471856 0.010324258607124879 1 1 1 1 0.010208756585127592 1 1 1 0.010554610572526624 1 1 1 0.010002392263592431 1 0.010204027134013912 1 1 1 1 0.010214180709222384 1 1 1 1 1 1 1 1 0.011544987578267345 1 1 1 1 1 0.01024153224678981 1 1 1 1 1 1 1 1 1 1 1 1 0.010807105678093711 1 1 1 1 1 1 1 1 1 1 1 1 1 1 0.0099414502527328738 1 1 0.0098493150740469743 1 1 1 1 1 0.012065139902080781 1 1 0.0099898051117442536 1 1 1 1 1 1 0.010045498376586314 1 1 1 1 1 1 0.010933773377405476 1 1 0.0097345121508291797 1 1 0.010948082631518138 0.010125393351446924 1 1 0.009882972491689155 1 1 0.011606494544824151 1 0.0098729811867069132 0.0098980145231839407 0.0099921370336495986 1 1 1 1 1 0.010020805796277453 1 1 1 0.010409159197957644 1 0.0098379851041665994 1 1 0.010061031971315875 1 1 1 1 1 1 1 1 1 1 1 1 1 1 1 0.010191522865536796 1 0.012667940128064631 1 1 0.010011242260370827 1 1 0.011197896163071163 1 0.0098136178200424543 1 1 1 1 1 0.0095882263096827083 0.0099952334357888695 1 1 1 1 0.010107595134183911 1 1 1 1 1 1 1 1 1 0.01036023371226338 1 1 1 1 1 1 1 0.010104908623616422 1 1 0.010002937173343695 1 1 1 0.010025424833371772 0.009493181783943842 1 1 0.012249839385415845 1 1 1 0.0098406031643720922 1 0.012090486955543852 1 1 1 0.01061177629756254 1 1 0.010726722083256805 1 1 1 1 1 1 1 1 1 0.010405221561328299 1 1 1 1 1 1 1 1 1 1 1 1 1 1 1 1 0.0098575738013640651 1 0.010144079842787188 1 1 1 1 1 1 1 1 1 1 1 1 1 1 1 1 1 1 1 1 1 1 0.010282106322808069 0.010484285891981689 1 1 1 1 1 1 1 1 1 1 1 1 1 1 1 1 1 1 1 0.0099832076111904932 1 1 1 1 1 1 1 1 1 1 1 1 1 1 1 1 1 1 1 1 1 1 1 1 1 1 1 1 1 1 0.013779142686834327 1 1 1 0.01355651249865376 0.0097483731337878708 1 1 1 1 1 1 1 1 1 1 1 1 1 0.0098882768516714604 1 1 1 1 1 1 1 0.0099147515234406652 1 1 1 1 1 1 1 1 1 1 1 1 0.011026323972140192 1 1 1 1 1 1 1 1 1 1 1 0.010231533614537523 1 1 1 1 1 1 1 1 1 1 1 1 1 1 0.0098907325314038022 1 1 1 1 1 1 1 1 1 1 0.009863516046207766 0.0084698418826171691 1 1 1 1 1 1 0.0078283575777466242 1 1 1 1 1 1 1 1 1 1 1 1 0.0098522339845249982 1 1 1 1 1 1 1 0.010059455808874395 1 1 1 1 1 1 1 1 1 1 1 1 0.010042192636444156 1 1 1 1 1 1 1 1 1 1 1 1 1 0.010165258629109586 1 1 1 1 1 1 1 1 1 1 1 1 1 1 1 1 1 0.010067304273356384 1 1 1 1 1 1 1 1 1 1 1 1 1 1 1 1 1 1 1 1 1 1 1 1 1 1 1 1 1 1 1 1 1 1 1 1 1 1 1 1 1 1 1 1 1 1 1 1 1 1 1 1 1 1 1 1 1 1 1 1 0.011211655544819916 1 1 1 1 1 1 1 1 1 1 1 0.011658865249379207 1 1 1 0.011417762868415227 1 1 1 1 0.0093402663696708875 1 1 1 1 1 1 0.0091717611917013775 1 1 1 1 1 0.0090331622036373821 1 0.0093726116846348344 1 1 0.010093269613779973 1 1 1 1 1 1 1 1 1 1 1 1 1 1 0.0088411701542877186 1 1 1 1 1 1 0.0091301496474480454 1 1 1 1 1 0.0098733876626671737 1 1 1 1 0.010070868145338901 1 0.0096761485081032269 1 1 1 1 1 1 0.0096282804173794534 0.01020752591866138 1 1 0.010293733142004135 0.0089858151398131726 0.0100564287033671 1 1 1 0.0097285908147634777 1 1 0.01032558969849527 1 0.010803931602039921 1 1 1 0.01048828485169144 1 1 1 0.010451150364185754 1 1 1 1 0.010025302057516523 1 1 1 1 1 1 1 1 1 1 1 1 1 1 1 1 1 1 1 1 1 1 1 1 1 1 1 1 1 1 1 1 1 1 1 1 1 1 1 1 1 1 0.010113271745897387 1 1 1 1 1 1 1 1 0.010497969648923071 0.0099219903702624825 0.011055617192654767 1 1 1 1 0.010229537554036071 1 1 0.011060187738708449 1 1 1 1 1 0.010004389213187415 1 1 0.012106022987048189 1 1 1 1 1 0.0093843129329518674 1 0.010662024464707735 1 1 0.0073206264328259611 1 1 1 1 1 1 1 1 1 1 1 1 1 1 0.0099541784866045129 0.011357817125849334 0.0092664531162942061 1 1 0.010686727296649396 1 1 1 1 1 0.0099521713486528801 0.0099549751394916557 1 1 1 1 0.01069438145145634 1 0.012573999956307938 1 1 1 0.0090968675833108473 0.01029418319602679 1 1 1 1 0.010078141142931821 0.010285526116300034 1 1 1 1 1 1 1 1 1 1 1 1 1 1 1 1 1 1 1 0.0099812012042387495 1 1 1 1 1 1 1 1 1 1 1 1 1 1 1 0.010348894126350844 1 0.0099988896623774484 1 1 1 1 1 1 0.010101434096397582 1 0.0099394293887398993 1 1 1 1 0.010070484829105778 1 0.0096567904354655683 0.010149733029583163 1 0.0097094856486494054 1 1 1 1 1 1 1 0.0097711386137026394 1 1 1 1 1 0.010001359283004897 0.010014732739359079 1 0.010354819287244476 1 1 1 1 1 1 1 1 1 1 1 1 1 1 1 1 1 1 1 0.0089750230925019457 1 1 1 1 1 1 1 1 1 1 1 1 1 1 1 1 1 1 1 1 1 1 1 1 1 1 1 0.0099984052744426337 1 1 0.010001166126638757 1 1 1 0.01025435155512382 1 1 1 1 1 0.0099771886774516032 1 1 0.010018774490839339 1 1 1 1 1 1 1 1 1 1 1 1 1 1 1 1 1 1 1 1 1 1 1 1 1 1 1 1 0.0099888642720910997 1 1 1 0.0099743597531623471 1 1 1 0.0099713246286212247 0.0099864077719241731 1 1 1 0.009936336083236165 1 1 1 1 1 1 1 1 1 1 0.009997658692210365 1 0.010314376324448231 1 1 1 1 1 1 0.0098062418375022137 1 0.0098624217656429706 1 0.010314642862786508 1 1 1 1 1 0.010185517915039639 0.0096600107526278803 1 1 1 1 1 1 1 1 1 1 1 1 1 1 1 1 1 1 1 1 1 1 1 1 1 1 1 1 1 0.010088556154124292 1 1 1 0.010213627629051227 1 1 1 1 1 1 1 1 1 1 1 1 1 1 0.0099660176153572189 1 1 1 0.0099288198224821815 1 1 1 1 1 1 1 1 1 1 1 1 1 1 1 0.0099544288673329359 1 1 1 1 1 1 1 1 1 1 1 1 1 1 1 1 1 1 1 1 1 1 1 1 1 1 1 0.0092988621438076825 1 1 1 1 1 1 1 1 1 1 1 1 1 1 1 0.010254640305464784 1 0.010405940747928598 1 1 1 0.010463831896551774 0.0099988110179493172 0.0090243115582821463 1 1 1 1 1 1 1 1 1 1 1 1 1 1 1 1 1 1 1 1 1 1 1 1 1 1 1 0.0097290715193960164 1 1 1 1 1 1 1 1 0.0099764638818811459 1 1 1 0.010037590043897022 1 1 1 0.01014791832200572 1 1 1 1 1 1 1 1 0.0099945816136953487 0.010426863833633908 1 1 1 0.010398843428673844 1 1 1 1 0.010004181572961365 1 1 0.010037226481820705 1 1 0.010005753390327931 1 0.0097376491989928475 1 1 1 1 1 1 1 1 1 1 1 1 1 1 0.01022281680869822 1 1 0.01040468130482757 1 0.0098351083860302429 0.0098473532722306162 1 1 1 0.010238734940693002 1 1 1 1 1 0.010104204113278736 0.010161092414536903 1 0.009904445728562165 1 1 0.0099743909551492475 1 1 1 1 1 1 1 1 1 1 1 1 1 0.0099363227154575535 0.010218565265485013 1 1 1 1 1 1 1 1 0.0099672094588347734 1 1 1 1 1 0.0099913165783462078 1 1 1 1 0.01004810198171977 1 1 1 1 1 1 1 0.010508318289172747 0.010597889300304558 1 1 1 1 1 1 1 1 1 0.0098918132127870425 1 1 1 0.0096464973144989898 1 1 1 1 1 1 1 1 1 1 1 1 1 1 1 1 1 1 1 1 0.0095379284517433677 1 1 1 1 1 0.0098886916039538798 1 0.0093694640763657584 1 1 1 1 1 1 1 1 1 0.0099856863133715914 1 1 1 1 1 1 1 0.0099186851440117869 1 1 0.010018691916946782 1 1 1 0.0099428245458553794 1 1 0.0099669745017955599 1 1 1 1 1 1 1 1 1 1 1 1 1 1 1 1 1 1 1 1 1 1 1 1 1 1 1 1 1 0.0098760651468578868 1 1 1 1 1 1 1 1 1 1 1 1 1 1 1 1 1 1 1 1 1 1 1 1 1 1 1 1 1 1 1 0.0099384281132049428 1 1 1 1 1 1 1 1 1 1 1 1 1 1 1 1 1 1 1 1 1 1 1 1 0.009960446030463992 1 1 1 1 1 1 1 1 1 0.0099649160093485262 1 1 1 0.0099154674882428601 1 1 0.0097861777496316797 1 1 0.00989005681149723 1 1 1 0.0086039408730572212 1 1 1 1 0.0099425231774970466 1 1 1 1 1 1 1 1 1 0.01018459984585899 1 0.0088069963987253003 1 1 1 1 0.0094056665518055475 1 1 1 0.0099369604005579548 1 0.0099864089216636278 1 1 1 1 1 1 1 1 1 1 1 1 1 1 1 1 1 1 1 1 1 1 1 1 1 1 1 1 1 1 1 1 1 1 1 0.010260653877812035 0.010728668603675997 1 1 1 1 1 1 1 1 1 1 1 1 0.0083601932532577153 1 1 1 1 1 1 1 0.010005039557539157 0.0087237167350644948 1 1 1 1 0.0099950406619599558 1 1 1 1 1 1 1 1 1 1 1 1 1 1 1 1 0.0090060296295331743 1 1 1 1 0.0096168064855333881 1 1 0.010580962126226853 1 0.011050265137227115 1 1 1 0.0087217955201107939 1 0.0091073433392098724 1 1 1 1 1 1 1 0.0096731591176806402 1 1 1 0.010113281743652069 1 1 1 1 1 1 1 1 1 1 1 1 1 0.010169850847893102 1 0.010462446428844337 1 1 0.010533464249623488 1 1 1 1 1 1 1 1 1 1 1 1 0.01024086866867225 1 1 1 1 1 1 1 1 1 1 1 1 1 1 1 1 1 1 1 0.0097157027800361569 1 1 1 1 1 1 0.0099973993424858631 1 1 1 0.0093354501201990715 1 1 1 1 1 1 1 1 1 1 1 1 1 1 1 1 1 1 1 0.010158857442882651 1 1 1 1 1 1 1 1 1 1 1 1 1 1 1 1 1 1 1 1 1 1 1 1 0.0095465424418436119 1 1 1 1 1 1 0.0087645541323439231 1 1 1 1 0.010672004435543626 1 1 1 1 0.010400655246601987 0.0099996523223048299 0.010024889564953591 1 1 1 1 1 1 0.01067997851453802 1 1 1 0.0099974770947586153 1 1 1 1 0.010392028686865985 1 1 0.010100762583649291 0.010645081612561128 1 1 1 1 0.0097506167658418953 1 1 0.0098881167373495293 1 1 1 1 1 1 1 1 1 1 1 1 1 1 0.010176680067788806 1 0.0099654809960734152 1 0.010005686002593025 1 0.010486507437346585 1 1 1 1 1 1 0.0101847285887802 1 1 1 1 0.010203769572041797 1 1 1 1 1 0.010041095023958526 1 0.010104163153901545 1 1 1 1 1 1 1 1 1 0.010039474180736457 1 1 1 1 1 1 1 1 1 1 1 1 1 1 1 1 0.010133637878871385 1 1 1 1 1 1 1 1 1 1 1 1 1 1 1 1 1 1 1 1 1 1 1 1 1 0.011837847795104573 1 1 0.0099392088056589178 1 1 1 1 0.0098671787615973467 1 0.0099043515994268628 1 1 1 1 1 1 1 1 1 1 1 1 0.010089777010840278 1 1 1 0.010253534634458036 1 1 1 1 0.010380343829161696 1 1 1 1 1 1 1 1 0.011513247023249391 1 1 1 1 1 1 1 1 1 1 1 1 1 1 1 1 1 1 1 1 1 1 1 1 1 1 1 1 1 1 1 1 0.010851050063564982 1 1 0.010660638396247596 1 1 1 1 1 1 1 1 1 1 1 1 0.010234474882440827 1 0.010127149339892953 1 1 1 0.011214627938243621 1 1 1 1 0.010027421748356493 0.010302766158414339 1 0.0097323835721053169 0.010407893710024891 1 1 0.010000134661850268 1 1 1 1 1 1 1 1 1 1 1 1 0.0099141768546421472 1 1 1 1 1 1 1 1 1 1 1 1 1 1 1 0.0095480274481668168 1 1 1 1 1 0.0089335254713753306 1 1 0.010126159795429017 1 0.0096125462320649068 1 1 1 1 1 1 1 1 1 1 1 0.01053836890732454 1 1 1 1 0.010461595092189899 1 1 0.010202022219257588 1 1 1 1 1 1 0.0099994559526556288 1 0.010020853557167121 0.0097133023143999245 1 1 1 0.0099435220755243053 0.0094348240812082585 1 1 1 1 1 0.0099759825198712376 1 1 1 1 1 1 1 1 1 1 1 1 1 0.010101814947122527 1 0.0099900825697796791 1 1 1 1 1 1 1 0.010216636053857756 1 1 0.010223985766544956 1 1 1 1 1 1 0.0084706416438938871 1 0.010746647728649757 1 1 1 1 1 1 1 1 0.010110686742058329 1 1 1 0.010114821106735228 1 1 1 1 1 1 1 1 1 1 1 1 0.010153317904812179 1 1 1 0.01005917589068947 1 0.010011786069994916 1 1 1 1 1 0.010124682228925137 0.010253940120892334 1 1 1 1 1 1 1 1 1 1 1 1 1 1 1 1 1 1 1 1 1 1 1 1 1 1 1 1 1 1 1 1 1 1 1 1 1 1 1 1 1 1 1 1 1 1 1 1 0.009424141421220297 1 0.0098059331768287263 1 1 1 1 1 1 0.0090479409002568387 1 1 1 1 1 1 1 1 1 1 1 1 1 1 1 1 1 1 1 1 1 1 1 1 1 1 1 0.010024473074436874 1 1 1 1 0.010542896418478408 1 1 0.010748261904930261 0.0091232570425277635 1 1 1 1 0.010608840500643582 1 1 0.010976903344278519 1 1 0.010357431216302707 1 1 1 1 1 1 1 1 1 0.0092591464800031963 1 1 1 1 1 1 1 1 1 1 1 1 1 1 1 1 1 1 1 1 1 1 1 1 1 0.010704914109090621 1 1 1 1 0.010110057605083747 1 0.010718870798736926 1 1 1 1 1 1 1 1 1 1 1 1 1 0.0095308657978239505 1 0.0098431349651670625 1 1 1 1 1 1 1 1 1 1 1 1 1 1 1 1 1 1 1 1 1 1 0.01031685877118807 1 1 1 1 1 1 1 1 1 1 1 1 1 1 1 1 1 1 1 1 1 1 1 1 1 1 0.010838289859178816 1 1 1 1 1 1 1 1 1 1 1 1 1 1 1 1 1 1 1 1 1 1 1 1 1 1 1 1 1 1 0.0099882869708857284 1 1 1 1 1 1 1 1 1 1 1 1 1 1 1 1 1 1 1 0.0098280766891060464 1 1 1 1 1 1 1 1 1 1 1 1 1 1 1 1 1 1 1 1 1 1 1 1 0.0099737737028431014 1 0.0098974987925222867 1 1 1 1 1 1 1 1 1 1 1 1 1 0.01032156427328291 1 1 0.0087301177342547377 1 0.010020515710381856 1 0.010007081152602725 1 1 1 1 1 1 1 1 1 1 1 0.0092339737244617089 1 1 1 1 1 0.0097346566318134778 1 1 0.0099131831325021021 1 1 1 1 1 1 0.009913354776252447 1 1 1 0.0087694075561779317 1 1 1 1 1 1 1 1 0.0099986087642130132 1 1 1 1 1 1 1 1 1 1 0.010000971323636419 1 1 1 1 1 0.0099995733443767037 1 1 1 0.01140131980123337 1 1 1 0.0094304491597356557 1 1 1 0.0084480851231154702 0.010001259186121656 1 1 1 0.010196662547976536 1 1 0.0085128954454453242 1 1 0.009997597070402443 1 1 1 1 1 1 1 1 1 1 0.010093735048285575 1 1 0.010604942669041807 1 1 1 1 0.0099669711738901053 1 0.010004216306426523 1 1 1 1 0.0085803917858426944 1 1 1 1 1 1 1 0.0087856389245186857 1 1 1 1 0.010018840711217968 1 1 0.010117102894045233 1 1 0.011068551767920921 1 1 1 1 1 1 1 1 1 1 1 1 1 1 1 1 1 1 1 1 1 1 0.0098107237581355825 1 1 1 1 0.010898787346778883 1 1 1 1 1 1 0.010385257564621782 1 1 1 1 1 1 1 1 0.010062741039882545 1 0.0097619023883667028 1 1 1 1 1 1 1 1 1 1 1 1 1 1 1 1 1 1 1 1 1 0.011384086225991215 1 1 1 1 1 1 1 0.011541627644414259 1 1 1 0.0092660535264598633 1 1 0.0099937530493263739 0.011071792562784686 1 1 1 1 1 1 1 1 1 0.010792496961212431 1 1 1 1 1 1 1 1 1 1 1 1 1 1 1 1 1 1 1 1 1 1 1 1 1 1 1 1 1 1 0.011228015408732313 1 1 1 1 1 1 1 1 1 1 0.0099513748032676666 1 1 1 1 1 1 1 1 1 1 1 1 1 0.010264665302505045 1 1 1 1 1 1 1 1 1 1 1 1 0.0098831828840309794 1 0.0093780300403482203 1 1 1 0.0099610875218931264 0.01046993985649817 1 1 1 1 1 1 1 1 0.0097056940022700669 1 1 1 0.0094102374452788348 1 1 1 1 1 1 1 1 1 1 1 1 1 1 1 1 1 1 1 1 1 1 0.0096823154205813097 0.010580306894614609 1 1 1 1 1 0.010408641539481988 1 1 1 1 1 1 0.010172862116768971 1 1 1 1 1 1 1 1 1 1 1 1 1 1 1 1 1 1 1 1 1 1 1 1 1 1 1 1 1 1 1 1 1 0.0081991622094793604 1 1 1 1 1 1 1 1 1 1 1 1 0.0098188301953408136 1 1 0.0094285439979049906 1 1 0.010296910018384949 1 0.0070482975295899702 1 1 1 0.0092911764913104454 0.0086764823236434047 1 1 1 1 1 1 0.0099290237675088485 1 1 1 1 1 1 1 0.010004616112412962 0.0073170138923089453 1 0.0076794521259637974 1 1 1 0.010266764340024492 1 1 1 1 1 1 1 1 1 1 1 0.010100691250888808 0.010099577639282677 1 1 1 1 1 0.0102290408782909 1 1 1 1 1 1 1 1 0.0085605325690654242 0.01016095694844284 1 1 1 1 0.0099312986025263308 1 1 1 0.010541598240876743 1 1 1 1 1 1 1 0.0098611253005362366 1 1 1 1 1 1 1 1 1 1 1 0.010226451204603965 1 1 0.010011000406337312 1 1 0.010344043034484152 1 0.0085362297921457685 1 1 0.011111624195434541 1 0.0098671720497182369 1 0.010032522210282013 1 1 0.01113843037454432 1 1 0.011099925554971536 1 1 1 1 0.0092488204675236652 1 1 1 1 0.0094221492610450722 1 1 1 1 1 0.01013690706586573 1 1 1 1 1 1 1 1 0.010417849133422447 1 1 1 1 1 1 1 1 0.0092771598319600461 1 1 1 1 1 1 1 1 1 1 1 1 1 1 1 1 1 1 1 1 0.0097817803411550802 1 1 1 1 1 1 1 1 1 1 1 0.010002844129774303 1 1 1 1 1 1 1 1 1 1 1 1 1 0.0098473490923263723 1 1 1 1 1 0.0099299258242182067 1 1 0.010035520418096612 1 1 1 1 1 1 0.010196265632715598 1 1 0.010126801373673402 1 0.0098637054252159826 1 1 0.01013238123468522 0.010080266007290926 1 1 1 1 1 1 1 1 1 1 1 1 1 1 1 0.010400379110368049 1 1 1 1 1 1 1 1 1 1 1 1 1 1 1 1 1 1 1 1 0.0099552829948696131 1 1 1 1 1 1 1 1 1 1 1 1 1 1 1 1 1 0.009917373896264953 1 1 1 1 1 1 1 1 1 1 1 0.0099575700831028742 1 1 1 1 1 1 1 1 1 1 1 1 1 1 0.0099524380489201154 1 1 1 1 1 1 0.0099077210437897318 1 1 1 1 1 1 1 1 1 1 1 1 1 1 1 1 1 1 1 1 1 1 1 1 1 1 1 1 1 1 1 1 1 1 1 1 1 1 1 1 1 1 1 1 1 1 1 1 1 1 0.0098272644731498514 1 1 1 1 0.0098384543217844671 1 0.0099431788305522437 1 1 1 1 1 0.0098845529855771334 1 1 1 1 1 1 1 1 1 1 1 1 1 1 1 1 1 1 0.0099269829024742559 1 1 1 1 0.0099080617572076587 1 1 1 1 0.0097264990353393525 1 1 0.010030987501012648 0.0098444129704202254 1 0.010810545832666791 1 1 1 1 1 0.0097733602433758247 1 1 0.01001385822161217 1 1 1 1 1 1 1 1 1 1 1 1 1 1 1 1 1 1 0.0078119343696056243 1 1 1 1 1 1 1 1 1 1 1 1 1 0.0076659527074850586 1 1 0.011961910726453705 0.0088286105582050557 1 1 1 0.0094771287216067913 1 0.010306147691039037 1 0.0098768056104308714 0.009339904798248198 1 1 1 1 0.0092192876975411373 1 1 1 0.0099319889819176298 1 1 1 1 1 1 1 1 1 1 1 1 1 1 1 1 1 1 1 0.0087304951545773488 0.0083985049178452141 1 1 0.0090373325747758731 1 0.0087361742051800945 1 0.010062019036254845 1 1 1 1 1 1 1 1 1 1 1 1 1 0.010634446369830113 0.010401991342691241 1 1 1 0.010292188990995689 1 1 0.010073795376860499 1 1 1 0.010073714862052875 1 1 1 1 1 0.0096163208344592493 1 1 1 1 0.0098757660354136904 0.0099681987213817991 1 1 1 1 1 1 1 1 1 1 1 0.0099863725033675355 1 1 1 1 1 1 1 1 1 1 1 1 1 1 1 1 1 1 1 0.0093432114673239388 1 1 1 1 0.011430720779251644 1 1 1 1 0.01125270894908785 0.010088402230426872 1 1 1 1 1 1 0.010269778326298485 1 1 1 1 1 1 0.011545548690599559 1 1 1 1 0.010032692224362465 0.011028766687753041 1 1 1 1 1 1 1 1 0.009848816710915375 1 1 1 1 1 0.0095713892942861697 1 1 1 1 0.011506323112075577 1 1 1 1 1 1 1 1 1 1 1 1 1 1 1 1 1 1 1 1 1 1 1 1 1 1 1 1 1 1 1 1 1 1 1 1 0.0099970946131182088 1 1 1 0.0100094924333269 1 0.0099474165602200064 1 1 1 0.009999429122852229 1 1 1 0.010008379950202312 1 1 1 1 1 1 0.0098789079545075122 1 1 1 1 1 1 1 1 1 1 1 1 1 1 1 1 1 1 1 1 1 1 1 1 1 1 1 1 1 1 1 1 1 1 1 1 1 1 1 1 1 1 1 1 1 1 1 1 1 1 1 1 1 1 1 1 1 1 1 1 1 1 1 1 1 1 1 1 1 1 1 1 1 1 1 1 1 1 1 1 1 1 1 1 1 1 1 1 1 1 1 1 1 1 1 1 1 1 1 1 1 1 1 0.0099959888166155676 1 1 1 1 1 0.0099959753851908903 1 1 1 1 1 1 1 1 1 1 1 1 1 1 1 1 1 1 1 1 1 1 1 1 1 1 0.010587852113968271 1 1 1 0.0098614483564342589 1 1 1 1 1 0.009529613610772961 1 1 1 1 1 1 1 1 1 1 1 1 1 1 1 1 1 1 1 1 1 0.009992824729699281 1 1 1 0.0092021405994573528 1 1 0.010704186652954055 1 1 1 1 0.010573739201037331 1 1 1 1 1 1 1 1 1 1 1 1 0.010202199663654002 1 0.0097232996039814962 1 1 1 1 1 1 1 1 1 1 1 1 1 1 0.0099943149770017371 1 1 1 1 1 1 1 0.010020349263847995 1 1 0.010060317849303857 1 1 1 1 1 1 1 1 1 1 1 1 1 1 1 1 1 1 0.010857590556246603 0.010048996113304164 1 1 1 1 1 1 1 1 1 1 1 1 1 1 1 1 1 1 1 1 0.010809013560771527 1 0.010158500281729096 1 1 1 1 1 1 1 1 0.0099785291933283497 1 1 1 1 1 1 0.0099181504503608776 1 1 0.010773219192934044 1 1 1 1 1 1 0.010582958291262698 0.010034902323957474 0.010406750229983813 0.010144096798928064 1 1 0.010242124878373282 1 1 1 1 1 1 1 1 1 1 1 1 1 1 1 1 1 1 1 0.010292792540374587 1 1 1 1 1 1 1 1 1 1 1 1 1 1 1 1 1 1 1 1 1 1 1 1 1 1 0.0095581060999576899 0.0097637292979994642 0.0095596011268027602 1 1 1 0.010054395678986014 1 1 1 1 1 1 1 1 1 1 1 1 1 1 1 1 1 1 1 1 1 1 1 1 1 1 1 1 1 1 1 1 1 1 1 1 1 1 1 0.0099611384934813509 1 1 1 1 0.0099231679135477827 0.0099360783200990802 1 0.0094500832222622431 1 1 0.0091897824297802536 1 1 0.0090706009532464504 1 1 1 1 1 1 0.0093556241239299166 1 1 1 1 1 1 1 0.010009347432633533 1 0.0091685580666555494 1 0.0099117805253430939 0.0099786456517922326 1 1 1 1 1 1 1 1 1 1 1 1 0.0095582195860568972 1 1 1 1 1 1 1 1 1 1 1 0.0099548868011940135 1 1 1 1 1 1 1 1 1 1 1 1 1 1 1 1 0.011258325184441014 1 1 1 1 1 1 1 1 1 1 1 0.0099446425490551348 1 1 1 1 1 1 0.0091144190417256372 1 1 0.010380587699492265 0.0099930682970125802 1 1 0.009782281421995765 1 1 1 1 1 0.010494279391250713 1 1 1 0.0089630671876718623 1 0.0099733441424901103 1 1 1 1 0.010246098116722264 1 1 1 0.0094184598539804563 1 1 0.011366091159194742 1 1 1 1 1 1 0.0099654635900548634 1 1 1 1 1 0.0094614212862528056 1 0.009792814720425095 1 1 0.0098235932313930265 0.0099263760897876085 1 1 1 1 1 1 0.010333675585683384 1 1 1 1 1 1 1 1 1 1 1 1 1 1 1 1 0.0099613088381112266 1 1 1 1 1 0.0093317700474674602 1 1 0.0097621789756191252 1 1 1 1 0.0092082797592253404 1 1 1 1 0.008958860123694996 1 1 1 1 1 1 1 1 0.011023487149338585 1 1 1 1 1 1 0.0086816771013109584 1 1 0.0096628110418868103 1 1 1 0.0092828984935454783 1 1 1 0.010479256428007493 0.0095048263443183335 1 1 1 1 1 1 1 1 0.01115095498381413 1 1 0.010079235864877304 1 1 1 1 1 1 1 1 1 1 0.0092004536887228955 1 1 1 1 1 1 1 0.0091745256223296351 1 1 1 1 0.010837079534701987 1 1 1 0.0094541501058224477 1 1 1 1 0.0095921842171951058 0.01109037461056815 0.0098668023847108197 1 0.0093284040124936938 1 0.011656471885718682 1 1 1 0.0095875151787906711 1 0.012275873109107676 1 0.0095812732521619436 0.0091328050469693684 0.010265424664953955 0.0086631143789596653 1 1 1 1 0.0094687291399112184 1 0.0099995257332614936 1 1 1 0.0093707000081051667 1 0.0090247497675385278 1 0.010067572930061604 1 1 0.0094017079829383111 1 1 1 1 1 1 0.01001695647619589 1 1 1 1 1 1 1 1 1 1 1 1 1 1 1 1 0.0096480301550374743 1 1 1 0.010510243351718348 1 0.0088489485276516192 0.0090084145297448792 1 1 0.009998895940668771 1 1 0.009372506731957983 1 1 1 1 1 1 1 0.010358611707948443 1 1 1 1 1 1 1 0.0099846885624902768 1 1 1 0.0091063040630938695 0.0096015947948173211 1 1 1 1 1 1 1 0.010191607980485753 1 0.0090922098421492657 0.0093817764950180592 1 0.0097788893341825174 0.010637583028691019 1 0.011161823170922637 0.0094544884481164698 1 1 1 0.0091980586381998942 1 1 1 1 1 1 1 1 1 1 1 1 1 1 1 1 0.010155546545479822 1 1 0.01007934376763186 1 1 1 1 1 1 1 1 1 1 1 1 1 1 1 1 1 1 1 1 1 1 1 1 1 1 1 1 1 1 1 1 1 1 1 1 1 1 1 1 1 1 1 1 0.0089824759590605152 1 1 0.0099264755236780945 1 1 1 1 1 1 1 1 1 1 1 1 1 1 1 1 1 1 1 1 1 1 1 1 1 1 1 0.009764801397670643 0.0088642515005037965 1 0.0099815163383787982 1 1 1 1 1 1 1 1 1 1 1 1 1 1 1 1 1 1 1 1 1 1 1 1 1 1 1 0.01017978273749295 1 1 1 1 1 1 0.0098473422160410898 1 0.010557232463138066 1 1 0.0094764195842638663 1 1 1 1 1 1 1 1 1 1 1 1 1 1 1 0.009998026955632542 1 1 1 1 1 1 1 1 1 1 1 1 1 1 1 1 1 1 1 1 1 1 1 1 1 1 1 1 1 1 1 1 1 1 1 1 1 1 1 1 1 1 1 1 1 1 1 1 1 1 1 1 1 1 1 1 1 1 1 1 1 1 1 1 1 1 1 0.010678311758497707 1 1 0.01009598455601745 1 1 0.010198687332271403 0.0099605014946919437 1 0.010261091105296855 1 0.010354268163873892 1 1 1 1 1 1 0.0099894637886448444 1 1 1 1 1 1 1 1 0.0098491375258919732 1 1 1 0.010790221741409596 1 1 1 1 1 1 1 1 1 1 1 0.010736558059007948 0.010203433600453274 1 1 1 1 1 0.010294320397539905 0.0098613254280423383 1 1 1 1 1 1 1 1 1 0.0096496721381827636 1 1 1 0.009980027611003613 1 0.0093721680501587593 1 1 1 1 1 1 1 1 1 1 1 1 1 1 1 1 1 1 1 1 0.0098958943407222756 1 1 1 1 1 1 1 1 1 1 1 0.0098310072586924122 1 1 1 1 1 1 0.010835533182607793 0.010967406389183872 1 1 1 0.0099284182028170926 1 1 1 1 1 1 0.011108468640466383 1 1 1 1 1 1 1 1 1 1 1 1 1 1 1 1 1 1 1 1 1 1 1 1 1 1 1 1 0.0095398261327941797 1 1 1 1 1 1 0.0092264238386420144 1 1 1 1 1 1 1 1 1 1 1 1 1 1 1 1 1 1 1 1 1 1 1 1 1 1 1 1 1 1 1 1 1 1 1 1 1 1 1 1 1 1 1 0.0099865628592325437 1 0.0095451221280377432 1 1 1 1 0.0099566384648162795 1 1 0.0093887727856607536 1 1 1 1 1 1 1 1 1 0.0090561707288134476 1 1 0.0098715836264764694 0.0093831704562843538 0.0096540785743524926 1 1 1 0.0096177356580155436 1 1 1 1 1 1 1 1 1 1 1 1 0.011130395833969476 1 1 1 0.011027905379884247 0.0090381312896692031 0.0095015142662331735 1 1 1 0.01000525230744307 1 0.010480122945088221 1 1 1 1 1 0.009237572365042801 1 1 1 1 1 1 0.0096601806207018172 1 1 1 1 1 1 1 1 1 1 1 1 1 1 1 0.0087621869748054186 0.010073549238859168 1 1 0.010013793486903406 1 1 1 1 1 1 0.0092507185128076746 1 1 1 1 1 0.0097410653419652965 1 1 1 1 1 0.010027849004801069 1 1 1 1 0.009715656668618837 1 1 0.0099807512182431019 1 1 1 1 0.0091895940664806983 1 1 1 1 1 1 1 1 0.0092041112669594242 1 1 1 1 1 1 0.011285381595151319 1 1 1 1 1 1 0.0086228765124608565 1 1 1 1 0.009607129211633432 1 1 1 0.0099952874595621074 0.0088676460604509219 1 1 1 0.010004665265810788 1 0.0090316246390313472 0.0095838238482494897 0.010448764165346127 1 1 1 1 1 1 1 1 1 1 1 1 1 1 1 1 1 1 0.0094376797536537133 0.0090690019207347611 1 1 1 0.009395018525835212 0.0089991417138177345 1 1 1 0.0093629107427875852 1 1 1 1 1 1 1 1 1 1 1 1 1 1 1 1 1 1 1 1 1 1 1 1 1 1 1 1 1 0.009786785860776602 1 1 1 1 1 1 1 0.0099720840750997745 1 1 1 1 1 0.010733100946659944 1 0.010047918149358619 1 1 1 0.01001984734775924 1 1 0.010639120384172526 1 1 1 1 0.0099432036301233019 1 1 1 1 1 1 1 0.0093570068607943622 0.0099597189821249692 1 1 1 1 0.0098720277251035243 1 0.0094559214379322364 1 1 1 0.0096421072600505527 1 1 1 1 0.0099328701989297857 1 1 1 1 0.0098639083224306302 1 0.0096086243129355226 0.0097778405975473826 1 1 1 1 0.01028911755448572 1 0.0091488728305433985 0.009664722405578613 0.0092231184982310109 0.0099978160340485015 0.011299224220517554 1 1 1 0.0099045631582833672 1 1 0.0094558367100336521 0.0099996492645494789 1 1 0.009300483641367506 1 1 1 1 1 0.01002201967664829 0.0099980632702310265 1 1 1 0.010430267558985476 1 1 0.010189765202081666 1 1 1 1 1 1 1 1 1 1 1 1 1 1 1 1 1 1 1 1 1 1 1 1 0.0089399967818269525 1 1 1 1 1 0.0099387408020348792 1 0.010004866251041444 1 1 1 1 1 0.0085248822943172209 1 1 1 1 1 1 1 1 1 1 1 1 1 1 1 1 1 1 1 1 1 1 1 1 1 1 1 1 1 1 1 1 1 1 1 1 1 1 0.011006914962520233 1 1 0.0098741175735415736 1 1 1 0.0098942050549025266 1 0.0098595431556039864 1 0.011172288482886128 0.0082129360974099591 1 0.010001496413436386 1 0.0094822058808373549 1 1 1 0.0096149096439277649 1 1 1 1 1 1 0.0096847610804003913 1 1 1 1 1 0.0085298138175097966 1 1 0.0085213300816135047 1 1 1 1 1 0.0084085163885261206 1 0.0082830682174651078 1 1 1 0.0081651542360336293 1 1 1 1 0.010298017627862418 1 1 1 1 0.0086062428116379028 1 1 0.010040394161706009 1 0.010000748999467983 1 1 1 1 1 1 1 1 0.010016191423746552 1 1 1 1 0.010001544056214165 1 1 1 1 1 1 1 1 1 1 1 0.0099187465611074218 1 1 1 1 1 1 1 1 1 1 1 1 0.0098213356169827397 1 1 1 1 1 0.0089096909826784105 1 0.0099990239574821744 1 1 0.010319782604333208 1 1 0.0085256212994168756 0.0085395689979481364 1 1 1 1 1 1 1 1 1 1 0.0098514576548615618 1 1 1 0.0099359089221214593 1 1 1 1 1 1 0.0097783346762605507 1 1 1 1 1 1 1 1 1 1 1 1 1 1 1 1 1 1 1 1 1 1 1 1 1 1 1 1 1 1 1 1 0.0099775548096692444 1 1 1 1 1 1 1 0.011005262284081156 1 1 0.010380902320070471 1 1 1 1 1 1 1 1 1 1 1 1 1 0.011428203130689388 1 1 1 1 1 1 1 1 1 1 1 1 1 1 1 1 1 1 1 1 0.0098601107187872294 1 1 1 0.0095574591608795292 1 1 1 1 1 1 0.0094746630462927417 1 1 1 0.0095795419008784279 1 1 1 1 1 1 1 1 1 1 1 1 1 1 1 1 1 1 1 1 0.009318637779155356 1 1 1 1 0.010143992805277405 1 1 1 1 1 1 1 1 1 1 1 1 1 1 1 1 1 1 1 0.0098205135681321797 1 1 1 1 1 1 1 0.010151019555920507 1 1 1 1 1 1 1 1 1 1 1 1 1 1 1 0.010071168637158699 1 1 1 1 1 1 1 0.0099842887896704497 1 1 0.011767136356644359 0.0095090950585255442 1 1 0.010889788757077849 0.010282716595809573 1 1 1 0.010106478454357928 1 1 1 0.0093318518179431043 1 1 1 1 1 1 1 1 1 0.0095799220081196918 1 1 1 1 1 1 0.0099825166602620814 1 1 1 1 1 1 1 1 0.0099382515397807951 0.0099934429116060944 0.0097649248438205181 1 1 0.0099328951121876417 1 1 1 1 1 1 1 1 1 1 1 1 1 1 0.01121974498934168 1 1 1 1 0.0092413927091663673 0.010249807823485972 0.0097484630950768446 1 1 1 0.0099245355327329705 1 1 1 1 1 1 1 1 1 1 1 1 1 1 1 1 1 1 1 1 0.0099066544304559096 0.0099700640131562806 1 1 0.010038996756189588 0.010027621739770235 1 1 1 1 1 1 1 1 0.010011375016419351 1 1 0.0099923278674735709 1 1 1 1 1 1 1 1 1 1 1 1 1 1 1 1 1 1 1 0.010091638335619192 1 1 1 1 1 1 0.010189800079246743 1 1 1 1 1 1 1 1 1 1 1 1 1 1 1 1 1 1 1 1 1 1 1 1 1 1 1 1 1 1 1 1 1 1 1 1 1 1 1 1 1 1 1 1 1 1 1 1 1 1 0.012173512513434973 1 1 1 0.0087788801402972523 1 1 1 1 0.011085857590897523 1 0.010004318374772629 1 1 1 0.0095012321331265637 0.011209268627218319 1 1 1 1 0.0089853462281294112 1 1 0.010011057791271639 1 1 1 1 1 1 0.0086961728871981989 1 0.011061546706833673 1 1 1 1 1 1 1 1 1 1 0.010805465290095864 1 0.010327529354719915 1 1 1 1 1 1 1 1 0.010650499400773922 1 1 1 1 1 0.010763708037897415 1 1 1 0.0093684538433184798 1 1 1 1 1 0.00983411850404705 1 1 1 1 1 1 1 1 0.0099161307992910713 1 1 1 1 1 1 1 1 0.00986292550838282 1 1 0.010836850456144079 0.009199122998230766 1 1 0.009944355737075871 0.010013777536284197 1 0.0087631093459997131 1 1 1 1 1 1 1 1 1 1 1 1 1 1 1 1 1 1 1 1 1 1 1 1 1 1 1 1 1 1 1 0.0099929838294336021 1 1 1 1 1 1 1 1 1 1 1 1 1 1 1 1 0.0097689949257217662 1 1 1 1 1 1 1 1 0.0098726283955932401 1 1 1 1 1 1 1 1 1 1 1 1 0.01012410898570423 1 1 1 1 1 1 1 1 1 1 1 1 1 1 1 1 1 1 1 1 1 1 1 1 0.010104237353471681 1 0.010228228113616697 1 1 1 1 1 1 1 1 1 1 0.0099475025791898701 1 1 1 1 1 0.0099786523959499978 1 1 1 1 1 1 1 1 1 1 1 1 1 1 1 1 1 1 1 1 1 0.01022333225164488 1 1 1 1 1 1 1 1 1 1 1 1 1 0.010472150342155227 0.010129263711590267 1 1 1 0.010254619324758978 1 1 1 0.009925325284176785 1 1 0.0099840427883930577 1 1 1 1 1 1 1 0.010325074561515567 1 1 1 1 1 1 0.010862087015816434 0.0099157293998699096 1 0.0098450312041414301 1 1 1 1 1 1 1 1 0.010563904636585292 1 1 1 1 1 1 1 1 1 1 1 1 1 1 0.0099078964725618467 1 1 1 1 0.010344604124572599 1 1 1 1 1 1 1 1 1 1 1 1 1 1 1 1 1 1 1 0.010041988639791029 1 1 1 1 1 0.010279344256123098 1 1 1 1 1 1 0.0095065003311597257 1 1 1 1 1 1 1 1 1 0.010716547269724146 1 1 1 0.0097365801523695006 0.011858320321426202 1 1 1 1 1 0.0099882545803667965 1 1 1 1 1 1 1 1 1 1 1 1 1 1 1 1 1 1 1 1 1 1 1 1 0.010006077759238903 0.009990595388947263 1 1 1 0.010060402380855954 1 1 1 1 1 1 1 1 1 1 1 1 1 1 0.0099349747593620863 1 1 1 1 1 0.0099049415871143021 1 1 1 0.0099397174490467623 1 1 1 1 1 1 1 1 1 1 1 1 1 1 1 1 1 1 1 1 0.009912008983701346 1 1 1 1 1 1 1 1 1 1 0.0092169056708952882 1 1 1 1 1 1 1 1 1 1 1 1 1 1 1 1 1 0.010044520747371896 1 0.0099526234090679833 1 1 1 1 1 1 1 1 1 0.0097208202621276146 1 1 1 1 1 1 1 1 1 1 1 1 1 1 1 1 1 1 1 1 1 1 1 1 1 1 1 1 1 1 1 1 1 0.010323872979774154 1 1 1 1 1 1 1 1 1 1 0.010698116087961049 1 1 1 1 1 0.010406863890973263 1 1 1 1 1 0.010515499985201902 1 1 1 1 0.011654059363377364 1 1 1 1 1 1 1 1 1 1 1 1 1 1 1 0.0099848202672695036 1 1 1 1 1 1 1 0.0099872996535884263 1 1 1 1 0.0098936219920911332 1 1 1 1 1 1 1 1 0.0099974819206597454 1 1 1 1 1 1 1 1 1 1 0.0096615119242064867 1 1 1 1 1 1 1 1 0.010974289964731865 1 1 1 0.0099568196690210092 0.0094185917273945426 1 1 0.011717408286272487 1 1 1 1 1 1 1 1 1 1 0.011939037718174846 1 1 1 0.011954555485472302 1 1 1 1 1 1 1 1 1 1 1 0.0099485321167097802 1 1 1 1 1 1 1 1 1 1 1 1 1 1 1 1 1 1 1 0.010163537868281555 1 1 1 1 1 1 1 1 1 1 1 1 1 1 1 1 1 0.010318419441761418 1 1 1 1 0.010205761388140713 1 1 1 1 0.010369299256422267 1 1 1 1 1 1 1 1 1 1 1 0.0097802705845811064 1 1 1 0.010101465578880383 1 1 1 1 1 1 1 0.010101563984426354 1 1 1 1 1 1 1 1 1 1 0.010012354471275766 1 0.0096327258353860381 1 1 1 1 0.0094210884088802849 0.010172635100252769 1 1 1 1 1 1 1 1 1 1 1 1 1 1 1 1 1 1 1 1 1 0.0098540507853073864 1 1 1 1 1 0.010008273090861185 1 1 1 1 1 0.010123580890834377 1 1 1 0.010095441061923463 1 1 1 1 1 1 1 1 1 1 1 1 1 1 1 1 0.010137594931864672 1 1 1 1 1 1 1 1 1 0.010918336713797367 1 0.011128542539683591 1 1 1 0.01081300876551851 0.0096933351101592125 1 0.0087966969552959809 1 1 1 1 1 1 1 1 0.010644628665363825 1 1 1 1 0.0081873073818415631 1 1 1 0.0087816977857724295 1 1 0.010518640590398859 1 1 0.010677240375326063 1 1 1 1 1 1 0.0080607903407682834 1 1 1 1 0.010572994978329885 0.0085161739583690492 1 1 1 1 1 1 1 1 1 0.0086177066245880229 1 1 1 1 0.010010771783299396 0.010298269767197174 1 1 1 1 0.0085738302555780719 1 1 0.010409084137081552 1 0.008210253951584371 1 1 1 1 0.010300870167694983 1 1 1 1 0.0083695847909067179 1 1 1 1 1 1 1 1 1 1 1 1 1 1 1 1 1 1 1 1 0.0098920530267567162 1 1 1 1 1 1 1 0.009241955225610738 1 1 1 1 0.0089286982123720163 1 1 1 1 1 1 1 1 1 1 1 1 1 1 1 1 1 1 1 1 1 1 1 1 1 1 1 1 1 1 1 1 1 1 1 1 1 1 1 1 1 1 1 1 1 1 1 1 1 1 1 1 1 1 1 1 1 0.012397939552102642 1 1 1 1 0.010159683749769968 1 1 1 1 1 0.0084630296936513312 1 1 1 1 1 1 1 1 1 1 1 1 0.0086769686367273568 1 1 1 1 0.012753161254053227 1 1 0.0125719933668203 1 1 1 1 0.0080659049563672845 1 1 1 1 1 0.010010557193903607 1 1 1 1 0.010013606780135171 1 0.010490610716017734 1 1 1 0.0091725104938010175 1 1 1 1 0.010001917894743145 1 0.0099968460839157287 1 1 0.0079158806823125209 0.010035912354320047 1 1 0.010074351630400637 1 1 1 1 1 1 1 0.010352548142302449 1 1 1 0.0099086004595499138 1 0.010607081015588436 1 1 1 1 1 1 0.011329547342854213 1 0.0099835298704707143 0.012206483694820813 1 1 1 1 1 1 1 1 1 1 1 1 0.010114534669484667 1 1 1 1 0.010038439276080585 1 1 1 1 1 1 1 1 1 1 0.010220876758050562 1 1 1 1 1 1 0.010505613565129152 1 1 1 1 1 1 1 1 1 1 0.0097115654518354806 1 1 0.0098080231183831548 1 1 1 1 1 1 1 1 0.010593420820806053 1 1 1 1 0.010020350498840385 1 1 1 0.010011563765587731 1 0.010621971295445534 1 1 1 0.010740120586404814 0.010000387348629987 1 1 0.01003474867876499 1 1 0.010045095398513594 1 1 1 1 0.0099999261823859823 0.0098502093819323438 1 0.010060918887029677 1 1 1 1 0.010200238011332735 1 1 1 1 0.0099999588993723819 1 1 1 1 0.010088137394034564 1 1 1 1 0.010000530448090857 1 1 1 1 0.009945051769324335 0.010099009514478256 0.010034345835196063 1 0.0099999904532606758 1 0.010112299471043817 1 1 0.010122731136094885 1 1 1 1 1 1 0.010041138982229404 1 1 1 1 1 1 0.010680294752324692 1 1 1 1 1 1 1 1 1 1 1 1 1 1 1 0.01081631489028069 1 1 1 0.010708575931416624 1 1 1 1 1 0.010762632751027224 1 1 0.0089794039781958337 1 1 1 1 1 1 1 0.0088429806091346666 1 1 1 1 1 1 1 1 1 1 1 1 1 1 1 1 0.010050123365674601 1 1 1 1 1 0.010142321536066031 1 1 1 1 1 1 1 1 1 1 1 1 0.0091610703134669801 1 1 1 0.010091702115624549 1 1 0.0099357141131388247 1 0.010107111317522104 1 1 1 1 0.0099346810697608749 0.010011184039173287 0.01007968431098894 1 1 1 1 1 1 1 1 1 1 1 1 1 1 1 1 0.010023631535954173 1 1 1 1 1 1 1 1 1 1 1 1 1 1 1 1 1 1 1 1 1 1 1 0.010000314345669389 1 0.0099836691514715008 1 0.0099157078935611376 1 1 1 1 1 1 1 0.010034487316110539 1 1 1 1 0.009983840132031338 1 0.0098389339754327235 1 1 1 1 1 1 1 1 1 1 1 1 1 1 0.0096243427802529362 1 1 0.0094667290197998771 1 1 1 1 1 1 1 1 1 1 1 1 1 1 1 1 1 1 0.0096375321465802469 1 1 1 1 1 0.0097217109659019901 1 1 0.0099851784810134105 1 1 0.0099478731868463573 1 1 1 1 1 1 1 1 1 1 1 1 1 0.010545602108672867 1 1 1 1 1 1 1 1 1 1 1 1 1 1 1 1 1 1 1 1 1 1 1 1 1 1 1 1 1 1 1 1 1 1 1 1 1 1 1 1 1 1 1 1 1 1 1 1 1 1 1 0.0098197064921761758 1 1 1 1 1 1 1 1 1 1 1 1 1 1 1 1 1 1 1 1 1 1 1 1 1 1 1 1 1 1 1 1 1 1 1 1 1 1 1 1 1 0.010675060474080306 1 1 0.0083280211209944641 1 1 0.010075292269832319 1 1 1 1 1 0.0099630946263003558 1 1 1 1 0.01017305038406182 1 0.010130771147483147 1 1 1 1 1 0.010044530312232767 1 1 1 1 1 1 1 1 1 1 1 1 1 1 1 1 1 1 1 1 1 1 1 1 1 1 1 1 1 1 1 1 1 0.010844882978278262 1 0.010396813910864791 1 1 0.010622862232373678 1 1 1 1 1 0.0099858571476647753 1 1 1 1 1 1 0.010043188581909251 1 1 1 1 1 1 1 1 1 1 1 0.010105446913284874 1 0.010060301753269984 1 1 1 0.010062258331375622 1 1 1 1 0.01013882914506155 1 1 0.010129044664542845 1 1 1 1 1 1 1 0.010380867654352205 1 1 1 0.010506611034575519 1 1 1 1 1 0.010050517272751277 1 1 1 1 1 1 1 1 1 1 1 1 1 1 1 1 1 1 1 1 1 1 1 1 1 1 1 1 1 1 1 0.0097907923365157332 1 1 0.010046478045669074 1 1 1 1 0.010375514502394195 1 1 0.0097383671507891602 0.010336514359905581 1 1 1 0.0094288245000361329 1 1 1 1 1 1 0.0084912127802619589 1 1 1 1 1 1 1 1 1 1 1 1 1 1 1 1 1 1 1 1 1 1 1 1 1 1 0.008071615601113559 0.01197885034936735 1 1 1 1 1 0.0090601583780443151 1 1 0.01103268735463717 1 1 1 1 1 0.011479486013144441 1 1 1 0.011673061114913546 1 1 1 1 1 1 1 1 1 1 1 1 1 1 1 0.010199005746201294 1 0.011899427104212086 1 1 1 1 1 1 0.011361577853529902 1 1 0.0099512140309750106 1 1 1 1 1 1 1 1 1 1 1 1 1 1 1 1 1 1 1 1 1 1 1 1 1 1 0.011070213236901869 1 1 0.0097188151883107077 1 1 1 1 0.009912851423585025 1 1 1 1 1 1 1 1 1 1 1 1 1 1 1 1 1 1 1 1 1 1 1 1 1 1 1 1 1 1 1 1 1 1 1 1 1 1 1 1 0.009339343613445952 1 1 1 1 0.010185142183095486 1 1 0.01057309820431219 1 0.0091888780810273855 1 1 1 1 1 1 1 0.0098934055582534704 1 1 1 1 1 1 1 1 1 0.010009191622614998 1 1 1 1 1 1 1 0.0097149402443545314 1 1 1 1 0.0097138113035345804 1 1 1 1 1 1 1 1 1 1 0.0097972287646911106 1 1 1 1 1 1 1 1 1 1 1 0.01009813025665692 1 0.0098848021972366383 1 1 1 1 1 1 1 1 1 1 1 1 1 1 1 1 1 1 1 1 1 1 1 1 0.010037039213490563 1 1 1 1 1 1 0.010318276080590098 1 0.0096649540821040492 1 1 1 0.0096507744078796389 1 1 1 0.0095485939838595643 1 1 1 1 1 1 1 1 0.010153199483847068 1 1 1 0.010112803854879433 1 1 0.0099922701450032656 1 1 1 1 1 1 1 1 1 1 1 1 0.010077506426606927 1 1 1 0.0098823424557620589 1 1 1 1 1 1 1 0.009527068240081692 1 1 1 1 1 1 1 1 1 1 0.010080489676649752 1 1 1 1 1 0.010282880952198738 0.010000603779250803 1 0.010533375041157037 1 1 1 0.0099807518399422541 1 1 1 1 1 1 1 1 1 0.010726482367055343 1 1 1 1 1 0.010024395031053436 1 1 1 1 1 1 1 1 0.0093712499247688465 1 1 1 0.0094712125013199731 1 1 0.009903044235303745 1 1 1 0.010024707124141734 1 1 1 1 1 1 1 1 1 1 1 1 1 1 1 1 1 1 1 0.0099673380407065502 1 1 0.010117864047272343 1 1 1 1 1 1 1 1 1 1 1 1 1 1 1 1 1 1 0.0094702751146209362 1 1 1 1 0.011230096788357491 1 1 1 1 1 1 1 1 1 1 0.010023459822631482 1 1 1 1 1 1 0.011450901803503874 1 1 1 1 1 1 1 1 1 1 1 1 1 1 1 1 1 1 1 1 1 0.0096812333490897146 1 1 1 1 1 1 0.010784381830949753 1 1 0.010009287904647834 1 0.010201100082138745 1 1 0.0096999294773808739 1 0.0099825075845618241 1 1 1 0.010417290127158949 1 1 0.0098300371260812217 0.0098235944262911046 1 1 1 0.010165778935195146 1 1 1 0.0099608423528720139 1 1 0.0099047024017341959 1 1 1 0.0099244910951328588 1 1 1 1 1 1 1 1 1 1 1 1 1 1 1 1 1 1 1 1 1 1 1 1 0.0098582381908093701 1 0.0094798644293629941 1 1 1 0.0096679684203122059 1 1 0.009610340052936631 1 1 1 1 1 1 1 1 1 1 1 0.00998333290753705 1 1 1 1 0.0092444874288115375 0.0098649072090750672 1 1 0.010085362646233723 1 1 1 1 0.0098981539016152736 1 1 1 1 1 1 1 0.009981229267102501 1 1 0.008901987345677655 1 1 1 0.0095947923665278025 1 1 1 0.0097235516296069278 1 1 1 1 1 1 1 1 1 1 1 1 1 1 1 1 1 1 1 0.0094937374726868605 1 1 1 1 0.010698636445554606 1 1 0.010000124659552545 1 1 1 0.010446912773853716 1 1 0.0099679768147319259 1 1 0.0097783865884091617 1 1 0.0098265764644291306 1 1 1 1 1 1 1 1 1 1 1 1 1 1 1 1 1 0.010026923394978798 0.010127427111141158 0.0098760235871885524 1 0.0099125316189764365 0.010774036079501077 1 1 1 0.0096260366736783745 1 1 1 1 1 0.0099984444416072338 1 0.010487042278159237 1 1 1 1 0.010232523863160403 1 1 1 1 1 1 1 1 1 1 1 1 1 1 1 1 1 1 0.010111808607507995 1 1 1 1 0.0099878488241515462 1 1 0.0099878690321574676 1 1 1 1 1 1 1 0.0099248606532699995 0.0096079599527087341 1 1 1 0.0090531850284996732 1 0.010496551013016903 1 1 1 1 1 1 1 1 1 1 0.0094663424394070637 1 1 1 1 1 1 1 1 1 1 0.010021149586913865 1 1 1 1 0.0099121695841287716 1 1 1 1 0.0098362803433364281 1 1 1 1 0.0098532191726583337 1 1 1 0.010979441344341062 1 1 1 0.010015588921015733 0.01036055490189023 1 0.0088738147070269308 1 0.010753783939457143 1 1 1 1 1 1 1 1 0.0081815771770495024 1 1 0.0079276649398873546 1 1 1 0.012013536547454058 1 1 1 0.011710922100340096 1 1 1 1 1 1 1 1 1 1 1 0.0094199694759314265 1 1 1 0.0090379784883679835 1 1 1 0.0098113811549803004 1 1 1 0.009516213379006877 1 1 1 1 1 1 1 1 1 1 1 0.0099834427510090418 1 1 1 1 0.009979164163635262 1 1 1 1 1 1 1 0.0099957360807945636 1 1 1 1 1 1 0.0099069296700514432 1 1 1 1 1 1 1 1 1 1 0.010308791339150757 1 1 0.010268246233300863 1 1 1 1 1 1 0.010752135149345123 1 0.0097708036884394979 1 1 1 1 0.0099846269645689802 1 1 1 1 1 0.0098670573515237184 1 1 1 1 1 1 1 1 1 1 1 1 1 1 0.010106385475535093 1 1 1 1 1 1 1 1 1 1 1 1 1 1 1 1 1 1 1 1 1 1 1 1 1 0.0099735231511572583 0.01070952314613691 1 1 1 1 0.010303709380551666 0.010487974517433146 1 1 1 1 0.0099899966012033121 1 1 1 1 1 1 1 1 1 1 1 1 1 1 1 0.011211513214349864 1 1 0.010002275289000717 1 1 1 1 1 1 1 1 1 1 1 1 1 1 1 1 1 1 1 0.011159744971125846 1 1 1 1 1 1 1 1 1 1 0.0099729501964704002 1 1 1 1 1 1 1 0.010723314798816296 1 1 1 1 1 1 0.010045803312296889 1 1 1 0.010000869830639731 1 1 1 1 1 1 1 1 0.010092107353918923 1 1 1 1 1 1 1 1 1 1 1 1 1 1 1 1 1 1 1 1 1 1 1 1 1 1 1 0.010141706250044747 1 1 1 1 1 1 1 0.010158763571773822 1 1 1 1 0.010203586917786306 1 1 1 1 1 1 1 1 0.010047284007906443 1 1 0.0084347820497012432 1 1 1 0.011174623485870878 1 1 1 0.0095015993193139064 1 1 1 0.010112637355155458 1 1 1 1 1 1 1 1 1 1 1 1 1 1 1 1 1 1 1 1 1 1 1 1 1 1 1 1 1 1 1 1 1 1 1 0.0087666589943872428 1 1 1 0.0097672085108058797 1 1 0.0098040959627334438 1 1 1 1 0.0095330535199431542 1 0.0096068189518412513 1 0.010410970166125327 1 1 1 1 1 1 0.011380551453049921 1 1 1 0.0092339088826823811 0.011743182387202594 1 0.0097948316779607192 1 0.0096321941602233035 1 0.011352975834452729 1 0.010108424700290837 0.010150673742262093 1 1 1 0.0081681653349727889 0.0098959838821973071 1 0.0099999095279662102 1 0.0105464462029769 1 0.010513203935589561 0.0088651884482991404 1 1 1 1 1 1 1 1 1 1 1 1 1 1 0.0081089857822289474 0.0093694634238117667 1 0.009789202936610444 1 1 1 1 1 1 1 0.0081348366155675322 1 1 1 1 1 1 1 1 1 1 1 1 1 1 1 1 1 1 1 1 1 1 1 1 1 1 1 1 1 1 0.0094136255813724659 1 1 0.010004249825451084 1 1 1 0.010428561074969093 0.0096104142695394995 1 1 1 1 1 1 1 1 1 1 1 1 1 1 1 0.0099695858973344979 1 1 1 1 1 1 1 1 1 1 1 1 1 1 1 0.0099338253986844538 1 0.011173802686783026 1 1 0.010656099207522016 1 1 1 0.0096783204997739573 1 1 1 1 1 1 1 1 1 1 1 0.0095908538018764956 1 1 1 1 0.0097321592555120583 1 1 1 1 1 0.0099031219014306324 1 1 1 1 1 1 1 1 1 1 0.0099080357191186266 1 1 0.0099615191826807874 1 1 1 1 1 1 0.009855538021644435 1 1 1 1 0.01009484282081835 1 1 1 0.0085201666486140002 1 1 1 0.010060518142432633 1 1 0.0082637389887190976 1 1 1 0.0096086208528125064 1 1 1 1 1 0.008983934934630039 1 1 1 1 1 1 1 1 1 1 1 1 1 1 1 0.009944975119701438 1 1 0.0098969598435283516 1 0.0098440676581819844 0.010097636489512059 1 1 1 0.0095595907633165365 0.010128440821063268 1 1 1 0.0099983720624664645 1 1 1 1 1 0.0098747255672972621 0.01023993884095179 1 0.01049135350011304 0.0099155392504853695 1 1 1 1 1 1 0.010039057325857113 1 1 1 1 1 1 1 1 0.010019289388947847 1 1 1 1 0.0089454492504259762 1 1 1 1 1 0.0092086636547914526 1 0.010130554428263893 1 1 1 0.010098060296233696 1 1 1 1 1 1 1 1 0.010173445218630452 1 1 1 1 1 1 1 1 0.009600041923003658 1 1 1 1 1 1 1 1 1 1 1 1 1 1 1 1 1 1 1 1 1 1 1 1 1 1 1 1 1 1 1 1 1 1 1 1 1 1 1 1 1 1 1 1 1 1 1 1 1 1 1 1 1 1 1 1 1 1 1 1 1 1 1 1 1 1 1 1 1 1 1 1 1 1 1 1 1 1 1 1 1 1 1 1 1 1 1 1 1 1 1 1 1 1 1 1 1 1 1 1 1 1 1 1 1 1 1 1 1 1 1 1 1 1 1 1 1 1 0.0096823925767492748 1 1 1 1 1 0.010808759976255041 0.0099402529755878884 1 1 1 1 1 1 1 0.010024019650280311 0.01029880194422632 1 1 1 1 1 1 0.010443085607049266 1 1 0.010465582300276173 1 1 1 1 1 1 1 1 1 1 1 1 1 0.011089260508913909 1 1 1 1 0.010507086713652433 0.010339237214454419 1 1 1 1 1 1 0.011036173212132856 1 0.010076301968053456 1 1 1 1 1 1 0.010029613796087758 1 1 1 1 1 0.010568755797124085 1 1 1 1 0.010066756097363043 1 1 1 1 1 1 1 1 1 1 1 1 1 1 1 1 1 1 1 1 1 1 0.010080206134546332 1 1 1 1 1 1 1 1 1 1 1 1 1 1 1 1 1 1 1 1 1 1 1 1 1 1 1 1 1 1 1 1 1 1 1 1 1 1 1 1 1 1 1 1 1 1 1 1 1 1 1 1 1 1 1 1 0.010042935742118671 1 1 1 0.011060436086682449 1 1 1 1 1 0.0099595222622697356 1 1 1 1 1 0.0099250981421571266 1 0.010036133008278538 1 1 1 1 1 1 0.0099494362133620388 1 1 1 1 1 1 1 1 1 1 0.010124484441541903 1 1 1 1 1 1 1 1 1 1 1 1 1 1 1 1 1 0.010220972064745353 1 1 1 1 1 1 1 0.0098352168097935577 1 1 1 1 1 1 1 0.0091920917252504408 1 1 0.00969873285600132 1 1 1 1 1 1 0.0097689435860849622 1 1 1 1 1 1 1 1 1 1 1 1 1 1 1 1 1 1 1 1 1 1 1 1 1 1 1 1 1 1 1 1 1 1 1 1 1 1 1 1 1 1 1 0.010035696469584878 1 1 1 1 1 1 0.010056035383938077 1 1 1 1 0.010020338914353201 1 1 1 1 1 0.0099968097056520201 1 1 1 1 1 1 1 0.010004138003019702 1 1 1 1 1 0.008433800123000889 1 1 1 1 1 1 1 1 1 1 1 1 1 1 1 1 1 1 1 1 1 0.0098132019235170169 1 1 1 0.0097509031980134494 1 1 1 1 1 0.008970600463399165 1 1 1 1 1 1 1 1 1 1 1 0.01005447926108935 1 1 1 0.010144696417360457 1 0.009493874028393013 1 1 1 0.010257542957646609 1 1 0.0089667075972246889 1 1 1 1 1 1 1 1 1 1 1 1 1 1 1 0.010077633042175354 1 1 1 1 1 0.0097606693252516967 1 0.0099165004559106096 1 1 0.010115480020559358 1 1 1 1 1 1 1 1 1 1 1 0.010587121476458745 1 1 1 1 1 1 1 1 1 1 1 1 1 1 1 1 1 1 1 1 1 1 1 1 1 1 1 1 1 1 1 1 1 1 1 1 0.0095864194074913728 1 1 1 1 1 1 1 1 1 1 0.010253667885639656 1 1 1 1 1 1 1 1 1 1 1 1 1 1 1 1 1 0.0099618843344099189 1 1 1 1 1 1 1 1 1 1 1 1 1 1 1 1 1 0.010219029067603512 1 1 1 1 1 1 0.008376806929259609 1 1 1 1 1 0.0095195548988181843 1 1 1 1 1 1 1 1 1 1 1 1 1 0.010866337656944228 1 1 1 0.010587620138846253 1 1 1 1 1 0.010294581847986737 1 0.010646838826410654 1 1 1 1 1 1 1 1 1 1 1 1 1 0.010116454870273957 1 1 1 1 1 1 1 1 1 1 1 1 0.010147977945127206 1 0.010367944131320202 1 1 1 1 1 1 1 1 1 1 1 1 1 1 1 1 1 1 1 1 1 1 1 1 1 1 1 1 1 1 1 1 1 1 0.010171251202336171 1 1 1 1 1 0.010215786595631307 1 1 1 1 1 0.010055051047901433 1 1 1 1 1 1 1 1 1 0.010134163715163349 1 1 1 1 1 1 1 1 1 1 1 1 0.010250363869598085 1 1 1 1 1 1 1 1 1 0.010064546770579743 1 1 1 1 1 1 1 1 1 1 1 1 1 1 1 1 1 1 1 1 1 1 1 1 1 1 1 1 1 1 1 1 1 1 1 1 1 1 1 1 1 1 1 1 1 1 1 1 1 1 1 1 1 1 1 1 1 1 1 1 1 1 1 1 1 1 1 1 1 1 1 1 1 1 1 1 1 1 1 1 1 1 1 1 1 1 1 1 1 1 1 1 1 1 1 1 1 1 1 1 1 0.0099809836397055512 1 1 1 1 1 1 1 1 1 1 1 1 1 1 0.011579740881743947 1 0.01001740339872643 1 1 1 1 1 1 1 1 1 1 1 1 1 1 1 1 0.01005968266518965 1 1 1 1 1 1 1 1 1 1 1 1 1 1 1 0.010937217950443428 1 1 1 1 1 1 0.010371472037694278 1 1 1 1 1 1 1 1 1 1 1 1 0.0097968835107021604 1 1 1 1 1 1 1 0.011104072664407109 1 1 1 1 0.0083611663570074164 1 1 0.010006504868751232 1 0.011019374734700011 1 1 1 1 0.0080443563845046008 1 1 1 1 1 0.010747789038922458 1 1 1 1 1 1 1 1 1 1 1 1 1 1 1 1 1 1 1 1 0.01028876207907845 1 1 1 1 1 1 0.010424823265848825 1 1 1 1 0.010204857079655832 1 1 1 1 1 1 1 
</DataArray>
</CellData>
</Piece>
</UnstructuredGrid>
</VTKFile>
